64 
Energy: 2.9674857915891120e+00 
Mg	  0.000000000000 	  0.000000000000 	  0.000000000000 	
Mg	  1.000000000000 	  0.000000000000 	  2.980000000000 	
Mg	  0.000000000000 	  3.980000000000 	  0.000000000000 	
Mg	  1.000000000000 	  3.980000000000 	  2.980000000000 	
Mg	  3.980000000000 	  0.000000000000 	  0.000000000000 	
Mg	  4.980000000000 	  0.000000000000 	  2.980000000000 	
Mg	  3.980000000000 	  3.980000000000 	  0.000000000000 	
Mg	  4.980000000000 	  3.980000000000 	  2.980000000000 	
Mg	  1.699957903592 	  1.796638602395 	  0.000000000000 	
Mg	  2.699957903592 	  1.796638602395 	  2.980000000000 	
Mg	  1.699957903592 	  5.776638602395 	  0.000000000000 	
Mg	  2.699957903592 	  5.776638602395 	  2.980000000000 	
Mg	  5.679957903592 	  1.796638602395 	  0.000000000000 	
Mg	  6.679957903592 	  1.796638602395 	  2.980000000000 	
Mg	  5.679957903592 	  5.776638602395 	  0.000000000000 	
Mg	  6.679957903592 	  5.776638602395 	  2.980000000000 	
Mg	  2.473403494013 	  0.000000000000 	  1.506596505987 	
Mg	  3.473403494013 	  0.000000000000 	  4.486596505987 	
Mg	  2.473403494013 	  3.980000000000 	  1.506596505987 	
Mg	  3.473403494013 	  3.980000000000 	  4.486596505987 	
Mg	  6.453403494013 	  0.000000000000 	  1.506596505987 	
Mg	  7.453403494013 	  0.000000000000 	  4.486596505987 	
Mg	  6.453403494013 	  3.980000000000 	  1.506596505987 	
Mg	  7.453403494013 	  3.980000000000 	  4.486596505987 	
Mg	  0.483403494013 	  1.990000000000 	  1.506596505987 	
Mg	  1.483403494013 	  1.990000000000 	  4.486596505987 	
Mg	  0.483403494013 	  5.970000000000 	  1.506596505987 	
Mg	  1.483403494013 	  5.970000000000 	  4.486596505987 	
Mg	  4.463403494013 	  1.990000000000 	  1.506596505987 	
Mg	  5.463403494013 	  1.990000000000 	  4.486596505987 	
Mg	  4.463403494013 	  5.970000000000 	  1.506596505987 	
Mg	  5.463403494013 	  5.970000000000 	  4.486596505987 	
O	  1.990000000000 	  0.000000000000 	  0.000000000000 	
O	  2.990000000000 	  0.000000000000 	  2.980000000000 	
O	  1.990000000000 	  3.980000000000 	  0.000000000000 	
O	  2.990000000000 	  3.980000000000 	  2.980000000000 	
O	  5.970000000000 	  0.000000000000 	  0.000000000000 	
O	  6.970000000000 	  0.000000000000 	  2.980000000000 	
O	  5.970000000000 	  3.980000000000 	  0.000000000000 	
O	  6.970000000000 	  3.980000000000 	  2.980000000000 	
O	  0.000000000000 	  1.990000000000 	  0.000000000000 	
O	  1.000000000000 	  1.990000000000 	  2.980000000000 	
O	  0.000000000000 	  5.970000000000 	  0.000000000000 	
O	  1.000000000000 	  5.970000000000 	  2.980000000000 	
O	  3.980000000000 	  1.990000000000 	  0.000000000000 	
O	  4.980000000000 	  1.990000000000 	  2.980000000000 	
O	  3.980000000000 	  5.970000000000 	  0.000000000000 	
O	  4.980000000000 	  5.970000000000 	  2.980000000000 	
O	  0.483403494013 	  0.000000000000 	  1.506596505987 	
O	  1.483403494013 	  0.000000000000 	  4.486596505987 	
O	  0.483403494013 	  3.980000000000 	  1.506596505987 	
O	  1.483403494013 	  3.980000000000 	  4.486596505987 	
O	  4.463403494013 	  0.000000000000 	  1.506596505987 	
O	  5.463403494013 	  0.000000000000 	  4.486596505987 	
O	  4.463403494013 	  3.980000000000 	  1.506596505987 	
O	  5.463403494013 	  3.980000000000 	  4.486596505987 	
O	  2.860126289223 	  1.354807808867 	  1.506596505987 	
O	  3.860126289223 	  1.354807808867 	  4.486596505987 	
O	  2.860126289223 	  5.334807808867 	  1.506596505987 	
O	  3.860126289223 	  5.334807808867 	  4.486596505987 	
O	  6.840126289223 	  1.354807808867 	  1.506596505987 	
O	  7.840126289223 	  1.354807808867 	  4.486596505987 	
O	  6.840126289223 	  5.334807808867 	  1.506596505987 	
O	  7.840126289223 	  5.334807808867 	  4.486596505987 	
64 
Energy: 2.9123240975580229e+00 
Mg	  0.000000000000 	  0.000000000000 	  0.000000000000 	
Mg	  1.000000000000 	  0.000000000000 	  2.980000000000 	
Mg	  0.000000000000 	  3.980000000000 	  0.000000000000 	
Mg	  1.000000000000 	  3.980000000000 	  2.980000000000 	
Mg	  3.980000000000 	  0.000000000000 	  0.000000000000 	
Mg	  4.980000000000 	  0.000000000000 	  2.980000000000 	
Mg	  3.980000000000 	  3.980000000000 	  0.000000000000 	
Mg	  4.980000000000 	  3.980000000000 	  2.980000000000 	
Mg	  1.726408233004 	  1.817094112045 	  0.000000000000 	
Mg	  2.726408233004 	  1.817094112045 	  2.980000000000 	
Mg	  1.726408233004 	  5.797094112045 	  0.000000000000 	
Mg	  2.726408233004 	  5.797094112045 	  2.980000000000 	
Mg	  5.706408233004 	  1.817094112045 	  0.000000000000 	
Mg	  6.706408233004 	  1.817094112045 	  2.980000000000 	
Mg	  5.706408233004 	  5.797094112045 	  0.000000000000 	
Mg	  6.706408233004 	  5.797094112045 	  2.980000000000 	
Mg	  2.451895265332 	  0.000000000000 	  1.545036474922 	
Mg	  3.451895265332 	  0.000000000000 	  4.525036474922 	
Mg	  2.451895265332 	  3.980000000000 	  1.545036474922 	
Mg	  3.451895265332 	  3.980000000000 	  4.525036474922 	
Mg	  6.431895265332 	  0.000000000000 	  1.545036474922 	
Mg	  7.431895265332 	  0.000000000000 	  4.525036474922 	
Mg	  6.431895265332 	  3.980000000000 	  1.545036474922 	
Mg	  7.431895265332 	  3.980000000000 	  4.525036474922 	
Mg	  0.453429395205 	  1.998465870127 	  1.545036474922 	
Mg	  1.453429395205 	  1.998465870127 	  4.525036474922 	
Mg	  0.453429395205 	  5.978465870127 	  1.545036474922 	
Mg	  1.453429395205 	  5.978465870127 	  4.525036474922 	
Mg	  4.433429395205 	  1.998465870127 	  1.545036474922 	
Mg	  5.433429395205 	  1.998465870127 	  4.525036474922 	
Mg	  4.433429395205 	  5.978465870127 	  1.545036474922 	
Mg	  5.433429395205 	  5.978465870127 	  4.525036474922 	
O	  1.998465870127 	  0.000000000000 	  0.000000000000 	
O	  2.998465870127 	  0.000000000000 	  2.980000000000 	
O	  1.998465870127 	  3.980000000000 	  0.000000000000 	
O	  2.998465870127 	  3.980000000000 	  2.980000000000 	
O	  5.978465870127 	  0.000000000000 	  0.000000000000 	
O	  6.978465870127 	  0.000000000000 	  2.980000000000 	
O	  5.978465870127 	  3.980000000000 	  0.000000000000 	
O	  6.978465870127 	  3.980000000000 	  2.980000000000 	
O	  0.000000000000 	  1.998465870127 	  0.000000000000 	
O	  1.000000000000 	  1.998465870127 	  2.980000000000 	
O	  0.000000000000 	  5.978465870127 	  0.000000000000 	
O	  1.000000000000 	  5.978465870127 	  2.980000000000 	
O	  3.980000000000 	  1.998465870127 	  0.000000000000 	
O	  4.980000000000 	  1.998465870127 	  2.980000000000 	
O	  3.980000000000 	  5.978465870127 	  0.000000000000 	
O	  4.980000000000 	  5.978465870127 	  2.980000000000 	
O	  0.453429395205 	  0.000000000000 	  1.545036474922 	
O	  1.453429395205 	  0.000000000000 	  4.525036474922 	
O	  0.453429395205 	  3.980000000000 	  1.545036474922 	
O	  1.453429395205 	  3.980000000000 	  4.525036474922 	
O	  4.433429395205 	  0.000000000000 	  1.545036474922 	
O	  5.433429395205 	  0.000000000000 	  4.525036474922 	
O	  4.433429395205 	  3.980000000000 	  1.545036474922 	
O	  5.433429395205 	  3.980000000000 	  4.525036474922 	
O	  2.814638781496 	  1.402659644828 	  1.545036474922 	
O	  3.814638781496 	  1.402659644828 	  4.525036474922 	
O	  2.814638781496 	  5.382659644828 	  1.545036474922 	
O	  3.814638781496 	  5.382659644828 	  4.525036474922 	
O	  6.794638781496 	  1.402659644828 	  1.545036474922 	
O	  7.794638781496 	  1.402659644828 	  4.525036474922 	
O	  6.794638781496 	  5.382659644828 	  1.545036474922 	
O	  7.794638781496 	  5.382659644828 	  4.525036474922 	
64 
Energy: 3.2832572789582404e+00 
Mg	  0.000000000000 	  0.000000000000 	  0.000000000000 	
Mg	  1.000000000000 	  0.000000000000 	  2.980000000000 	
Mg	  0.000000000000 	  3.980000000000 	  0.000000000000 	
Mg	  1.000000000000 	  3.980000000000 	  2.980000000000 	
Mg	  3.980000000000 	  0.000000000000 	  0.000000000000 	
Mg	  4.980000000000 	  0.000000000000 	  2.980000000000 	
Mg	  3.980000000000 	  3.980000000000 	  0.000000000000 	
Mg	  4.980000000000 	  3.980000000000 	  2.980000000000 	
Mg	  1.752949461503 	  1.837594714607 	  0.000000000000 	
Mg	  2.752949461503 	  1.837594714607 	  2.980000000000 	
Mg	  1.752949461503 	  5.817594714607 	  0.000000000000 	
Mg	  2.752949461503 	  5.817594714607 	  2.980000000000 	
Mg	  5.732949461503 	  1.837594714607 	  0.000000000000 	
Mg	  6.732949461503 	  1.837594714607 	  2.980000000000 	
Mg	  5.732949461503 	  5.817594714607 	  0.000000000000 	
Mg	  6.732949461503 	  5.817594714607 	  2.980000000000 	
Mg	  2.430111486338 	  0.000000000000 	  1.583658955294 	
Mg	  3.430111486338 	  0.000000000000 	  4.563658955294 	
Mg	  2.430111486338 	  3.980000000000 	  1.583658955294 	
Mg	  3.430111486338 	  3.980000000000 	  4.563658955294 	
Mg	  6.410111486338 	  0.000000000000 	  1.583658955294 	
Mg	  7.410111486338 	  0.000000000000 	  4.563658955294 	
Mg	  6.410111486338 	  3.980000000000 	  1.583658955294 	
Mg	  7.410111486338 	  3.980000000000 	  4.563658955294 	
Mg	  0.423226265522 	  2.006885220816 	  1.583658955294 	
Mg	  1.423226265522 	  2.006885220816 	  4.563658955294 	
Mg	  0.423226265522 	  5.986885220816 	  1.583658955294 	
Mg	  1.423226265522 	  5.986885220816 	  4.563658955294 	
Mg	  4.403226265522 	  2.006885220816 	  1.583658955294 	
Mg	  5.403226265522 	  2.006885220816 	  4.563658955294 	
Mg	  4.403226265522 	  5.986885220816 	  1.583658955294 	
Mg	  5.403226265522 	  5.986885220816 	  4.563658955294 	
O	  2.006885220816 	  0.000000000000 	  0.000000000000 	
O	  3.006885220816 	  0.000000000000 	  2.980000000000 	
O	  2.006885220816 	  3.980000000000 	  0.000000000000 	
O	  3.006885220816 	  3.980000000000 	  2.980000000000 	
O	  5.986885220816 	  0.000000000000 	  0.000000000000 	
O	  6.986885220816 	  0.000000000000 	  2.980000000000 	
O	  5.986885220816 	  3.980000000000 	  0.000000000000 	
O	  6.986885220816 	  3.980000000000 	  2.980000000000 	
O	  0.000000000000 	  2.006885220816 	  0.000000000000 	
O	  1.000000000000 	  2.006885220816 	  2.980000000000 	
O	  0.000000000000 	  5.986885220816 	  0.000000000000 	
O	  1.000000000000 	  5.986885220816 	  2.980000000000 	
O	  3.980000000000 	  2.006885220816 	  0.000000000000 	
O	  4.980000000000 	  2.006885220816 	  2.980000000000 	
O	  3.980000000000 	  5.986885220816 	  0.000000000000 	
O	  4.980000000000 	  5.986885220816 	  2.980000000000 	
O	  0.423226265522 	  0.000000000000 	  1.583658955294 	
O	  1.423226265522 	  0.000000000000 	  4.563658955294 	
O	  0.423226265522 	  3.980000000000 	  1.583658955294 	
O	  1.423226265522 	  3.980000000000 	  4.563658955294 	
O	  4.403226265522 	  0.000000000000 	  1.583658955294 	
O	  5.403226265522 	  0.000000000000 	  4.563658955294 	
O	  4.403226265522 	  3.980000000000 	  1.583658955294 	
O	  5.403226265522 	  3.980000000000 	  4.563658955294 	
O	  2.768692498756 	  1.450765907920 	  1.583658955294 	
O	  3.768692498756 	  1.450765907920 	  4.563658955294 	
O	  2.768692498756 	  5.430765907920 	  1.583658955294 	
O	  3.768692498756 	  5.430765907920 	  4.563658955294 	
O	  6.748692498756 	  1.450765907920 	  1.583658955294 	
O	  7.748692498756 	  1.450765907920 	  4.563658955294 	
O	  6.748692498756 	  5.430765907920 	  1.583658955294 	
O	  7.748692498756 	  5.430765907920 	  4.563658955294 	
64 
Energy: 3.8802333600698882e+00 
Mg	  0.000000000000 	  0.000000000000 	  0.000000000000 	
Mg	  1.000000000000 	  0.000000000000 	  2.980000000000 	
Mg	  0.000000000000 	  3.980000000000 	  0.000000000000 	
Mg	  1.000000000000 	  3.980000000000 	  2.980000000000 	
Mg	  3.980000000000 	  0.000000000000 	  0.000000000000 	
Mg	  4.980000000000 	  0.000000000000 	  2.980000000000 	
Mg	  3.980000000000 	  3.980000000000 	  0.000000000000 	
Mg	  4.980000000000 	  3.980000000000 	  2.980000000000 	
Mg	  1.779508713565 	  1.858110539945 	  0.000000000000 	
Mg	  2.779508713565 	  1.858110539945 	  2.980000000000 	
Mg	  1.779508713565 	  5.838110539945 	  0.000000000000 	
Mg	  2.779508713565 	  5.838110539945 	  2.980000000000 	
Mg	  5.759508713565 	  1.858110539945 	  0.000000000000 	
Mg	  6.759508713565 	  1.858110539945 	  2.980000000000 	
Mg	  5.759508713565 	  5.838110539945 	  0.000000000000 	
Mg	  6.759508713565 	  5.838110539945 	  2.980000000000 	
Mg	  2.408323324609 	  0.000000000000 	  1.622305060804 	
Mg	  3.408323324609 	  0.000000000000 	  4.602305060804 	
Mg	  2.408323324609 	  3.980000000000 	  1.622305060804 	
Mg	  3.408323324609 	  3.980000000000 	  4.602305060804 	
Mg	  6.388323324609 	  0.000000000000 	  1.622305060804 	
Mg	  7.388323324609 	  0.000000000000 	  4.602305060804 	
Mg	  6.388323324609 	  3.980000000000 	  1.622305060804 	
Mg	  7.388323324609 	  3.980000000000 	  4.602305060804 	
Mg	  0.393009131902 	  2.015314192706 	  1.622305060804 	
Mg	  1.393009131902 	  2.015314192706 	  4.602305060804 	
Mg	  0.393009131902 	  5.995314192706 	  1.622305060804 	
Mg	  1.393009131902 	  5.995314192706 	  4.602305060804 	
Mg	  4.373009131902 	  2.015314192706 	  1.622305060804 	
Mg	  5.373009131902 	  2.015314192706 	  4.602305060804 	
Mg	  4.373009131902 	  5.995314192706 	  1.622305060804 	
Mg	  5.373009131902 	  5.995314192706 	  4.602305060804 	
O	  2.015314192706 	  0.000000000000 	  0.000000000000 	
O	  3.015314192706 	  0.000000000000 	  2.980000000000 	
O	  2.015314192706 	  3.980000000000 	  0.000000000000 	
O	  3.015314192706 	  3.980000000000 	  2.980000000000 	
O	  5.995314192706 	  0.000000000000 	  0.000000000000 	
O	  6.995314192706 	  0.000000000000 	  2.980000000000 	
O	  5.995314192706 	  3.980000000000 	  0.000000000000 	
O	  6.995314192706 	  3.980000000000 	  2.980000000000 	
O	  0.000000000000 	  2.015314192706 	  0.000000000000 	
O	  1.000000000000 	  2.015314192706 	  2.980000000000 	
O	  0.000000000000 	  5.995314192706 	  0.000000000000 	
O	  1.000000000000 	  5.995314192706 	  2.980000000000 	
O	  3.980000000000 	  2.015314192706 	  0.000000000000 	
O	  4.980000000000 	  2.015314192706 	  2.980000000000 	
O	  3.980000000000 	  5.995314192706 	  0.000000000000 	
O	  4.980000000000 	  5.995314192706 	  2.980000000000 	
O	  0.393009131902 	  0.000000000000 	  1.622305060804 	
O	  1.393009131902 	  0.000000000000 	  4.602305060804 	
O	  0.393009131902 	  3.980000000000 	  1.622305060804 	
O	  1.393009131902 	  3.980000000000 	  4.602305060804 	
O	  4.373009131902 	  0.000000000000 	  1.622305060804 	
O	  5.373009131902 	  0.000000000000 	  4.602305060804 	
O	  4.373009131902 	  3.980000000000 	  1.622305060804 	
O	  5.373009131902 	  3.980000000000 	  4.602305060804 	
O	  2.722730630131 	  1.498900193387 	  1.622305060804 	
O	  3.722730630131 	  1.498900193387 	  4.602305060804 	
O	  2.722730630131 	  5.478900193387 	  1.622305060804 	
O	  3.722730630131 	  5.478900193387 	  4.602305060804 	
O	  6.702730630131 	  1.498900193387 	  1.622305060804 	
O	  7.702730630131 	  1.498900193387 	  4.602305060804 	
O	  6.702730630131 	  5.478900193387 	  1.622305060804 	
O	  7.702730630131 	  5.478900193387 	  4.602305060804 	
64 
Energy: 4.5400169426939812e+00 
Mg	  0.000000000000 	  0.000000000000 	  0.000000000000 	
Mg	  1.000000000000 	  0.000000000000 	  2.980000000000 	
Mg	  0.000000000000 	  3.980000000000 	  0.000000000000 	
Mg	  1.000000000000 	  3.980000000000 	  2.980000000000 	
Mg	  3.980000000000 	  0.000000000000 	  0.000000000000 	
Mg	  4.980000000000 	  0.000000000000 	  2.980000000000 	
Mg	  3.980000000000 	  3.980000000000 	  0.000000000000 	
Mg	  4.980000000000 	  3.980000000000 	  2.980000000000 	
Mg	  1.806083575494 	  1.878639014347 	  0.000000000000 	
Mg	  2.806083575494 	  1.878639014347 	  2.980000000000 	
Mg	  1.806083575494 	  5.858639014347 	  0.000000000000 	
Mg	  2.806083575494 	  5.858639014347 	  2.980000000000 	
Mg	  5.786083575494 	  1.878639014347 	  0.000000000000 	
Mg	  6.786083575494 	  1.878639014347 	  2.980000000000 	
Mg	  5.786083575494 	  5.858639014347 	  0.000000000000 	
Mg	  6.786083575494 	  5.858639014347 	  2.980000000000 	
Mg	  2.386527086315 	  0.000000000000 	  1.660972697789 	
Mg	  3.386527086315 	  0.000000000000 	  4.640972697789 	
Mg	  2.386527086315 	  3.980000000000 	  1.660972697789 	
Mg	  3.386527086315 	  3.980000000000 	  4.640972697789 	
Mg	  6.366527086315 	  0.000000000000 	  1.660972697789 	
Mg	  7.366527086315 	  0.000000000000 	  4.640972697789 	
Mg	  6.366527086315 	  3.980000000000 	  1.660972697789 	
Mg	  7.366527086315 	  3.980000000000 	  4.640972697789 	
Mg	  0.362777194263 	  2.023749892052 	  1.660972697789 	
Mg	  1.362777194263 	  2.023749892052 	  4.640972697789 	
Mg	  0.362777194263 	  6.003749892052 	  1.660972697789 	
Mg	  1.362777194263 	  6.003749892052 	  4.640972697789 	
Mg	  4.342777194263 	  2.023749892052 	  1.660972697789 	
Mg	  5.342777194263 	  2.023749892052 	  4.640972697789 	
Mg	  4.342777194263 	  6.003749892052 	  1.660972697789 	
Mg	  5.342777194263 	  6.003749892052 	  4.640972697789 	
O	  2.023749892052 	  0.000000000000 	  0.000000000000 	
O	  3.023749892052 	  0.000000000000 	  2.980000000000 	
O	  2.023749892052 	  3.980000000000 	  0.000000000000 	
O	  3.023749892052 	  3.980000000000 	  2.980000000000 	
O	  6.003749892052 	  0.000000000000 	  0.000000000000 	
O	  7.003749892052 	  0.000000000000 	  2.980000000000 	
O	  6.003749892052 	  3.980000000000 	  0.000000000000 	
O	  7.003749892052 	  3.980000000000 	  2.980000000000 	
O	  0.000000000000 	  2.023749892052 	  0.000000000000 	
O	  1.000000000000 	  2.023749892052 	  2.980000000000 	
O	  0.000000000000 	  6.003749892052 	  0.000000000000 	
O	  1.000000000000 	  6.003749892052 	  2.980000000000 	
O	  3.980000000000 	  2.023749892052 	  0.000000000000 	
O	  4.980000000000 	  2.023749892052 	  2.980000000000 	
O	  3.980000000000 	  6.003749892052 	  0.000000000000 	
O	  4.980000000000 	  6.003749892052 	  2.980000000000 	
O	  0.362777194263 	  0.000000000000 	  1.660972697789 	
O	  1.362777194263 	  0.000000000000 	  4.640972697789 	
O	  0.362777194263 	  3.980000000000 	  1.660972697789 	
O	  1.362777194263 	  3.980000000000 	  4.640972697789 	
O	  4.342777194263 	  0.000000000000 	  1.660972697789 	
O	  5.342777194263 	  0.000000000000 	  4.640972697789 	
O	  4.342777194263 	  3.980000000000 	  1.660972697789 	
O	  5.342777194263 	  3.980000000000 	  4.640972697789 	
O	  2.676748841726 	  1.547060658790 	  1.660972697789 	
O	  3.676748841726 	  1.547060658790 	  4.640972697789 	
O	  2.676748841726 	  5.527060658790 	  1.660972697789 	
O	  3.676748841726 	  5.527060658790 	  4.640972697789 	
O	  6.656748841726 	  1.547060658790 	  1.660972697789 	
O	  7.656748841726 	  1.547060658790 	  4.640972697789 	
O	  6.656748841726 	  5.527060658790 	  1.660972697789 	
O	  7.656748841726 	  5.527060658790 	  4.640972697789 	
64 
Energy: 5.1363622739545027e+00 
Mg	  0.000000000000 	  0.000000000000 	  0.000000000000 	
Mg	  1.000000000000 	  0.000000000000 	  2.980000000000 	
Mg	  0.000000000000 	  3.980000000000 	  0.000000000000 	
Mg	  1.000000000000 	  3.980000000000 	  2.980000000000 	
Mg	  3.980000000000 	  0.000000000000 	  0.000000000000 	
Mg	  4.980000000000 	  0.000000000000 	  2.980000000000 	
Mg	  3.980000000000 	  3.980000000000 	  0.000000000000 	
Mg	  4.980000000000 	  3.980000000000 	  2.980000000000 	
Mg	  1.832669304658 	  1.899176527751 	  0.000000000000 	
Mg	  2.832669304658 	  1.899176527751 	  2.980000000000 	
Mg	  1.832669304658 	  5.879176527751 	  0.000000000000 	
Mg	  2.832669304658 	  5.879176527751 	  2.980000000000 	
Mg	  5.812669304658 	  1.899176527751 	  0.000000000000 	
Mg	  6.812669304658 	  1.899176527751 	  2.980000000000 	
Mg	  5.812669304658 	  5.879176527751 	  0.000000000000 	
Mg	  6.812669304658 	  5.879176527751 	  2.980000000000 	
Mg	  2.364727089407 	  0.000000000000 	  1.699654858470 	
Mg	  3.364727089407 	  0.000000000000 	  4.679654858470 	
Mg	  2.364727089407 	  3.980000000000 	  1.699654858470 	
Mg	  3.364727089407 	  3.980000000000 	  4.679654858470 	
Mg	  6.344727089407 	  0.000000000000 	  1.699654858470 	
Mg	  7.344727089407 	  0.000000000000 	  4.679654858470 	
Mg	  6.344727089407 	  3.980000000000 	  1.699654858470 	
Mg	  7.344727089407 	  3.980000000000 	  4.679654858470 	
Mg	  0.332536115468 	  2.032190973939 	  1.699654858470 	
Mg	  1.332536115468 	  2.032190973939 	  4.679654858470 	
Mg	  0.332536115468 	  6.012190973939 	  1.699654858470 	
Mg	  1.332536115468 	  6.012190973939 	  4.679654858470 	
Mg	  4.312536115468 	  2.032190973939 	  1.699654858470 	
Mg	  5.312536115468 	  2.032190973939 	  4.679654858470 	
Mg	  4.312536115468 	  6.012190973939 	  1.699654858470 	
Mg	  5.312536115468 	  6.012190973939 	  4.679654858470 	
O	  2.032190973939 	  0.000000000000 	  0.000000000000 	
O	  3.032190973939 	  0.000000000000 	  2.980000000000 	
O	  2.032190973939 	  3.980000000000 	  0.000000000000 	
O	  3.032190973939 	  3.980000000000 	  2.980000000000 	
O	  6.012190973939 	  0.000000000000 	  0.000000000000 	
O	  7.012190973939 	  0.000000000000 	  2.980000000000 	
O	  6.012190973939 	  3.980000000000 	  0.000000000000 	
O	  7.012190973939 	  3.980000000000 	  2.980000000000 	
O	  0.000000000000 	  2.032190973939 	  0.000000000000 	
O	  1.000000000000 	  2.032190973939 	  2.980000000000 	
O	  0.000000000000 	  6.012190973939 	  0.000000000000 	
O	  1.000000000000 	  6.012190973939 	  2.980000000000 	
O	  3.980000000000 	  2.032190973939 	  0.000000000000 	
O	  4.980000000000 	  2.032190973939 	  2.980000000000 	
O	  3.980000000000 	  6.012190973939 	  0.000000000000 	
O	  4.980000000000 	  6.012190973939 	  2.980000000000 	
O	  0.332536115468 	  0.000000000000 	  1.699654858470 	
O	  1.332536115468 	  0.000000000000 	  4.679654858470 	
O	  0.332536115468 	  3.980000000000 	  1.699654858470 	
O	  1.332536115468 	  3.980000000000 	  4.679654858470 	
O	  4.312536115468 	  0.000000000000 	  1.699654858470 	
O	  5.312536115468 	  0.000000000000 	  4.679654858470 	
O	  4.312536115468 	  3.980000000000 	  1.699654858470 	
O	  5.312536115468 	  3.980000000000 	  4.679654858470 	
O	  2.630755981782 	  1.595238518213 	  1.699654858470 	
O	  3.630755981782 	  1.595238518213 	  4.679654858470 	
O	  2.630755981782 	  5.575238518213 	  1.699654858470 	
O	  3.630755981782 	  5.575238518213 	  4.679654858470 	
O	  6.610755981782 	  1.595238518213 	  1.699654858470 	
O	  7.610755981782 	  1.595238518213 	  4.679654858470 	
O	  6.610755981782 	  5.575238518213 	  1.699654858470 	
O	  7.610755981782 	  5.575238518213 	  4.679654858470 	
64 
Energy: 5.5748842110763377e+00 
Mg	  0.000000000000 	  0.000000000000 	  0.000000000000 	
Mg	  1.000000000000 	  0.000000000000 	  2.980000000000 	
Mg	  0.000000000000 	  3.980000000000 	  0.000000000000 	
Mg	  1.000000000000 	  3.980000000000 	  2.980000000000 	
Mg	  3.980000000000 	  0.000000000000 	  0.000000000000 	
Mg	  4.980000000000 	  0.000000000000 	  2.980000000000 	
Mg	  3.980000000000 	  3.980000000000 	  0.000000000000 	
Mg	  4.980000000000 	  3.980000000000 	  2.980000000000 	
Mg	  1.859262597291 	  1.919720247016 	  0.000000000000 	
Mg	  2.859262597291 	  1.919720247016 	  2.980000000000 	
Mg	  1.859262597291 	  5.899720247016 	  0.000000000000 	
Mg	  2.859262597291 	  5.899720247016 	  2.980000000000 	
Mg	  5.839262597291 	  1.919720247016 	  0.000000000000 	
Mg	  6.839262597291 	  1.919720247016 	  2.980000000000 	
Mg	  5.839262597291 	  5.899720247016 	  0.000000000000 	
Mg	  6.839262597291 	  5.899720247016 	  2.980000000000 	
Mg	  2.342923795091 	  0.000000000000 	  1.738347297841 	
Mg	  3.342923795091 	  0.000000000000 	  4.718347297841 	
Mg	  2.342923795091 	  3.980000000000 	  1.738347297841 	
Mg	  3.342923795091 	  3.980000000000 	  4.718347297841 	
Mg	  6.322923795091 	  0.000000000000 	  1.738347297841 	
Mg	  7.322923795091 	  0.000000000000 	  4.718347297841 	
Mg	  6.322923795091 	  3.980000000000 	  1.738347297841 	
Mg	  7.322923795091 	  3.980000000000 	  4.718347297841 	
Mg	  0.302288248625 	  2.040635546466 	  1.738347297841 	
Mg	  1.302288248625 	  2.040635546466 	  4.718347297841 	
Mg	  0.302288248625 	  6.020635546466 	  1.738347297841 	
Mg	  1.302288248625 	  6.020635546466 	  4.718347297841 	
Mg	  4.282288248625 	  2.040635546466 	  1.738347297841 	
Mg	  5.282288248625 	  2.040635546466 	  4.718347297841 	
Mg	  4.282288248625 	  6.020635546466 	  1.738347297841 	
Mg	  5.282288248625 	  6.020635546466 	  4.718347297841 	
O	  2.040635546466 	  0.000000000000 	  0.000000000000 	
O	  3.040635546466 	  0.000000000000 	  2.980000000000 	
O	  2.040635546466 	  3.980000000000 	  0.000000000000 	
O	  3.040635546466 	  3.980000000000 	  2.980000000000 	
O	  6.020635546466 	  0.000000000000 	  0.000000000000 	
O	  7.020635546466 	  0.000000000000 	  2.980000000000 	
O	  6.020635546466 	  3.980000000000 	  0.000000000000 	
O	  7.020635546466 	  3.980000000000 	  2.980000000000 	
O	  0.000000000000 	  2.040635546466 	  0.000000000000 	
O	  1.000000000000 	  2.040635546466 	  2.980000000000 	
O	  0.000000000000 	  6.020635546466 	  0.000000000000 	
O	  1.000000000000 	  6.020635546466 	  2.980000000000 	
O	  3.980000000000 	  2.040635546466 	  0.000000000000 	
O	  4.980000000000 	  2.040635546466 	  2.980000000000 	
O	  3.980000000000 	  6.020635546466 	  0.000000000000 	
O	  4.980000000000 	  6.020635546466 	  2.980000000000 	
O	  0.302288248625 	  0.000000000000 	  1.738347297841 	
O	  1.302288248625 	  0.000000000000 	  4.718347297841 	
O	  0.302288248625 	  3.980000000000 	  1.738347297841 	
O	  1.302288248625 	  3.980000000000 	  4.718347297841 	
O	  4.282288248625 	  0.000000000000 	  1.738347297841 	
O	  5.282288248625 	  0.000000000000 	  4.718347297841 	
O	  4.282288248625 	  3.980000000000 	  1.738347297841 	
O	  5.282288248625 	  3.980000000000 	  4.718347297841 	
O	  2.584754393991 	  1.643428787773 	  1.738347297841 	
O	  3.584754393991 	  1.643428787773 	  4.718347297841 	
O	  2.584754393991 	  5.623428787773 	  1.738347297841 	
O	  3.584754393991 	  5.623428787773 	  4.718347297841 	
O	  6.564754393991 	  1.643428787773 	  1.738347297841 	
O	  7.564754393991 	  1.643428787773 	  4.718347297841 	
O	  6.564754393991 	  5.623428787773 	  1.738347297841 	
O	  7.564754393991 	  5.623428787773 	  4.718347297841 	
64 
Energy: 5.7899579655901938e+00 
Mg	  0.000000000000 	  0.000000000000 	  0.000000000000 	
Mg	  1.000000000000 	  0.000000000000 	  2.980000000000 	
Mg	  0.000000000000 	  3.980000000000 	  0.000000000000 	
Mg	  1.000000000000 	  3.980000000000 	  2.980000000000 	
Mg	  3.980000000000 	  0.000000000000 	  0.000000000000 	
Mg	  4.980000000000 	  0.000000000000 	  2.980000000000 	
Mg	  3.980000000000 	  3.980000000000 	  0.000000000000 	
Mg	  4.980000000000 	  3.980000000000 	  2.980000000000 	
Mg	  1.885859915005 	  1.940267309096 	  0.000000000000 	
Mg	  2.885859915005 	  1.940267309096 	  2.980000000000 	
Mg	  1.885859915005 	  5.920267309096 	  0.000000000000 	
Mg	  2.885859915005 	  5.920267309096 	  2.980000000000 	
Mg	  5.865859915005 	  1.940267309096 	  0.000000000000 	
Mg	  6.865859915005 	  1.940267309096 	  2.980000000000 	
Mg	  5.865859915005 	  5.920267309096 	  0.000000000000 	
Mg	  6.865859915005 	  5.920267309096 	  2.980000000000 	
Mg	  2.321119067733 	  0.000000000000 	  1.777045126822 	
Mg	  3.321119067733 	  0.000000000000 	  4.757045126822 	
Mg	  2.321119067733 	  3.980000000000 	  1.777045126822 	
Mg	  3.321119067733 	  3.980000000000 	  4.757045126822 	
Mg	  6.301119067733 	  0.000000000000 	  1.777045126822 	
Mg	  7.301119067733 	  0.000000000000 	  4.757045126822 	
Mg	  6.301119067733 	  3.980000000000 	  1.777045126822 	
Mg	  7.301119067733 	  3.980000000000 	  4.757045126822 	
Mg	  0.272036970455 	  2.049082097278 	  1.777045126822 	
Mg	  1.272036970455 	  2.049082097278 	  4.757045126822 	
Mg	  0.272036970455 	  6.029082097278 	  1.777045126822 	
Mg	  1.272036970455 	  6.029082097278 	  4.757045126822 	
Mg	  4.252036970455 	  2.049082097278 	  1.777045126822 	
Mg	  5.252036970455 	  2.049082097278 	  4.757045126822 	
Mg	  4.252036970455 	  6.029082097278 	  1.777045126822 	
Mg	  5.252036970455 	  6.029082097278 	  4.757045126822 	
O	  2.049082097278 	  0.000000000000 	  0.000000000000 	
O	  3.049082097278 	  0.000000000000 	  2.980000000000 	
O	  2.049082097278 	  3.980000000000 	  0.000000000000 	
O	  3.049082097278 	  3.980000000000 	  2.980000000000 	
O	  6.029082097278 	  0.000000000000 	  0.000000000000 	
O	  7.029082097278 	  0.000000000000 	  2.980000000000 	
O	  6.029082097278 	  3.980000000000 	  0.000000000000 	
O	  7.029082097278 	  3.980000000000 	  2.980000000000 	
O	  0.000000000000 	  2.049082097278 	  0.000000000000 	
O	  1.000000000000 	  2.049082097278 	  2.980000000000 	
O	  0.000000000000 	  6.029082097278 	  0.000000000000 	
O	  1.000000000000 	  6.029082097278 	  2.980000000000 	
O	  3.980000000000 	  2.049082097278 	  0.000000000000 	
O	  4.980000000000 	  2.049082097278 	  2.980000000000 	
O	  3.980000000000 	  6.029082097278 	  0.000000000000 	
O	  4.980000000000 	  6.029082097278 	  2.980000000000 	
O	  0.272036970455 	  0.000000000000 	  1.777045126822 	
O	  1.272036970455 	  0.000000000000 	  4.757045126822 	
O	  0.272036970455 	  3.980000000000 	  1.777045126822 	
O	  1.272036970455 	  3.980000000000 	  4.757045126822 	
O	  4.252036970455 	  0.000000000000 	  1.777045126822 	
O	  5.252036970455 	  0.000000000000 	  4.757045126822 	
O	  4.252036970455 	  3.980000000000 	  1.777045126822 	
O	  5.252036970455 	  3.980000000000 	  4.757045126822 	
O	  2.538748644098 	  1.691625518099 	  1.777045126822 	
O	  3.538748644098 	  1.691625518099 	  4.757045126822 	
O	  2.538748644098 	  5.671625518099 	  1.777045126822 	
O	  3.538748644098 	  5.671625518099 	  4.757045126822 	
O	  6.518748644098 	  1.691625518099 	  1.777045126822 	
O	  7.518748644098 	  1.691625518099 	  4.757045126822 	
O	  6.518748644098 	  5.671625518099 	  1.777045126822 	
O	  7.518748644098 	  5.671625518099 	  4.757045126822 	
64 
Energy: 5.7422931096059830e+00 
Mg	  0.000000000000 	  0.000000000000 	  0.000000000000 	
Mg	  1.000000000000 	  0.000000000000 	  2.980000000000 	
Mg	  0.000000000000 	  3.980000000000 	  0.000000000000 	
Mg	  1.000000000000 	  3.980000000000 	  2.980000000000 	
Mg	  3.980000000000 	  0.000000000000 	  0.000000000000 	
Mg	  4.980000000000 	  0.000000000000 	  2.980000000000 	
Mg	  3.980000000000 	  3.980000000000 	  0.000000000000 	
Mg	  4.980000000000 	  3.980000000000 	  2.980000000000 	
Mg	  1.912458304159 	  1.960815233586 	  0.000000000000 	
Mg	  2.912458304159 	  1.960815233586 	  2.980000000000 	
Mg	  1.912458304159 	  5.940815233586 	  0.000000000000 	
Mg	  2.912458304159 	  5.940815233586 	  2.980000000000 	
Mg	  5.892458304159 	  1.960815233586 	  0.000000000000 	
Mg	  6.892458304159 	  1.960815233586 	  2.980000000000 	
Mg	  5.892458304159 	  5.940815233586 	  0.000000000000 	
Mg	  6.892458304159 	  5.940815233586 	  2.980000000000 	
Mg	  2.299313739577 	  0.000000000000 	  1.815744445304 	
Mg	  3.299313739577 	  0.000000000000 	  4.795744445304 	
Mg	  2.299313739577 	  3.980000000000 	  1.815744445304 	
Mg	  3.299313739577 	  3.980000000000 	  4.795744445304 	
Mg	  6.279313739577 	  0.000000000000 	  1.815744445304 	
Mg	  7.279313739577 	  0.000000000000 	  4.795744445304 	
Mg	  6.279313739577 	  3.980000000000 	  1.815744445304 	
Mg	  7.279313739577 	  3.980000000000 	  4.795744445304 	
Mg	  0.241784647136 	  2.057529092440 	  1.815744445304 	
Mg	  1.241784647136 	  2.057529092440 	  4.795744445304 	
Mg	  0.241784647136 	  6.037529092440 	  1.815744445304 	
Mg	  1.241784647136 	  6.037529092440 	  4.795744445304 	
Mg	  4.221784647136 	  2.057529092440 	  1.815744445304 	
Mg	  5.221784647136 	  2.057529092440 	  4.795744445304 	
Mg	  4.221784647136 	  6.037529092440 	  1.815744445304 	
Mg	  5.221784647136 	  6.037529092440 	  4.795744445304 	
O	  2.057529092440 	  0.000000000000 	  0.000000000000 	
O	  3.057529092440 	  0.000000000000 	  2.980000000000 	
O	  2.057529092440 	  3.980000000000 	  0.000000000000 	
O	  3.057529092440 	  3.980000000000 	  2.980000000000 	
O	  6.037529092440 	  0.000000000000 	  0.000000000000 	
O	  7.037529092440 	  0.000000000000 	  2.980000000000 	
O	  6.037529092440 	  3.980000000000 	  0.000000000000 	
O	  7.037529092440 	  3.980000000000 	  2.980000000000 	
O	  0.000000000000 	  2.057529092440 	  0.000000000000 	
O	  1.000000000000 	  2.057529092440 	  2.980000000000 	
O	  0.000000000000 	  6.037529092440 	  0.000000000000 	
O	  1.000000000000 	  6.037529092440 	  2.980000000000 	
O	  3.980000000000 	  2.057529092440 	  0.000000000000 	
O	  4.980000000000 	  2.057529092440 	  2.980000000000 	
O	  3.980000000000 	  6.037529092440 	  0.000000000000 	
O	  4.980000000000 	  6.037529092440 	  2.980000000000 	
O	  0.241784647136 	  0.000000000000 	  1.815744445304 	
O	  1.241784647136 	  0.000000000000 	  4.795744445304 	
O	  0.241784647136 	  3.980000000000 	  1.815744445304 	
O	  1.241784647136 	  3.980000000000 	  4.795744445304 	
O	  4.221784647136 	  0.000000000000 	  1.815744445304 	
O	  5.221784647136 	  0.000000000000 	  4.795744445304 	
O	  4.221784647136 	  3.980000000000 	  1.815744445304 	
O	  5.221784647136 	  3.980000000000 	  4.795744445304 	
O	  2.492741457286 	  1.739824066103 	  1.815744445304 	
O	  3.492741457286 	  1.739824066103 	  4.795744445304 	
O	  2.492741457286 	  5.719824066103 	  1.815744445304 	
O	  3.492741457286 	  5.719824066103 	  4.795744445304 	
O	  6.472741457286 	  1.739824066103 	  1.815744445304 	
O	  7.472741457286 	  1.739824066103 	  4.795744445304 	
O	  6.472741457286 	  5.719824066103 	  1.815744445304 	
O	  7.472741457286 	  5.719824066103 	  4.795744445304 	
64 
Energy: 5.4182962438052158e+00 
Mg	  0.000000000000 	  0.000000000000 	  0.000000000000 	
Mg	  1.000000000000 	  0.000000000000 	  2.980000000000 	
Mg	  0.000000000000 	  3.980000000000 	  0.000000000000 	
Mg	  1.000000000000 	  3.980000000000 	  2.980000000000 	
Mg	  3.980000000000 	  0.000000000000 	  0.000000000000 	
Mg	  4.980000000000 	  0.000000000000 	  2.980000000000 	
Mg	  3.980000000000 	  3.980000000000 	  0.000000000000 	
Mg	  4.980000000000 	  3.980000000000 	  2.980000000000 	
Mg	  1.939054899792 	  1.981361747682 	  0.000000000000 	
Mg	  2.939054899792 	  1.981361747682 	  2.980000000000 	
Mg	  1.939054899792 	  5.961361747682 	  0.000000000000 	
Mg	  2.939054899792 	  5.961361747682 	  2.980000000000 	
Mg	  5.919054899792 	  1.981361747682 	  0.000000000000 	
Mg	  6.919054899792 	  1.981361747682 	  2.980000000000 	
Mg	  5.919054899792 	  5.961361747682 	  0.000000000000 	
Mg	  6.919054899792 	  5.961361747682 	  2.980000000000 	
Mg	  2.277509682909 	  0.000000000000 	  1.854441204013 	
Mg	  3.277509682909 	  0.000000000000 	  4.834441204013 	
Mg	  2.277509682909 	  3.980000000000 	  1.854441204013 	
Mg	  3.277509682909 	  3.980000000000 	  4.834441204013 	
Mg	  6.257509682909 	  0.000000000000 	  1.854441204013 	
Mg	  7.257509682909 	  0.000000000000 	  4.834441204013 	
Mg	  6.257509682909 	  3.980000000000 	  1.854441204013 	
Mg	  7.257509682909 	  3.980000000000 	  4.834441204013 	
Mg	  0.211534239448 	  2.065975443461 	  1.854441204013 	
Mg	  1.211534239448 	  2.065975443461 	  4.834441204013 	
Mg	  0.211534239448 	  6.045975443461 	  1.854441204013 	
Mg	  1.211534239448 	  6.045975443461 	  4.834441204013 	
Mg	  4.191534239448 	  2.065975443461 	  1.854441204013 	
Mg	  5.191534239448 	  2.065975443461 	  4.834441204013 	
Mg	  4.191534239448 	  6.045975443461 	  1.854441204013 	
Mg	  5.191534239448 	  6.045975443461 	  4.834441204013 	
O	  2.065975443461 	  0.000000000000 	  0.000000000000 	
O	  3.065975443461 	  0.000000000000 	  2.980000000000 	
O	  2.065975443461 	  3.980000000000 	  0.000000000000 	
O	  3.065975443461 	  3.980000000000 	  2.980000000000 	
O	  6.045975443461 	  0.000000000000 	  0.000000000000 	
O	  7.045975443461 	  0.000000000000 	  2.980000000000 	
O	  6.045975443461 	  3.980000000000 	  0.000000000000 	
O	  7.045975443461 	  3.980000000000 	  2.980000000000 	
O	  0.000000000000 	  2.065975443461 	  0.000000000000 	
O	  1.000000000000 	  2.065975443461 	  2.980000000000 	
O	  0.000000000000 	  6.045975443461 	  0.000000000000 	
O	  1.000000000000 	  6.045975443461 	  2.980000000000 	
O	  3.980000000000 	  2.065975443461 	  0.000000000000 	
O	  4.980000000000 	  2.065975443461 	  2.980000000000 	
O	  3.980000000000 	  6.045975443461 	  0.000000000000 	
O	  4.980000000000 	  6.045975443461 	  2.980000000000 	
O	  0.211534239448 	  0.000000000000 	  1.854441204013 	
O	  1.211534239448 	  0.000000000000 	  4.834441204013 	
O	  0.211534239448 	  3.980000000000 	  1.854441204013 	
O	  1.211534239448 	  3.980000000000 	  4.834441204013 	
O	  4.191534239448 	  0.000000000000 	  1.854441204013 	
O	  5.191534239448 	  0.000000000000 	  4.834441204013 	
O	  4.191534239448 	  3.980000000000 	  1.854441204013 	
O	  5.191534239448 	  3.980000000000 	  4.834441204013 	
O	  2.446737074467 	  1.788019452826 	  1.854441204013 	
O	  3.446737074467 	  1.788019452826 	  4.834441204013 	
O	  2.446737074467 	  5.768019452826 	  1.854441204013 	
O	  3.446737074467 	  5.768019452826 	  4.834441204013 	
O	  6.426737074467 	  1.788019452826 	  1.854441204013 	
O	  7.426737074467 	  1.788019452826 	  4.834441204013 	
O	  6.426737074467 	  5.768019452826 	  1.854441204013 	
O	  7.426737074467 	  5.768019452826 	  4.834441204013 	
64 
Energy: 4.8297304605014739e+00 
Mg	  0.000000000000 	  0.000000000000 	  0.000000000000 	
Mg	  1.000000000000 	  0.000000000000 	  2.980000000000 	
Mg	  0.000000000000 	  3.980000000000 	  0.000000000000 	
Mg	  1.000000000000 	  3.980000000000 	  2.980000000000 	
Mg	  3.980000000000 	  0.000000000000 	  0.000000000000 	
Mg	  4.980000000000 	  0.000000000000 	  2.980000000000 	
Mg	  3.980000000000 	  3.980000000000 	  0.000000000000 	
Mg	  4.980000000000 	  3.980000000000 	  2.980000000000 	
Mg	  1.965647118641 	  2.001904773711 	  0.000000000000 	
Mg	  2.965647118641 	  2.001904773711 	  2.980000000000 	
Mg	  1.965647118641 	  5.981904773711 	  0.000000000000 	
Mg	  2.965647118641 	  5.981904773711 	  2.980000000000 	
Mg	  5.945647118641 	  2.001904773711 	  0.000000000000 	
Mg	  6.945647118641 	  2.001904773711 	  2.980000000000 	
Mg	  5.945647118641 	  5.981904773711 	  0.000000000000 	
Mg	  6.945647118641 	  5.981904773711 	  2.980000000000 	
Mg	  2.255708359200 	  0.000000000000 	  1.893131808501 	
Mg	  3.255708359200 	  0.000000000000 	  4.873131808501 	
Mg	  2.255708359200 	  3.980000000000 	  1.893131808501 	
Mg	  3.255708359200 	  3.980000000000 	  4.873131808501 	
Mg	  6.235708359200 	  0.000000000000 	  1.893131808501 	
Mg	  7.235708359200 	  0.000000000000 	  4.873131808501 	
Mg	  6.235708359200 	  3.980000000000 	  1.893131808501 	
Mg	  7.235708359200 	  3.980000000000 	  4.873131808501 	
Mg	  0.181288275349 	  2.074420083851 	  1.893131808501 	
Mg	  1.181288275349 	  2.074420083851 	  4.873131808501 	
Mg	  0.181288275349 	  6.054420083851 	  1.893131808501 	
Mg	  1.181288275349 	  6.054420083851 	  4.873131808501 	
Mg	  4.161288275349 	  2.074420083851 	  1.893131808501 	
Mg	  5.161288275349 	  2.074420083851 	  4.873131808501 	
Mg	  4.161288275349 	  6.054420083851 	  1.893131808501 	
Mg	  5.161288275349 	  6.054420083851 	  4.873131808501 	
O	  2.074420083851 	  0.000000000000 	  0.000000000000 	
O	  3.074420083851 	  0.000000000000 	  2.980000000000 	
O	  2.074420083851 	  3.980000000000 	  0.000000000000 	
O	  3.074420083851 	  3.980000000000 	  2.980000000000 	
O	  6.054420083851 	  0.000000000000 	  0.000000000000 	
O	  7.054420083851 	  0.000000000000 	  2.980000000000 	
O	  6.054420083851 	  3.980000000000 	  0.000000000000 	
O	  7.054420083851 	  3.980000000000 	  2.980000000000 	
O	  0.000000000000 	  2.074420083851 	  0.000000000000 	
O	  1.000000000000 	  2.074420083851 	  2.980000000000 	
O	  0.000000000000 	  6.054420083851 	  0.000000000000 	
O	  1.000000000000 	  6.054420083851 	  2.980000000000 	
O	  3.980000000000 	  2.074420083851 	  0.000000000000 	
O	  4.980000000000 	  2.074420083851 	  2.980000000000 	
O	  3.980000000000 	  6.054420083851 	  0.000000000000 	
O	  4.980000000000 	  6.054420083851 	  2.980000000000 	
O	  0.181288275349 	  0.000000000000 	  1.893131808501 	
O	  1.181288275349 	  0.000000000000 	  4.873131808501 	
O	  0.181288275349 	  3.980000000000 	  1.893131808501 	
O	  1.181288275349 	  3.980000000000 	  4.873131808501 	
O	  4.161288275349 	  0.000000000000 	  1.893131808501 	
O	  5.161288275349 	  0.000000000000 	  4.873131808501 	
O	  4.161288275349 	  3.980000000000 	  1.893131808501 	
O	  5.161288275349 	  3.980000000000 	  4.873131808501 	
O	  2.400738979479 	  1.836207290042 	  1.893131808501 	
O	  3.400738979479 	  1.836207290042 	  4.873131808501 	
O	  2.400738979479 	  5.816207290042 	  1.893131808501 	
O	  3.400738979479 	  5.816207290042 	  4.873131808501 	
O	  6.380738979479 	  1.836207290042 	  1.893131808501 	
O	  7.380738979479 	  1.836207290042 	  4.873131808501 	
O	  6.380738979479 	  5.816207290042 	  1.893131808501 	
O	  7.380738979479 	  5.816207290042 	  4.873131808501 	
64 
Energy: 4.0148474355846773e+00 
Mg	  0.000000000000 	  0.000000000000 	  0.000000000000 	
Mg	  1.000000000000 	  0.000000000000 	  2.980000000000 	
Mg	  0.000000000000 	  3.980000000000 	  0.000000000000 	
Mg	  1.000000000000 	  3.980000000000 	  2.980000000000 	
Mg	  3.980000000000 	  0.000000000000 	  0.000000000000 	
Mg	  4.980000000000 	  0.000000000000 	  2.980000000000 	
Mg	  3.980000000000 	  3.980000000000 	  0.000000000000 	
Mg	  4.980000000000 	  3.980000000000 	  2.980000000000 	
Mg	  1.992232662148 	  2.022442435423 	  0.000000000000 	
Mg	  2.992232662148 	  2.022442435423 	  2.980000000000 	
Mg	  1.992232662148 	  6.002442435423 	  0.000000000000 	
Mg	  2.992232662148 	  6.002442435423 	  2.980000000000 	
Mg	  5.972232662148 	  2.022442435423 	  0.000000000000 	
Mg	  6.972232662148 	  2.022442435423 	  2.980000000000 	
Mg	  5.972232662148 	  6.002442435423 	  0.000000000000 	
Mg	  6.972232662148 	  6.002442435423 	  2.980000000000 	
Mg	  2.233910848348 	  0.000000000000 	  1.931813115598 	
Mg	  3.233910848348 	  0.000000000000 	  4.911813115598 	
Mg	  2.233910848348 	  3.980000000000 	  1.931813115598 	
Mg	  3.233910848348 	  3.980000000000 	  4.911813115598 	
Mg	  6.213910848348 	  0.000000000000 	  1.931813115598 	
Mg	  7.213910848348 	  0.000000000000 	  4.911813115598 	
Mg	  6.213910848348 	  3.980000000000 	  1.931813115598 	
Mg	  7.213910848348 	  3.980000000000 	  4.911813115598 	
Mg	  0.151048866375 	  2.082861981973 	  1.931813115598 	
Mg	  1.151048866375 	  2.082861981973 	  4.911813115598 	
Mg	  0.151048866375 	  6.062861981973 	  1.931813115598 	
Mg	  1.151048866375 	  6.062861981973 	  4.911813115598 	
Mg	  4.131048866375 	  2.082861981973 	  1.931813115598 	
Mg	  5.131048866375 	  2.082861981973 	  4.911813115598 	
Mg	  4.131048866375 	  6.062861981973 	  1.931813115598 	
Mg	  5.131048866375 	  6.062861981973 	  4.911813115598 	
O	  2.082861981973 	  0.000000000000 	  0.000000000000 	
O	  3.082861981973 	  0.000000000000 	  2.980000000000 	
O	  2.082861981973 	  3.980000000000 	  0.000000000000 	
O	  3.082861981973 	  3.980000000000 	  2.980000000000 	
O	  6.062861981973 	  0.000000000000 	  0.000000000000 	
O	  7.062861981973 	  0.000000000000 	  2.980000000000 	
O	  6.062861981973 	  3.980000000000 	  0.000000000000 	
O	  7.062861981973 	  3.980000000000 	  2.980000000000 	
O	  0.000000000000 	  2.082861981973 	  0.000000000000 	
O	  1.000000000000 	  2.082861981973 	  2.980000000000 	
O	  0.000000000000 	  6.062861981973 	  0.000000000000 	
O	  1.000000000000 	  6.062861981973 	  2.980000000000 	
O	  3.980000000000 	  2.082861981973 	  0.000000000000 	
O	  4.980000000000 	  2.082861981973 	  2.980000000000 	
O	  3.980000000000 	  6.062861981973 	  0.000000000000 	
O	  4.980000000000 	  6.062861981973 	  2.980000000000 	
O	  0.151048866375 	  0.000000000000 	  1.931813115598 	
O	  1.151048866375 	  0.000000000000 	  4.911813115598 	
O	  0.151048866375 	  3.980000000000 	  1.931813115598 	
O	  1.151048866375 	  3.980000000000 	  4.911813115598 	
O	  4.131048866375 	  0.000000000000 	  1.931813115598 	
O	  5.131048866375 	  0.000000000000 	  4.911813115598 	
O	  4.131048866375 	  3.980000000000 	  1.931813115598 	
O	  5.131048866375 	  3.980000000000 	  4.911813115598 	
O	  2.354749941448 	  1.884383771556 	  1.931813115598 	
O	  3.354749941448 	  1.884383771556 	  4.911813115598 	
O	  2.354749941448 	  5.864383771556 	  1.931813115598 	
O	  3.354749941448 	  5.864383771556 	  4.911813115598 	
O	  6.334749941448 	  1.884383771556 	  1.931813115598 	
O	  7.334749941448 	  1.884383771556 	  4.911813115598 	
O	  6.334749941448 	  5.864383771556 	  1.931813115598 	
O	  7.334749941448 	  5.864383771556 	  4.911813115598 	
64 
Energy: 3.0401877876623762e+00 
Mg	  0.000000000000 	  0.000000000000 	  0.000000000000 	
Mg	  1.000000000000 	  0.000000000000 	  2.980000000000 	
Mg	  0.000000000000 	  3.980000000000 	  0.000000000000 	
Mg	  1.000000000000 	  3.980000000000 	  2.980000000000 	
Mg	  3.980000000000 	  0.000000000000 	  0.000000000000 	
Mg	  4.980000000000 	  0.000000000000 	  2.980000000000 	
Mg	  3.980000000000 	  3.980000000000 	  0.000000000000 	
Mg	  4.980000000000 	  3.980000000000 	  2.980000000000 	
Mg	  2.018809527122 	  2.042973083054 	  0.000000000000 	
Mg	  3.018809527122 	  2.042973083054 	  2.980000000000 	
Mg	  2.018809527122 	  6.022973083054 	  0.000000000000 	
Mg	  3.018809527122 	  6.022973083054 	  2.980000000000 	
Mg	  5.998809527122 	  2.042973083054 	  0.000000000000 	
Mg	  6.998809527122 	  2.042973083054 	  2.980000000000 	
Mg	  5.998809527122 	  6.022973083054 	  0.000000000000 	
Mg	  6.998809527122 	  6.022973083054 	  2.980000000000 	
Mg	  2.212117974573 	  0.000000000000 	  1.970482415260 	
Mg	  3.212117974573 	  0.000000000000 	  4.950482415260 	
Mg	  2.212117974573 	  3.980000000000 	  1.970482415260 	
Mg	  3.212117974573 	  3.980000000000 	  4.950482415260 	
Mg	  6.192117974573 	  0.000000000000 	  1.970482415260 	
Mg	  7.192117974573 	  0.000000000000 	  4.950482415260 	
Mg	  6.192117974573 	  3.980000000000 	  1.970482415260 	
Mg	  7.192117974573 	  3.980000000000 	  4.950482415260 	
Mg	  0.120817779657 	  2.091300194916 	  1.970482415260 	
Mg	  1.120817779657 	  2.091300194916 	  4.950482415260 	
Mg	  0.120817779657 	  6.071300194916 	  1.970482415260 	
Mg	  1.120817779657 	  6.071300194916 	  4.950482415260 	
Mg	  4.100817779657 	  2.091300194916 	  1.970482415260 	
Mg	  5.100817779657 	  2.091300194916 	  4.950482415260 	
Mg	  4.100817779657 	  6.071300194916 	  1.970482415260 	
Mg	  5.100817779657 	  6.071300194916 	  4.950482415260 	
O	  2.091300194916 	  0.000000000000 	  0.000000000000 	
O	  3.091300194916 	  0.000000000000 	  2.980000000000 	
O	  2.091300194916 	  3.980000000000 	  0.000000000000 	
O	  3.091300194916 	  3.980000000000 	  2.980000000000 	
O	  6.071300194916 	  0.000000000000 	  0.000000000000 	
O	  7.071300194916 	  0.000000000000 	  2.980000000000 	
O	  6.071300194916 	  3.980000000000 	  0.000000000000 	
O	  7.071300194916 	  3.980000000000 	  2.980000000000 	
O	  0.000000000000 	  2.091300194916 	  0.000000000000 	
O	  1.000000000000 	  2.091300194916 	  2.980000000000 	
O	  0.000000000000 	  6.071300194916 	  0.000000000000 	
O	  1.000000000000 	  6.071300194916 	  2.980000000000 	
O	  3.980000000000 	  2.091300194916 	  0.000000000000 	
O	  4.980000000000 	  2.091300194916 	  2.980000000000 	
O	  3.980000000000 	  6.071300194916 	  0.000000000000 	
O	  4.980000000000 	  6.071300194916 	  2.980000000000 	
O	  0.120817779657 	  0.000000000000 	  1.970482415260 	
O	  1.120817779657 	  0.000000000000 	  4.950482415260 	
O	  0.120817779657 	  3.980000000000 	  1.970482415260 	
O	  1.120817779657 	  3.980000000000 	  4.950482415260 	
O	  4.100817779657 	  0.000000000000 	  1.970482415260 	
O	  5.100817779657 	  0.000000000000 	  4.950482415260 	
O	  4.100817779657 	  3.980000000000 	  1.970482415260 	
O	  5.100817779657 	  3.980000000000 	  4.950482415260 	
O	  2.308772198298 	  1.932545632447 	  1.970482415260 	
O	  3.308772198298 	  1.932545632447 	  4.950482415260 	
O	  2.308772198298 	  5.912545632447 	  1.970482415260 	
O	  3.308772198298 	  5.912545632447 	  4.950482415260 	
O	  6.288772198298 	  1.932545632447 	  1.970482415260 	
O	  7.288772198298 	  1.932545632447 	  4.950482415260 	
O	  6.288772198298 	  5.912545632447 	  1.970482415260 	
O	  7.288772198298 	  5.912545632447 	  4.950482415260 	
64 
Energy: 2.0028690391517818e+00 
Mg	  0.000000000000 	  0.000000000000 	  0.000000000000 	
Mg	  1.000000000000 	  0.000000000000 	  2.980000000000 	
Mg	  0.000000000000 	  3.980000000000 	  0.000000000000 	
Mg	  1.000000000000 	  3.980000000000 	  2.980000000000 	
Mg	  3.980000000000 	  0.000000000000 	  0.000000000000 	
Mg	  4.980000000000 	  0.000000000000 	  2.980000000000 	
Mg	  3.980000000000 	  3.980000000000 	  0.000000000000 	
Mg	  4.980000000000 	  3.980000000000 	  2.980000000000 	
Mg	  2.045375986822 	  2.063495277516 	  0.000000000000 	
Mg	  3.045375986822 	  2.063495277516 	  2.980000000000 	
Mg	  2.045375986822 	  6.043495277516 	  0.000000000000 	
Mg	  3.045375986822 	  6.043495277516 	  2.980000000000 	
Mg	  6.025375986822 	  2.063495277516 	  0.000000000000 	
Mg	  7.025375986822 	  2.063495277516 	  2.980000000000 	
Mg	  6.025375986822 	  6.043495277516 	  0.000000000000 	
Mg	  7.025375986822 	  6.043495277516 	  2.980000000000 	
Mg	  2.190330312371 	  0.000000000000 	  2.009137405435 	
Mg	  3.190330312371 	  0.000000000000 	  4.989137405435 	
Mg	  2.190330312371 	  3.980000000000 	  2.009137405435 	
Mg	  3.190330312371 	  3.980000000000 	  4.989137405435 	
Mg	  6.170330312371 	  0.000000000000 	  2.009137405435 	
Mg	  7.170330312371 	  0.000000000000 	  4.989137405435 	
Mg	  6.170330312371 	  3.980000000000 	  2.009137405435 	
Mg	  7.170330312371 	  3.980000000000 	  4.989137405435 	
Mg	  0.090596453468 	  2.099733858903 	  2.009137405435 	
Mg	  1.090596453468 	  2.099733858903 	  4.989137405435 	
Mg	  0.090596453468 	  6.079733858903 	  2.009137405435 	
Mg	  1.090596453468 	  6.079733858903 	  4.989137405435 	
Mg	  4.070596453468 	  2.099733858903 	  2.009137405435 	
Mg	  5.070596453468 	  2.099733858903 	  4.989137405435 	
Mg	  4.070596453468 	  6.079733858903 	  2.009137405435 	
Mg	  5.070596453468 	  6.079733858903 	  4.989137405435 	
O	  2.099733858903 	  0.000000000000 	  0.000000000000 	
O	  3.099733858903 	  0.000000000000 	  2.980000000000 	
O	  2.099733858903 	  3.980000000000 	  0.000000000000 	
O	  3.099733858903 	  3.980000000000 	  2.980000000000 	
O	  6.079733858903 	  0.000000000000 	  0.000000000000 	
O	  7.079733858903 	  0.000000000000 	  2.980000000000 	
O	  6.079733858903 	  3.980000000000 	  0.000000000000 	
O	  7.079733858903 	  3.980000000000 	  2.980000000000 	
O	  0.000000000000 	  2.099733858903 	  0.000000000000 	
O	  1.000000000000 	  2.099733858903 	  2.980000000000 	
O	  0.000000000000 	  6.079733858903 	  0.000000000000 	
O	  1.000000000000 	  6.079733858903 	  2.980000000000 	
O	  3.980000000000 	  2.099733858903 	  0.000000000000 	
O	  4.980000000000 	  2.099733858903 	  2.980000000000 	
O	  3.980000000000 	  6.079733858903 	  0.000000000000 	
O	  4.980000000000 	  6.079733858903 	  2.980000000000 	
O	  0.090596453468 	  0.000000000000 	  2.009137405435 	
O	  1.090596453468 	  0.000000000000 	  4.989137405435 	
O	  0.090596453468 	  3.980000000000 	  2.009137405435 	
O	  1.090596453468 	  3.980000000000 	  4.989137405435 	
O	  4.070596453468 	  0.000000000000 	  2.009137405435 	
O	  5.070596453468 	  0.000000000000 	  4.989137405435 	
O	  4.070596453468 	  3.980000000000 	  2.009137405435 	
O	  5.070596453468 	  3.980000000000 	  4.989137405435 	
O	  2.262807475146 	  1.980690119046 	  2.009137405435 	
O	  3.262807475146 	  1.980690119046 	  4.989137405435 	
O	  2.262807475146 	  5.960690119046 	  2.009137405435 	
O	  3.262807475146 	  5.960690119046 	  4.989137405435 	
O	  6.242807475146 	  1.980690119046 	  2.009137405435 	
O	  7.242807475146 	  1.980690119046 	  4.989137405435 	
O	  6.242807475146 	  5.960690119046 	  2.009137405435 	
O	  7.242807475146 	  5.960690119046 	  4.989137405435 	
64 
Energy: 1.0332028866873373e+00 
Mg	  0.000000000000 	  0.000000000000 	  0.000000000000 	
Mg	  1.000000000000 	  0.000000000000 	  2.980000000000 	
Mg	  0.000000000000 	  3.980000000000 	  0.000000000000 	
Mg	  1.000000000000 	  3.980000000000 	  2.980000000000 	
Mg	  3.980000000000 	  0.000000000000 	  0.000000000000 	
Mg	  4.980000000000 	  0.000000000000 	  2.980000000000 	
Mg	  3.980000000000 	  3.980000000000 	  0.000000000000 	
Mg	  4.980000000000 	  3.980000000000 	  2.980000000000 	
Mg	  2.071930597468 	  2.084007792565 	  0.000000000000 	
Mg	  3.071930597468 	  2.084007792565 	  2.980000000000 	
Mg	  2.071930597468 	  6.064007792565 	  0.000000000000 	
Mg	  3.071930597468 	  6.064007792565 	  2.980000000000 	
Mg	  6.051930597468 	  2.084007792565 	  0.000000000000 	
Mg	  7.051930597468 	  2.084007792565 	  2.980000000000 	
Mg	  6.051930597468 	  6.064007792565 	  0.000000000000 	
Mg	  7.051930597468 	  6.064007792565 	  2.980000000000 	
Mg	  2.168548158250 	  0.000000000000 	  2.047776207272 	
Mg	  3.168548158250 	  0.000000000000 	  5.027776207272 	
Mg	  2.168548158250 	  3.980000000000 	  2.047776207272 	
Mg	  3.168548158250 	  3.980000000000 	  5.027776207272 	
Mg	  6.148548158250 	  0.000000000000 	  2.047776207272 	
Mg	  7.148548158250 	  0.000000000000 	  5.027776207272 	
Mg	  6.148548158250 	  3.980000000000 	  2.047776207272 	
Mg	  7.148548158250 	  3.980000000000 	  5.027776207272 	
Mg	  0.060385975489 	  2.108162182761 	  2.047776207272 	
Mg	  1.060385975489 	  2.108162182761 	  5.027776207272 	
Mg	  0.060385975489 	  6.088162182761 	  2.047776207272 	
Mg	  1.060385975489 	  6.088162182761 	  5.027776207272 	
Mg	  4.040385975489 	  2.108162182761 	  2.047776207272 	
Mg	  5.040385975489 	  2.108162182761 	  5.027776207272 	
Mg	  4.040385975489 	  6.088162182761 	  2.047776207272 	
Mg	  5.040385975489 	  6.088162182761 	  5.027776207272 	
O	  2.108162182761 	  0.000000000000 	  0.000000000000 	
O	  3.108162182761 	  0.000000000000 	  2.980000000000 	
O	  2.108162182761 	  3.980000000000 	  0.000000000000 	
O	  3.108162182761 	  3.980000000000 	  2.980000000000 	
O	  6.088162182761 	  0.000000000000 	  0.000000000000 	
O	  7.088162182761 	  0.000000000000 	  2.980000000000 	
O	  6.088162182761 	  3.980000000000 	  0.000000000000 	
O	  7.088162182761 	  3.980000000000 	  2.980000000000 	
O	  0.000000000000 	  2.108162182761 	  0.000000000000 	
O	  1.000000000000 	  2.108162182761 	  2.980000000000 	
O	  0.000000000000 	  6.088162182761 	  0.000000000000 	
O	  1.000000000000 	  6.088162182761 	  2.980000000000 	
O	  3.980000000000 	  2.108162182761 	  0.000000000000 	
O	  4.980000000000 	  2.108162182761 	  2.980000000000 	
O	  3.980000000000 	  6.088162182761 	  0.000000000000 	
O	  4.980000000000 	  6.088162182761 	  2.980000000000 	
O	  0.060385975489 	  0.000000000000 	  2.047776207272 	
O	  1.060385975489 	  0.000000000000 	  5.027776207272 	
O	  0.060385975489 	  3.980000000000 	  2.047776207272 	
O	  1.060385975489 	  3.980000000000 	  5.027776207272 	
O	  4.040385975489 	  0.000000000000 	  2.047776207272 	
O	  5.040385975489 	  0.000000000000 	  5.027776207272 	
O	  4.040385975489 	  3.980000000000 	  2.047776207272 	
O	  5.040385975489 	  3.980000000000 	  5.027776207272 	
O	  2.216856938641 	  2.028815010969 	  2.047776207272 	
O	  3.216856938641 	  2.028815010969 	  5.027776207272 	
O	  2.216856938641 	  6.008815010969 	  2.047776207272 	
O	  3.216856938641 	  6.008815010969 	  5.027776207272 	
O	  6.196856938641 	  2.028815010969 	  2.047776207272 	
O	  7.196856938641 	  2.028815010969 	  5.027776207272 	
O	  6.196856938641 	  6.008815010969 	  2.047776207272 	
O	  7.196856938641 	  6.008815010969 	  5.027776207272 	
64 
Energy: 2.9739214507077799e-01 
Mg	  0.000000000000 	  0.000000000000 	  0.000000000000 	
Mg	  1.000000000000 	  0.000000000000 	  2.980000000000 	
Mg	  0.000000000000 	  3.980000000000 	  0.000000000000 	
Mg	  1.000000000000 	  3.980000000000 	  2.980000000000 	
Mg	  3.980000000000 	  0.000000000000 	  0.000000000000 	
Mg	  4.980000000000 	  0.000000000000 	  2.980000000000 	
Mg	  3.980000000000 	  3.980000000000 	  0.000000000000 	
Mg	  4.980000000000 	  3.980000000000 	  2.980000000000 	
Mg	  2.098472212646 	  2.104509623811 	  0.000000000000 	
Mg	  3.098472212646 	  2.104509623811 	  2.980000000000 	
Mg	  2.098472212646 	  6.084509623811 	  0.000000000000 	
Mg	  3.098472212646 	  6.084509623811 	  2.980000000000 	
Mg	  6.078472212646 	  2.104509623811 	  0.000000000000 	
Mg	  7.078472212646 	  2.104509623811 	  2.980000000000 	
Mg	  6.078472212646 	  6.084509623811 	  0.000000000000 	
Mg	  7.078472212646 	  6.084509623811 	  2.980000000000 	
Mg	  2.146771501967 	  0.000000000000 	  2.086397390316 	
Mg	  3.146771501967 	  0.000000000000 	  5.066397390316 	
Mg	  2.146771501967 	  3.980000000000 	  2.086397390316 	
Mg	  3.146771501967 	  3.980000000000 	  5.066397390316 	
Mg	  6.126771501967 	  0.000000000000 	  2.086397390316 	
Mg	  7.126771501967 	  0.000000000000 	  5.066397390316 	
Mg	  6.126771501967 	  3.980000000000 	  2.086397390316 	
Mg	  7.126771501967 	  3.980000000000 	  5.066397390316 	
Mg	  0.030187055826 	  2.116584446141 	  2.086397390316 	
Mg	  1.030187055826 	  2.116584446141 	  5.066397390316 	
Mg	  0.030187055826 	  6.096584446141 	  2.086397390316 	
Mg	  1.030187055826 	  6.096584446141 	  5.066397390316 	
Mg	  4.010187055826 	  2.116584446141 	  2.086397390316 	
Mg	  5.010187055826 	  2.116584446141 	  5.066397390316 	
Mg	  4.010187055826 	  6.096584446141 	  2.086397390316 	
Mg	  5.010187055826 	  6.096584446141 	  5.066397390316 	
O	  2.116584446141 	  0.000000000000 	  0.000000000000 	
O	  3.116584446141 	  0.000000000000 	  2.980000000000 	
O	  2.116584446141 	  3.980000000000 	  0.000000000000 	
O	  3.116584446141 	  3.980000000000 	  2.980000000000 	
O	  6.096584446141 	  0.000000000000 	  0.000000000000 	
O	  7.096584446141 	  0.000000000000 	  2.980000000000 	
O	  6.096584446141 	  3.980000000000 	  0.000000000000 	
O	  7.096584446141 	  3.980000000000 	  2.980000000000 	
O	  0.000000000000 	  2.116584446141 	  0.000000000000 	
O	  1.000000000000 	  2.116584446141 	  2.980000000000 	
O	  0.000000000000 	  6.096584446141 	  0.000000000000 	
O	  1.000000000000 	  6.096584446141 	  2.980000000000 	
O	  3.980000000000 	  2.116584446141 	  0.000000000000 	
O	  4.980000000000 	  2.116584446141 	  2.980000000000 	
O	  3.980000000000 	  6.096584446141 	  0.000000000000 	
O	  4.980000000000 	  6.096584446141 	  2.980000000000 	
O	  0.030187055826 	  0.000000000000 	  2.086397390316 	
O	  1.030187055826 	  0.000000000000 	  5.066397390316 	
O	  0.030187055826 	  3.980000000000 	  2.086397390316 	
O	  1.030187055826 	  3.980000000000 	  5.066397390316 	
O	  4.010187055826 	  0.000000000000 	  2.086397390316 	
O	  5.010187055826 	  0.000000000000 	  5.066397390316 	
O	  4.010187055826 	  3.980000000000 	  2.086397390316 	
O	  5.010187055826 	  3.980000000000 	  5.066397390316 	
O	  2.170921146627 	  2.076918654787 	  2.086397390316 	
O	  3.170921146627 	  2.076918654787 	  5.066397390316 	
O	  2.170921146627 	  6.056918654787 	  2.086397390316 	
O	  3.170921146627 	  6.056918654787 	  5.066397390316 	
O	  6.150921146627 	  2.076918654787 	  2.086397390316 	
O	  7.150921146627 	  2.076918654787 	  5.066397390316 	
O	  6.150921146627 	  6.056918654787 	  2.086397390316 	
O	  7.150921146627 	  6.056918654787 	  5.066397390316 	
64 
Energy: 0.0000000000000000e+00 
Mg	  0.000000000000 	  0.000000000000 	  0.000000000000 	
Mg	  1.000000000000 	  0.000000000000 	  2.980000000000 	
Mg	  0.000000000000 	  3.980000000000 	  0.000000000000 	
Mg	  1.000000000000 	  3.980000000000 	  2.980000000000 	
Mg	  3.980000000000 	  0.000000000000 	  0.000000000000 	
Mg	  4.980000000000 	  0.000000000000 	  2.980000000000 	
Mg	  3.980000000000 	  3.980000000000 	  0.000000000000 	
Mg	  4.980000000000 	  3.980000000000 	  2.980000000000 	
Mg	  2.125000000000 	  2.125000000000 	  0.000000000000 	
Mg	  3.125000000000 	  2.125000000000 	  2.980000000000 	
Mg	  2.125000000000 	  6.105000000000 	  0.000000000000 	
Mg	  3.125000000000 	  6.105000000000 	  2.980000000000 	
Mg	  6.105000000000 	  2.125000000000 	  0.000000000000 	
Mg	  7.105000000000 	  2.125000000000 	  2.980000000000 	
Mg	  6.105000000000 	  6.105000000000 	  0.000000000000 	
Mg	  7.105000000000 	  6.105000000000 	  2.980000000000 	
Mg	  2.125000000000 	  0.000000000000 	  2.125000000000 	
Mg	  3.125000000000 	  0.000000000000 	  5.105000000000 	
Mg	  2.125000000000 	  3.980000000000 	  2.125000000000 	
Mg	  3.125000000000 	  3.980000000000 	  5.105000000000 	
Mg	  6.105000000000 	  0.000000000000 	  2.125000000000 	
Mg	  7.105000000000 	  0.000000000000 	  5.105000000000 	
Mg	  6.105000000000 	  3.980000000000 	  2.125000000000 	
Mg	  7.105000000000 	  3.980000000000 	  5.105000000000 	
Mg	  0.000000000000 	  2.125000000000 	  2.125000000000 	
Mg	  1.000000000000 	  2.125000000000 	  5.105000000000 	
Mg	  0.000000000000 	  6.105000000000 	  2.125000000000 	
Mg	  1.000000000000 	  6.105000000000 	  5.105000000000 	
Mg	  3.980000000000 	  2.125000000000 	  2.125000000000 	
Mg	  4.980000000000 	  2.125000000000 	  5.105000000000 	
Mg	  3.980000000000 	  6.105000000000 	  2.125000000000 	
Mg	  4.980000000000 	  6.105000000000 	  5.105000000000 	
O	  2.125000000000 	  0.000000000000 	  0.000000000000 	
O	  3.125000000000 	  0.000000000000 	  2.980000000000 	
O	  2.125000000000 	  3.980000000000 	  0.000000000000 	
O	  3.125000000000 	  3.980000000000 	  2.980000000000 	
O	  6.105000000000 	  0.000000000000 	  0.000000000000 	
O	  7.105000000000 	  0.000000000000 	  2.980000000000 	
O	  6.105000000000 	  3.980000000000 	  0.000000000000 	
O	  7.105000000000 	  3.980000000000 	  2.980000000000 	
O	  0.000000000000 	  2.125000000000 	  0.000000000000 	
O	  1.000000000000 	  2.125000000000 	  2.980000000000 	
O	  0.000000000000 	  6.105000000000 	  0.000000000000 	
O	  1.000000000000 	  6.105000000000 	  2.980000000000 	
O	  3.980000000000 	  2.125000000000 	  0.000000000000 	
O	  4.980000000000 	  2.125000000000 	  2.980000000000 	
O	  3.980000000000 	  6.105000000000 	  0.000000000000 	
O	  4.980000000000 	  6.105000000000 	  2.980000000000 	
O	  0.000000000000 	  0.000000000000 	  2.125000000000 	
O	  1.000000000000 	  0.000000000000 	  5.105000000000 	
O	  0.000000000000 	  3.980000000000 	  2.125000000000 	
O	  1.000000000000 	  3.980000000000 	  5.105000000000 	
O	  3.980000000000 	  0.000000000000 	  2.125000000000 	
O	  4.980000000000 	  0.000000000000 	  5.105000000000 	
O	  3.980000000000 	  3.980000000000 	  2.125000000000 	
O	  4.980000000000 	  3.980000000000 	  5.105000000000 	
O	  2.125000000000 	  2.125000000000 	  2.125000000000 	
O	  3.125000000000 	  2.125000000000 	  5.105000000000 	
O	  2.125000000000 	  6.105000000000 	  2.125000000000 	
O	  3.125000000000 	  6.105000000000 	  5.105000000000 	
O	  6.105000000000 	  2.125000000000 	  2.125000000000 	
O	  7.105000000000 	  2.125000000000 	  5.105000000000 	
O	  6.105000000000 	  6.105000000000 	  2.125000000000 	
O	  7.105000000000 	  6.105000000000 	  5.105000000000 	
