64 
Energy: 2.9190294756662634e+00 
Mg	  0.000000000000 	  0.000000000000 	  0.000000000000 	
Mg	  1.000000000000 	  0.000000000000 	  2.980000000000 	
Mg	  0.000000000000 	  3.980000000000 	  0.000000000000 	
Mg	  1.000000000000 	  3.980000000000 	  2.980000000000 	
Mg	  3.980000000000 	  0.000000000000 	  0.000000000000 	
Mg	  4.980000000000 	  0.000000000000 	  2.980000000000 	
Mg	  3.980000000000 	  3.980000000000 	  0.000000000000 	
Mg	  4.980000000000 	  3.980000000000 	  2.980000000000 	
Mg	  1.697501566683 	  1.795001044455 	  0.000000000000 	
Mg	  2.697501566683 	  1.795001044455 	  2.980000000000 	
Mg	  1.697501566683 	  5.775001044455 	  0.000000000000 	
Mg	  2.697501566683 	  5.775001044455 	  2.980000000000 	
Mg	  5.677501566683 	  1.795001044455 	  0.000000000000 	
Mg	  6.677501566683 	  1.795001044455 	  2.980000000000 	
Mg	  5.677501566683 	  5.775001044455 	  0.000000000000 	
Mg	  6.677501566683 	  5.775001044455 	  2.980000000000 	
Mg	  2.477497388862 	  0.000000000000 	  1.502502611138 	
Mg	  3.477497388862 	  0.000000000000 	  4.482502611138 	
Mg	  2.477497388862 	  3.980000000000 	  1.502502611138 	
Mg	  3.477497388862 	  3.980000000000 	  4.482502611138 	
Mg	  6.457497388862 	  0.000000000000 	  1.502502611138 	
Mg	  7.457497388862 	  0.000000000000 	  4.482502611138 	
Mg	  6.457497388862 	  3.980000000000 	  1.502502611138 	
Mg	  7.457497388862 	  3.980000000000 	  4.482502611138 	
Mg	  0.487497388862 	  1.990000000000 	  1.502502611138 	
Mg	  1.487497388862 	  1.990000000000 	  4.482502611138 	
Mg	  0.487497388862 	  5.970000000000 	  1.502502611138 	
Mg	  1.487497388862 	  5.970000000000 	  4.482502611138 	
Mg	  4.467497388862 	  1.990000000000 	  1.502502611138 	
Mg	  5.467497388862 	  1.990000000000 	  4.482502611138 	
Mg	  4.467497388862 	  5.970000000000 	  1.502502611138 	
Mg	  5.467497388862 	  5.970000000000 	  4.482502611138 	
O	  1.990000000000 	  0.000000000000 	  0.000000000000 	
O	  2.990000000000 	  0.000000000000 	  2.980000000000 	
O	  1.990000000000 	  3.980000000000 	  0.000000000000 	
O	  2.990000000000 	  3.980000000000 	  2.980000000000 	
O	  5.970000000000 	  0.000000000000 	  0.000000000000 	
O	  6.970000000000 	  0.000000000000 	  2.980000000000 	
O	  5.970000000000 	  3.980000000000 	  0.000000000000 	
O	  6.970000000000 	  3.980000000000 	  2.980000000000 	
O	  0.000000000000 	  1.990000000000 	  0.000000000000 	
O	  1.000000000000 	  1.990000000000 	  2.980000000000 	
O	  0.000000000000 	  5.970000000000 	  0.000000000000 	
O	  1.000000000000 	  5.970000000000 	  2.980000000000 	
O	  3.980000000000 	  1.990000000000 	  0.000000000000 	
O	  4.980000000000 	  1.990000000000 	  2.980000000000 	
O	  3.980000000000 	  5.970000000000 	  0.000000000000 	
O	  4.980000000000 	  5.970000000000 	  2.980000000000 	
O	  0.487497388862 	  0.000000000000 	  1.502502611138 	
O	  1.487497388862 	  0.000000000000 	  4.482502611138 	
O	  0.487497388862 	  3.980000000000 	  1.502502611138 	
O	  1.487497388862 	  3.980000000000 	  4.482502611138 	
O	  4.467497388862 	  0.000000000000 	  1.502502611138 	
O	  5.467497388862 	  0.000000000000 	  4.482502611138 	
O	  4.467497388862 	  3.980000000000 	  1.502502611138 	
O	  5.467497388862 	  3.980000000000 	  4.482502611138 	
O	  2.867495299951 	  1.349428431035 	  1.502502611138 	
O	  3.867495299951 	  1.349428431035 	  4.482502611138 	
O	  2.867495299951 	  5.329428431035 	  1.502502611138 	
O	  3.867495299951 	  5.329428431035 	  4.482502611138 	
O	  6.847495299951 	  1.349428431035 	  1.502502611138 	
O	  7.847495299951 	  1.349428431035 	  4.482502611138 	
O	  6.847495299951 	  5.329428431035 	  1.502502611138 	
O	  7.847495299951 	  5.329428431035 	  4.482502611138 	
64 
Energy: 2.8736527936497573e+00 
Mg	  0.000000000000 	  0.000000000000 	  0.000000000000 	
Mg	  1.000000000000 	  0.000000000000 	  2.980000000000 	
Mg	  0.000000000000 	  3.980000000000 	  0.000000000000 	
Mg	  1.000000000000 	  3.980000000000 	  2.980000000000 	
Mg	  3.980000000000 	  0.000000000000 	  0.000000000000 	
Mg	  4.980000000000 	  0.000000000000 	  2.980000000000 	
Mg	  3.980000000000 	  3.980000000000 	  0.000000000000 	
Mg	  4.980000000000 	  3.980000000000 	  2.980000000000 	
Mg	  1.724121173801 	  1.815569147556 	  0.000000000000 	
Mg	  2.724121173801 	  1.815569147556 	  2.980000000000 	
Mg	  1.724121173801 	  5.795569147556 	  0.000000000000 	
Mg	  2.724121173801 	  5.795569147556 	  2.980000000000 	
Mg	  5.704121173801 	  1.815569147556 	  0.000000000000 	
Mg	  6.704121173801 	  1.815569147556 	  2.980000000000 	
Mg	  5.704121173801 	  5.795569147556 	  0.000000000000 	
Mg	  6.704121173801 	  5.795569147556 	  2.980000000000 	
Mg	  2.455704963842 	  0.000000000000 	  1.541225226291 	
Mg	  3.455704963842 	  0.000000000000 	  4.521225226291 	
Mg	  2.455704963842 	  3.980000000000 	  1.541225226291 	
Mg	  3.455704963842 	  3.980000000000 	  4.521225226291 	
Mg	  6.435704963842 	  0.000000000000 	  1.541225226291 	
Mg	  7.435704963842 	  0.000000000000 	  4.521225226291 	
Mg	  6.435704963842 	  3.980000000000 	  1.541225226291 	
Mg	  7.435704963842 	  3.980000000000 	  4.521225226291 	
Mg	  0.457239868776 	  1.998465095066 	  1.541225226291 	
Mg	  1.457239868776 	  1.998465095066 	  4.521225226291 	
Mg	  0.457239868776 	  5.978465095066 	  1.541225226291 	
Mg	  1.457239868776 	  5.978465095066 	  4.521225226291 	
Mg	  4.437239868776 	  1.998465095066 	  1.541225226291 	
Mg	  5.437239868776 	  1.998465095066 	  4.521225226291 	
Mg	  4.437239868776 	  5.978465095066 	  1.541225226291 	
Mg	  5.437239868776 	  5.978465095066 	  4.521225226291 	
O	  1.998465095066 	  0.000000000000 	  0.000000000000 	
O	  2.998465095066 	  0.000000000000 	  2.980000000000 	
O	  1.998465095066 	  3.980000000000 	  0.000000000000 	
O	  2.998465095066 	  3.980000000000 	  2.980000000000 	
O	  5.978465095066 	  0.000000000000 	  0.000000000000 	
O	  6.978465095066 	  0.000000000000 	  2.980000000000 	
O	  5.978465095066 	  3.980000000000 	  0.000000000000 	
O	  6.978465095066 	  3.980000000000 	  2.980000000000 	
O	  0.000000000000 	  1.998465095066 	  0.000000000000 	
O	  1.000000000000 	  1.998465095066 	  2.980000000000 	
O	  0.000000000000 	  5.978465095066 	  0.000000000000 	
O	  1.000000000000 	  5.978465095066 	  2.980000000000 	
O	  3.980000000000 	  1.998465095066 	  0.000000000000 	
O	  4.980000000000 	  1.998465095066 	  2.980000000000 	
O	  3.980000000000 	  5.978465095066 	  0.000000000000 	
O	  4.980000000000 	  5.978465095066 	  2.980000000000 	
O	  0.457239868776 	  0.000000000000 	  1.541225226291 	
O	  1.457239868776 	  0.000000000000 	  4.521225226291 	
O	  0.457239868776 	  3.980000000000 	  1.541225226291 	
O	  1.457239868776 	  3.980000000000 	  4.521225226291 	
O	  4.437239868776 	  0.000000000000 	  1.541225226291 	
O	  5.437239868776 	  0.000000000000 	  4.521225226291 	
O	  4.437239868776 	  3.980000000000 	  1.541225226291 	
O	  5.437239868776 	  3.980000000000 	  4.521225226291 	
O	  2.821496858863 	  1.397651907495 	  1.541225226291 	
O	  3.821496858863 	  1.397651907495 	  4.521225226291 	
O	  2.821496858863 	  5.377651907495 	  1.541225226291 	
O	  3.821496858863 	  5.377651907495 	  4.521225226291 	
O	  6.801496858863 	  1.397651907495 	  1.541225226291 	
O	  7.801496858863 	  1.397651907495 	  4.521225226291 	
O	  6.801496858863 	  5.377651907495 	  1.541225226291 	
O	  7.801496858863 	  5.377651907495 	  4.521225226291 	
64 
Energy: 3.2600530994108681e+00 
Mg	  0.000000000000 	  0.000000000000 	  0.000000000000 	
Mg	  1.000000000000 	  0.000000000000 	  2.980000000000 	
Mg	  0.000000000000 	  3.980000000000 	  0.000000000000 	
Mg	  1.000000000000 	  3.980000000000 	  2.980000000000 	
Mg	  3.980000000000 	  0.000000000000 	  0.000000000000 	
Mg	  4.980000000000 	  0.000000000000 	  2.980000000000 	
Mg	  3.980000000000 	  3.980000000000 	  0.000000000000 	
Mg	  4.980000000000 	  3.980000000000 	  2.980000000000 	
Mg	  1.750821243136 	  1.836176462495 	  0.000000000000 	
Mg	  2.750821243136 	  1.836176462495 	  2.980000000000 	
Mg	  1.750821243136 	  5.816176462495 	  0.000000000000 	
Mg	  2.750821243136 	  5.816176462495 	  2.980000000000 	
Mg	  5.730821243136 	  1.836176462495 	  0.000000000000 	
Mg	  6.730821243136 	  1.836176462495 	  2.980000000000 	
Mg	  5.730821243136 	  5.816176462495 	  0.000000000000 	
Mg	  6.730821243136 	  5.816176462495 	  2.980000000000 	
Mg	  2.433662998011 	  0.000000000000 	  1.580110804418 	
Mg	  3.433662998011 	  0.000000000000 	  4.560110804418 	
Mg	  2.433662998011 	  3.980000000000 	  1.580110804418 	
Mg	  3.433662998011 	  3.980000000000 	  4.560110804418 	
Mg	  6.413662998011 	  0.000000000000 	  1.580110804418 	
Mg	  7.413662998011 	  0.000000000000 	  4.560110804418 	
Mg	  6.413662998011 	  3.980000000000 	  1.580110804418 	
Mg	  7.413662998011 	  3.980000000000 	  4.560110804418 	
Mg	  0.426776096797 	  2.006886901214 	  1.580110804418 	
Mg	  1.426776096797 	  2.006886901214 	  4.560110804418 	
Mg	  0.426776096797 	  5.986886901214 	  1.580110804418 	
Mg	  1.426776096797 	  5.986886901214 	  4.560110804418 	
Mg	  4.406776096797 	  2.006886901214 	  1.580110804418 	
Mg	  5.406776096797 	  2.006886901214 	  4.560110804418 	
Mg	  4.406776096797 	  5.986886901214 	  1.580110804418 	
Mg	  5.406776096797 	  5.986886901214 	  4.560110804418 	
O	  2.006886901214 	  0.000000000000 	  0.000000000000 	
O	  3.006886901214 	  0.000000000000 	  2.980000000000 	
O	  2.006886901214 	  3.980000000000 	  0.000000000000 	
O	  3.006886901214 	  3.980000000000 	  2.980000000000 	
O	  5.986886901214 	  0.000000000000 	  0.000000000000 	
O	  6.986886901214 	  0.000000000000 	  2.980000000000 	
O	  5.986886901214 	  3.980000000000 	  0.000000000000 	
O	  6.986886901214 	  3.980000000000 	  2.980000000000 	
O	  0.000000000000 	  2.006886901214 	  0.000000000000 	
O	  1.000000000000 	  2.006886901214 	  2.980000000000 	
O	  0.000000000000 	  5.986886901214 	  0.000000000000 	
O	  1.000000000000 	  5.986886901214 	  2.980000000000 	
O	  3.980000000000 	  2.006886901214 	  0.000000000000 	
O	  4.980000000000 	  2.006886901214 	  2.980000000000 	
O	  3.980000000000 	  5.986886901214 	  0.000000000000 	
O	  4.980000000000 	  5.986886901214 	  2.980000000000 	
O	  0.426776096797 	  0.000000000000 	  1.580110804418 	
O	  1.426776096797 	  0.000000000000 	  4.560110804418 	
O	  0.426776096797 	  3.980000000000 	  1.580110804418 	
O	  1.426776096797 	  3.980000000000 	  4.560110804418 	
O	  4.406776096797 	  0.000000000000 	  1.580110804418 	
O	  5.406776096797 	  0.000000000000 	  4.560110804418 	
O	  4.406776096797 	  3.980000000000 	  1.580110804418 	
O	  5.406776096797 	  3.980000000000 	  4.560110804418 	
O	  2.775083875448 	  1.446103110023 	  1.580110804418 	
O	  3.775083875448 	  1.446103110023 	  4.560110804418 	
O	  2.775083875448 	  5.426103110023 	  1.580110804418 	
O	  3.775083875448 	  5.426103110023 	  4.560110804418 	
O	  6.755083875448 	  1.446103110023 	  1.580110804418 	
O	  7.755083875448 	  1.446103110023 	  4.560110804418 	
O	  6.755083875448 	  5.426103110023 	  1.580110804418 	
O	  7.755083875448 	  5.426103110023 	  4.560110804418 	
64 
Energy: 3.8678703508427437e+00 
Mg	  0.000000000000 	  0.000000000000 	  0.000000000000 	
Mg	  1.000000000000 	  0.000000000000 	  2.980000000000 	
Mg	  0.000000000000 	  3.980000000000 	  0.000000000000 	
Mg	  1.000000000000 	  3.980000000000 	  2.980000000000 	
Mg	  3.980000000000 	  0.000000000000 	  0.000000000000 	
Mg	  4.980000000000 	  0.000000000000 	  2.980000000000 	
Mg	  3.980000000000 	  3.980000000000 	  0.000000000000 	
Mg	  4.980000000000 	  3.980000000000 	  2.980000000000 	
Mg	  1.777536191237 	  1.856796182679 	  0.000000000000 	
Mg	  2.777536191237 	  1.856796182679 	  2.980000000000 	
Mg	  1.777536191237 	  5.836796182679 	  0.000000000000 	
Mg	  2.777536191237 	  5.836796182679 	  2.980000000000 	
Mg	  5.757536191237 	  1.856796182679 	  0.000000000000 	
Mg	  6.757536191237 	  1.856796182679 	  2.980000000000 	
Mg	  5.757536191237 	  5.836796182679 	  0.000000000000 	
Mg	  6.757536191237 	  5.836796182679 	  2.980000000000 	
Mg	  2.411616122774 	  0.000000000000 	  1.619016208353 	
Mg	  3.411616122774 	  0.000000000000 	  4.599016208353 	
Mg	  2.411616122774 	  3.980000000000 	  1.619016208353 	
Mg	  3.411616122774 	  3.980000000000 	  4.599016208353 	
Mg	  6.391616122774 	  0.000000000000 	  1.619016208353 	
Mg	  7.391616122774 	  0.000000000000 	  4.599016208353 	
Mg	  6.391616122774 	  3.980000000000 	  1.619016208353 	
Mg	  7.391616122774 	  3.980000000000 	  4.599016208353 	
Mg	  0.396299957210 	  2.015316165564 	  1.619016208353 	
Mg	  1.396299957210 	  2.015316165564 	  4.599016208353 	
Mg	  0.396299957210 	  5.995316165563 	  1.619016208353 	
Mg	  1.396299957210 	  5.995316165563 	  4.599016208353 	
Mg	  4.376299957210 	  2.015316165564 	  1.619016208353 	
Mg	  5.376299957210 	  2.015316165564 	  4.599016208353 	
Mg	  4.376299957210 	  5.995316165563 	  1.619016208353 	
Mg	  5.376299957210 	  5.995316165563 	  4.599016208353 	
O	  2.015316165564 	  0.000000000000 	  0.000000000000 	
O	  3.015316165564 	  0.000000000000 	  2.980000000000 	
O	  2.015316165564 	  3.980000000000 	  0.000000000000 	
O	  3.015316165564 	  3.980000000000 	  2.980000000000 	
O	  5.995316165563 	  0.000000000000 	  0.000000000000 	
O	  6.995316165563 	  0.000000000000 	  2.980000000000 	
O	  5.995316165563 	  3.980000000000 	  0.000000000000 	
O	  6.995316165563 	  3.980000000000 	  2.980000000000 	
O	  0.000000000000 	  2.015316165564 	  0.000000000000 	
O	  1.000000000000 	  2.015316165564 	  2.980000000000 	
O	  0.000000000000 	  5.995316165563 	  0.000000000000 	
O	  1.000000000000 	  5.995316165563 	  2.980000000000 	
O	  3.980000000000 	  2.015316165564 	  0.000000000000 	
O	  4.980000000000 	  2.015316165564 	  2.980000000000 	
O	  3.980000000000 	  5.995316165563 	  0.000000000000 	
O	  4.980000000000 	  5.995316165563 	  2.980000000000 	
O	  0.396299957210 	  0.000000000000 	  1.619016208353 	
O	  1.396299957210 	  0.000000000000 	  4.599016208353 	
O	  0.396299957210 	  3.980000000000 	  1.619016208353 	
O	  1.396299957210 	  3.980000000000 	  4.599016208353 	
O	  4.376299957210 	  0.000000000000 	  1.619016208353 	
O	  5.376299957210 	  0.000000000000 	  4.599016208353 	
O	  4.376299957210 	  3.980000000000 	  1.619016208353 	
O	  5.376299957210 	  3.980000000000 	  4.599016208353 	
O	  2.728656088542 	  1.494578021789 	  1.619016208353 	
O	  3.728656088542 	  1.494578021789 	  4.599016208353 	
O	  2.728656088542 	  5.474578021789 	  1.619016208353 	
O	  3.728656088542 	  5.474578021789 	  4.599016208353 	
O	  6.708656088542 	  1.494578021789 	  1.619016208353 	
O	  7.708656088542 	  1.494578021789 	  4.599016208353 	
O	  6.708656088542 	  5.474578021789 	  1.619016208353 	
O	  7.708656088542 	  5.474578021789 	  4.599016208353 	
64 
Energy: 4.5314357022501603e+00 
Mg	  0.000000000000 	  0.000000000000 	  0.000000000000 	
Mg	  1.000000000000 	  0.000000000000 	  2.980000000000 	
Mg	  0.000000000000 	  3.980000000000 	  0.000000000000 	
Mg	  1.000000000000 	  3.980000000000 	  2.980000000000 	
Mg	  3.980000000000 	  0.000000000000 	  0.000000000000 	
Mg	  4.980000000000 	  0.000000000000 	  2.980000000000 	
Mg	  3.980000000000 	  3.980000000000 	  0.000000000000 	
Mg	  4.980000000000 	  3.980000000000 	  2.980000000000 	
Mg	  1.804263096911 	  1.877426029449 	  0.000000000000 	
Mg	  2.804263096911 	  1.877426029449 	  2.980000000000 	
Mg	  1.804263096911 	  5.857426029449 	  0.000000000000 	
Mg	  2.804263096911 	  5.857426029449 	  2.980000000000 	
Mg	  5.784263096911 	  1.877426029449 	  0.000000000000 	
Mg	  6.784263096911 	  1.877426029449 	  2.980000000000 	
Mg	  5.784263096911 	  5.857426029449 	  0.000000000000 	
Mg	  6.784263096911 	  5.857426029449 	  2.980000000000 	
Mg	  2.389566557221 	  0.000000000000 	  1.657937231833 	
Mg	  3.389566557221 	  0.000000000000 	  4.637937231833 	
Mg	  2.389566557221 	  3.980000000000 	  1.657937231833 	
Mg	  3.389566557221 	  3.980000000000 	  4.637937231833 	
Mg	  6.369566557221 	  0.000000000000 	  1.657937231833 	
Mg	  7.369566557221 	  0.000000000000 	  4.637937231833 	
Mg	  6.369566557221 	  3.980000000000 	  1.657937231833 	
Mg	  7.369566557221 	  3.980000000000 	  4.637937231833 	
Mg	  0.365814662694 	  2.023751894527 	  1.657937231833 	
Mg	  1.365814662694 	  2.023751894527 	  4.637937231833 	
Mg	  0.365814662694 	  6.003751894527 	  1.657937231833 	
Mg	  1.365814662694 	  6.003751894527 	  4.637937231833 	
Mg	  4.345814662694 	  2.023751894527 	  1.657937231833 	
Mg	  5.345814662694 	  2.023751894527 	  4.637937231833 	
Mg	  4.345814662694 	  6.003751894527 	  1.657937231833 	
Mg	  5.345814662694 	  6.003751894527 	  4.637937231833 	
O	  2.023751894527 	  0.000000000000 	  0.000000000000 	
O	  3.023751894527 	  0.000000000000 	  2.980000000000 	
O	  2.023751894527 	  3.980000000000 	  0.000000000000 	
O	  3.023751894527 	  3.980000000000 	  2.980000000000 	
O	  6.003751894527 	  0.000000000000 	  0.000000000000 	
O	  7.003751894527 	  0.000000000000 	  2.980000000000 	
O	  6.003751894527 	  3.980000000000 	  0.000000000000 	
O	  7.003751894527 	  3.980000000000 	  2.980000000000 	
O	  0.000000000000 	  2.023751894527 	  0.000000000000 	
O	  1.000000000000 	  2.023751894527 	  2.980000000000 	
O	  0.000000000000 	  6.003751894527 	  0.000000000000 	
O	  1.000000000000 	  6.003751894527 	  2.980000000000 	
O	  3.980000000000 	  2.023751894527 	  0.000000000000 	
O	  4.980000000000 	  2.023751894527 	  2.980000000000 	
O	  3.980000000000 	  6.003751894527 	  0.000000000000 	
O	  4.980000000000 	  6.003751894527 	  2.980000000000 	
O	  0.365814662694 	  0.000000000000 	  1.657937231833 	
O	  1.365814662694 	  0.000000000000 	  4.637937231833 	
O	  0.365814662694 	  3.980000000000 	  1.657937231833 	
O	  1.365814662694 	  3.980000000000 	  4.637937231833 	
O	  4.345814662694 	  0.000000000000 	  1.657937231833 	
O	  5.345814662694 	  0.000000000000 	  4.637937231833 	
O	  4.345814662694 	  3.980000000000 	  1.657937231833 	
O	  5.345814662694 	  3.980000000000 	  4.637937231833 	
O	  2.682218287376 	  1.543071427747 	  1.657937231833 	
O	  3.682218287376 	  1.543071427747 	  4.637937231833 	
O	  2.682218287376 	  5.523071427747 	  1.657937231833 	
O	  3.682218287376 	  5.523071427747 	  4.637937231833 	
O	  6.662218287376 	  1.543071427747 	  1.657937231833 	
O	  7.662218287376 	  1.543071427747 	  4.637937231833 	
O	  6.662218287376 	  5.523071427747 	  1.657937231833 	
O	  7.662218287376 	  5.523071427747 	  4.637937231833 	
64 
Energy: 5.1269157351811643e+00 
Mg	  0.000000000000 	  0.000000000000 	  0.000000000000 	
Mg	  1.000000000000 	  0.000000000000 	  2.980000000000 	
Mg	  0.000000000000 	  3.980000000000 	  0.000000000000 	
Mg	  1.000000000000 	  3.980000000000 	  2.980000000000 	
Mg	  3.980000000000 	  0.000000000000 	  0.000000000000 	
Mg	  4.980000000000 	  0.000000000000 	  2.980000000000 	
Mg	  3.980000000000 	  3.980000000000 	  0.000000000000 	
Mg	  4.980000000000 	  3.980000000000 	  2.980000000000 	
Mg	  1.830998720982 	  1.898063312183 	  0.000000000000 	
Mg	  2.830998720982 	  1.898063312183 	  2.980000000000 	
Mg	  1.830998720982 	  5.878063312183 	  0.000000000000 	
Mg	  2.830998720982 	  5.878063312183 	  2.980000000000 	
Mg	  5.810998720982 	  1.898063312183 	  0.000000000000 	
Mg	  6.810998720982 	  1.898063312183 	  2.980000000000 	
Mg	  5.810998720982 	  5.878063312183 	  0.000000000000 	
Mg	  6.810998720982 	  5.878063312183 	  2.980000000000 	
Mg	  2.367515450587 	  0.000000000000 	  1.696869538581 	
Mg	  3.367515450587 	  0.000000000000 	  4.676869538581 	
Mg	  2.367515450587 	  3.980000000000 	  1.696869538581 	
Mg	  3.367515450587 	  3.980000000000 	  4.676869538581 	
Mg	  6.347515450587 	  0.000000000000 	  1.696869538581 	
Mg	  7.347515450587 	  0.000000000000 	  4.676869538581 	
Mg	  6.347515450587 	  3.980000000000 	  1.696869538581 	
Mg	  7.347515450587 	  3.980000000000 	  4.676869538581 	
Mg	  0.335322956003 	  2.032192494584 	  1.696869538581 	
Mg	  1.335322956003 	  2.032192494584 	  4.676869538581 	
Mg	  0.335322956003 	  6.012192494584 	  1.696869538581 	
Mg	  1.335322956003 	  6.012192494584 	  4.676869538581 	
Mg	  4.315322956003 	  2.032192494584 	  1.696869538581 	
Mg	  5.315322956003 	  2.032192494584 	  4.676869538581 	
Mg	  4.315322956003 	  6.012192494584 	  1.696869538581 	
Mg	  5.315322956003 	  6.012192494584 	  4.676869538581 	
O	  2.032192494584 	  0.000000000000 	  0.000000000000 	
O	  3.032192494584 	  0.000000000000 	  2.980000000000 	
O	  2.032192494584 	  3.980000000000 	  0.000000000000 	
O	  3.032192494584 	  3.980000000000 	  2.980000000000 	
O	  6.012192494584 	  0.000000000000 	  0.000000000000 	
O	  7.012192494584 	  0.000000000000 	  2.980000000000 	
O	  6.012192494584 	  3.980000000000 	  0.000000000000 	
O	  7.012192494584 	  3.980000000000 	  2.980000000000 	
O	  0.000000000000 	  2.032192494584 	  0.000000000000 	
O	  1.000000000000 	  2.032192494584 	  2.980000000000 	
O	  0.000000000000 	  6.012192494584 	  0.000000000000 	
O	  1.000000000000 	  6.012192494584 	  2.980000000000 	
O	  3.980000000000 	  2.032192494584 	  0.000000000000 	
O	  4.980000000000 	  2.032192494584 	  2.980000000000 	
O	  3.980000000000 	  6.012192494584 	  0.000000000000 	
O	  4.980000000000 	  6.012192494584 	  2.980000000000 	
O	  0.335322956003 	  0.000000000000 	  1.696869538581 	
O	  1.335322956003 	  0.000000000000 	  4.676869538581 	
O	  0.335322956003 	  3.980000000000 	  1.696869538581 	
O	  1.335322956003 	  3.980000000000 	  4.676869538581 	
O	  4.315322956003 	  0.000000000000 	  1.696869538581 	
O	  5.315322956003 	  0.000000000000 	  4.676869538581 	
O	  4.315322956003 	  3.980000000000 	  1.696869538581 	
O	  5.315322956003 	  3.980000000000 	  4.676869538581 	
O	  2.635773815390 	  1.591578130396 	  1.696869538581 	
O	  3.635773815390 	  1.591578130396 	  4.676869538581 	
O	  2.635773815390 	  5.571578130396 	  1.696869538581 	
O	  3.635773815390 	  5.571578130396 	  4.676869538581 	
O	  6.615773815390 	  1.591578130396 	  1.696869538581 	
O	  7.615773815390 	  1.591578130396 	  4.676869538581 	
O	  6.615773815390 	  5.571578130396 	  1.696869538581 	
O	  7.615773815390 	  5.571578130396 	  4.676869538581 	
64 
Energy: 5.5628997611903177e+00 
Mg	  0.000000000000 	  0.000000000000 	  0.000000000000 	
Mg	  1.000000000000 	  0.000000000000 	  2.980000000000 	
Mg	  0.000000000000 	  3.980000000000 	  0.000000000000 	
Mg	  1.000000000000 	  3.980000000000 	  2.980000000000 	
Mg	  3.980000000000 	  0.000000000000 	  0.000000000000 	
Mg	  4.980000000000 	  0.000000000000 	  2.980000000000 	
Mg	  3.980000000000 	  3.980000000000 	  0.000000000000 	
Mg	  4.980000000000 	  3.980000000000 	  2.980000000000 	
Mg	  1.857740398944 	  1.918705715406 	  0.000000000000 	
Mg	  2.857740398944 	  1.918705715406 	  2.980000000000 	
Mg	  1.857740398944 	  5.898705715405 	  0.000000000000 	
Mg	  2.857740398944 	  5.898705715405 	  2.980000000000 	
Mg	  5.837740398944 	  1.918705715406 	  0.000000000000 	
Mg	  6.837740398944 	  1.918705715406 	  2.980000000000 	
Mg	  5.837740398944 	  5.898705715405 	  0.000000000000 	
Mg	  6.837740398944 	  5.898705715405 	  2.980000000000 	
Mg	  2.345462930638 	  0.000000000000 	  1.735809766020 	
Mg	  3.345462930638 	  0.000000000000 	  4.715809766020 	
Mg	  2.345462930638 	  3.980000000000 	  1.735809766020 	
Mg	  3.345462930638 	  3.980000000000 	  4.715809766020 	
Mg	  6.325462930638 	  0.000000000000 	  1.735809766020 	
Mg	  7.325462930638 	  0.000000000000 	  4.715809766020 	
Mg	  6.325462930638 	  3.980000000000 	  1.735809766020 	
Mg	  7.325462930638 	  3.980000000000 	  4.715809766020 	
Mg	  0.304826582309 	  2.040636348329 	  1.735809766020 	
Mg	  1.304826582309 	  2.040636348329 	  4.715809766020 	
Mg	  0.304826582309 	  6.020636348329 	  1.735809766020 	
Mg	  1.304826582309 	  6.020636348329 	  4.715809766020 	
Mg	  4.284826582309 	  2.040636348329 	  1.735809766020 	
Mg	  5.284826582309 	  2.040636348329 	  4.715809766020 	
Mg	  4.284826582309 	  6.020636348329 	  1.735809766020 	
Mg	  5.284826582309 	  6.020636348329 	  4.715809766020 	
O	  2.040636348329 	  0.000000000000 	  0.000000000000 	
O	  3.040636348329 	  0.000000000000 	  2.980000000000 	
O	  2.040636348329 	  3.980000000000 	  0.000000000000 	
O	  3.040636348329 	  3.980000000000 	  2.980000000000 	
O	  6.020636348329 	  0.000000000000 	  0.000000000000 	
O	  7.020636348329 	  0.000000000000 	  2.980000000000 	
O	  6.020636348329 	  3.980000000000 	  0.000000000000 	
O	  7.020636348329 	  3.980000000000 	  2.980000000000 	
O	  0.000000000000 	  2.040636348329 	  0.000000000000 	
O	  1.000000000000 	  2.040636348329 	  2.980000000000 	
O	  0.000000000000 	  6.020636348329 	  0.000000000000 	
O	  1.000000000000 	  6.020636348329 	  2.980000000000 	
O	  3.980000000000 	  2.040636348329 	  0.000000000000 	
O	  4.980000000000 	  2.040636348329 	  2.980000000000 	
O	  3.980000000000 	  6.020636348329 	  0.000000000000 	
O	  4.980000000000 	  6.020636348329 	  2.980000000000 	
O	  0.304826582309 	  0.000000000000 	  1.735809766020 	
O	  1.304826582309 	  0.000000000000 	  4.715809766020 	
O	  0.304826582309 	  3.980000000000 	  1.735809766020 	
O	  1.304826582309 	  3.980000000000 	  4.715809766020 	
O	  4.284826582309 	  0.000000000000 	  1.735809766020 	
O	  5.284826582309 	  0.000000000000 	  4.715809766020 	
O	  4.284826582309 	  3.980000000000 	  1.735809766020 	
O	  5.284826582309 	  3.980000000000 	  4.715809766020 	
O	  2.589324196485 	  1.640094219175 	  1.735809766020 	
O	  3.589324196485 	  1.640094219175 	  4.715809766020 	
O	  2.589324196485 	  5.620094219175 	  1.735809766020 	
O	  3.589324196485 	  5.620094219175 	  4.715809766020 	
O	  6.569324196485 	  1.640094219175 	  1.735809766020 	
O	  7.569324196485 	  1.640094219175 	  4.715809766020 	
O	  6.569324196485 	  5.620094219175 	  1.735809766020 	
O	  7.569324196485 	  5.620094219175 	  4.715809766020 	
64 
Energy: 5.7764472846910353e+00 
Mg	  0.000000000000 	  0.000000000000 	  0.000000000000 	
Mg	  1.000000000000 	  0.000000000000 	  2.980000000000 	
Mg	  0.000000000000 	  3.980000000000 	  0.000000000000 	
Mg	  1.000000000000 	  3.980000000000 	  2.980000000000 	
Mg	  3.980000000000 	  0.000000000000 	  0.000000000000 	
Mg	  4.980000000000 	  0.000000000000 	  2.980000000000 	
Mg	  3.980000000000 	  3.980000000000 	  0.000000000000 	
Mg	  4.980000000000 	  3.980000000000 	  2.980000000000 	
Mg	  1.884485308994 	  1.939350881631 	  0.000000000000 	
Mg	  2.884485308994 	  1.939350881631 	  2.980000000000 	
Mg	  1.884485308994 	  5.919350881631 	  0.000000000000 	
Mg	  2.884485308994 	  5.919350881631 	  2.980000000000 	
Mg	  5.864485308994 	  1.939350881631 	  0.000000000000 	
Mg	  6.864485308994 	  1.939350881631 	  2.980000000000 	
Mg	  5.864485308994 	  5.919350881631 	  0.000000000000 	
Mg	  6.864485308994 	  5.919350881631 	  2.980000000000 	
Mg	  2.323409890088 	  0.000000000000 	  1.774754163721 	
Mg	  3.323409890088 	  0.000000000000 	  4.754754163721 	
Mg	  2.323409890088 	  3.980000000000 	  1.774754163721 	
Mg	  3.323409890088 	  3.980000000000 	  4.754754163721 	
Mg	  6.303409890088 	  0.000000000000 	  1.774754163721 	
Mg	  7.303409890088 	  0.000000000000 	  4.754754163721 	
Mg	  6.303409890088 	  3.980000000000 	  1.774754163721 	
Mg	  7.303409890088 	  3.980000000000 	  4.754754163721 	
Mg	  0.274327863184 	  2.049082026905 	  1.774754163721 	
Mg	  1.274327863184 	  2.049082026905 	  4.754754163721 	
Mg	  0.274327863184 	  6.029082026905 	  1.774754163721 	
Mg	  1.274327863184 	  6.029082026905 	  4.754754163721 	
Mg	  4.254327863184 	  2.049082026905 	  1.774754163721 	
Mg	  5.254327863184 	  2.049082026905 	  4.754754163721 	
Mg	  4.254327863184 	  6.029082026905 	  1.774754163721 	
Mg	  5.254327863184 	  6.029082026905 	  4.754754163721 	
O	  2.049082026905 	  0.000000000000 	  0.000000000000 	
O	  3.049082026905 	  0.000000000000 	  2.980000000000 	
O	  2.049082026905 	  3.980000000000 	  0.000000000000 	
O	  3.049082026905 	  3.980000000000 	  2.980000000000 	
O	  6.029082026905 	  0.000000000000 	  0.000000000000 	
O	  7.029082026905 	  0.000000000000 	  2.980000000000 	
O	  6.029082026905 	  3.980000000000 	  0.000000000000 	
O	  7.029082026905 	  3.980000000000 	  2.980000000000 	
O	  0.000000000000 	  2.049082026905 	  0.000000000000 	
O	  1.000000000000 	  2.049082026905 	  2.980000000000 	
O	  0.000000000000 	  6.029082026905 	  0.000000000000 	
O	  1.000000000000 	  6.029082026905 	  2.980000000000 	
O	  3.980000000000 	  2.049082026905 	  0.000000000000 	
O	  4.980000000000 	  2.049082026905 	  2.980000000000 	
O	  3.980000000000 	  6.029082026905 	  0.000000000000 	
O	  4.980000000000 	  6.029082026905 	  2.980000000000 	
O	  0.274327863184 	  0.000000000000 	  1.774754163721 	
O	  1.274327863184 	  0.000000000000 	  4.754754163721 	
O	  0.274327863184 	  3.980000000000 	  1.774754163721 	
O	  1.274327863184 	  3.980000000000 	  4.754754163721 	
O	  4.254327863184 	  0.000000000000 	  1.774754163721 	
O	  5.254327863184 	  0.000000000000 	  4.754754163721 	
O	  4.254327863184 	  3.980000000000 	  1.774754163721 	
O	  5.254327863184 	  3.980000000000 	  4.754754163721 	
O	  2.542872180635 	  1.688615214681 	  1.774754163721 	
O	  3.542872180635 	  1.688615214681 	  4.754754163721 	
O	  2.542872180635 	  5.668615214681 	  1.774754163721 	
O	  3.542872180635 	  5.668615214681 	  4.754754163721 	
O	  6.522872180635 	  1.688615214681 	  1.774754163721 	
O	  7.522872180635 	  1.688615214681 	  4.754754163721 	
O	  6.522872180635 	  5.668615214681 	  1.774754163721 	
O	  7.522872180635 	  5.668615214681 	  4.754754163721 	
64 
Energy: 5.7300006539321089e+00 
Mg	  0.000000000000 	  0.000000000000 	  0.000000000000 	
Mg	  1.000000000000 	  0.000000000000 	  2.980000000000 	
Mg	  0.000000000000 	  3.980000000000 	  0.000000000000 	
Mg	  1.000000000000 	  3.980000000000 	  2.980000000000 	
Mg	  3.980000000000 	  0.000000000000 	  0.000000000000 	
Mg	  4.980000000000 	  0.000000000000 	  2.980000000000 	
Mg	  3.980000000000 	  3.980000000000 	  0.000000000000 	
Mg	  4.980000000000 	  3.980000000000 	  2.980000000000 	
Mg	  1.911231143038 	  1.959996812382 	  0.000000000000 	
Mg	  2.911231143038 	  1.959996812382 	  2.980000000000 	
Mg	  1.911231143038 	  5.939996812382 	  0.000000000000 	
Mg	  2.911231143038 	  5.939996812382 	  2.980000000000 	
Mg	  5.891231143038 	  1.959996812382 	  0.000000000000 	
Mg	  6.891231143038 	  1.959996812382 	  2.980000000000 	
Mg	  5.891231143038 	  5.939996812382 	  0.000000000000 	
Mg	  6.891231143038 	  5.939996812382 	  2.980000000000 	
Mg	  2.301356497791 	  0.000000000000 	  1.813699804350 	
Mg	  3.301356497791 	  0.000000000000 	  4.793699804350 	
Mg	  2.301356497791 	  3.980000000000 	  1.813699804350 	
Mg	  3.301356497791 	  3.980000000000 	  4.793699804350 	
Mg	  6.281356497791 	  0.000000000000 	  1.813699804350 	
Mg	  7.281356497791 	  0.000000000000 	  4.793699804350 	
Mg	  6.281356497791 	  3.980000000000 	  1.813699804350 	
Mg	  7.281356497791 	  3.980000000000 	  4.793699804350 	
Mg	  0.243828346721 	  2.057528151071 	  1.813699804350 	
Mg	  1.243828346721 	  2.057528151071 	  4.793699804350 	
Mg	  0.243828346721 	  6.037528151071 	  1.813699804350 	
Mg	  1.243828346721 	  6.037528151071 	  4.793699804350 	
Mg	  4.223828346721 	  2.057528151071 	  1.813699804350 	
Mg	  5.223828346721 	  2.057528151071 	  4.793699804350 	
Mg	  4.223828346721 	  6.037528151071 	  1.813699804350 	
Mg	  5.223828346721 	  6.037528151071 	  4.793699804350 	
O	  2.057528151071 	  0.000000000000 	  0.000000000000 	
O	  3.057528151071 	  0.000000000000 	  2.980000000000 	
O	  2.057528151071 	  3.980000000000 	  0.000000000000 	
O	  3.057528151071 	  3.980000000000 	  2.980000000000 	
O	  6.037528151071 	  0.000000000000 	  0.000000000000 	
O	  7.037528151071 	  0.000000000000 	  2.980000000000 	
O	  6.037528151071 	  3.980000000000 	  0.000000000000 	
O	  7.037528151071 	  3.980000000000 	  2.980000000000 	
O	  0.000000000000 	  2.057528151071 	  0.000000000000 	
O	  1.000000000000 	  2.057528151071 	  2.980000000000 	
O	  0.000000000000 	  6.037528151071 	  0.000000000000 	
O	  1.000000000000 	  6.037528151071 	  2.980000000000 	
O	  3.980000000000 	  2.057528151071 	  0.000000000000 	
O	  4.980000000000 	  2.057528151071 	  2.980000000000 	
O	  3.980000000000 	  6.037528151071 	  0.000000000000 	
O	  4.980000000000 	  6.037528151071 	  2.980000000000 	
O	  0.243828346721 	  0.000000000000 	  1.813699804350 	
O	  1.243828346721 	  0.000000000000 	  4.793699804350 	
O	  0.243828346721 	  3.980000000000 	  1.813699804350 	
O	  1.243828346721 	  3.980000000000 	  4.793699804350 	
O	  4.223828346721 	  0.000000000000 	  1.813699804350 	
O	  5.223828346721 	  0.000000000000 	  4.793699804350 	
O	  4.223828346721 	  3.980000000000 	  1.813699804350 	
O	  5.223828346721 	  3.980000000000 	  4.793699804350 	
O	  2.496419175168 	  1.737137703480 	  1.813699804350 	
O	  3.496419175168 	  1.737137703480 	  4.793699804350 	
O	  2.496419175168 	  5.717137703480 	  1.813699804350 	
O	  3.496419175168 	  5.717137703480 	  4.793699804350 	
O	  6.476419175168 	  1.737137703480 	  1.813699804350 	
O	  7.476419175168 	  1.737137703480 	  4.793699804350 	
O	  6.476419175168 	  5.717137703480 	  1.813699804350 	
O	  7.476419175168 	  5.717137703480 	  4.793699804350 	
64 
Energy: 5.4103430703586222e+00 
Mg	  0.000000000000 	  0.000000000000 	  0.000000000000 	
Mg	  1.000000000000 	  0.000000000000 	  2.980000000000 	
Mg	  0.000000000000 	  3.980000000000 	  0.000000000000 	
Mg	  1.000000000000 	  3.980000000000 	  2.980000000000 	
Mg	  3.980000000000 	  0.000000000000 	  0.000000000000 	
Mg	  4.980000000000 	  0.000000000000 	  2.980000000000 	
Mg	  3.980000000000 	  3.980000000000 	  0.000000000000 	
Mg	  4.980000000000 	  3.980000000000 	  2.980000000000 	
Mg	  1.937975497775 	  1.980641555962 	  0.000000000000 	
Mg	  2.937975497775 	  1.980641555962 	  2.980000000000 	
Mg	  1.937975497775 	  5.960641555962 	  0.000000000000 	
Mg	  2.937975497775 	  5.960641555962 	  2.980000000000 	
Mg	  5.917975497775 	  1.980641555962 	  0.000000000000 	
Mg	  6.917975497775 	  1.980641555962 	  2.980000000000 	
Mg	  5.917975497775 	  5.960641555962 	  0.000000000000 	
Mg	  6.917975497775 	  5.960641555962 	  2.980000000000 	
Mg	  2.279303963274 	  0.000000000000 	  1.852643381400 	
Mg	  3.279303963274 	  0.000000000000 	  4.832643381400 	
Mg	  2.279303963274 	  3.980000000000 	  1.852643381400 	
Mg	  3.279303963274 	  3.980000000000 	  4.832643381400 	
Mg	  6.259303963274 	  0.000000000000 	  1.852643381400 	
Mg	  7.259303963274 	  0.000000000000 	  4.832643381400 	
Mg	  6.259303963274 	  3.980000000000 	  1.852643381400 	
Mg	  7.259303963274 	  3.980000000000 	  4.832643381400 	
Mg	  0.213330290937 	  2.065973672337 	  1.852643381400 	
Mg	  1.213330290937 	  2.065973672337 	  4.832643381400 	
Mg	  0.213330290937 	  6.045973672337 	  1.852643381400 	
Mg	  1.213330290937 	  6.045973672337 	  4.832643381400 	
Mg	  4.193330290937 	  2.065973672337 	  1.852643381400 	
Mg	  5.193330290937 	  2.065973672337 	  4.832643381400 	
Mg	  4.193330290937 	  6.045973672337 	  1.852643381400 	
Mg	  5.193330290937 	  6.045973672337 	  4.832643381400 	
O	  2.065973672337 	  0.000000000000 	  0.000000000000 	
O	  3.065973672337 	  0.000000000000 	  2.980000000000 	
O	  2.065973672337 	  3.980000000000 	  0.000000000000 	
O	  3.065973672337 	  3.980000000000 	  2.980000000000 	
O	  6.045973672337 	  0.000000000000 	  0.000000000000 	
O	  7.045973672337 	  0.000000000000 	  2.980000000000 	
O	  6.045973672337 	  3.980000000000 	  0.000000000000 	
O	  7.045973672337 	  3.980000000000 	  2.980000000000 	
O	  0.000000000000 	  2.065973672337 	  0.000000000000 	
O	  1.000000000000 	  2.065973672337 	  2.980000000000 	
O	  0.000000000000 	  6.045973672337 	  0.000000000000 	
O	  1.000000000000 	  6.045973672337 	  2.980000000000 	
O	  3.980000000000 	  2.065973672337 	  0.000000000000 	
O	  4.980000000000 	  2.065973672337 	  2.980000000000 	
O	  3.980000000000 	  6.045973672337 	  0.000000000000 	
O	  4.980000000000 	  6.045973672337 	  2.980000000000 	
O	  0.213330290937 	  0.000000000000 	  1.852643381400 	
O	  1.213330290937 	  0.000000000000 	  4.832643381400 	
O	  0.213330290937 	  3.980000000000 	  1.852643381400 	
O	  1.213330290937 	  3.980000000000 	  4.832643381400 	
O	  4.193330290937 	  0.000000000000 	  1.852643381400 	
O	  5.193330290937 	  0.000000000000 	  4.832643381400 	
O	  4.193330290937 	  3.980000000000 	  1.852643381400 	
O	  5.193330290937 	  3.980000000000 	  4.832643381400 	
O	  2.449968196024 	  1.785657670045 	  1.852643381400 	
O	  3.449968196024 	  1.785657670045 	  4.832643381400 	
O	  2.449968196024 	  5.765657670045 	  1.852643381400 	
O	  3.449968196024 	  5.765657670045 	  4.832643381400 	
O	  6.429968196024 	  1.785657670045 	  1.852643381400 	
O	  7.429968196024 	  1.785657670045 	  4.832643381400 	
O	  6.429968196024 	  5.765657670045 	  1.852643381400 	
O	  7.429968196024 	  5.765657670045 	  4.832643381400 	
64 
Energy: 4.8285540633973403e+00 
Mg	  0.000000000000 	  0.000000000000 	  0.000000000000 	
Mg	  1.000000000000 	  0.000000000000 	  2.980000000000 	
Mg	  0.000000000000 	  3.980000000000 	  0.000000000000 	
Mg	  1.000000000000 	  3.980000000000 	  2.980000000000 	
Mg	  3.980000000000 	  0.000000000000 	  0.000000000000 	
Mg	  4.980000000000 	  0.000000000000 	  2.980000000000 	
Mg	  3.980000000000 	  3.980000000000 	  0.000000000000 	
Mg	  4.980000000000 	  3.980000000000 	  2.980000000000 	
Mg	  1.964716233723 	  2.001283351249 	  0.000000000000 	
Mg	  2.964716233723 	  2.001283351249 	  2.980000000000 	
Mg	  1.964716233723 	  5.981283351249 	  0.000000000000 	
Mg	  2.964716233723 	  5.981283351249 	  2.980000000000 	
Mg	  5.944716233723 	  2.001283351249 	  0.000000000000 	
Mg	  6.944716233723 	  2.001283351249 	  2.980000000000 	
Mg	  5.944716233723 	  5.981283351249 	  0.000000000000 	
Mg	  6.944716233723 	  5.981283351249 	  2.980000000000 	
Mg	  2.257253173934 	  0.000000000000 	  1.891581998670 	
Mg	  3.257253173934 	  0.000000000000 	  4.871581998670 	
Mg	  2.257253173934 	  3.980000000000 	  1.891581998670 	
Mg	  3.257253173934 	  3.980000000000 	  4.871581998670 	
Mg	  6.237253173934 	  0.000000000000 	  1.891581998670 	
Mg	  7.237253173934 	  0.000000000000 	  4.871581998670 	
Mg	  6.237253173934 	  3.980000000000 	  1.891581998670 	
Mg	  7.237253173934 	  3.980000000000 	  4.871581998670 	
Mg	  0.182835587632 	  2.074417586302 	  1.891581998670 	
Mg	  1.182835587632 	  2.074417586302 	  4.871581998670 	
Mg	  0.182835587632 	  6.054417586302 	  1.891581998670 	
Mg	  1.182835587632 	  6.054417586302 	  4.871581998670 	
Mg	  4.162835587632 	  2.074417586302 	  1.891581998670 	
Mg	  5.162835587632 	  2.074417586302 	  4.871581998670 	
Mg	  4.162835587632 	  6.054417586302 	  1.891581998670 	
Mg	  5.162835587632 	  6.054417586302 	  4.871581998670 	
O	  2.074417586302 	  0.000000000000 	  0.000000000000 	
O	  3.074417586302 	  0.000000000000 	  2.980000000000 	
O	  2.074417586302 	  3.980000000000 	  0.000000000000 	
O	  3.074417586302 	  3.980000000000 	  2.980000000000 	
O	  6.054417586302 	  0.000000000000 	  0.000000000000 	
O	  7.054417586302 	  0.000000000000 	  2.980000000000 	
O	  6.054417586302 	  3.980000000000 	  0.000000000000 	
O	  7.054417586302 	  3.980000000000 	  2.980000000000 	
O	  0.000000000000 	  2.074417586302 	  0.000000000000 	
O	  1.000000000000 	  2.074417586302 	  2.980000000000 	
O	  0.000000000000 	  6.054417586302 	  0.000000000000 	
O	  1.000000000000 	  6.054417586302 	  2.980000000000 	
O	  3.980000000000 	  2.074417586302 	  0.000000000000 	
O	  4.980000000000 	  2.074417586302 	  2.980000000000 	
O	  3.980000000000 	  6.054417586302 	  0.000000000000 	
O	  4.980000000000 	  6.054417586302 	  2.980000000000 	
O	  0.182835587632 	  0.000000000000 	  1.891581998670 	
O	  1.182835587632 	  0.000000000000 	  4.871581998670 	
O	  0.182835587632 	  3.980000000000 	  1.891581998670 	
O	  1.182835587632 	  3.980000000000 	  4.871581998670 	
O	  4.162835587632 	  0.000000000000 	  1.891581998670 	
O	  5.162835587632 	  0.000000000000 	  4.871581998670 	
O	  4.162835587632 	  3.980000000000 	  1.891581998670 	
O	  5.162835587632 	  3.980000000000 	  4.871581998670 	
O	  2.403521644040 	  1.834171624153 	  1.891581998670 	
O	  3.403521644040 	  1.834171624153 	  4.871581998670 	
O	  2.403521644040 	  5.814171624153 	  1.891581998670 	
O	  3.403521644040 	  5.814171624153 	  4.871581998670 	
O	  6.383521644040 	  1.834171624153 	  1.891581998670 	
O	  7.383521644040 	  1.834171624153 	  4.871581998670 	
O	  6.383521644040 	  5.814171624153 	  1.891581998670 	
O	  7.383521644040 	  5.814171624153 	  4.871581998670 	
64 
Energy: 4.0212165941949642e+00 
Mg	  0.000000000000 	  0.000000000000 	  0.000000000000 	
Mg	  1.000000000000 	  0.000000000000 	  2.980000000000 	
Mg	  0.000000000000 	  3.980000000000 	  0.000000000000 	
Mg	  1.000000000000 	  3.980000000000 	  2.980000000000 	
Mg	  3.980000000000 	  0.000000000000 	  0.000000000000 	
Mg	  4.980000000000 	  0.000000000000 	  2.980000000000 	
Mg	  3.980000000000 	  3.980000000000 	  0.000000000000 	
Mg	  4.980000000000 	  3.980000000000 	  2.980000000000 	
Mg	  1.991451498743 	  2.021920644790 	  0.000000000000 	
Mg	  2.991451498743 	  2.021920644790 	  2.980000000000 	
Mg	  1.991451498743 	  6.001920644790 	  0.000000000000 	
Mg	  2.991451498743 	  6.001920644790 	  2.980000000000 	
Mg	  5.971451498743 	  2.021920644790 	  0.000000000000 	
Mg	  6.971451498743 	  2.021920644790 	  2.980000000000 	
Mg	  5.971451498743 	  6.001920644790 	  0.000000000000 	
Mg	  6.971451498743 	  6.001920644790 	  2.980000000000 	
Mg	  2.235204667116 	  0.000000000000 	  1.930513206650 	
Mg	  3.235204667116 	  0.000000000000 	  4.910513206650 	
Mg	  2.235204667116 	  3.980000000000 	  1.930513206650 	
Mg	  3.235204667116 	  3.980000000000 	  4.910513206650 	
Mg	  6.215204667116 	  0.000000000000 	  1.930513206650 	
Mg	  7.215204667116 	  0.000000000000 	  4.910513206650 	
Mg	  6.215204667116 	  3.980000000000 	  1.930513206650 	
Mg	  7.215204667116 	  3.980000000000 	  4.910513206650 	
Mg	  0.152345730233 	  2.082858936883 	  1.930513206650 	
Mg	  1.152345730233 	  2.082858936883 	  4.910513206650 	
Mg	  0.152345730233 	  6.062858936883 	  1.930513206650 	
Mg	  1.152345730233 	  6.062858936883 	  4.910513206650 	
Mg	  4.132345730233 	  2.082858936883 	  1.930513206650 	
Mg	  5.132345730233 	  2.082858936883 	  4.910513206650 	
Mg	  4.132345730233 	  6.062858936883 	  1.930513206650 	
Mg	  5.132345730233 	  6.062858936883 	  4.910513206650 	
O	  2.082858936883 	  0.000000000000 	  0.000000000000 	
O	  3.082858936883 	  0.000000000000 	  2.980000000000 	
O	  2.082858936883 	  3.980000000000 	  0.000000000000 	
O	  3.082858936883 	  3.980000000000 	  2.980000000000 	
O	  6.062858936883 	  0.000000000000 	  0.000000000000 	
O	  7.062858936883 	  0.000000000000 	  2.980000000000 	
O	  6.062858936883 	  3.980000000000 	  0.000000000000 	
O	  7.062858936883 	  3.980000000000 	  2.980000000000 	
O	  0.000000000000 	  2.082858936883 	  0.000000000000 	
O	  1.000000000000 	  2.082858936883 	  2.980000000000 	
O	  0.000000000000 	  6.062858936883 	  0.000000000000 	
O	  1.000000000000 	  6.062858936883 	  2.980000000000 	
O	  3.980000000000 	  2.082858936883 	  0.000000000000 	
O	  4.980000000000 	  2.082858936883 	  2.980000000000 	
O	  3.980000000000 	  6.062858936883 	  0.000000000000 	
O	  4.980000000000 	  6.062858936883 	  2.980000000000 	
O	  0.152345730233 	  0.000000000000 	  1.930513206650 	
O	  1.152345730233 	  0.000000000000 	  4.910513206650 	
O	  0.152345730233 	  3.980000000000 	  1.930513206650 	
O	  1.152345730233 	  3.980000000000 	  4.910513206650 	
O	  4.132345730233 	  0.000000000000 	  1.930513206650 	
O	  5.132345730233 	  0.000000000000 	  4.910513206650 	
O	  4.132345730233 	  3.980000000000 	  1.930513206650 	
O	  5.132345730233 	  3.980000000000 	  4.910513206650 	
O	  2.357081251303 	  1.882676647357 	  1.930513206650 	
O	  3.357081251303 	  1.882676647357 	  4.910513206650 	
O	  2.357081251303 	  5.862676647357 	  1.930513206650 	
O	  3.357081251303 	  5.862676647357 	  4.910513206650 	
O	  6.337081251303 	  1.882676647357 	  1.930513206650 	
O	  7.337081251303 	  1.882676647357 	  4.910513206650 	
O	  6.337081251303 	  5.862676647357 	  1.930513206650 	
O	  7.337081251303 	  5.862676647357 	  4.910513206650 	
64 
Energy: 3.0525632666697398e+00 
Mg	  0.000000000000 	  0.000000000000 	  0.000000000000 	
Mg	  1.000000000000 	  0.000000000000 	  2.980000000000 	
Mg	  0.000000000000 	  3.980000000000 	  0.000000000000 	
Mg	  1.000000000000 	  3.980000000000 	  2.980000000000 	
Mg	  3.980000000000 	  0.000000000000 	  0.000000000000 	
Mg	  4.980000000000 	  0.000000000000 	  2.980000000000 	
Mg	  3.980000000000 	  3.980000000000 	  0.000000000000 	
Mg	  4.980000000000 	  3.980000000000 	  2.980000000000 	
Mg	  2.018179714605 	  2.042552097178 	  0.000000000000 	
Mg	  3.018179714605 	  2.042552097178 	  2.980000000000 	
Mg	  2.018179714605 	  6.022552097178 	  0.000000000000 	
Mg	  3.018179714605 	  6.022552097178 	  2.980000000000 	
Mg	  5.998179714605 	  2.042552097178 	  0.000000000000 	
Mg	  6.998179714605 	  2.042552097178 	  2.980000000000 	
Mg	  5.998179714605 	  6.022552097178 	  0.000000000000 	
Mg	  6.998179714605 	  6.022552097178 	  2.980000000000 	
Mg	  2.213158775192 	  0.000000000000 	  1.969434949458 	
Mg	  3.213158775192 	  0.000000000000 	  4.949434949458 	
Mg	  2.213158775192 	  3.980000000000 	  1.969434949458 	
Mg	  3.213158775192 	  3.980000000000 	  4.949434949458 	
Mg	  6.193158775192 	  0.000000000000 	  1.969434949458 	
Mg	  7.193158775192 	  0.000000000000 	  4.949434949458 	
Mg	  6.193158775192 	  3.980000000000 	  1.969434949458 	
Mg	  7.193158775192 	  3.980000000000 	  4.949434949458 	
Mg	  0.121861912867 	  2.091296862325 	  1.969434949458 	
Mg	  1.121861912867 	  2.091296862325 	  4.949434949458 	
Mg	  0.121861912867 	  6.071296862325 	  1.969434949458 	
Mg	  1.121861912867 	  6.071296862325 	  4.949434949458 	
Mg	  4.101861912867 	  2.091296862325 	  1.969434949458 	
Mg	  5.101861912867 	  2.091296862325 	  4.949434949458 	
Mg	  4.101861912867 	  6.071296862325 	  1.969434949458 	
Mg	  5.101861912867 	  6.071296862325 	  4.949434949458 	
O	  2.091296862325 	  0.000000000000 	  0.000000000000 	
O	  3.091296862325 	  0.000000000000 	  2.980000000000 	
O	  2.091296862325 	  3.980000000000 	  0.000000000000 	
O	  3.091296862325 	  3.980000000000 	  2.980000000000 	
O	  6.071296862325 	  0.000000000000 	  0.000000000000 	
O	  7.071296862325 	  0.000000000000 	  2.980000000000 	
O	  6.071296862325 	  3.980000000000 	  0.000000000000 	
O	  7.071296862325 	  3.980000000000 	  2.980000000000 	
O	  0.000000000000 	  2.091296862325 	  0.000000000000 	
O	  1.000000000000 	  2.091296862325 	  2.980000000000 	
O	  0.000000000000 	  6.071296862325 	  0.000000000000 	
O	  1.000000000000 	  6.071296862325 	  2.980000000000 	
O	  3.980000000000 	  2.091296862325 	  0.000000000000 	
O	  4.980000000000 	  2.091296862325 	  2.980000000000 	
O	  3.980000000000 	  6.071296862325 	  0.000000000000 	
O	  4.980000000000 	  6.071296862325 	  2.980000000000 	
O	  0.121861912867 	  0.000000000000 	  1.969434949458 	
O	  1.121861912867 	  0.000000000000 	  4.949434949458 	
O	  0.121861912867 	  3.980000000000 	  1.969434949458 	
O	  1.121861912867 	  3.980000000000 	  4.949434949458 	
O	  4.101861912867 	  0.000000000000 	  1.969434949458 	
O	  5.101861912867 	  0.000000000000 	  4.949434949458 	
O	  4.101861912867 	  3.980000000000 	  1.969434949458 	
O	  5.101861912867 	  3.980000000000 	  4.949434949458 	
O	  2.310648305486 	  1.931170308818 	  1.969434949458 	
O	  3.310648305486 	  1.931170308818 	  4.949434949458 	
O	  2.310648305486 	  5.911170308818 	  1.969434949458 	
O	  3.310648305486 	  5.911170308818 	  4.949434949458 	
O	  6.290648305486 	  1.931170308818 	  1.969434949458 	
O	  7.290648305486 	  1.931170308818 	  4.949434949458 	
O	  6.290648305486 	  5.911170308818 	  1.969434949458 	
O	  7.290648305486 	  5.911170308818 	  4.949434949458 	
64 
Energy: 2.0174113414841526e+00 
Mg	  0.000000000000 	  0.000000000000 	  0.000000000000 	
Mg	  1.000000000000 	  0.000000000000 	  2.980000000000 	
Mg	  0.000000000000 	  3.980000000000 	  0.000000000000 	
Mg	  1.000000000000 	  3.980000000000 	  2.980000000000 	
Mg	  3.980000000000 	  0.000000000000 	  0.000000000000 	
Mg	  4.980000000000 	  0.000000000000 	  2.980000000000 	
Mg	  3.980000000000 	  3.980000000000 	  0.000000000000 	
Mg	  4.980000000000 	  3.980000000000 	  2.980000000000 	
Mg	  2.044899565825 	  2.063176572597 	  0.000000000000 	
Mg	  3.044899565825 	  2.063176572597 	  2.980000000000 	
Mg	  2.044899565825 	  6.043176572597 	  0.000000000000 	
Mg	  3.044899565825 	  6.043176572597 	  2.980000000000 	
Mg	  6.024899565825 	  2.063176572597 	  0.000000000000 	
Mg	  7.024899565825 	  2.063176572597 	  2.980000000000 	
Mg	  6.024899565825 	  6.043176572597 	  0.000000000000 	
Mg	  7.024899565825 	  6.043176572597 	  2.980000000000 	
Mg	  2.191115620001 	  0.000000000000 	  2.008345552281 	
Mg	  3.191115620001 	  0.000000000000 	  4.988345552281 	
Mg	  2.191115620001 	  3.980000000000 	  2.008345552281 	
Mg	  3.191115620001 	  3.980000000000 	  4.988345552281 	
Mg	  6.171115620001 	  0.000000000000 	  2.008345552281 	
Mg	  7.171115620001 	  0.000000000000 	  4.988345552281 	
Mg	  6.171115620001 	  3.980000000000 	  2.008345552281 	
Mg	  7.171115620001 	  3.980000000000 	  4.988345552281 	
Mg	  0.091385033860 	  2.099730586141 	  2.008345552281 	
Mg	  1.091385033860 	  2.099730586141 	  4.988345552281 	
Mg	  0.091385033860 	  6.079730586141 	  2.008345552281 	
Mg	  1.091385033860 	  6.079730586141 	  4.988345552281 	
Mg	  4.071385033860 	  2.099730586141 	  2.008345552281 	
Mg	  5.071385033860 	  2.099730586141 	  4.988345552281 	
Mg	  4.071385033860 	  6.079730586141 	  2.008345552281 	
Mg	  5.071385033860 	  6.079730586141 	  4.988345552281 	
O	  2.099730586141 	  0.000000000000 	  0.000000000000 	
O	  3.099730586141 	  0.000000000000 	  2.980000000000 	
O	  2.099730586141 	  3.980000000000 	  0.000000000000 	
O	  3.099730586141 	  3.980000000000 	  2.980000000000 	
O	  6.079730586141 	  0.000000000000 	  0.000000000000 	
O	  7.079730586141 	  0.000000000000 	  2.980000000000 	
O	  6.079730586141 	  3.980000000000 	  0.000000000000 	
O	  7.079730586141 	  3.980000000000 	  2.980000000000 	
O	  0.000000000000 	  2.099730586141 	  0.000000000000 	
O	  1.000000000000 	  2.099730586141 	  2.980000000000 	
O	  0.000000000000 	  6.079730586141 	  0.000000000000 	
O	  1.000000000000 	  6.079730586141 	  2.980000000000 	
O	  3.980000000000 	  2.099730586141 	  0.000000000000 	
O	  4.980000000000 	  2.099730586141 	  2.980000000000 	
O	  3.980000000000 	  6.079730586141 	  0.000000000000 	
O	  4.980000000000 	  6.079730586141 	  2.980000000000 	
O	  0.091385033860 	  0.000000000000 	  2.008345552281 	
O	  1.091385033860 	  0.000000000000 	  4.988345552281 	
O	  0.091385033860 	  3.980000000000 	  2.008345552281 	
O	  1.091385033860 	  3.980000000000 	  4.988345552281 	
O	  4.071385033860 	  0.000000000000 	  2.008345552281 	
O	  5.071385033860 	  0.000000000000 	  4.988345552281 	
O	  4.071385033860 	  3.980000000000 	  2.008345552281 	
O	  5.071385033860 	  3.980000000000 	  4.988345552281 	
O	  2.264223647089 	  1.979650651649 	  2.008345552281 	
O	  3.264223647089 	  1.979650651649 	  4.988345552281 	
O	  2.264223647089 	  5.959650651649 	  2.008345552281 	
O	  3.264223647089 	  5.959650651649 	  4.988345552281 	
O	  6.244223647089 	  1.979650651649 	  2.008345552281 	
O	  7.244223647089 	  1.979650651649 	  4.988345552281 	
O	  6.244223647089 	  5.959650651649 	  2.008345552281 	
O	  7.244223647089 	  5.959650651649 	  4.988345552281 	
64 
Energy: 1.0447912145726401e+00 
Mg	  0.000000000000 	  0.000000000000 	  0.000000000000 	
Mg	  1.000000000000 	  0.000000000000 	  2.980000000000 	
Mg	  0.000000000000 	  3.980000000000 	  0.000000000000 	
Mg	  1.000000000000 	  3.980000000000 	  2.980000000000 	
Mg	  3.980000000000 	  0.000000000000 	  0.000000000000 	
Mg	  4.980000000000 	  0.000000000000 	  2.980000000000 	
Mg	  3.980000000000 	  3.980000000000 	  0.000000000000 	
Mg	  4.980000000000 	  3.980000000000 	  2.980000000000 	
Mg	  2.071610011608 	  2.083793145375 	  0.000000000000 	
Mg	  3.071610011608 	  2.083793145375 	  2.980000000000 	
Mg	  2.071610011608 	  6.063793145375 	  0.000000000000 	
Mg	  3.071610011608 	  6.063793145375 	  2.980000000000 	
Mg	  6.051610011608 	  2.083793145375 	  0.000000000000 	
Mg	  7.051610011608 	  2.083793145375 	  2.980000000000 	
Mg	  6.051610011608 	  6.063793145375 	  0.000000000000 	
Mg	  7.051610011608 	  6.063793145375 	  2.980000000000 	
Mg	  2.169075081746 	  0.000000000000 	  2.047243744073 	
Mg	  3.169075081746 	  0.000000000000 	  5.027243744073 	
Mg	  2.169075081746 	  3.980000000000 	  2.047243744073 	
Mg	  3.169075081746 	  3.980000000000 	  5.027243744073 	
Mg	  6.149075081746 	  0.000000000000 	  2.047243744073 	
Mg	  7.149075081746 	  0.000000000000 	  5.027243744073 	
Mg	  6.149075081746 	  3.980000000000 	  2.047243744073 	
Mg	  7.149075081746 	  3.980000000000 	  5.027243744073 	
Mg	  0.060915668836 	  2.108159412910 	  2.047243744073 	
Mg	  1.060915668836 	  2.108159412910 	  5.027243744073 	
Mg	  0.060915668836 	  6.088159412910 	  2.047243744073 	
Mg	  1.060915668836 	  6.088159412910 	  5.027243744073 	
Mg	  4.040915668836 	  2.108159412910 	  2.047243744073 	
Mg	  5.040915668836 	  2.108159412910 	  5.027243744073 	
Mg	  4.040915668836 	  6.088159412910 	  2.047243744073 	
Mg	  5.040915668836 	  6.088159412910 	  5.027243744073 	
O	  2.108159412910 	  0.000000000000 	  0.000000000000 	
O	  3.108159412910 	  0.000000000000 	  2.980000000000 	
O	  2.108159412910 	  3.980000000000 	  0.000000000000 	
O	  3.108159412910 	  3.980000000000 	  2.980000000000 	
O	  6.088159412910 	  0.000000000000 	  0.000000000000 	
O	  7.088159412910 	  0.000000000000 	  2.980000000000 	
O	  6.088159412910 	  3.980000000000 	  0.000000000000 	
O	  7.088159412910 	  3.980000000000 	  2.980000000000 	
O	  0.000000000000 	  2.108159412910 	  0.000000000000 	
O	  1.000000000000 	  2.108159412910 	  2.980000000000 	
O	  0.000000000000 	  6.088159412910 	  0.000000000000 	
O	  1.000000000000 	  6.088159412910 	  2.980000000000 	
O	  3.980000000000 	  2.108159412910 	  0.000000000000 	
O	  4.980000000000 	  2.108159412910 	  2.980000000000 	
O	  3.980000000000 	  6.088159412910 	  0.000000000000 	
O	  4.980000000000 	  6.088159412910 	  2.980000000000 	
O	  0.060915668836 	  0.000000000000 	  2.047243744073 	
O	  1.060915668836 	  0.000000000000 	  5.027243744073 	
O	  0.060915668836 	  3.980000000000 	  2.047243744073 	
O	  1.060915668836 	  3.980000000000 	  5.027243744073 	
O	  4.040915668836 	  0.000000000000 	  2.047243744073 	
O	  5.040915668836 	  0.000000000000 	  5.027243744073 	
O	  4.040915668836 	  3.980000000000 	  2.047243744073 	
O	  5.040915668836 	  3.980000000000 	  5.027243744073 	
O	  2.217807616815 	  2.028116224059 	  2.047243744073 	
O	  3.217807616815 	  2.028116224059 	  5.027243744073 	
O	  2.217807616815 	  6.008116224059 	  2.047243744073 	
O	  3.217807616815 	  6.008116224059 	  5.027243744073 	
O	  6.197807616815 	  2.028116224059 	  2.047243744073 	
O	  7.197807616815 	  2.028116224059 	  5.027243744073 	
O	  6.197807616815 	  6.008116224059 	  2.047243744073 	
O	  7.197807616815 	  6.008116224059 	  5.027243744073 	
64 
Energy: 3.0215206317059234e-01 
Mg	  0.000000000000 	  0.000000000000 	  0.000000000000 	
Mg	  1.000000000000 	  0.000000000000 	  2.980000000000 	
Mg	  0.000000000000 	  3.980000000000 	  0.000000000000 	
Mg	  1.000000000000 	  3.980000000000 	  2.980000000000 	
Mg	  3.980000000000 	  0.000000000000 	  0.000000000000 	
Mg	  4.980000000000 	  0.000000000000 	  2.980000000000 	
Mg	  3.980000000000 	  3.980000000000 	  0.000000000000 	
Mg	  4.980000000000 	  3.980000000000 	  2.980000000000 	
Mg	  2.098310302800 	  2.104401111252 	  0.000000000000 	
Mg	  3.098310302800 	  2.104401111252 	  2.980000000000 	
Mg	  2.098310302800 	  6.084401111252 	  0.000000000000 	
Mg	  3.098310302800 	  6.084401111252 	  2.980000000000 	
Mg	  6.078310302800 	  2.104401111252 	  0.000000000000 	
Mg	  7.078310302800 	  2.104401111252 	  2.980000000000 	
Mg	  6.078310302800 	  6.084401111252 	  0.000000000000 	
Mg	  7.078310302800 	  6.084401111252 	  2.980000000000 	
Mg	  2.147036770417 	  0.000000000000 	  2.086128685896 	
Mg	  3.147036770417 	  0.000000000000 	  5.066128685896 	
Mg	  2.147036770417 	  3.980000000000 	  2.086128685896 	
Mg	  3.147036770417 	  3.980000000000 	  5.066128685896 	
Mg	  6.127036770417 	  0.000000000000 	  2.086128685896 	
Mg	  7.127036770417 	  0.000000000000 	  5.066128685896 	
Mg	  6.127036770417 	  3.980000000000 	  2.086128685896 	
Mg	  7.127036770417 	  3.980000000000 	  5.066128685896 	
Mg	  0.030454042261 	  2.116582728157 	  2.086128685896 	
Mg	  1.030454042261 	  2.116582728157 	  5.066128685896 	
Mg	  0.030454042261 	  6.096582728157 	  2.086128685896 	
Mg	  1.030454042261 	  6.096582728157 	  5.066128685896 	
Mg	  4.010454042261 	  2.116582728157 	  2.086128685896 	
Mg	  5.010454042261 	  2.116582728157 	  5.066128685896 	
Mg	  4.010454042261 	  6.096582728157 	  2.086128685896 	
Mg	  5.010454042261 	  6.096582728157 	  5.066128685896 	
O	  2.116582728157 	  0.000000000000 	  0.000000000000 	
O	  3.116582728157 	  0.000000000000 	  2.980000000000 	
O	  2.116582728157 	  3.980000000000 	  0.000000000000 	
O	  3.116582728157 	  3.980000000000 	  2.980000000000 	
O	  6.096582728157 	  0.000000000000 	  0.000000000000 	
O	  7.096582728157 	  0.000000000000 	  2.980000000000 	
O	  6.096582728157 	  3.980000000000 	  0.000000000000 	
O	  7.096582728157 	  3.980000000000 	  2.980000000000 	
O	  0.000000000000 	  2.116582728157 	  0.000000000000 	
O	  1.000000000000 	  2.116582728157 	  2.980000000000 	
O	  0.000000000000 	  6.096582728157 	  0.000000000000 	
O	  1.000000000000 	  6.096582728157 	  2.980000000000 	
O	  3.980000000000 	  2.116582728157 	  0.000000000000 	
O	  4.980000000000 	  2.116582728157 	  2.980000000000 	
O	  3.980000000000 	  6.096582728157 	  0.000000000000 	
O	  4.980000000000 	  6.096582728157 	  2.980000000000 	
O	  0.030454042261 	  0.000000000000 	  2.086128685896 	
O	  1.030454042261 	  0.000000000000 	  5.066128685896 	
O	  0.030454042261 	  3.980000000000 	  2.086128685896 	
O	  1.030454042261 	  3.980000000000 	  5.066128685896 	
O	  4.010454042261 	  0.000000000000 	  2.086128685896 	
O	  5.010454042261 	  0.000000000000 	  5.066128685896 	
O	  4.010454042261 	  3.980000000000 	  2.086128685896 	
O	  5.010454042261 	  3.980000000000 	  5.066128685896 	
O	  2.171400004226 	  2.076566116626 	  2.086128685896 	
O	  3.171400004226 	  2.076566116626 	  5.066128685896 	
O	  2.171400004226 	  6.056566116626 	  2.086128685896 	
O	  3.171400004226 	  6.056566116626 	  5.066128685896 	
O	  6.151400004226 	  2.076566116626 	  2.086128685896 	
O	  7.151400004226 	  2.076566116626 	  5.066128685896 	
O	  6.151400004226 	  6.056566116626 	  2.086128685896 	
O	  7.151400004226 	  6.056566116626 	  5.066128685896 	
64 
Energy: 0.0000000000000000e+00 
Mg	  0.000000000000 	  0.000000000000 	  0.000000000000 	
Mg	  1.000000000000 	  0.000000000000 	  2.980000000000 	
Mg	  0.000000000000 	  3.980000000000 	  0.000000000000 	
Mg	  1.000000000000 	  3.980000000000 	  2.980000000000 	
Mg	  3.980000000000 	  0.000000000000 	  0.000000000000 	
Mg	  4.980000000000 	  0.000000000000 	  2.980000000000 	
Mg	  3.980000000000 	  3.980000000000 	  0.000000000000 	
Mg	  4.980000000000 	  3.980000000000 	  2.980000000000 	
Mg	  2.125000000000 	  2.125000000000 	  0.000000000000 	
Mg	  3.125000000000 	  2.125000000000 	  2.980000000000 	
Mg	  2.125000000000 	  6.105000000000 	  0.000000000000 	
Mg	  3.125000000000 	  6.105000000000 	  2.980000000000 	
Mg	  6.105000000000 	  2.125000000000 	  0.000000000000 	
Mg	  7.105000000000 	  2.125000000000 	  2.980000000000 	
Mg	  6.105000000000 	  6.105000000000 	  0.000000000000 	
Mg	  7.105000000000 	  6.105000000000 	  2.980000000000 	
Mg	  2.125000000000 	  0.000000000000 	  2.125000000000 	
Mg	  3.125000000000 	  0.000000000000 	  5.105000000000 	
Mg	  2.125000000000 	  3.980000000000 	  2.125000000000 	
Mg	  3.125000000000 	  3.980000000000 	  5.105000000000 	
Mg	  6.105000000000 	  0.000000000000 	  2.125000000000 	
Mg	  7.105000000000 	  0.000000000000 	  5.105000000000 	
Mg	  6.105000000000 	  3.980000000000 	  2.125000000000 	
Mg	  7.105000000000 	  3.980000000000 	  5.105000000000 	
Mg	  0.000000000000 	  2.125000000000 	  2.125000000000 	
Mg	  1.000000000000 	  2.125000000000 	  5.105000000000 	
Mg	  0.000000000000 	  6.105000000000 	  2.125000000000 	
Mg	  1.000000000000 	  6.105000000000 	  5.105000000000 	
Mg	  3.980000000000 	  2.125000000000 	  2.125000000000 	
Mg	  4.980000000000 	  2.125000000000 	  5.105000000000 	
Mg	  3.980000000000 	  6.105000000000 	  2.125000000000 	
Mg	  4.980000000000 	  6.105000000000 	  5.105000000000 	
O	  2.125000000000 	  0.000000000000 	  0.000000000000 	
O	  3.125000000000 	  0.000000000000 	  2.980000000000 	
O	  2.125000000000 	  3.980000000000 	  0.000000000000 	
O	  3.125000000000 	  3.980000000000 	  2.980000000000 	
O	  6.105000000000 	  0.000000000000 	  0.000000000000 	
O	  7.105000000000 	  0.000000000000 	  2.980000000000 	
O	  6.105000000000 	  3.980000000000 	  0.000000000000 	
O	  7.105000000000 	  3.980000000000 	  2.980000000000 	
O	  0.000000000000 	  2.125000000000 	  0.000000000000 	
O	  1.000000000000 	  2.125000000000 	  2.980000000000 	
O	  0.000000000000 	  6.105000000000 	  0.000000000000 	
O	  1.000000000000 	  6.105000000000 	  2.980000000000 	
O	  3.980000000000 	  2.125000000000 	  0.000000000000 	
O	  4.980000000000 	  2.125000000000 	  2.980000000000 	
O	  3.980000000000 	  6.105000000000 	  0.000000000000 	
O	  4.980000000000 	  6.105000000000 	  2.980000000000 	
O	  0.000000000000 	  0.000000000000 	  2.125000000000 	
O	  1.000000000000 	  0.000000000000 	  5.105000000000 	
O	  0.000000000000 	  3.980000000000 	  2.125000000000 	
O	  1.000000000000 	  3.980000000000 	  5.105000000000 	
O	  3.980000000000 	  0.000000000000 	  2.125000000000 	
O	  4.980000000000 	  0.000000000000 	  5.105000000000 	
O	  3.980000000000 	  3.980000000000 	  2.125000000000 	
O	  4.980000000000 	  3.980000000000 	  5.105000000000 	
O	  2.125000000000 	  2.125000000000 	  2.125000000000 	
O	  3.125000000000 	  2.125000000000 	  5.105000000000 	
O	  2.125000000000 	  6.105000000000 	  2.125000000000 	
O	  3.125000000000 	  6.105000000000 	  5.105000000000 	
O	  6.105000000000 	  2.125000000000 	  2.125000000000 	
O	  7.105000000000 	  2.125000000000 	  5.105000000000 	
O	  6.105000000000 	  6.105000000000 	  2.125000000000 	
O	  7.105000000000 	  6.105000000000 	  5.105000000000 	
