  Invoking FHI-aims ...
  | Number of atoms                   :  96
  ...scf iterations...
  | Total energy corrected        :   -5.175274580952E+01 eV
  ...
  Total atomic forces (unitary forces cleaned)
     1  -2.2090712056E-01  5.9014813543E-01  1.9412637368E-01
     2  2.1918328623E-01  5.8587675078E-01  -1.9593328093E-01
     3  2.2090721044E-01  -5.9014805265E-01  -1.9412631550E-01
     4  -2.1918316759E-01  -5.8587658364E-01  1.9593335267E-01
     5  -8.4283378427E-01  1.1380184990E+00  4.9615229668E-02
     6  8.3211509615E-01  1.0460228128E+00  4.9506761722E-02
     7  8.4283400317E-01  -1.1380183746E+00  -4.9614957932E-02
     8  -8.3211529352E-01  -1.0460229367E+00  -4.9506471183E-02
     9  -1.7572030679E-01  1.6132503032E-01  -8.2000420421E-02
    10  7.4484388117E-02  5.4280786726E-02  9.1780351666E-02
    11  1.7572000560E-01  -1.6132478103E-01  8.2000188505E-02
    12  -7.4484755897E-02  -5.4280924806E-02  -9.1780325172E-02
    13  -3.6905642671E-01  -8.6965378830E-01  -8.5819163208E-01
    14  4.7110865413E-01  -7.6081139177E-01  8.4717272768E-01
    15  3.6905591770E-01  8.6965382582E-01  8.5819136699E-01
    16  -4.7110875227E-01  7.6081164347E-01  -8.4717214345E-01
    17  2.5169851644E+00  -3.6651627072E+00  -3.4002184823E-01
    18  -2.5503199919E+00  -3.5792433986E+00  2.3221840230E-01
    19  -2.5169882027E+00  3.6651684327E+00  3.4002207177E-01
    20  2.5503204456E+00  3.5792449072E+00  -2.3221938004E-01
    21  -1.6323227703E+00  2.0621696688E+00  4.6228534118E-02
    22  1.6298284291E+00  2.0700420775E+00  -5.4473868243E-02
    23  1.6323260169E+00  -2.0621751734E+00  -4.6228794105E-02
    24  -1.6298290124E+00  -2.0700435701E+00  5.4474325839E-02
    25  4.1426668022E-01  1.6169673762E-02  3.5760571919E-01
    26  -3.8147214684E-01  -7.4033317000E-02  -2.4857942567E-01
    27  -4.1426700305E-01  -1.6169860112E-02  -3.5760596208E-01
    28  3.8147263983E-01  7.4033479886E-02  2.4857930507E-01
    29  9.9892306074E-01  3.0631166695E+00  2.9593816094E+00
    30  -9.9989197706E-01  3.0590320438E+00  -2.9568683783E+00
    31  -9.9892347852E-01  -3.0631177768E+00  -2.9593817767E+00
    32  9.9989310078E-01  -3.0590344166E+00  2.9568693509E+00
    33  -5.2971073111E-01  -1.7491389735E+00  -1.6658895080E+00
    34  5.2899335035E-01  -1.7505958835E+00  1.6651289670E+00
    35  5.2971121937E-01  1.7491398265E+00  1.6658897720E+00
    36  -5.2899449414E-01  1.7505979447E+00  -1.6651302878E+00
    37  -2.6921910948E+00  3.4906416603E+00  2.4902501062E-01
    38  2.6903879278E+00  3.4863974726E+00  -2.4712951850E-01
    39  2.6921897097E+00  -3.4906397637E+00  -2.4902417135E-01
    40  -2.6903857385E+00  -3.4863948632E+00  2.4713001942E-01
    41  1.3888981459E+00  -1.9388451797E+00  -2.4700481597E-01
    42  -1.3894761019E+00  -1.9388175448E+00  2.4779860158E-01
    43  -1.3888967595E+00  1.9388431379E+00  2.4700422896E-01
    44  1.3894742649E+00  1.9388150134E+00  -2.4779861984E-01
    45  -1.6059968632E+00  1.3492213382E-01  -9.9563223199E-01
    46  1.5088625279E+00  2.3425910808E-02  1.0187916874E+00
    47  1.6059890911E+00  -1.3492181569E-01  9.9562804347E-01
    48  -1.5088628558E+00  -2.3425152106E-02  -1.0187915017E+00
    49  -3.5490485305E+01  9.7696517080E+00  1.9012261605E+01
    50  2.9630657136E+01  -4.5684078488E+00  -1.6308550718E+01
    51  3.5490383957E+01  -9.7695498632E+00  -1.9012204638E+01
    52  -2.9630662632E+01  4.5684063061E+00  1.6308555439E+01
    53  2.4167867946E+01  1.9630673268E+01  -8.6838057795E+00
    54  -2.4207490774E+01  1.9734920857E+01  8.7150625001E+00
    55  -2.4167765827E+01  -1.9630661266E+01  8.6837680532E+00
    56  2.4207489447E+01  -1.9734923298E+01  -8.7150758490E+00
    57  -2.0179500761E+00  2.9795242010E-01  -1.5409534326E+00
    58  1.7864519735E+00  2.8064586807E-01  1.3920193862E+00
    59  2.0179395603E+00  -2.9794966207E-01  1.5409453718E+00
    60  -1.7864452970E+00  -2.8064503717E-01  -1.3920130560E+00
    61  1.2403944547E+01  -2.9231917119E+01  -5.4301997219E+00
    62  -6.2897634022E+00  -1.5024888406E+01  2.8627460821E+00
    63  -1.2403936018E+01  2.9231804273E+01  5.4301974385E+00
    64  6.2897645805E+00  1.5024890861E+01  -2.8627435373E+00
    65  -7.4900013086E+00  -2.6824955974E+01  -1.6987384621E+01
    66  6.8032253838E+00  -2.6120253756E+01  1.9563598645E+01
    67  7.4899353985E+00  2.6824833120E+01  1.6987315364E+01
    68  -6.8032405518E+00  2.6120250227E+01  -1.9563576931E+01
    69  1.6357620362E+01  1.9180885701E+01  -5.0901286269E+00
    70  -1.6408865091E+01  1.9212939156E+01  5.1201495574E+00
    71  -1.6357537741E+01  -1.9180817590E+01  5.0900897377E+00
    72  1.6408862599E+01  -1.9212933736E+01  -5.1201605625E+00
    73  -5.7798552298E+00  4.4755146697E+00  2.2951133832E+01
    74  6.5065104377E+00  4.0347236274E+00  -2.5634472536E+01
    75  5.7798471444E+00  -4.4754693504E+00  -2.2951020018E+01
    76  -6.5064955307E+00  -4.0347258709E+00  2.5634459619E+01
    77  -1.4950369078E+00  -4.1480941085E-02  -1.1983964916E+00
    78  1.5998801304E+00  -1.3196419478E-01  1.2761823795E+00
    79  1.4950298759E+00  4.1480636368E-02  1.1983914809E+00
    80  -1.5998783930E+00  1.3196400776E-01  -1.2761800080E+00
    81  -3.3227925993E+00  2.8761351405E+01  -2.5419307237E+01
    82  3.3353367877E+00  2.8743732775E+01  2.5404271327E+01
    83  3.3228035730E+00  -2.8761284428E+01  2.5419139822E+01
    84  -3.3353362298E+00  -2.8743727919E+01  -2.5404302787E+01
    85  -1.7274772311E+00  1.0271959177E-01  -1.0984418040E+00
    86  1.7334660008E+00  9.9239046208E-02  1.0925416492E+00
    87  1.7274684336E+00  -1.0271906102E-01  1.0984359829E+00
    88  -1.7334651645E+00  -9.9239348453E-02  -1.0925404520E+00
    89  -4.8538911101E+00  1.7340502478E+00  2.8757025670E+01
    90  4.8609906407E+00  1.7277734343E+00  -2.8771603638E+01
    91  4.8538733126E+00  -1.7340172154E+00  -2.8756885406E+01
    92  -4.8609901418E+00  -1.7277836358E+00  2.8771620725E+01
    93  1.2132075980E+01  -2.8071253468E+01  -3.3541470161E+00
    94  -1.2130293187E+01  -2.8090165557E+01  3.3476692017E+00
    95  -1.2132052332E+01  2.8071158239E+01  3.3541745051E+00
    96  1.2130291367E+01  2.8090171791E+01  -3.3476568720E+00
  Stress tensor (eV/A^3):
  -1.3729137116E-01  1.1591965224E-02  1.0501430514E-01
  1.1591965224E-02  -2.7260944650E-01  -5.1266789431E-03
  1.0501430514E-01  -5.1266789431E-03  -2.0120588955E-01
