  Invoking FHI-aims ...
  | Number of atoms                   :  96
  ...scf iterations...
  | Total energy corrected        :   -8.454529238109E+01 eV
  ...
  Total atomic forces (unitary forces cleaned)
     1  -2.9917773621E-01  6.2932704492E-01  1.9606037071E-01
     2  2.1544781984E-01  5.7685525434E-01  -1.9538379425E-01
     3  2.9917785556E-01  -6.2932694626E-01  -1.9606027733E-01
     4  -2.1544770440E-01  -5.7685495659E-01  1.9538383154E-01
     5  -7.2741357589E-01  1.6608469476E+00  2.1810019897E-01
     6  8.7675506305E-01  -4.8364108668E-01  1.1594789430E+00
     7  7.2741359715E-01  -1.6608468044E+00  -2.1810007042E-01
     8  -8.7675560564E-01  4.8364097835E-01  -1.1594786977E+00
     9  -3.8936254556E-01  2.9254520124E-01  -2.0236440709E-01
    10  7.1248686346E-01  3.1287865853E-01  1.9743697829E-01
    11  3.8936234377E-01  -2.9254450972E-01  2.0236429845E-01
    12  -7.1248592982E-01  -3.1287775610E-01  -1.9743640950E-01
    13  -5.2510862322E-01  -9.9818663330E-01  -1.1235496518E+00
    14  1.5655094364E-01  -1.0882706760E+00  1.1492649389E+00
    15  5.2510807649E-01  9.9818666722E-01  1.1235493257E+00
    16  -1.5655239012E-01  1.0882697977E+00  -1.1492639977E+00
    17  4.2239020109E-01  -5.7569597854E-01  -4.5058354302E-02
    18  -4.3626619966E-01  -3.1171867431E-01  1.2143150107E-01
    19  -4.2238903801E-01  5.7569576715E-01  4.5059050176E-02
    20  4.3626615823E-01  3.1171823560E-01  -1.2143151115E-01
    21  6.6782365944E-01  -1.2298548591E+00  -2.2974919534E-01
    22  -6.7705826356E-01  -1.3304200825E+00  3.0185621501E-01
    23  -6.6782389437E-01  1.2298557261E+00  2.2974868879E-01
    24  6.7705788696E-01  1.3304202725E+00  -3.0185651452E-01
    25  9.1121941465E-01  2.9154436214E-03  8.2288932616E-01
    26  -8.9371721355E-01  -2.5004179151E-01  -8.9546131875E-01
    27  -9.1121914057E-01  -2.9160930105E-03  -8.2288950948E-01
    28  8.9371822468E-01  2.5004228532E-01  8.9546038198E-01
    29  4.8513585117E-01  2.9442594794E-01  6.1939038268E-01
    30  -4.6332276044E-01  3.5669832557E-01  -6.3455118417E-01
    31  -4.8513582368E-01  -2.9442567589E-01  -6.1939015070E-01
    32  4.6332253777E-01  -3.5669826310E-01  6.3455078802E-01
    33  1.6247484782E-01  1.0627760110E+00  9.3856403024E-01
    34  -9.5447275369E-02  1.1229793382E+00  -8.7326618329E-01
    35  -1.6247495848E-01  -1.0627766998E+00  -9.3856378593E-01
    36  9.5447764601E-02  -1.1229798396E+00  8.7326614449E-01
    37  -6.9695523992E-01  5.0764426868E-01  -2.4921064356E-01
    38  7.2035061970E-01  5.6832314726E-01  2.2788872658E-01
    39  6.9695535839E-01  -5.0764453229E-01  2.4921050930E-01
    40  -7.2035082151E-01  -5.6832320243E-01  -2.2788844707E-01
    41  -8.7193357110E-01  1.2196818202E+00  7.8662432891E-02
    42  8.8200726412E-01  1.2364055842E+00  -7.5292874235E-02
    43  8.7193351587E-01  -1.2196818440E+00  -7.8662045991E-02
    44  -8.8200706705E-01  -1.2364052979E+00  7.5293135824E-02
    45  -1.2728847988E+00  1.3059881771E-01  -8.8001744601E-01
    46  9.6457826303E-01  -1.1977625674E+00  3.5958513396E-01
    47  1.2728810336E+00  -1.3059819985E-01  8.8001604808E-01
    48  -9.6457925184E-01  1.1977600657E+00  -3.5958491829E-01
    49  3.8931540780E-01  2.2730045105E-01  1.1782471549E+00
    50  -1.3323067034E+00  6.2056378233E+00  -3.2681157447E+00
    51  -3.8931265000E-01  -2.2730139497E-01  -1.1782464128E+00
    52  1.3323094491E+00  -6.2056372504E+00  3.2681126375E+00
    53  -1.5416175796E+00  -6.9193472962E-01  7.6914575376E-01
    54  1.1115604680E+00  -6.6126838334E-01  -6.1767467757E-01
    55  1.5416144719E+00  6.9193738293E-01  -7.6914332178E-01
    56  -1.1115594671E+00  6.6126787565E-01  6.1767505701E-01
    57  8.3074990966E-01  -1.8382404851E-01  6.4249526838E-01
    58  1.8865463386E+00  3.4908821929E-02  1.6704117474E+00
    59  -8.3075069026E-01  1.8382309178E-01  -6.4249529468E-01
    60  -1.8865485430E+00  -3.4909284999E-02  -1.6704109270E+00
    61  -1.6868970702E-01  1.7603140752E+00  7.4330529603E-03
    62  -1.2867593652E+00  -4.3709598329E+00  -7.2000044722E-02
    63  1.6869255644E-01  -1.7603112850E+00  -7.4350919592E-03
    64  1.2867592474E+00  4.3709600250E+00  7.2001711692E-02
    65  6.9059780875E-01  -1.0189086056E+00  5.2708664195E-01
    66  8.8483179899E-01  1.7763657589E+00  -6.1487794859E-01
    67  -6.9059820500E-01  1.0189089303E+00  -5.2708501267E-01
    68  -8.8483103389E-01  -1.7763641424E+00  6.1487875233E-01
    69  -1.3035744193E+00  -7.8403232921E-01  6.7584444533E-01
    70  1.4850340355E+00  -8.5929286890E-01  -7.1875326622E-01
    71  1.3035720884E+00  7.8403309694E-01  -6.7584226325E-01
    72  -1.4850334193E+00  8.5929232100E-01  7.1875413295E-01
    73  5.3833232393E-01  -6.7792272509E-01  -1.4131437381E+00
    74  -7.8612487160E-01  -1.8352338032E+00  2.4459415723E+00
    75  -5.3833315143E-01  6.7791835853E-01  1.4131426953E+00
    76  7.8612306503E-01  1.8352343263E+00  -2.4459417859E+00
    77  7.9962553268E-01  -1.1983587732E-01  6.1232768561E-01
    78  -1.8521159709E+00  -6.5744876554E-01  -1.4494495643E+00
    79  -7.9962438616E-01  1.1983527698E-01  -6.1232760782E-01
    80  1.8521166390E+00  6.5744887117E-01  1.4494484394E+00
    81  1.2713666442E+00  3.2425758270E-01  -9.3130841696E-02
    82  -1.3227177430E+00  3.9579763055E-01  1.4638662386E-01
    83  -1.2713646533E+00  -3.2425863824E-01  9.3132184867E-02
    84  1.3227174435E+00  -3.9579758607E-01  -1.4638605913E-01
    85  8.1104696805E-01  -7.5273072922E-02  5.3897360493E-01
    86  -8.2696842004E-01  -5.7812068761E-02  -5.2075110620E-01
    87  -8.1104652345E-01  7.5273528110E-02  -5.3897333715E-01
    88  8.2696808551E-01  5.7811982820E-02  5.2075107712E-01
    89  2.6911472681E-01  -6.9685783864E-01  -1.5372637763E+00
    90  -2.8521651863E-01  -6.5431037296E-01  1.5709551657E+00
    91  -2.6911441971E-01  6.9685483911E-01  1.5372616518E+00
    92  2.8521604449E-01  6.5431126228E-01  -1.5709554911E+00
    93  -4.0457129326E-01  1.6574650960E+00  -2.1448503229E-01
    94  3.8744239514E-01  1.7060352914E+00  2.4968242500E-01
    95  4.0457261273E-01  -1.6574622231E+00  2.1448169798E-01
    96  -3.8744206236E-01  -1.7060352087E+00  -2.4968282628E-01
  Stress tensor (eV/A^3):
  8.6705090088E-02  -2.0785345810E-03  1.9219565699E-02
  -2.0785345810E-03  8.8708615130E-02  -8.7456146320E-04
  1.9219565699E-02  -8.7456146320E-04  8.6129419118E-02
