64 
Energy: 2.7145689940589603e+00 
Mg	  0.000000000000 	  0.000000000000 	  0.000000000000 	
Mg	  1.000000000000 	  0.000000000000 	  2.980000000000 	
Mg	  0.000000000000 	  3.980000000000 	  0.000000000000 	
Mg	  1.000000000000 	  3.980000000000 	  2.980000000000 	
Mg	  3.980000000000 	  0.000000000000 	  0.000000000000 	
Mg	  4.980000000000 	  0.000000000000 	  2.980000000000 	
Mg	  3.980000000000 	  3.980000000000 	  0.000000000000 	
Mg	  4.980000000000 	  3.980000000000 	  2.980000000000 	
Mg	  1.712700174231 	  1.805133449487 	  0.000000000000 	
Mg	  2.712700174231 	  1.805133449487 	  2.980000000000 	
Mg	  1.712700174231 	  5.785133449487 	  0.000000000000 	
Mg	  2.712700174231 	  5.785133449487 	  2.980000000000 	
Mg	  5.692700174231 	  1.805133449487 	  0.000000000000 	
Mg	  6.692700174231 	  1.805133449487 	  2.980000000000 	
Mg	  5.692700174231 	  5.785133449487 	  0.000000000000 	
Mg	  6.692700174231 	  5.785133449487 	  2.980000000000 	
Mg	  2.452166376282 	  0.000000000000 	  1.527833623718 	
Mg	  3.452166376282 	  0.000000000000 	  4.507833623718 	
Mg	  2.452166376282 	  3.980000000000 	  1.527833623718 	
Mg	  3.452166376282 	  3.980000000000 	  4.507833623718 	
Mg	  6.432166376282 	  0.000000000000 	  1.527833623718 	
Mg	  7.432166376282 	  0.000000000000 	  4.507833623718 	
Mg	  6.432166376282 	  3.980000000000 	  1.527833623718 	
Mg	  7.432166376282 	  3.980000000000 	  4.507833623718 	
Mg	  0.462166376282 	  1.990000000000 	  1.527833623718 	
Mg	  1.462166376282 	  1.990000000000 	  4.507833623718 	
Mg	  0.462166376282 	  5.970000000000 	  1.527833623718 	
Mg	  1.462166376282 	  5.970000000000 	  4.507833623718 	
Mg	  4.442166376282 	  1.990000000000 	  1.527833623718 	
Mg	  5.442166376282 	  1.990000000000 	  4.507833623718 	
Mg	  4.442166376282 	  5.970000000000 	  1.527833623718 	
Mg	  5.442166376282 	  5.970000000000 	  4.507833623718 	
O	  1.990000000000 	  0.000000000000 	  0.000000000000 	
O	  2.990000000000 	  0.000000000000 	  2.980000000000 	
O	  1.990000000000 	  3.980000000000 	  0.000000000000 	
O	  2.990000000000 	  3.980000000000 	  2.980000000000 	
O	  5.970000000000 	  0.000000000000 	  0.000000000000 	
O	  6.970000000000 	  0.000000000000 	  2.980000000000 	
O	  5.970000000000 	  3.980000000000 	  0.000000000000 	
O	  6.970000000000 	  3.980000000000 	  2.980000000000 	
O	  0.000000000000 	  1.990000000000 	  0.000000000000 	
O	  1.000000000000 	  1.990000000000 	  2.980000000000 	
O	  0.000000000000 	  5.970000000000 	  0.000000000000 	
O	  1.000000000000 	  5.970000000000 	  2.980000000000 	
O	  3.980000000000 	  1.990000000000 	  0.000000000000 	
O	  4.980000000000 	  1.990000000000 	  2.980000000000 	
O	  3.980000000000 	  5.970000000000 	  0.000000000000 	
O	  4.980000000000 	  5.970000000000 	  2.980000000000 	
O	  0.462166376282 	  0.000000000000 	  1.527833623718 	
O	  1.462166376282 	  0.000000000000 	  4.507833623718 	
O	  0.462166376282 	  3.980000000000 	  1.527833623718 	
O	  1.462166376282 	  3.980000000000 	  4.507833623718 	
O	  4.442166376282 	  0.000000000000 	  1.527833623718 	
O	  5.442166376282 	  0.000000000000 	  4.507833623718 	
O	  4.442166376282 	  3.980000000000 	  1.527833623718 	
O	  5.442166376282 	  3.980000000000 	  4.507833623718 	
O	  2.821899477307 	  1.382713381566 	  1.527833623718 	
O	  3.821899477307 	  1.382713381566 	  4.507833623718 	
O	  2.821899477307 	  5.362713381566 	  1.527833623718 	
O	  3.821899477307 	  5.362713381566 	  4.507833623718 	
O	  6.801899477307 	  1.382713381566 	  1.527833623718 	
O	  7.801899477307 	  1.382713381566 	  4.507833623718 	
O	  6.801899477307 	  5.362713381566 	  1.527833623718 	
O	  7.801899477307 	  5.362713381566 	  4.507833623718 	
64 
Energy: 2.7456068417820094e+00 
Mg	  0.000000000000 	  0.000000000000 	  0.000000000000 	
Mg	  1.000000000000 	  0.000000000000 	  2.980000000000 	
Mg	  0.000000000000 	  3.980000000000 	  0.000000000000 	
Mg	  1.000000000000 	  3.980000000000 	  2.980000000000 	
Mg	  3.980000000000 	  0.000000000000 	  0.000000000000 	
Mg	  4.980000000000 	  0.000000000000 	  2.980000000000 	
Mg	  3.980000000000 	  3.980000000000 	  0.000000000000 	
Mg	  4.980000000000 	  3.980000000000 	  2.980000000000 	
Mg	  1.738193848735 	  1.824972958857 	  0.000000000000 	
Mg	  2.738193848735 	  1.824972958857 	  2.980000000000 	
Mg	  1.738193848735 	  5.804972958857 	  0.000000000000 	
Mg	  2.738193848735 	  5.804972958857 	  2.980000000000 	
Mg	  5.718193848735 	  1.824972958857 	  0.000000000000 	
Mg	  6.718193848735 	  1.824972958857 	  2.980000000000 	
Mg	  5.718193848735 	  5.804972958857 	  0.000000000000 	
Mg	  6.718193848735 	  5.804972958857 	  2.980000000000 	
Mg	  2.432426729713 	  0.000000000000 	  1.564635628490 	
Mg	  3.432426729713 	  0.000000000000 	  4.544635628490 	
Mg	  2.432426729713 	  3.980000000000 	  1.564635628490 	
Mg	  3.432426729713 	  3.980000000000 	  4.544635628490 	
Mg	  6.412426729713 	  0.000000000000 	  1.564635628490 	
Mg	  7.412426729713 	  0.000000000000 	  4.544635628490 	
Mg	  6.412426729713 	  3.980000000000 	  1.564635628490 	
Mg	  7.412426729713 	  3.980000000000 	  4.544635628490 	
Mg	  0.433895550611 	  1.998531179101 	  1.564635628490 	
Mg	  1.433895550611 	  1.998531179101 	  4.544635628490 	
Mg	  0.433895550611 	  5.978531179101 	  1.564635628490 	
Mg	  1.433895550611 	  5.978531179101 	  4.544635628490 	
Mg	  4.413895550611 	  1.998531179101 	  1.564635628490 	
Mg	  5.413895550611 	  1.998531179101 	  4.544635628490 	
Mg	  4.413895550611 	  5.978531179101 	  1.564635628490 	
Mg	  5.413895550611 	  5.978531179101 	  4.544635628490 	
O	  1.998531179101 	  0.000000000000 	  0.000000000000 	
O	  2.998531179101 	  0.000000000000 	  2.980000000000 	
O	  1.998531179101 	  3.980000000000 	  0.000000000000 	
O	  2.998531179101 	  3.980000000000 	  2.980000000000 	
O	  5.978531179101 	  0.000000000000 	  0.000000000000 	
O	  6.978531179101 	  0.000000000000 	  2.980000000000 	
O	  5.978531179101 	  3.980000000000 	  0.000000000000 	
O	  6.978531179101 	  3.980000000000 	  2.980000000000 	
O	  0.000000000000 	  1.998531179101 	  0.000000000000 	
O	  1.000000000000 	  1.998531179101 	  2.980000000000 	
O	  0.000000000000 	  5.978531179101 	  0.000000000000 	
O	  1.000000000000 	  5.978531179101 	  2.980000000000 	
O	  3.980000000000 	  1.998531179101 	  0.000000000000 	
O	  4.980000000000 	  1.998531179101 	  2.980000000000 	
O	  3.980000000000 	  5.978531179101 	  0.000000000000 	
O	  4.980000000000 	  5.978531179101 	  2.980000000000 	
O	  0.433895550611 	  0.000000000000 	  1.564635628490 	
O	  1.433895550611 	  0.000000000000 	  4.544635628490 	
O	  0.433895550611 	  3.980000000000 	  1.564635628490 	
O	  1.433895550611 	  3.980000000000 	  4.544635628490 	
O	  4.413895550611 	  0.000000000000 	  1.564635628490 	
O	  5.413895550611 	  0.000000000000 	  4.544635628490 	
O	  4.413895550611 	  3.980000000000 	  1.564635628490 	
O	  5.413895550611 	  3.980000000000 	  4.544635628490 	
O	  2.779543170202 	  1.428392425598 	  1.564635628490 	
O	  3.779543170202 	  1.428392425598 	  4.544635628490 	
O	  2.779543170202 	  5.408392425598 	  1.564635628490 	
O	  3.779543170202 	  5.408392425598 	  4.544635628490 	
O	  6.759543170202 	  1.428392425598 	  1.564635628490 	
O	  7.759543170202 	  1.428392425598 	  4.544635628490 	
O	  6.759543170202 	  5.408392425598 	  1.564635628490 	
O	  7.759543170202 	  5.408392425598 	  4.544635628490 	
64 
Energy: 3.1877498463480580e+00 
Mg	  0.000000000000 	  0.000000000000 	  0.000000000000 	
Mg	  1.000000000000 	  0.000000000000 	  2.980000000000 	
Mg	  0.000000000000 	  3.980000000000 	  0.000000000000 	
Mg	  1.000000000000 	  3.980000000000 	  2.980000000000 	
Mg	  3.980000000000 	  0.000000000000 	  0.000000000000 	
Mg	  4.980000000000 	  0.000000000000 	  2.980000000000 	
Mg	  3.980000000000 	  3.980000000000 	  0.000000000000 	
Mg	  4.980000000000 	  3.980000000000 	  2.980000000000 	
Mg	  1.763919740214 	  1.844921436167 	  0.000000000000 	
Mg	  2.763919740214 	  1.844921436167 	  2.980000000000 	
Mg	  1.763919740214 	  5.824921436167 	  0.000000000000 	
Mg	  2.763919740214 	  5.824921436167 	  2.980000000000 	
Mg	  5.743919740214 	  1.844921436167 	  0.000000000000 	
Mg	  6.743919740214 	  1.844921436167 	  2.980000000000 	
Mg	  5.743919740214 	  5.824921436167 	  0.000000000000 	
Mg	  6.743919740214 	  5.824921436167 	  2.980000000000 	
Mg	  2.411933307838 	  0.000000000000 	  1.601916348308 	
Mg	  3.411933307838 	  0.000000000000 	  4.581916348308 	
Mg	  2.411933307838 	  3.980000000000 	  1.601916348308 	
Mg	  3.411933307838 	  3.980000000000 	  4.581916348308 	
Mg	  6.391933307838 	  0.000000000000 	  1.601916348308 	
Mg	  7.391933307838 	  0.000000000000 	  4.581916348308 	
Mg	  6.391933307838 	  3.980000000000 	  1.601916348308 	
Mg	  7.391933307838 	  3.980000000000 	  4.581916348308 	
Mg	  0.405008479765 	  2.006924828073 	  1.601916348308 	
Mg	  1.405008479765 	  2.006924828073 	  4.581916348308 	
Mg	  0.405008479765 	  5.986924828073 	  1.601916348308 	
Mg	  1.405008479765 	  5.986924828073 	  4.581916348308 	
Mg	  4.385008479765 	  2.006924828073 	  1.601916348308 	
Mg	  5.385008479765 	  2.006924828073 	  4.581916348308 	
Mg	  4.385008479765 	  5.986924828073 	  1.601916348308 	
Mg	  5.385008479765 	  5.986924828073 	  4.581916348308 	
O	  2.006924828073 	  0.000000000000 	  0.000000000000 	
O	  3.006924828073 	  0.000000000000 	  2.980000000000 	
O	  2.006924828073 	  3.980000000000 	  0.000000000000 	
O	  3.006924828073 	  3.980000000000 	  2.980000000000 	
O	  5.986924828073 	  0.000000000000 	  0.000000000000 	
O	  6.986924828073 	  0.000000000000 	  2.980000000000 	
O	  5.986924828073 	  3.980000000000 	  0.000000000000 	
O	  6.986924828073 	  3.980000000000 	  2.980000000000 	
O	  0.000000000000 	  2.006924828073 	  0.000000000000 	
O	  1.000000000000 	  2.006924828073 	  2.980000000000 	
O	  0.000000000000 	  5.986924828073 	  0.000000000000 	
O	  1.000000000000 	  5.986924828073 	  2.980000000000 	
O	  3.980000000000 	  2.006924828073 	  0.000000000000 	
O	  4.980000000000 	  2.006924828073 	  2.980000000000 	
O	  3.980000000000 	  5.986924828073 	  0.000000000000 	
O	  4.980000000000 	  5.986924828073 	  2.980000000000 	
O	  0.405008479765 	  0.000000000000 	  1.601916348308 	
O	  1.405008479765 	  0.000000000000 	  4.581916348308 	
O	  0.405008479765 	  3.980000000000 	  1.601916348308 	
O	  1.405008479765 	  3.980000000000 	  4.581916348308 	
O	  4.385008479765 	  0.000000000000 	  1.601916348308 	
O	  5.385008479765 	  0.000000000000 	  4.581916348308 	
O	  4.385008479765 	  3.980000000000 	  1.601916348308 	
O	  5.385008479765 	  3.980000000000 	  4.581916348308 	
O	  2.735940091651 	  1.474743685662 	  1.601916348308 	
O	  3.735940091651 	  1.474743685662 	  4.581916348308 	
O	  2.735940091651 	  5.454743685662 	  1.601916348308 	
O	  3.735940091651 	  5.454743685662 	  4.581916348308 	
O	  6.715940091651 	  1.474743685662 	  1.601916348308 	
O	  7.715940091651 	  1.474743685662 	  4.581916348308 	
O	  6.715940091651 	  5.454743685662 	  1.601916348308 	
O	  7.715940091651 	  5.454743685662 	  4.581916348308 	
64 
Energy: 3.8271673580129266e+00 
Mg	  0.000000000000 	  0.000000000000 	  0.000000000000 	
Mg	  1.000000000000 	  0.000000000000 	  2.980000000000 	
Mg	  0.000000000000 	  3.980000000000 	  0.000000000000 	
Mg	  1.000000000000 	  3.980000000000 	  2.980000000000 	
Mg	  3.980000000000 	  0.000000000000 	  0.000000000000 	
Mg	  4.980000000000 	  0.000000000000 	  2.980000000000 	
Mg	  3.980000000000 	  3.980000000000 	  0.000000000000 	
Mg	  4.980000000000 	  3.980000000000 	  2.980000000000 	
Mg	  1.789676287889 	  1.864898798134 	  0.000000000000 	
Mg	  2.789676287889 	  1.864898798134 	  2.980000000000 	
Mg	  1.789676287889 	  5.844898798134 	  0.000000000000 	
Mg	  2.789676287889 	  5.844898798134 	  2.980000000000 	
Mg	  5.769676287889 	  1.864898798134 	  0.000000000000 	
Mg	  6.769676287889 	  1.864898798134 	  2.980000000000 	
Mg	  5.769676287889 	  5.844898798134 	  0.000000000000 	
Mg	  6.769676287889 	  5.844898798134 	  2.980000000000 	
Mg	  2.391456369852 	  0.000000000000 	  1.639231267398 	
Mg	  3.391456369852 	  0.000000000000 	  4.619231267398 	
Mg	  2.391456369852 	  3.980000000000 	  1.639231267398 	
Mg	  3.391456369852 	  3.980000000000 	  4.619231267398 	
Mg	  6.371456369852 	  0.000000000000 	  1.639231267398 	
Mg	  7.371456369852 	  0.000000000000 	  4.619231267398 	
Mg	  6.371456369852 	  3.980000000000 	  1.639231267398 	
Mg	  7.371456369852 	  3.980000000000 	  4.619231267398 	
Mg	  0.376112551227 	  2.015343818625 	  1.639231267398 	
Mg	  1.376112551227 	  2.015343818625 	  4.619231267398 	
Mg	  0.376112551227 	  5.995343818625 	  1.639231267398 	
Mg	  1.376112551227 	  5.995343818625 	  4.619231267398 	
Mg	  4.356112551227 	  2.015343818625 	  1.639231267398 	
Mg	  5.356112551227 	  2.015343818625 	  4.619231267398 	
Mg	  4.356112551227 	  5.995343818625 	  1.639231267398 	
Mg	  5.356112551227 	  5.995343818625 	  4.619231267398 	
O	  2.015343818625 	  0.000000000000 	  0.000000000000 	
O	  3.015343818625 	  0.000000000000 	  2.980000000000 	
O	  2.015343818625 	  3.980000000000 	  0.000000000000 	
O	  3.015343818625 	  3.980000000000 	  2.980000000000 	
O	  5.995343818625 	  0.000000000000 	  0.000000000000 	
O	  6.995343818625 	  0.000000000000 	  2.980000000000 	
O	  5.995343818625 	  3.980000000000 	  0.000000000000 	
O	  6.995343818625 	  3.980000000000 	  2.980000000000 	
O	  0.000000000000 	  2.015343818625 	  0.000000000000 	
O	  1.000000000000 	  2.015343818625 	  2.980000000000 	
O	  0.000000000000 	  5.995343818625 	  0.000000000000 	
O	  1.000000000000 	  5.995343818625 	  2.980000000000 	
O	  3.980000000000 	  2.015343818625 	  0.000000000000 	
O	  4.980000000000 	  2.015343818625 	  2.980000000000 	
O	  3.980000000000 	  5.995343818625 	  0.000000000000 	
O	  4.980000000000 	  5.995343818625 	  2.980000000000 	
O	  0.376112551227 	  0.000000000000 	  1.639231267398 	
O	  1.376112551227 	  0.000000000000 	  4.619231267398 	
O	  0.376112551227 	  3.980000000000 	  1.639231267398 	
O	  1.376112551227 	  3.980000000000 	  4.619231267398 	
O	  4.356112551227 	  0.000000000000 	  1.639231267398 	
O	  5.356112551227 	  0.000000000000 	  4.619231267398 	
O	  4.356112551227 	  3.980000000000 	  1.639231267398 	
O	  5.356112551227 	  3.980000000000 	  4.619231267398 	
O	  2.692346410833 	  1.521131926313 	  1.639231267398 	
O	  3.692346410833 	  1.521131926313 	  4.619231267398 	
O	  2.692346410833 	  5.501131926313 	  1.639231267398 	
O	  3.692346410833 	  5.501131926313 	  4.619231267398 	
O	  6.672346410833 	  1.521131926313 	  1.639231267398 	
O	  7.672346410833 	  1.521131926313 	  4.619231267398 	
O	  6.672346410833 	  5.501131926313 	  1.639231267398 	
O	  7.672346410833 	  5.501131926313 	  4.619231267398 	
64 
Energy: 4.4981854137438511e+00 
Mg	  0.000000000000 	  0.000000000000 	  0.000000000000 	
Mg	  1.000000000000 	  0.000000000000 	  2.980000000000 	
Mg	  0.000000000000 	  3.980000000000 	  0.000000000000 	
Mg	  1.000000000000 	  3.980000000000 	  2.980000000000 	
Mg	  3.980000000000 	  0.000000000000 	  0.000000000000 	
Mg	  4.980000000000 	  0.000000000000 	  2.980000000000 	
Mg	  3.980000000000 	  3.980000000000 	  0.000000000000 	
Mg	  4.980000000000 	  3.980000000000 	  2.980000000000 	
Mg	  1.815469325580 	  1.884904406320 	  0.000000000000 	
Mg	  2.815469325580 	  1.884904406320 	  2.980000000000 	
Mg	  1.815469325580 	  5.864904406320 	  0.000000000000 	
Mg	  2.815469325580 	  5.864904406320 	  2.980000000000 	
Mg	  5.795469325580 	  1.884904406320 	  0.000000000000 	
Mg	  6.795469325580 	  1.884904406320 	  2.980000000000 	
Mg	  5.795469325580 	  5.864904406320 	  0.000000000000 	
Mg	  6.795469325580 	  5.864904406320 	  2.980000000000 	
Mg	  2.370949971504 	  0.000000000000 	  1.676599164098 	
Mg	  3.370949971504 	  0.000000000000 	  4.656599164098 	
Mg	  2.370949971504 	  3.980000000000 	  1.676599164098 	
Mg	  3.370949971504 	  3.980000000000 	  4.656599164098 	
Mg	  6.350949971504 	  0.000000000000 	  1.676599164098 	
Mg	  7.350949971504 	  0.000000000000 	  4.656599164098 	
Mg	  6.350949971504 	  3.980000000000 	  1.676599164098 	
Mg	  7.350949971504 	  3.980000000000 	  4.656599164098 	
Mg	  0.347175403703 	  2.023774567801 	  1.676599164098 	
Mg	  1.347175403703 	  2.023774567801 	  4.656599164098 	
Mg	  0.347175403703 	  6.003774567801 	  1.676599164098 	
Mg	  1.347175403703 	  6.003774567801 	  4.656599164098 	
Mg	  4.327175403703 	  2.023774567801 	  1.676599164098 	
Mg	  5.327175403703 	  2.023774567801 	  4.656599164098 	
Mg	  4.327175403703 	  6.003774567801 	  1.676599164098 	
Mg	  5.327175403703 	  6.003774567801 	  4.656599164098 	
O	  2.023774567801 	  0.000000000000 	  0.000000000000 	
O	  3.023774567801 	  0.000000000000 	  2.980000000000 	
O	  2.023774567801 	  3.980000000000 	  0.000000000000 	
O	  3.023774567801 	  3.980000000000 	  2.980000000000 	
O	  6.003774567801 	  0.000000000000 	  0.000000000000 	
O	  7.003774567801 	  0.000000000000 	  2.980000000000 	
O	  6.003774567801 	  3.980000000000 	  0.000000000000 	
O	  7.003774567801 	  3.980000000000 	  2.980000000000 	
O	  0.000000000000 	  2.023774567801 	  0.000000000000 	
O	  1.000000000000 	  2.023774567801 	  2.980000000000 	
O	  0.000000000000 	  6.003774567801 	  0.000000000000 	
O	  1.000000000000 	  6.003774567801 	  2.980000000000 	
O	  3.980000000000 	  2.023774567801 	  0.000000000000 	
O	  4.980000000000 	  2.023774567801 	  2.980000000000 	
O	  3.980000000000 	  6.003774567801 	  0.000000000000 	
O	  4.980000000000 	  6.003774567801 	  2.980000000000 	
O	  0.347175403703 	  0.000000000000 	  1.676599164098 	
O	  1.347175403703 	  0.000000000000 	  4.656599164098 	
O	  0.347175403703 	  3.980000000000 	  1.676599164098 	
O	  1.347175403703 	  3.980000000000 	  4.656599164098 	
O	  4.327175403703 	  0.000000000000 	  1.676599164098 	
O	  5.327175403703 	  0.000000000000 	  4.656599164098 	
O	  4.327175403703 	  3.980000000000 	  1.676599164098 	
O	  5.327175403703 	  3.980000000000 	  4.656599164098 	
O	  2.648690294467 	  1.567586087336 	  1.676599164098 	
O	  3.648690294467 	  1.567586087336 	  4.656599164098 	
O	  2.648690294467 	  5.547586087336 	  1.676599164098 	
O	  3.648690294467 	  5.547586087336 	  4.656599164098 	
O	  6.628690294467 	  1.567586087336 	  1.676599164098 	
O	  7.628690294467 	  1.567586087336 	  4.656599164098 	
O	  6.628690294467 	  5.547586087336 	  1.676599164098 	
O	  7.628690294467 	  5.547586087336 	  4.656599164098 	
64 
Energy: 5.0865281200892474e+00 
Mg	  0.000000000000 	  0.000000000000 	  0.000000000000 	
Mg	  1.000000000000 	  0.000000000000 	  2.980000000000 	
Mg	  0.000000000000 	  3.980000000000 	  0.000000000000 	
Mg	  1.000000000000 	  3.980000000000 	  2.980000000000 	
Mg	  3.980000000000 	  0.000000000000 	  0.000000000000 	
Mg	  4.980000000000 	  0.000000000000 	  2.980000000000 	
Mg	  3.980000000000 	  3.980000000000 	  0.000000000000 	
Mg	  4.980000000000 	  3.980000000000 	  2.980000000000 	
Mg	  1.841284260350 	  1.904928222749 	  0.000000000000 	
Mg	  2.841284260350 	  1.904928222749 	  2.980000000000 	
Mg	  1.841284260350 	  5.884928222749 	  0.000000000000 	
Mg	  2.841284260350 	  5.884928222749 	  2.980000000000 	
Mg	  5.821284260350 	  1.904928222749 	  0.000000000000 	
Mg	  6.821284260350 	  1.904928222749 	  2.980000000000 	
Mg	  5.821284260350 	  5.884928222749 	  0.000000000000 	
Mg	  6.821284260350 	  5.884928222749 	  2.980000000000 	
Mg	  2.350435959544 	  0.000000000000 	  1.713996335552 	
Mg	  3.350435959544 	  0.000000000000 	  4.693996335552 	
Mg	  2.350435959544 	  3.980000000000 	  1.713996335552 	
Mg	  3.350435959544 	  3.980000000000 	  4.693996335552 	
Mg	  6.330435959544 	  0.000000000000 	  1.713996335552 	
Mg	  7.330435959544 	  0.000000000000 	  4.693996335552 	
Mg	  6.330435959544 	  3.980000000000 	  1.713996335552 	
Mg	  7.330435959544 	  3.980000000000 	  4.693996335552 	
Mg	  0.318219811996 	  2.032216147548 	  1.713996335552 	
Mg	  1.318219811996 	  2.032216147548 	  4.693996335552 	
Mg	  0.318219811996 	  6.012216147548 	  1.713996335552 	
Mg	  1.318219811996 	  6.012216147548 	  4.693996335552 	
Mg	  4.298219811996 	  2.032216147548 	  1.713996335552 	
Mg	  5.298219811996 	  2.032216147548 	  4.693996335552 	
Mg	  4.298219811996 	  6.012216147548 	  1.713996335552 	
Mg	  5.298219811996 	  6.012216147548 	  4.693996335552 	
O	  2.032216147548 	  0.000000000000 	  0.000000000000 	
O	  3.032216147548 	  0.000000000000 	  2.980000000000 	
O	  2.032216147548 	  3.980000000000 	  0.000000000000 	
O	  3.032216147548 	  3.980000000000 	  2.980000000000 	
O	  6.012216147548 	  0.000000000000 	  0.000000000000 	
O	  7.012216147548 	  0.000000000000 	  2.980000000000 	
O	  6.012216147548 	  3.980000000000 	  0.000000000000 	
O	  7.012216147548 	  3.980000000000 	  2.980000000000 	
O	  0.000000000000 	  2.032216147548 	  0.000000000000 	
O	  1.000000000000 	  2.032216147548 	  2.980000000000 	
O	  0.000000000000 	  6.012216147548 	  0.000000000000 	
O	  1.000000000000 	  6.012216147548 	  2.980000000000 	
O	  3.980000000000 	  2.032216147548 	  0.000000000000 	
O	  4.980000000000 	  2.032216147548 	  2.980000000000 	
O	  3.980000000000 	  6.012216147548 	  0.000000000000 	
O	  4.980000000000 	  6.012216147548 	  2.980000000000 	
O	  0.318219811996 	  0.000000000000 	  1.713996335552 	
O	  1.318219811996 	  0.000000000000 	  4.693996335552 	
O	  0.318219811996 	  3.980000000000 	  1.713996335552 	
O	  1.318219811996 	  3.980000000000 	  4.693996335552 	
O	  4.298219811996 	  0.000000000000 	  1.713996335552 	
O	  5.298219811996 	  0.000000000000 	  4.693996335552 	
O	  4.298219811996 	  3.980000000000 	  1.713996335552 	
O	  5.298219811996 	  3.980000000000 	  4.693996335552 	
O	  2.605011809140 	  1.614075314585 	  1.713996335552 	
O	  3.605011809140 	  1.614075314585 	  4.693996335552 	
O	  2.605011809140 	  5.594075314585 	  1.713996335552 	
O	  3.605011809140 	  5.594075314585 	  4.693996335552 	
O	  6.585011809140 	  1.614075314585 	  1.713996335552 	
O	  7.585011809140 	  1.614075314585 	  4.693996335552 	
O	  6.585011809140 	  5.594075314585 	  1.713996335552 	
O	  7.585011809140 	  5.594075314585 	  4.693996335552 	
64 
Energy: 5.5115073130114327e+00 
Mg	  0.000000000000 	  0.000000000000 	  0.000000000000 	
Mg	  1.000000000000 	  0.000000000000 	  2.980000000000 	
Mg	  0.000000000000 	  3.980000000000 	  0.000000000000 	
Mg	  1.000000000000 	  3.980000000000 	  2.980000000000 	
Mg	  3.980000000000 	  0.000000000000 	  0.000000000000 	
Mg	  4.980000000000 	  0.000000000000 	  2.980000000000 	
Mg	  3.980000000000 	  3.980000000000 	  0.000000000000 	
Mg	  4.980000000000 	  3.980000000000 	  2.980000000000 	
Mg	  1.867115277180 	  1.924964935779 	  0.000000000000 	
Mg	  2.867115277180 	  1.924964935779 	  2.980000000000 	
Mg	  1.867115277180 	  5.904964935779 	  0.000000000000 	
Mg	  2.867115277180 	  5.904964935779 	  2.980000000000 	
Mg	  5.847115277180 	  1.924964935779 	  0.000000000000 	
Mg	  6.847115277180 	  1.924964935779 	  2.980000000000 	
Mg	  5.847115277180 	  5.904964935779 	  0.000000000000 	
Mg	  6.847115277180 	  5.904964935779 	  2.980000000000 	
Mg	  2.329912545978 	  0.000000000000 	  1.751415959980 	
Mg	  3.329912545978 	  0.000000000000 	  4.731415959980 	
Mg	  2.329912545978 	  3.980000000000 	  1.751415959980 	
Mg	  3.329912545978 	  3.980000000000 	  4.731415959980 	
Mg	  6.309912545978 	  0.000000000000 	  1.751415959980 	
Mg	  7.309912545978 	  0.000000000000 	  4.731415959980 	
Mg	  6.309912545978 	  3.980000000000 	  1.751415959980 	
Mg	  7.309912545978 	  3.980000000000 	  4.731415959980 	
Mg	  0.289248292999 	  2.040664252979 	  1.751415959980 	
Mg	  1.289248292999 	  2.040664252979 	  4.731415959980 	
Mg	  0.289248292999 	  6.020664252979 	  1.751415959980 	
Mg	  1.289248292999 	  6.020664252979 	  4.731415959980 	
Mg	  4.269248292999 	  2.040664252979 	  1.751415959980 	
Mg	  5.269248292999 	  2.040664252979 	  4.731415959980 	
Mg	  4.269248292999 	  6.020664252979 	  1.751415959980 	
Mg	  5.269248292999 	  6.020664252979 	  4.731415959980 	
O	  2.040664252979 	  0.000000000000 	  0.000000000000 	
O	  3.040664252979 	  0.000000000000 	  2.980000000000 	
O	  2.040664252979 	  3.980000000000 	  0.000000000000 	
O	  3.040664252979 	  3.980000000000 	  2.980000000000 	
O	  6.020664252979 	  0.000000000000 	  0.000000000000 	
O	  7.020664252979 	  0.000000000000 	  2.980000000000 	
O	  6.020664252979 	  3.980000000000 	  0.000000000000 	
O	  7.020664252979 	  3.980000000000 	  2.980000000000 	
O	  0.000000000000 	  2.040664252979 	  0.000000000000 	
O	  1.000000000000 	  2.040664252979 	  2.980000000000 	
O	  0.000000000000 	  6.020664252979 	  0.000000000000 	
O	  1.000000000000 	  6.020664252979 	  2.980000000000 	
O	  3.980000000000 	  2.040664252979 	  0.000000000000 	
O	  4.980000000000 	  2.040664252979 	  2.980000000000 	
O	  3.980000000000 	  6.020664252979 	  0.000000000000 	
O	  4.980000000000 	  6.020664252979 	  2.980000000000 	
O	  0.289248292999 	  0.000000000000 	  1.751415959980 	
O	  1.289248292999 	  0.000000000000 	  4.731415959980 	
O	  0.289248292999 	  3.980000000000 	  1.751415959980 	
O	  1.289248292999 	  3.980000000000 	  4.731415959980 	
O	  4.269248292999 	  0.000000000000 	  1.751415959980 	
O	  5.269248292999 	  0.000000000000 	  4.731415959980 	
O	  4.269248292999 	  3.980000000000 	  1.751415959980 	
O	  5.269248292999 	  3.980000000000 	  4.731415959980 	
O	  2.561311180377 	  1.660591995979 	  1.751415959980 	
O	  3.561311180377 	  1.660591995979 	  4.731415959980 	
O	  2.561311180377 	  5.640591995979 	  1.751415959980 	
O	  3.561311180377 	  5.640591995979 	  4.731415959980 	
O	  6.541311180377 	  1.660591995979 	  1.751415959980 	
O	  7.541311180377 	  1.660591995979 	  4.731415959980 	
O	  6.541311180377 	  5.640591995979 	  1.751415959980 	
O	  7.541311180377 	  5.640591995979 	  4.731415959980 	
64 
Energy: 5.7199377032523282e+00 
Mg	  0.000000000000 	  0.000000000000 	  0.000000000000 	
Mg	  1.000000000000 	  0.000000000000 	  2.980000000000 	
Mg	  0.000000000000 	  3.980000000000 	  0.000000000000 	
Mg	  1.000000000000 	  3.980000000000 	  2.980000000000 	
Mg	  3.980000000000 	  0.000000000000 	  0.000000000000 	
Mg	  4.980000000000 	  0.000000000000 	  2.980000000000 	
Mg	  3.980000000000 	  3.980000000000 	  0.000000000000 	
Mg	  4.980000000000 	  3.980000000000 	  2.980000000000 	
Mg	  1.892954378047 	  1.945008314891 	  0.000000000000 	
Mg	  2.892954378047 	  1.945008314891 	  2.980000000000 	
Mg	  1.892954378047 	  5.925008314891 	  0.000000000000 	
Mg	  2.892954378047 	  5.925008314891 	  2.980000000000 	
Mg	  5.872954378047 	  1.945008314891 	  0.000000000000 	
Mg	  6.872954378047 	  1.945008314891 	  2.980000000000 	
Mg	  5.872954378047 	  5.925008314891 	  0.000000000000 	
Mg	  6.872954378047 	  5.925008314891 	  2.980000000000 	
Mg	  2.309385872798 	  0.000000000000 	  1.788846504359 	
Mg	  3.309385872798 	  0.000000000000 	  4.768846504359 	
Mg	  2.309385872798 	  3.980000000000 	  1.788846504359 	
Mg	  3.309385872798 	  3.980000000000 	  4.768846504359 	
Mg	  6.289385872798 	  0.000000000000 	  1.788846504359 	
Mg	  7.289385872798 	  0.000000000000 	  4.768846504359 	
Mg	  6.289385872798 	  3.980000000000 	  1.788846504359 	
Mg	  7.289385872798 	  3.980000000000 	  4.768846504359 	
Mg	  0.260269684219 	  2.049116188579 	  1.788846504359 	
Mg	  1.260269684219 	  2.049116188579 	  4.768846504359 	
Mg	  0.260269684219 	  6.029116188579 	  1.788846504359 	
Mg	  1.260269684219 	  6.029116188579 	  4.768846504359 	
Mg	  4.240269684219 	  2.049116188579 	  1.788846504359 	
Mg	  5.240269684219 	  2.049116188579 	  4.768846504359 	
Mg	  4.240269684219 	  6.029116188579 	  1.788846504359 	
Mg	  5.240269684219 	  6.029116188579 	  4.768846504359 	
O	  2.049116188579 	  0.000000000000 	  0.000000000000 	
O	  3.049116188579 	  0.000000000000 	  2.980000000000 	
O	  2.049116188579 	  3.980000000000 	  0.000000000000 	
O	  3.049116188579 	  3.980000000000 	  2.980000000000 	
O	  6.029116188579 	  0.000000000000 	  0.000000000000 	
O	  7.029116188579 	  0.000000000000 	  2.980000000000 	
O	  6.029116188579 	  3.980000000000 	  0.000000000000 	
O	  7.029116188579 	  3.980000000000 	  2.980000000000 	
O	  0.000000000000 	  2.049116188579 	  0.000000000000 	
O	  1.000000000000 	  2.049116188579 	  2.980000000000 	
O	  0.000000000000 	  6.029116188579 	  0.000000000000 	
O	  1.000000000000 	  6.029116188579 	  2.980000000000 	
O	  3.980000000000 	  2.049116188579 	  0.000000000000 	
O	  4.980000000000 	  2.049116188579 	  2.980000000000 	
O	  3.980000000000 	  6.029116188579 	  0.000000000000 	
O	  4.980000000000 	  6.029116188579 	  2.980000000000 	
O	  0.260269684219 	  0.000000000000 	  1.788846504359 	
O	  1.260269684219 	  0.000000000000 	  4.768846504359 	
O	  0.260269684219 	  3.980000000000 	  1.788846504359 	
O	  1.260269684219 	  3.980000000000 	  4.768846504359 	
O	  4.240269684219 	  0.000000000000 	  1.788846504359 	
O	  5.240269684219 	  0.000000000000 	  4.768846504359 	
O	  4.240269684219 	  3.980000000000 	  1.788846504359 	
O	  5.240269684219 	  3.980000000000 	  4.768846504359 	
O	  2.517601620173 	  1.707121823515 	  1.788846504359 	
O	  3.517601620173 	  1.707121823515 	  4.768846504359 	
O	  2.517601620173 	  5.687121823515 	  1.788846504359 	
O	  3.517601620173 	  5.687121823515 	  4.768846504359 	
O	  6.497601620173 	  1.707121823515 	  1.788846504359 	
O	  7.497601620173 	  1.707121823515 	  4.768846504359 	
O	  6.497601620173 	  5.687121823515 	  1.788846504359 	
O	  7.497601620173 	  5.687121823515 	  4.768846504359 	
64 
Energy: 5.6797376001779698e+00 
Mg	  0.000000000000 	  0.000000000000 	  0.000000000000 	
Mg	  1.000000000000 	  0.000000000000 	  2.980000000000 	
Mg	  0.000000000000 	  3.980000000000 	  0.000000000000 	
Mg	  1.000000000000 	  3.980000000000 	  2.980000000000 	
Mg	  3.980000000000 	  0.000000000000 	  0.000000000000 	
Mg	  4.980000000000 	  0.000000000000 	  2.980000000000 	
Mg	  3.980000000000 	  3.980000000000 	  0.000000000000 	
Mg	  4.980000000000 	  3.980000000000 	  2.980000000000 	
Mg	  1.918795136107 	  1.965052944186 	  0.000000000000 	
Mg	  2.918795136107 	  1.965052944186 	  2.980000000000 	
Mg	  1.918795136107 	  5.945052944186 	  0.000000000000 	
Mg	  2.918795136107 	  5.945052944186 	  2.980000000000 	
Mg	  5.898795136107 	  1.965052944186 	  0.000000000000 	
Mg	  6.898795136107 	  1.965052944186 	  2.980000000000 	
Mg	  5.898795136107 	  5.945052944186 	  0.000000000000 	
Mg	  6.898795136107 	  5.945052944186 	  2.980000000000 	
Mg	  2.288857600736 	  0.000000000000 	  1.826279519950 	
Mg	  3.288857600736 	  0.000000000000 	  4.806279519950 	
Mg	  2.288857600736 	  3.980000000000 	  1.826279519950 	
Mg	  3.288857600736 	  3.980000000000 	  4.806279519950 	
Mg	  6.268857600736 	  0.000000000000 	  1.826279519950 	
Mg	  7.268857600736 	  0.000000000000 	  4.806279519950 	
Mg	  6.268857600736 	  3.980000000000 	  1.826279519950 	
Mg	  7.268857600736 	  3.980000000000 	  4.806279519950 	
Mg	  0.231289040393 	  2.057568560343 	  1.826279519950 	
Mg	  1.231289040393 	  2.057568560343 	  4.806279519950 	
Mg	  0.231289040393 	  6.037568560343 	  1.826279519950 	
Mg	  1.231289040393 	  6.037568560343 	  4.806279519950 	
Mg	  4.211289040393 	  2.057568560343 	  1.826279519950 	
Mg	  5.211289040393 	  2.057568560343 	  4.806279519950 	
Mg	  4.211289040393 	  6.037568560343 	  1.826279519950 	
Mg	  5.211289040393 	  6.037568560343 	  4.806279519950 	
O	  2.057568560343 	  0.000000000000 	  0.000000000000 	
O	  3.057568560343 	  0.000000000000 	  2.980000000000 	
O	  2.057568560343 	  3.980000000000 	  0.000000000000 	
O	  3.057568560343 	  3.980000000000 	  2.980000000000 	
O	  6.037568560343 	  0.000000000000 	  0.000000000000 	
O	  7.037568560343 	  0.000000000000 	  2.980000000000 	
O	  6.037568560343 	  3.980000000000 	  0.000000000000 	
O	  7.037568560343 	  3.980000000000 	  2.980000000000 	
O	  0.000000000000 	  2.057568560343 	  0.000000000000 	
O	  1.000000000000 	  2.057568560343 	  2.980000000000 	
O	  0.000000000000 	  6.037568560343 	  0.000000000000 	
O	  1.000000000000 	  6.037568560343 	  2.980000000000 	
O	  3.980000000000 	  2.057568560343 	  0.000000000000 	
O	  4.980000000000 	  2.057568560343 	  2.980000000000 	
O	  3.980000000000 	  6.037568560343 	  0.000000000000 	
O	  4.980000000000 	  6.037568560343 	  2.980000000000 	
O	  0.231289040393 	  0.000000000000 	  1.826279519950 	
O	  1.231289040393 	  0.000000000000 	  4.806279519950 	
O	  0.231289040393 	  3.980000000000 	  1.826279519950 	
O	  1.231289040393 	  3.980000000000 	  4.806279519950 	
O	  4.211289040393 	  0.000000000000 	  1.826279519950 	
O	  5.211289040393 	  0.000000000000 	  4.806279519950 	
O	  4.211289040393 	  3.980000000000 	  1.826279519950 	
O	  5.211289040393 	  3.980000000000 	  4.806279519950 	
O	  2.473888833051 	  1.753654761266 	  1.826279519950 	
O	  3.473888833051 	  1.753654761266 	  4.806279519950 	
O	  2.473888833051 	  5.733654761266 	  1.826279519950 	
O	  3.473888833051 	  5.733654761266 	  4.806279519950 	
O	  6.453888833051 	  1.753654761266 	  1.826279519950 	
O	  7.453888833051 	  1.753654761266 	  4.806279519950 	
O	  6.453888833051 	  5.733654761266 	  1.826279519950 	
O	  7.453888833051 	  5.733654761266 	  4.806279519950 	
64 
Energy: 5.3787425057793232e+00 
Mg	  0.000000000000 	  0.000000000000 	  0.000000000000 	
Mg	  1.000000000000 	  0.000000000000 	  2.980000000000 	
Mg	  0.000000000000 	  3.980000000000 	  0.000000000000 	
Mg	  1.000000000000 	  3.980000000000 	  2.980000000000 	
Mg	  3.980000000000 	  0.000000000000 	  0.000000000000 	
Mg	  4.980000000000 	  0.000000000000 	  2.980000000000 	
Mg	  3.980000000000 	  3.980000000000 	  0.000000000000 	
Mg	  4.980000000000 	  3.980000000000 	  2.980000000000 	
Mg	  1.944632161697 	  1.985094785524 	  0.000000000000 	
Mg	  2.944632161697 	  1.985094785524 	  2.980000000000 	
Mg	  1.944632161697 	  5.965094785524 	  0.000000000000 	
Mg	  2.944632161697 	  5.965094785524 	  2.980000000000 	
Mg	  5.924632161697 	  1.985094785524 	  0.000000000000 	
Mg	  6.924632161697 	  1.985094785524 	  2.980000000000 	
Mg	  5.924632161697 	  5.965094785524 	  0.000000000000 	
Mg	  6.924632161697 	  5.965094785524 	  2.980000000000 	
Mg	  2.268333152312 	  0.000000000000 	  1.863706914044 	
Mg	  3.268333152312 	  0.000000000000 	  4.843706914044 	
Mg	  2.268333152312 	  3.980000000000 	  1.863706914044 	
Mg	  3.268333152312 	  3.980000000000 	  4.843706914044 	
Mg	  6.248333152312 	  0.000000000000 	  1.863706914044 	
Mg	  7.248333152312 	  0.000000000000 	  4.843706914044 	
Mg	  6.248333152312 	  3.980000000000 	  1.863706914044 	
Mg	  7.248333152312 	  3.980000000000 	  4.843706914044 	
Mg	  0.202313119134 	  2.066020033178 	  1.863706914044 	
Mg	  1.202313119134 	  2.066020033178 	  4.843706914044 	
Mg	  0.202313119134 	  6.046020033178 	  1.863706914044 	
Mg	  1.202313119134 	  6.046020033178 	  4.843706914044 	
Mg	  4.182313119134 	  2.066020033178 	  1.863706914044 	
Mg	  5.182313119134 	  2.066020033178 	  4.843706914044 	
Mg	  4.182313119134 	  6.046020033178 	  1.863706914044 	
Mg	  5.182313119134 	  6.046020033178 	  4.843706914044 	
O	  2.066020033178 	  0.000000000000 	  0.000000000000 	
O	  3.066020033178 	  0.000000000000 	  2.980000000000 	
O	  2.066020033178 	  3.980000000000 	  0.000000000000 	
O	  3.066020033178 	  3.980000000000 	  2.980000000000 	
O	  6.046020033178 	  0.000000000000 	  0.000000000000 	
O	  7.046020033178 	  0.000000000000 	  2.980000000000 	
O	  6.046020033178 	  3.980000000000 	  0.000000000000 	
O	  7.046020033178 	  3.980000000000 	  2.980000000000 	
O	  0.000000000000 	  2.066020033178 	  0.000000000000 	
O	  1.000000000000 	  2.066020033178 	  2.980000000000 	
O	  0.000000000000 	  6.046020033178 	  0.000000000000 	
O	  1.000000000000 	  6.046020033178 	  2.980000000000 	
O	  3.980000000000 	  2.066020033178 	  0.000000000000 	
O	  4.980000000000 	  2.066020033178 	  2.980000000000 	
O	  3.980000000000 	  6.046020033178 	  0.000000000000 	
O	  4.980000000000 	  6.046020033178 	  2.980000000000 	
O	  0.202313119134 	  0.000000000000 	  1.863706914044 	
O	  1.202313119134 	  0.000000000000 	  4.843706914044 	
O	  0.202313119134 	  3.980000000000 	  1.863706914044 	
O	  1.202313119134 	  3.980000000000 	  4.843706914044 	
O	  4.182313119134 	  0.000000000000 	  1.863706914044 	
O	  5.182313119134 	  0.000000000000 	  4.843706914044 	
O	  4.182313119134 	  3.980000000000 	  1.863706914044 	
O	  5.182313119134 	  3.980000000000 	  4.843706914044 	
O	  2.430183647619 	  1.800180594636 	  1.863706914044 	
O	  3.430183647619 	  1.800180594636 	  4.843706914044 	
O	  2.430183647619 	  5.780180594636 	  1.863706914044 	
O	  3.430183647619 	  5.780180594636 	  4.843706914044 	
O	  6.410183647619 	  1.800180594636 	  1.863706914044 	
O	  7.410183647619 	  1.800180594636 	  4.843706914044 	
O	  6.410183647619 	  5.780180594636 	  1.863706914044 	
O	  7.410183647619 	  5.780180594636 	  4.843706914044 	
64 
Energy: 4.8241970062505333e+00 
Mg	  0.000000000000 	  0.000000000000 	  0.000000000000 	
Mg	  1.000000000000 	  0.000000000000 	  2.980000000000 	
Mg	  0.000000000000 	  3.980000000000 	  0.000000000000 	
Mg	  1.000000000000 	  3.980000000000 	  2.980000000000 	
Mg	  3.980000000000 	  0.000000000000 	  0.000000000000 	
Mg	  4.980000000000 	  0.000000000000 	  2.980000000000 	
Mg	  3.980000000000 	  3.980000000000 	  0.000000000000 	
Mg	  4.980000000000 	  3.980000000000 	  2.980000000000 	
Mg	  1.970460303162 	  2.005129817436 	  0.000000000000 	
Mg	  2.970460303162 	  2.005129817436 	  2.980000000000 	
Mg	  1.970460303162 	  5.985129817436 	  0.000000000000 	
Mg	  2.970460303162 	  5.985129817436 	  2.980000000000 	
Mg	  5.950460303162 	  2.005129817436 	  0.000000000000 	
Mg	  6.950460303162 	  2.005129817436 	  2.980000000000 	
Mg	  5.950460303162 	  5.985129817436 	  0.000000000000 	
Mg	  6.950460303162 	  5.985129817436 	  2.980000000000 	
Mg	  2.247816417352 	  0.000000000000 	  1.901121274614 	
Mg	  3.247816417352 	  0.000000000000 	  4.881121274614 	
Mg	  2.247816417352 	  3.980000000000 	  1.901121274614 	
Mg	  3.247816417352 	  3.980000000000 	  4.881121274614 	
Mg	  6.227816417352 	  0.000000000000 	  1.901121274614 	
Mg	  7.227816417352 	  0.000000000000 	  4.881121274614 	
Mg	  6.227816417352 	  3.980000000000 	  1.901121274614 	
Mg	  7.227816417352 	  3.980000000000 	  4.881121274614 	
Mg	  0.173347571369 	  2.074468845983 	  1.901121274614 	
Mg	  1.173347571369 	  2.074468845983 	  4.881121274614 	
Mg	  0.173347571369 	  6.054468845983 	  1.901121274614 	
Mg	  1.173347571369 	  6.054468845983 	  4.881121274614 	
Mg	  4.153347571369 	  2.074468845983 	  1.901121274614 	
Mg	  5.153347571369 	  2.074468845983 	  4.881121274614 	
Mg	  4.153347571369 	  6.054468845983 	  1.901121274614 	
Mg	  5.153347571369 	  6.054468845983 	  4.881121274614 	
O	  2.074468845983 	  0.000000000000 	  0.000000000000 	
O	  3.074468845983 	  0.000000000000 	  2.980000000000 	
O	  2.074468845983 	  3.980000000000 	  0.000000000000 	
O	  3.074468845983 	  3.980000000000 	  2.980000000000 	
O	  6.054468845983 	  0.000000000000 	  0.000000000000 	
O	  7.054468845983 	  0.000000000000 	  2.980000000000 	
O	  6.054468845983 	  3.980000000000 	  0.000000000000 	
O	  7.054468845983 	  3.980000000000 	  2.980000000000 	
O	  0.000000000000 	  2.074468845983 	  0.000000000000 	
O	  1.000000000000 	  2.074468845983 	  2.980000000000 	
O	  0.000000000000 	  6.054468845983 	  0.000000000000 	
O	  1.000000000000 	  6.054468845983 	  2.980000000000 	
O	  3.980000000000 	  2.074468845983 	  0.000000000000 	
O	  4.980000000000 	  2.074468845983 	  2.980000000000 	
O	  3.980000000000 	  6.054468845983 	  0.000000000000 	
O	  4.980000000000 	  6.054468845983 	  2.980000000000 	
O	  0.173347571369 	  0.000000000000 	  1.901121274614 	
O	  1.173347571369 	  0.000000000000 	  4.881121274614 	
O	  0.173347571369 	  3.980000000000 	  1.901121274614 	
O	  1.173347571369 	  3.980000000000 	  4.881121274614 	
O	  4.153347571369 	  0.000000000000 	  1.901121274614 	
O	  5.153347571369 	  0.000000000000 	  4.881121274614 	
O	  4.153347571369 	  3.980000000000 	  1.901121274614 	
O	  5.153347571369 	  3.980000000000 	  4.881121274614 	
O	  2.386494474447 	  1.846690137205 	  1.901121274614 	
O	  3.386494474447 	  1.846690137205 	  4.881121274614 	
O	  2.386494474447 	  5.826690137205 	  1.901121274614 	
O	  3.386494474447 	  5.826690137205 	  4.881121274614 	
O	  6.366494474447 	  1.846690137205 	  1.901121274614 	
O	  7.366494474447 	  1.846690137205 	  4.881121274614 	
O	  6.366494474447 	  5.826690137205 	  1.901121274614 	
O	  7.366494474447 	  5.826690137205 	  4.881121274614 	
64 
Energy: 4.0452265425615881e+00 
Mg	  0.000000000000 	  0.000000000000 	  0.000000000000 	
Mg	  1.000000000000 	  0.000000000000 	  2.980000000000 	
Mg	  0.000000000000 	  3.980000000000 	  0.000000000000 	
Mg	  1.000000000000 	  3.980000000000 	  2.980000000000 	
Mg	  3.980000000000 	  0.000000000000 	  0.000000000000 	
Mg	  4.980000000000 	  0.000000000000 	  2.980000000000 	
Mg	  3.980000000000 	  3.980000000000 	  0.000000000000 	
Mg	  4.980000000000 	  3.980000000000 	  2.980000000000 	
Mg	  1.996274653403 	  2.025154135054 	  0.000000000000 	
Mg	  2.996274653403 	  2.025154135054 	  2.980000000000 	
Mg	  1.996274653403 	  6.005154135054 	  0.000000000000 	
Mg	  2.996274653403 	  6.005154135054 	  2.980000000000 	
Mg	  5.976274653403 	  2.025154135054 	  0.000000000000 	
Mg	  6.976274653403 	  2.025154135054 	  2.980000000000 	
Mg	  5.976274653403 	  6.005154135054 	  0.000000000000 	
Mg	  6.976274653403 	  6.005154135054 	  2.980000000000 	
Mg	  2.227310506611 	  0.000000000000 	  1.938515690101 	
Mg	  3.227310506611 	  0.000000000000 	  4.918515690101 	
Mg	  2.227310506611 	  3.980000000000 	  1.938515690101 	
Mg	  3.227310506611 	  3.980000000000 	  4.918515690101 	
Mg	  6.207310506611 	  0.000000000000 	  1.938515690101 	
Mg	  7.207310506611 	  0.000000000000 	  4.918515690101 	
Mg	  6.207310506611 	  3.980000000000 	  1.938515690101 	
Mg	  7.207310506611 	  3.980000000000 	  4.918515690101 	
Mg	  0.144397408255 	  2.082913098356 	  1.938515690101 	
Mg	  1.144397408255 	  2.082913098356 	  4.918515690101 	
Mg	  0.144397408255 	  6.062913098356 	  1.938515690101 	
Mg	  1.144397408255 	  6.062913098356 	  4.918515690101 	
Mg	  4.124397408255 	  2.082913098356 	  1.938515690101 	
Mg	  5.124397408255 	  2.082913098356 	  4.918515690101 	
Mg	  4.124397408255 	  6.062913098356 	  1.938515690101 	
Mg	  5.124397408255 	  6.062913098356 	  4.918515690101 	
O	  2.082913098356 	  0.000000000000 	  0.000000000000 	
O	  3.082913098356 	  0.000000000000 	  2.980000000000 	
O	  2.082913098356 	  3.980000000000 	  0.000000000000 	
O	  3.082913098356 	  3.980000000000 	  2.980000000000 	
O	  6.062913098356 	  0.000000000000 	  0.000000000000 	
O	  7.062913098356 	  0.000000000000 	  2.980000000000 	
O	  6.062913098356 	  3.980000000000 	  0.000000000000 	
O	  7.062913098356 	  3.980000000000 	  2.980000000000 	
O	  0.000000000000 	  2.082913098356 	  0.000000000000 	
O	  1.000000000000 	  2.082913098356 	  2.980000000000 	
O	  0.000000000000 	  6.062913098356 	  0.000000000000 	
O	  1.000000000000 	  6.062913098356 	  2.980000000000 	
O	  3.980000000000 	  2.082913098356 	  0.000000000000 	
O	  4.980000000000 	  2.082913098356 	  2.980000000000 	
O	  3.980000000000 	  6.062913098356 	  0.000000000000 	
O	  4.980000000000 	  6.062913098356 	  2.980000000000 	
O	  0.144397408255 	  0.000000000000 	  1.938515690101 	
O	  1.144397408255 	  0.000000000000 	  4.918515690101 	
O	  0.144397408255 	  3.980000000000 	  1.938515690101 	
O	  1.144397408255 	  3.980000000000 	  4.918515690101 	
O	  4.124397408255 	  0.000000000000 	  1.938515690101 	
O	  5.124397408255 	  0.000000000000 	  4.918515690101 	
O	  4.124397408255 	  3.980000000000 	  1.938515690101 	
O	  5.124397408255 	  3.980000000000 	  4.918515690101 	
O	  2.342828433215 	  1.893174903909 	  1.938515690101 	
O	  3.342828433215 	  1.893174903909 	  4.918515690101 	
O	  2.342828433215 	  5.873174903909 	  1.938515690101 	
O	  3.342828433215 	  5.873174903909 	  4.918515690101 	
O	  6.322828433215 	  1.893174903909 	  1.938515690101 	
O	  7.322828433215 	  1.893174903909 	  4.918515690101 	
O	  6.322828433215 	  5.873174903909 	  1.938515690101 	
O	  7.322828433215 	  5.873174903909 	  4.918515690101 	
64 
Energy: 3.0971513421286581e+00 
Mg	  0.000000000000 	  0.000000000000 	  0.000000000000 	
Mg	  1.000000000000 	  0.000000000000 	  2.980000000000 	
Mg	  0.000000000000 	  3.980000000000 	  0.000000000000 	
Mg	  1.000000000000 	  3.980000000000 	  2.980000000000 	
Mg	  3.980000000000 	  0.000000000000 	  0.000000000000 	
Mg	  4.980000000000 	  0.000000000000 	  2.980000000000 	
Mg	  3.980000000000 	  3.980000000000 	  0.000000000000 	
Mg	  4.980000000000 	  3.980000000000 	  2.980000000000 	
Mg	  2.022070775173 	  2.045164149914 	  0.000000000000 	
Mg	  3.022070775173 	  2.045164149914 	  2.980000000000 	
Mg	  2.022070775173 	  6.025164149914 	  0.000000000000 	
Mg	  3.022070775173 	  6.025164149914 	  2.980000000000 	
Mg	  6.002070775173 	  2.045164149914 	  0.000000000000 	
Mg	  7.002070775173 	  2.045164149914 	  2.980000000000 	
Mg	  6.002070775173 	  6.025164149914 	  0.000000000000 	
Mg	  7.002070775173 	  6.025164149914 	  2.980000000000 	
Mg	  2.206817773103 	  0.000000000000 	  1.975884025691 	
Mg	  3.206817773103 	  0.000000000000 	  4.955884025691 	
Mg	  2.206817773103 	  3.980000000000 	  1.975884025691 	
Mg	  3.206817773103 	  3.980000000000 	  4.955884025691 	
Mg	  6.186817773103 	  0.000000000000 	  1.975884025691 	
Mg	  7.186817773103 	  0.000000000000 	  4.955884025691 	
Mg	  6.186817773103 	  3.980000000000 	  1.975884025691 	
Mg	  7.186817773103 	  3.980000000000 	  4.955884025691 	
Mg	  0.115466873706 	  2.091350899397 	  1.975884025691 	
Mg	  1.115466873706 	  2.091350899397 	  4.955884025691 	
Mg	  0.115466873706 	  6.071350899397 	  1.975884025691 	
Mg	  1.115466873706 	  6.071350899397 	  4.955884025691 	
Mg	  4.095466873706 	  2.091350899397 	  1.975884025691 	
Mg	  5.095466873706 	  2.091350899397 	  4.955884025691 	
Mg	  4.095466873706 	  6.071350899397 	  1.975884025691 	
Mg	  5.095466873706 	  6.071350899397 	  4.955884025691 	
O	  2.091350899397 	  0.000000000000 	  0.000000000000 	
O	  3.091350899397 	  0.000000000000 	  2.980000000000 	
O	  2.091350899397 	  3.980000000000 	  0.000000000000 	
O	  3.091350899397 	  3.980000000000 	  2.980000000000 	
O	  6.071350899397 	  0.000000000000 	  0.000000000000 	
O	  7.071350899397 	  0.000000000000 	  2.980000000000 	
O	  6.071350899397 	  3.980000000000 	  0.000000000000 	
O	  7.071350899397 	  3.980000000000 	  2.980000000000 	
O	  0.000000000000 	  2.091350899397 	  0.000000000000 	
O	  1.000000000000 	  2.091350899397 	  2.980000000000 	
O	  0.000000000000 	  6.071350899397 	  0.000000000000 	
O	  1.000000000000 	  6.071350899397 	  2.980000000000 	
O	  3.980000000000 	  2.091350899397 	  0.000000000000 	
O	  4.980000000000 	  2.091350899397 	  2.980000000000 	
O	  3.980000000000 	  6.071350899397 	  0.000000000000 	
O	  4.980000000000 	  6.071350899397 	  2.980000000000 	
O	  0.115466873706 	  0.000000000000 	  1.975884025691 	
O	  1.115466873706 	  0.000000000000 	  4.955884025691 	
O	  0.115466873706 	  3.980000000000 	  1.975884025691 	
O	  1.115466873706 	  3.980000000000 	  4.955884025691 	
O	  4.095466873706 	  0.000000000000 	  1.975884025691 	
O	  5.095466873706 	  0.000000000000 	  4.955884025691 	
O	  4.095466873706 	  3.980000000000 	  1.975884025691 	
O	  5.095466873706 	  3.980000000000 	  4.955884025691 	
O	  2.299191272068 	  1.939627427347 	  1.975884025691 	
O	  3.299191272068 	  1.939627427347 	  4.955884025691 	
O	  2.299191272068 	  5.919627427347 	  1.975884025691 	
O	  3.299191272068 	  5.919627427347 	  4.955884025691 	
O	  6.279191272068 	  1.939627427347 	  1.975884025691 	
O	  7.279191272068 	  1.939627427347 	  4.955884025691 	
O	  6.279191272068 	  5.919627427347 	  1.975884025691 	
O	  7.279191272068 	  5.919627427347 	  4.955884025691 	
64 
Energy: 2.0673455900773283e+00 
Mg	  0.000000000000 	  0.000000000000 	  0.000000000000 	
Mg	  1.000000000000 	  0.000000000000 	  2.980000000000 	
Mg	  0.000000000000 	  3.980000000000 	  0.000000000000 	
Mg	  1.000000000000 	  3.980000000000 	  2.980000000000 	
Mg	  3.980000000000 	  0.000000000000 	  0.000000000000 	
Mg	  4.980000000000 	  0.000000000000 	  2.980000000000 	
Mg	  3.980000000000 	  3.980000000000 	  0.000000000000 	
Mg	  4.980000000000 	  3.980000000000 	  2.980000000000 	
Mg	  2.047844658871 	  2.065156565722 	  0.000000000000 	
Mg	  3.047844658871 	  2.065156565722 	  2.980000000000 	
Mg	  2.047844658871 	  6.045156565722 	  0.000000000000 	
Mg	  3.047844658871 	  6.045156565722 	  2.980000000000 	
Mg	  6.027844658871 	  2.065156565722 	  0.000000000000 	
Mg	  7.027844658871 	  2.065156565722 	  2.980000000000 	
Mg	  6.027844658871 	  6.045156565722 	  0.000000000000 	
Mg	  7.027844658871 	  6.045156565722 	  2.980000000000 	
Mg	  2.186339913680 	  0.000000000000 	  2.013220845168 	
Mg	  3.186339913680 	  0.000000000000 	  4.993220845168 	
Mg	  2.186339913680 	  3.980000000000 	  2.013220845168 	
Mg	  3.186339913680 	  3.980000000000 	  4.993220845168 	
Mg	  6.166339913680 	  0.000000000000 	  2.013220845168 	
Mg	  7.166339913680 	  0.000000000000 	  4.993220845168 	
Mg	  6.166339913680 	  3.980000000000 	  2.013220845168 	
Mg	  7.166339913680 	  3.980000000000 	  4.993220845168 	
Mg	  0.086559534256 	  2.099780379424 	  2.013220845168 	
Mg	  1.086559534256 	  2.099780379424 	  4.993220845168 	
Mg	  0.086559534256 	  6.079780379424 	  2.013220845168 	
Mg	  1.086559534256 	  6.079780379424 	  4.993220845168 	
Mg	  4.066559534256 	  2.099780379424 	  2.013220845168 	
Mg	  5.066559534256 	  2.099780379424 	  4.993220845168 	
Mg	  4.066559534256 	  6.079780379424 	  2.013220845168 	
Mg	  5.066559534256 	  6.079780379424 	  4.993220845168 	
O	  2.099780379424 	  0.000000000000 	  0.000000000000 	
O	  3.099780379424 	  0.000000000000 	  2.980000000000 	
O	  2.099780379424 	  3.980000000000 	  0.000000000000 	
O	  3.099780379424 	  3.980000000000 	  2.980000000000 	
O	  6.079780379424 	  0.000000000000 	  0.000000000000 	
O	  7.079780379424 	  0.000000000000 	  2.980000000000 	
O	  6.079780379424 	  3.980000000000 	  0.000000000000 	
O	  7.079780379424 	  3.980000000000 	  2.980000000000 	
O	  0.000000000000 	  2.099780379424 	  0.000000000000 	
O	  1.000000000000 	  2.099780379424 	  2.980000000000 	
O	  0.000000000000 	  6.079780379424 	  0.000000000000 	
O	  1.000000000000 	  6.079780379424 	  2.980000000000 	
O	  3.980000000000 	  2.099780379424 	  0.000000000000 	
O	  4.980000000000 	  2.099780379424 	  2.980000000000 	
O	  3.980000000000 	  6.079780379424 	  0.000000000000 	
O	  4.980000000000 	  6.079780379424 	  2.980000000000 	
O	  0.086559534256 	  0.000000000000 	  2.013220845168 	
O	  1.086559534256 	  0.000000000000 	  4.993220845168 	
O	  0.086559534256 	  3.980000000000 	  2.013220845168 	
O	  1.086559534256 	  3.980000000000 	  4.993220845168 	
O	  4.066559534256 	  0.000000000000 	  2.013220845168 	
O	  5.066559534256 	  0.000000000000 	  4.993220845168 	
O	  4.066559534256 	  3.980000000000 	  2.013220845168 	
O	  5.066559534256 	  3.980000000000 	  4.993220845168 	
O	  2.255587541085 	  1.986041151412 	  2.013220845168 	
O	  3.255587541085 	  1.986041151412 	  4.993220845168 	
O	  2.255587541085 	  5.966041151412 	  2.013220845168 	
O	  3.255587541085 	  5.966041151412 	  4.993220845168 	
O	  6.235587541085 	  1.986041151412 	  2.013220845168 	
O	  7.235587541085 	  1.986041151412 	  4.993220845168 	
O	  6.235587541085 	  5.966041151412 	  2.013220845168 	
O	  7.235587541085 	  5.966041151412 	  4.993220845168 	
64 
Energy: 1.0824773774740739e+00 
Mg	  0.000000000000 	  0.000000000000 	  0.000000000000 	
Mg	  1.000000000000 	  0.000000000000 	  2.980000000000 	
Mg	  0.000000000000 	  3.980000000000 	  0.000000000000 	
Mg	  1.000000000000 	  3.980000000000 	  2.980000000000 	
Mg	  3.980000000000 	  0.000000000000 	  0.000000000000 	
Mg	  4.980000000000 	  0.000000000000 	  2.980000000000 	
Mg	  3.980000000000 	  3.980000000000 	  0.000000000000 	
Mg	  4.980000000000 	  3.980000000000 	  2.980000000000 	
Mg	  2.073592745993 	  2.085128383509 	  0.000000000000 	
Mg	  3.073592745993 	  2.085128383509 	  2.980000000000 	
Mg	  2.073592745993 	  6.065128383509 	  0.000000000000 	
Mg	  3.073592745993 	  6.065128383509 	  2.980000000000 	
Mg	  6.053592745993 	  2.085128383509 	  0.000000000000 	
Mg	  7.053592745993 	  2.085128383509 	  2.980000000000 	
Mg	  6.053592745993 	  6.065128383509 	  0.000000000000 	
Mg	  7.053592745993 	  6.065128383509 	  2.980000000000 	
Mg	  2.165877846126 	  0.000000000000 	  2.050521470959 	
Mg	  3.165877846126 	  0.000000000000 	  5.030521470959 	
Mg	  2.165877846126 	  3.980000000000 	  2.050521470959 	
Mg	  3.165877846126 	  3.980000000000 	  5.030521470959 	
Mg	  6.145877846126 	  0.000000000000 	  2.050521470959 	
Mg	  7.145877846126 	  0.000000000000 	  5.030521470959 	
Mg	  6.145877846126 	  3.980000000000 	  2.050521470959 	
Mg	  7.145877846126 	  3.980000000000 	  5.030521470959 	
Mg	  0.057678187583 	  2.108199658542 	  2.050521470959 	
Mg	  1.057678187583 	  2.108199658542 	  5.030521470959 	
Mg	  0.057678187583 	  6.088199658542 	  2.050521470959 	
Mg	  1.057678187583 	  6.088199658542 	  5.030521470959 	
Mg	  4.037678187583 	  2.108199658542 	  2.050521470959 	
Mg	  5.037678187583 	  2.108199658542 	  5.030521470959 	
Mg	  4.037678187583 	  6.088199658542 	  2.050521470959 	
Mg	  5.037678187583 	  6.088199658542 	  5.030521470959 	
O	  2.108199658542 	  0.000000000000 	  0.000000000000 	
O	  3.108199658542 	  0.000000000000 	  2.980000000000 	
O	  2.108199658542 	  3.980000000000 	  0.000000000000 	
O	  3.108199658542 	  3.980000000000 	  2.980000000000 	
O	  6.088199658542 	  0.000000000000 	  0.000000000000 	
O	  7.088199658542 	  0.000000000000 	  2.980000000000 	
O	  6.088199658542 	  3.980000000000 	  0.000000000000 	
O	  7.088199658542 	  3.980000000000 	  2.980000000000 	
O	  0.000000000000 	  2.108199658542 	  0.000000000000 	
O	  1.000000000000 	  2.108199658542 	  2.980000000000 	
O	  0.000000000000 	  6.088199658542 	  0.000000000000 	
O	  1.000000000000 	  6.088199658542 	  2.980000000000 	
O	  3.980000000000 	  2.108199658542 	  0.000000000000 	
O	  4.980000000000 	  2.108199658542 	  2.980000000000 	
O	  3.980000000000 	  6.088199658542 	  0.000000000000 	
O	  4.980000000000 	  6.088199658542 	  2.980000000000 	
O	  0.057678187583 	  0.000000000000 	  2.050521470959 	
O	  1.057678187583 	  0.000000000000 	  5.030521470959 	
O	  0.057678187583 	  3.980000000000 	  2.050521470959 	
O	  1.057678187583 	  3.980000000000 	  5.030521470959 	
O	  4.037678187583 	  0.000000000000 	  2.050521470959 	
O	  5.037678187583 	  0.000000000000 	  5.030521470959 	
O	  4.037678187583 	  3.980000000000 	  2.050521470959 	
O	  5.037678187583 	  3.980000000000 	  5.030521470959 	
O	  2.212020396192 	  2.032410520058 	  2.050521470959 	
O	  3.212020396192 	  2.032410520058 	  5.030521470959 	
O	  2.212020396192 	  6.012410520058 	  2.050521470959 	
O	  3.212020396192 	  6.012410520058 	  5.030521470959 	
O	  6.192020396192 	  2.032410520058 	  2.050521470959 	
O	  7.192020396192 	  2.032410520058 	  5.030521470959 	
O	  6.192020396192 	  6.012410520058 	  2.050521470959 	
O	  7.192020396192 	  6.012410520058 	  5.030521470959 	
64 
Energy: 3.1669871482141060e-01 
Mg	  0.000000000000 	  0.000000000000 	  0.000000000000 	
Mg	  1.000000000000 	  0.000000000000 	  2.980000000000 	
Mg	  0.000000000000 	  3.980000000000 	  0.000000000000 	
Mg	  1.000000000000 	  3.980000000000 	  2.980000000000 	
Mg	  3.980000000000 	  0.000000000000 	  0.000000000000 	
Mg	  4.980000000000 	  0.000000000000 	  2.980000000000 	
Mg	  3.980000000000 	  3.980000000000 	  0.000000000000 	
Mg	  4.980000000000 	  3.980000000000 	  2.980000000000 	
Mg	  2.099311999900 	  2.105076945646 	  0.000000000000 	
Mg	  3.099311999900 	  2.105076945646 	  2.980000000000 	
Mg	  2.099311999900 	  6.085076945646 	  0.000000000000 	
Mg	  3.099311999900 	  6.085076945646 	  2.980000000000 	
Mg	  6.079311999900 	  2.105076945646 	  0.000000000000 	
Mg	  7.079311999900 	  2.105076945646 	  2.980000000000 	
Mg	  6.079311999900 	  6.085076945646 	  0.000000000000 	
Mg	  7.079311999900 	  6.085076945646 	  2.980000000000 	
Mg	  2.145431565866 	  0.000000000000 	  2.087782108408 	
Mg	  3.145431565866 	  0.000000000000 	  5.067782108408 	
Mg	  2.145431565866 	  3.980000000000 	  2.087782108408 	
Mg	  3.145431565866 	  3.980000000000 	  5.067782108408 	
Mg	  6.125431565866 	  0.000000000000 	  2.087782108408 	
Mg	  7.125431565866 	  0.000000000000 	  5.067782108408 	
Mg	  6.125431565866 	  3.980000000000 	  2.087782108408 	
Mg	  7.125431565866 	  3.980000000000 	  5.067782108408 	
Mg	  0.028824728729 	  2.116606837137 	  2.087782108408 	
Mg	  1.028824728729 	  2.116606837137 	  5.067782108408 	
Mg	  0.028824728729 	  6.096606837137 	  2.087782108408 	
Mg	  1.028824728729 	  6.096606837137 	  5.067782108408 	
Mg	  4.008824728729 	  2.116606837137 	  2.087782108408 	
Mg	  5.008824728729 	  2.116606837137 	  5.067782108408 	
Mg	  4.008824728729 	  6.096606837137 	  2.087782108408 	
Mg	  5.008824728729 	  6.096606837137 	  5.067782108408 	
O	  2.116606837137 	  0.000000000000 	  0.000000000000 	
O	  3.116606837137 	  0.000000000000 	  2.980000000000 	
O	  2.116606837137 	  3.980000000000 	  0.000000000000 	
O	  3.116606837137 	  3.980000000000 	  2.980000000000 	
O	  6.096606837137 	  0.000000000000 	  0.000000000000 	
O	  7.096606837137 	  0.000000000000 	  2.980000000000 	
O	  6.096606837137 	  3.980000000000 	  0.000000000000 	
O	  7.096606837137 	  3.980000000000 	  2.980000000000 	
O	  0.000000000000 	  2.116606837137 	  0.000000000000 	
O	  1.000000000000 	  2.116606837137 	  2.980000000000 	
O	  0.000000000000 	  6.096606837137 	  0.000000000000 	
O	  1.000000000000 	  6.096606837137 	  2.980000000000 	
O	  3.980000000000 	  2.116606837137 	  0.000000000000 	
O	  4.980000000000 	  2.116606837137 	  2.980000000000 	
O	  3.980000000000 	  6.096606837137 	  0.000000000000 	
O	  4.980000000000 	  6.096606837137 	  2.980000000000 	
O	  0.028824728729 	  0.000000000000 	  2.087782108408 	
O	  1.028824728729 	  0.000000000000 	  5.067782108408 	
O	  0.028824728729 	  3.980000000000 	  2.087782108408 	
O	  1.028824728729 	  3.980000000000 	  5.067782108408 	
O	  4.008824728729 	  0.000000000000 	  2.087782108408 	
O	  5.008824728729 	  0.000000000000 	  5.067782108408 	
O	  4.008824728729 	  3.980000000000 	  2.087782108408 	
O	  5.008824728729 	  3.980000000000 	  5.067782108408 	
O	  2.168491348849 	  2.078731143588 	  2.087782108408 	
O	  3.168491348849 	  2.078731143588 	  5.067782108408 	
O	  2.168491348849 	  6.058731143588 	  2.087782108408 	
O	  3.168491348849 	  6.058731143588 	  5.067782108408 	
O	  6.148491348849 	  2.078731143588 	  2.087782108408 	
O	  7.148491348849 	  2.078731143588 	  5.067782108408 	
O	  6.148491348849 	  6.058731143588 	  2.087782108408 	
O	  7.148491348849 	  6.058731143588 	  5.067782108408 	
64 
Energy: 0.0000000000000000e+00 
Mg	  0.000000000000 	  0.000000000000 	  0.000000000000 	
Mg	  1.000000000000 	  0.000000000000 	  2.980000000000 	
Mg	  0.000000000000 	  3.980000000000 	  0.000000000000 	
Mg	  1.000000000000 	  3.980000000000 	  2.980000000000 	
Mg	  3.980000000000 	  0.000000000000 	  0.000000000000 	
Mg	  4.980000000000 	  0.000000000000 	  2.980000000000 	
Mg	  3.980000000000 	  3.980000000000 	  0.000000000000 	
Mg	  4.980000000000 	  3.980000000000 	  2.980000000000 	
Mg	  2.125000000000 	  2.125000000000 	  0.000000000000 	
Mg	  3.125000000000 	  2.125000000000 	  2.980000000000 	
Mg	  2.125000000000 	  6.105000000000 	  0.000000000000 	
Mg	  3.125000000000 	  6.105000000000 	  2.980000000000 	
Mg	  6.105000000000 	  2.125000000000 	  0.000000000000 	
Mg	  7.105000000000 	  2.125000000000 	  2.980000000000 	
Mg	  6.105000000000 	  6.105000000000 	  0.000000000000 	
Mg	  7.105000000000 	  6.105000000000 	  2.980000000000 	
Mg	  2.125000000000 	  0.000000000000 	  2.125000000000 	
Mg	  3.125000000000 	  0.000000000000 	  5.105000000000 	
Mg	  2.125000000000 	  3.980000000000 	  2.125000000000 	
Mg	  3.125000000000 	  3.980000000000 	  5.105000000000 	
Mg	  6.105000000000 	  0.000000000000 	  2.125000000000 	
Mg	  7.105000000000 	  0.000000000000 	  5.105000000000 	
Mg	  6.105000000000 	  3.980000000000 	  2.125000000000 	
Mg	  7.105000000000 	  3.980000000000 	  5.105000000000 	
Mg	  0.000000000000 	  2.125000000000 	  2.125000000000 	
Mg	  1.000000000000 	  2.125000000000 	  5.105000000000 	
Mg	  0.000000000000 	  6.105000000000 	  2.125000000000 	
Mg	  1.000000000000 	  6.105000000000 	  5.105000000000 	
Mg	  3.980000000000 	  2.125000000000 	  2.125000000000 	
Mg	  4.980000000000 	  2.125000000000 	  5.105000000000 	
Mg	  3.980000000000 	  6.105000000000 	  2.125000000000 	
Mg	  4.980000000000 	  6.105000000000 	  5.105000000000 	
O	  2.125000000000 	  0.000000000000 	  0.000000000000 	
O	  3.125000000000 	  0.000000000000 	  2.980000000000 	
O	  2.125000000000 	  3.980000000000 	  0.000000000000 	
O	  3.125000000000 	  3.980000000000 	  2.980000000000 	
O	  6.105000000000 	  0.000000000000 	  0.000000000000 	
O	  7.105000000000 	  0.000000000000 	  2.980000000000 	
O	  6.105000000000 	  3.980000000000 	  0.000000000000 	
O	  7.105000000000 	  3.980000000000 	  2.980000000000 	
O	  0.000000000000 	  2.125000000000 	  0.000000000000 	
O	  1.000000000000 	  2.125000000000 	  2.980000000000 	
O	  0.000000000000 	  6.105000000000 	  0.000000000000 	
O	  1.000000000000 	  6.105000000000 	  2.980000000000 	
O	  3.980000000000 	  2.125000000000 	  0.000000000000 	
O	  4.980000000000 	  2.125000000000 	  2.980000000000 	
O	  3.980000000000 	  6.105000000000 	  0.000000000000 	
O	  4.980000000000 	  6.105000000000 	  2.980000000000 	
O	  0.000000000000 	  0.000000000000 	  2.125000000000 	
O	  1.000000000000 	  0.000000000000 	  5.105000000000 	
O	  0.000000000000 	  3.980000000000 	  2.125000000000 	
O	  1.000000000000 	  3.980000000000 	  5.105000000000 	
O	  3.980000000000 	  0.000000000000 	  2.125000000000 	
O	  4.980000000000 	  0.000000000000 	  5.105000000000 	
O	  3.980000000000 	  3.980000000000 	  2.125000000000 	
O	  4.980000000000 	  3.980000000000 	  5.105000000000 	
O	  2.125000000000 	  2.125000000000 	  2.125000000000 	
O	  3.125000000000 	  2.125000000000 	  5.105000000000 	
O	  2.125000000000 	  6.105000000000 	  2.125000000000 	
O	  3.125000000000 	  6.105000000000 	  5.105000000000 	
O	  6.105000000000 	  2.125000000000 	  2.125000000000 	
O	  7.105000000000 	  2.125000000000 	  5.105000000000 	
O	  6.105000000000 	  6.105000000000 	  2.125000000000 	
O	  7.105000000000 	  6.105000000000 	  5.105000000000 	
