  Invoking FHI-aims ...
  | Number of atoms                   :  96
  ...scf iterations...
  | Total energy corrected        :   -8.509835950565E+01 eV
  ...
  Total atomic forces (unitary forces cleaned)
     1  -2.5741795114E-01  5.8772750664E-01  1.8177176770E-01
     2  2.2481951372E-01  5.6397744284E-01  -1.8827756545E-01
     3  2.5741791594E-01  -5.8772742251E-01  -1.8177175450E-01
     4  -2.2481941048E-01  -5.6397741361E-01  1.8827766818E-01
     5  -8.6937944076E-01  1.3839652039E+00  1.9816207572E-01
     6  8.8300329051E-01  1.4644911688E+00  -3.2316894546E-01
     7  8.6938009668E-01  -1.3839650377E+00  -1.9816147561E-01
     8  -8.8300316885E-01  -1.4644913381E+00  3.2316919264E-01
     9  -2.9869979680E-01  1.6801386835E-01  -1.4523461433E-01
    10  4.5661343808E-01  2.9739953116E-01  1.3110999580E-01
    11  2.9869917848E-01  -1.6801416136E-01  1.4523415736E-01
    12  -4.5661371326E-01  -2.9739932317E-01  -1.3111020233E-01
    13  -4.6810003388E-01  -9.9173193286E-01  -9.6163682718E-01
    14  3.2598718722E-01  -1.1277096830E+00  9.9360897135E-01
    15  4.6809938232E-01  9.9173217859E-01  9.6163657110E-01
    16  -3.2598735641E-01  1.1277097411E+00  -9.9360877309E-01
    17  6.1428013991E-01  -8.2840014965E-01  -6.2837826730E-02
    18  -5.8812276372E-01  -9.5201151175E-01  2.1411044925E-01
    19  -6.1427969824E-01  8.2840042397E-01  6.2838260590E-02
    20  5.8812282013E-01  9.5201151231E-01  -2.1411081483E-01
    21  3.7459316795E-01  -8.4742286134E-01  -1.7624249530E-01
    22  -3.6787296737E-01  -8.5906532068E-01  1.9291531978E-01
    23  -3.7459325675E-01  8.4742284000E-01  1.7624238528E-01
    24  3.6787310078E-01  8.5906538441E-01  -1.9291535950E-01
    25  7.6386869253E-01  6.7419508268E-02  5.4443630460E-01
    26  -8.0977219557E-01  1.7647842418E-01  -6.9873896983E-01
    27  -7.6386890832E-01  -6.7420007102E-02  -5.4443662153E-01
    28  8.0977257435E-01  -1.7647799314E-01  6.9873886271E-01
    29  4.8029965690E-01  6.4918411169E-01  7.8658772597E-01
    30  -4.7168402599E-01  6.6311662798E-01  -7.8985277799E-01
    31  -4.8029944435E-01  -6.4918401509E-01  -7.8658797711E-01
    32  4.7168329558E-01  -6.6311697542E-01  7.8985252357E-01
    33  6.2366986906E-02  7.7857290361E-01  6.2783839796E-01
    34  -6.1061034769E-02  7.7955051081E-01  -6.2596628307E-01
    35  -6.2366799934E-02  -7.7857290297E-01  -6.2783827957E-01
    36  6.1061081274E-02  -7.7955058765E-01  6.2596622956E-01
    37  -8.9074853405E-01  7.7445216521E-01  -1.0369854608E-01
    38  8.9054270242E-01  7.8631400902E-01  9.4770276058E-02
    39  8.9074848109E-01  -7.7445223794E-01  1.0369875521E-01
    40  -8.9054225683E-01  -7.8631428624E-01  -9.4769790930E-02
    41  -6.4897350627E-01  8.1324588849E-01  4.7252789670E-02
    42  6.4937341498E-01  8.1312752655E-01  -4.9003405053E-02
    43  6.4897354147E-01  -8.1324578128E-01  -4.7252762023E-02
    44  -6.4937327774E-01  -8.1312745099E-01  4.9003454812E-02
    45  -1.9546981178E+00  9.1562295698E-02  -1.3035939675E+00
    46  1.9682002631E+00  -1.2216074489E-02  1.3486620851E+00
    47  1.9546955635E+00  -9.1561876330E-02  1.3035911857E+00
    48  -1.9682007915E+00  1.2216034122E-02  -1.3486621669E+00
    49  -6.2241300583E+00  -2.1944705685E+00  4.6743495253E+00
    50  8.5896224384E+00  -9.1023945692E-02  -8.9530093030E+00
    51  6.2240406098E+00  2.1944509216E+00  -4.6743064374E+00
    52  -8.5896261076E+00  9.1029892061E-02  8.9530110599E+00
    53  1.9565584156E+00  2.8111013180E+00  -5.5969546573E-01
    54  -2.2325955309E+00  3.1901099241E+00  6.2963635535E-01
    55  -1.9565197759E+00  -2.8110471089E+00  5.5968743427E-01
    56  2.2326001021E+00  -3.1901173123E+00  -6.2963803401E-01
    57  1.0944486219E+00  -1.5087601362E-01  8.8228710296E-01
    58  6.9922401990E-01  1.2766579237E-01  7.1598120975E-01
    59  -1.0944434414E+00  1.5087450950E-01  -8.8228256184E-01
    60  -6.9922549031E-01  -1.2766623415E-01  -7.1598225315E-01
    61  2.0702430328E+00  -1.5311897357E+00  -1.5719795737E+00
    62  -5.9097115331E+00  -4.2507225795E+00  4.0700270266E+00
    63  -2.0701994329E+00  1.5311544544E+00  1.5719458658E+00
    64  5.9097122893E+00  4.2507235522E+00  -4.0700256241E+00
    65  1.2817503542E+00  -3.6511778376E+00  -2.8935012901E+00
    66  -1.5819614881E+00  -3.7144074014E+00  4.1802060610E+00
    67  -1.2817573125E+00  3.6511459833E+00  2.8934705229E+00
    68  1.5819565016E+00  3.7144144076E+00  -4.1801955422E+00
    69  3.7076631045E-01  1.0327876038E+00  4.2827657455E-01
    70  -3.8271990081E-01  1.0945486728E+00  -4.6227143927E-01
    71  -3.7075646761E-01  -1.0327573491E+00  -4.2827204184E-01
    72  3.8272151083E-01  -1.0945538097E+00  4.6227117006E-01
    73  -7.4737331369E-02  2.0893846432E-01  4.5878791531E-01
    74  3.7476630370E-01  1.8878176671E-01  -1.6510149909E+00
    75  7.4732378195E-02  -2.0893997516E-01  -4.5876616848E-01
    76  -3.7476345987E-01  -1.8878279746E-01  1.6510053314E+00
    77  9.7838553621E-01  -1.3275319312E-01  5.3919799267E-01
    78  -1.0078608299E+00  -1.3630778609E-01  -5.6048504677E-01
    79  -9.7838105749E-01  1.3275241729E-01  -5.3919637714E-01
    80  1.0078607621E+00  1.3630764858E-01  5.6048488088E-01
    81  -8.9515189093E-01  6.7282556675E+00  -7.4237610495E-01
    82  8.8555356599E-01  6.7877150597E+00  7.4893367227E-01
    83  8.9511833728E-01  -6.7281801888E+00  7.4236967378E-01
    84  -8.8555361336E-01  -6.7877206917E+00  -7.4893954560E-01
    85  1.1959923942E+00  7.7636968294E-02  6.4777534075E-01
    86  -1.2056332698E+00  9.1799088881E-02  -6.4249961759E-01
    87  -1.1959869952E+00  -7.7636390663E-02  -6.4777255711E-01
    88  1.2056328970E+00  -9.1799045812E-02  6.4249954561E-01
    89  -1.7625466709E-01  -8.8306695308E-01  1.2164391320E+00
    90  1.6173448216E-01  -8.6281310204E-01  -1.2071166938E+00
    91  1.7625056388E-01  8.8305085372E-01  -1.2164111072E+00
    92  -1.6173523729E-01  8.6281560081E-01  1.2071218493E+00
    93  1.5797531046E+00  -2.4217416610E+00  -1.0030855954E+00
    94  -1.5867864239E+00  -2.4099779026E+00  1.0108401549E+00
    95  -1.5797185256E+00  2.4216872234E+00  1.0030609416E+00
    96  1.5867882738E+00  2.4099813293E+00  -1.0108401716E+00
  Stress tensor (eV/A^3):
  5.7716805694E-02  -4.3755980852E-03  3.9276764579E-02
  -4.3755980852E-03  4.0585474432E-02  1.8364553979E-03
  3.9276764579E-02  1.8364553979E-03  4.3549308676E-02
