  Invoking FHI-aims ...
  | Number of atoms                   :  96
  ...scf iterations...
  | Total energy corrected        :   -9.903756018637E+01 eV
  ...
  Total atomic forces (unitary forces cleaned)
     1  -3.2092552458E-01  6.0311857076E-01  1.9660830908E-01
     2  2.5299428744E-01  5.9602473744E-01  -1.8363961792E-01
     3  3.2092544186E-01  -6.0311844001E-01  -1.9660829020E-01
     4  -2.5299419345E-01  -5.9602472262E-01  1.8363971709E-01
     5  -7.7538632990E-01  8.0494386658E-01  -2.5535393472E-01
     6  1.2034452608E+00  -2.6870439386E+00  3.6341815403E+00
     7  7.7538731500E-01  -8.0494365909E-01  2.5535480782E-01
     8  -1.2034450000E+00  2.6870437478E+00  -3.6341811754E+00
     9  -4.9567678978E-01  3.0894552825E-01  -2.0061474847E-01
    10  -1.6452992057E+00  -1.7473835794E+00  2.0344918719E-01
    11  4.9567594659E-01  -3.0894612508E-01  2.0061393190E-01
    12  1.6452987869E+00  1.7473841150E+00  -2.0344981244E-01
    13  -5.8136410661E-01  -1.1389177456E+00  -1.1249776816E+00
    14  2.6362199397E+00  7.8614216517E-01  1.1849956198E+00
    15  5.8136319119E-01  1.1389181087E+00  1.1249773195E+00
    16  -2.6362201839E+00  -7.8614226305E-01  -1.1849952651E+00
    17  5.0115936399E-01  -6.4315658311E-01  -3.1051471617E-02
    18  -1.7378415365E+00  1.2675081280E+00  -2.3573997199E+00
    19  -5.0115869548E-01  6.4315684983E-01  3.1052080428E-02
    20  1.7378417827E+00  -1.2675083411E+00  2.3573995125E+00
    21  6.8016597484E-01  -1.2145032825E+00  -1.8647374387E-01
    22  -5.5536678814E-01  -1.2604159806E+00  3.5216061028E-01
    23  -6.8016615488E-01  1.2145034025E+00  1.8647361816E-01
    24  5.5536693484E-01  1.2604160684E+00  -3.5216061586E-01
    25  1.1521001772E+00  1.2761508736E-01  8.5618786479E-01
    26  1.0513250181E-02  -2.0279344780E+00  1.6305164127E+00
    27  -1.1521010648E+00  -1.2761578069E-01  -8.5618880783E-01
    28  -1.0512656294E-02  2.0279353511E+00  -1.6305166483E+00
    29  5.4284041254E-01  4.1503391507E-01  6.6929523606E-01
    30  -4.2935106321E-01  5.7722300535E-01  -7.3011092898E-01
    31  -5.4284026584E-01  -4.1503394944E-01  -6.6929564346E-01
    32  4.2935015853E-01  -5.7722351617E-01  7.3011071068E-01
    33  1.8351983152E-01  1.0988882240E+00  9.3198439073E-01
    34  -1.6604382002E-01  1.1785440699E+00  -9.4650101741E-01
    35  -1.8351961576E-01  -1.0988880801E+00  -9.3198413004E-01
    36  1.6604387869E-01  -1.1785442566E+00  9.4650096223E-01
    37  -8.3170472727E-01  4.8636938095E-01  -2.5670903810E-01
    38  8.6704206364E-01  6.1587564049E-01  1.5402661359E-01
    39  8.3170486815E-01  -4.8636956613E-01  2.5670934280E-01
    40  -8.6704183671E-01  -6.1587630315E-01  -1.5402601671E-01
    41  -9.4210871672E-01  1.1648607824E+00  7.8817961575E-02
    42  9.6880499530E-01  1.2037037816E+00  -8.4961696674E-02
    43  9.4210858275E-01  -1.1648603918E+00  -7.8817885128E-02
    44  -9.6880466416E-01  -1.2037035275E+00  8.4961777128E-02
    45  -7.8000568051E-01  1.3552511295E-01  -4.7338767268E-01
    46  -2.7596745372E+00  -1.2131531530E+00  -3.2032729591E+00
    47  7.8002559792E-01  -1.3552268150E-01  4.7340634793E-01
    48  2.7596742867E+00  1.2131519452E+00  3.2032713169E+00
    49  -4.3821868744E-01  -3.3141634555E-01  8.9577499659E-01
    50  5.1418139514E-01  -1.0577826775E+00  -2.0550611224E+00
    51  4.3820912393E-01  3.3141796818E-01  -8.9578352733E-01
    52  -5.1418218927E-01  1.0577830920E+00  2.0550629083E+00
    53  -6.8540957992E-01  -1.5006627110E+00  -1.6018839764E-01
    54  2.4328155403E-02  -2.0204651730E+00  3.9450649362E-01
    55  6.8541581179E-01  1.5006686896E+00  1.6018498502E-01
    56  -2.4328374088E-02  2.0204638225E+00  -3.9450555351E-01
    57  1.0592645440E+00  -1.6751721738E-01  9.1791429758E-01
    58  2.5846243129E+00  5.1801865364E-01  2.4968741916E+00
    59  -1.0592669470E+00  1.6751700076E-01  -9.1791753342E-01
    60  -2.5846239250E+00  -5.1801878734E-01  -2.4968738126E+00
    61  -1.0270617361E+00  1.2103799465E+00  7.1542130979E-01
    62  -2.2557178840E+00  1.1369969017E+00  1.2537442851E+00
    63  1.0270701781E+00  -1.2103816805E+00  -7.1542681716E-01
    64  2.2557177916E+00  -1.1369956624E+00  -1.2537443001E+00
    65  6.0030495463E-01  -4.5677892408E-01  -1.5962662401E-01
    66  3.7824456140E+00  2.7486223544E-01  -5.6886585801E-02
    67  -6.0031357758E-01  4.5678197150E-01  1.5962684856E-01
    68  -3.7824464727E+00  -2.7486250558E-01  5.6889065832E-02
    69  -5.2096220659E-01  -1.6966171046E+00  1.0578604878E-01
    70  1.1914178775E+00  -1.9001774762E+00  -8.7175195789E-01
    71  5.2096348206E-01  1.6966226971E+00  -1.0578368542E-01
    72  -1.1914178376E+00  1.9001761544E+00  8.7175184313E-01
    73  5.4050921954E-01  5.1504545814E-01  -1.8119971643E+00
    74  -1.0046683215E+00  1.1170318318E+00  2.1023489608E+00
    75  -5.4051056739E-01  -5.1504479691E-01  1.8120013629E+00
    76  1.0046684549E+00  -1.1170297262E+00  -2.1023522376E+00
    77  1.1211448402E+00  -1.8782590289E-01  5.8247961322E-01
    78  -2.0958063767E+00  -5.7078089065E-01  -1.2286865010E+00
    79  -1.1211471878E+00  1.8782580616E-01  -5.8248190196E-01
    80  2.0958073674E+00  5.7078112503E-01  1.2286867176E+00
    81  3.2978273440E-01  8.1572077124E-01  1.9762825627E-01
    82  -3.0482651691E-01  1.3668118421E+00  3.3704201184E-03
    83  -3.2979376536E-01  -8.1572270080E-01  -1.9762984801E-01
    84  3.0482682303E-01  -1.3668127660E+00  -3.3712018197E-03
    85  1.2082436959E+00  1.1900318405E-01  6.5583786475E-01
    86  -1.2705109068E+00  3.1784566361E-01  -5.3528504148E-01
    87  -1.2082481122E+00  -1.1900395163E-01  -6.5584008951E-01
    88  1.2705103606E+00  -3.1784556571E-01  5.3528488593E-01
    89  3.3463627519E-01  5.4082564079E-01  -1.7247572268E+00
    90  -3.6807852964E-01  7.6019704286E-01  1.8656180049E+00
    91  -3.3463622740E-01  -5.4083047137E-01  1.7247612756E+00
    92  3.6807869253E-01  -7.6019588518E-01  -1.8656177496E+00
    93  -8.6381917363E-01  1.0066059099E+00  8.8927978735E-01
    94  8.5668784743E-01  1.3278123345E+00  -8.3876968878E-01
    95  8.6382394128E-01  -1.0066158737E+00  -8.8928213547E-01
    96  -8.5668756258E-01  -1.3278121874E+00  8.3876961071E-01
  Stress tensor (eV/A^3):
  7.8385491619E-02  -7.1011201840E-03  2.6695718855E-02
  -7.1011201840E-03  9.2226726860E-02  1.0477121348E-02
  2.6695718855E-02  1.0477121348E-02  5.8583821404E-02
