  Invoking FHI-aims ...
  | Number of atoms                   :  96
  ...scf iterations...
  | Total energy corrected        :   -9.458401220389E+01 eV
  ...
  Total atomic forces (unitary forces cleaned)
     1  -2.8088383990E-01  6.0644517117E-01  1.8971285881E-01
     2  2.1626310515E-01  5.6668772877E-01  -1.9256584334E-01
     3  2.8088390606E-01  -6.0644507977E-01  -1.8971279551E-01
     4  -2.1626295695E-01  -5.6668754034E-01  1.9256591148E-01
     5  -8.0626576676E-01  1.6667003621E+00  3.0103037201E-01
     6  8.3272144763E-01  8.9362746432E-01  -6.1373603650E-02
     7  8.0626610532E-01  -1.6667002191E+00  -3.0102998842E-01
     8  -8.3272164564E-01  -8.9362759731E-01  6.1373913474E-02
     9  -3.7185021241E-01  2.4776973175E-01  -1.8368834164E-01
    10  9.8315376530E-01  6.5409889513E-01  1.5524020099E-01
    11  3.7184979120E-01  -2.4776952786E-01  1.8368798690E-01
    12  -9.8315401543E-01  -6.5409897768E-01  -1.5523995883E-01
    13  -5.2539350862E-01  -1.0153183337E+00  -1.0840848881E+00
    14  -8.6514930639E-02  -1.4592727310E+00  1.1484325118E+00
    15  5.2539288921E-01  1.0153184777E+00  1.0840845868E+00
    16  8.6514715660E-02  1.4592729656E+00  -1.1484319163E+00
    17  4.0415490481E-01  -5.4465589951E-01  -4.1404612040E-02
    18  -2.7962103641E-01  -6.6100657381E-01  4.8397038400E-01
    19  -4.0415406377E-01  5.4465585769E-01  4.1405145468E-02
    20  2.7962077290E-01  6.6100640738E-01  -4.8397069417E-01
    21  6.5279703021E-01  -1.2462361284E+00  -2.4597989918E-01
    22  -6.5073811866E-01  -1.3274317936E+00  3.0576013908E-01
    23  -6.5279761761E-01  1.2462365100E+00  2.4597942882E-01
    24  6.5073802121E-01  1.3274320411E+00  -3.0576039811E-01
    25  8.9655837811E-01  3.8142890150E-02  7.4612530023E-01
    26  -9.7701980940E-01  1.6127077373E-01  -1.1573265074E+00
    27  -8.9655929120E-01  -3.8143305323E-02  -7.4612614134E-01
    28  9.7702086965E-01  -1.6127042702E-01  1.1573261684E+00
    29  4.8580643020E-01  3.1766135231E-01  6.0008678408E-01
    30  -4.5776237410E-01  3.6797363066E-01  -6.1598746254E-01
    31  -4.8580626974E-01  -3.1766132651E-01  -6.0008683861E-01
    32  4.5776183022E-01  -3.6797377631E-01  6.1598708017E-01
    33  2.1116618699E-01  1.0913752057E+00  9.6764388952E-01
    34  -1.9546201572E-01  1.1346016633E+00  -9.3263264865E-01
    35  -2.1116604999E-01  -1.0913755341E+00  -9.6764362618E-01
    36  1.9546236441E-01  -1.1346020267E+00  9.3263249468E-01
    37  -6.9241030928E-01  4.7523697054E-01  -2.2893634833E-01
    38  7.1032602194E-01  5.1602350121E-01  2.0622817841E-01
    39  6.9241038188E-01  -4.7523723002E-01  2.2893637874E-01
    40  -7.1032596089E-01  -5.1602377600E-01  -2.0622772132E-01
    41  -9.0530180137E-01  1.2059585757E+00  8.4279867124E-02
    42  9.1030086461E-01  1.2173807894E+00  -8.0938688432E-02
    43  9.0530171861E-01  -1.2059584207E+00  -8.4279613525E-02
    44  -9.1030058619E-01  -1.2173804764E+00  8.0938867289E-02
    45  -6.5338503648E-01  2.0961576420E-01  -1.7613228209E-01
    46  -1.9641570027E+00  -3.1463544947E+00  -1.3885507542E+00
    47  6.5342275587E-01  -2.0960699285E-01  1.7617048811E-01
    48  1.9641560029E+00  3.1463527720E+00  1.3885452420E+00
    49  -4.2319010514E+00  1.0512333908E+00  2.2958420188E+00
    50  4.1697237562E+00  5.1911882696E+00  -4.9136202160E+00
    51  4.2318371708E+00  -1.0512101863E+00  -2.2958468248E+00
    52  -4.1697250819E+00  -5.1911905229E+00  4.9136280998E+00
    53  8.8378320330E-01  -9.9398541346E-02  -8.1318117602E-01
    54  3.1217572207E-01  -1.6557660739E+00  1.3025009024E-01
    55  -8.8374767628E-01  9.9405999001E-02  8.1315700798E-01
    56  -3.1217253147E-01  1.6557640863E+00  -1.3025113172E-01
    57  1.6021286213E+00  -2.5811233356E-01  1.5443969829E+00
    58  7.0959214088E-01  3.8245368578E-02  1.2158217178E+00
    59  -1.6021219205E+00  2.5810998779E-01  -1.5443901202E+00
    60  -7.0959484653E-01  -3.8245893918E-02  -1.2158231576E+00
    61  7.2605242805E-01  -2.7195094565E-01  -6.2615399727E-01
    62  -4.3371778805E+00  -3.6370723966E+00  2.9352307149E+00
    63  -7.2602609969E-01  2.7191978262E-01  6.2613179245E-01
    64  4.3371785113E+00  3.6370751122E+00  -2.9352296996E+00
    65  -3.1279782136E-01  -1.9002673921E+00  -6.4197414827E-01
    66  3.9401068699E+00  2.0393295227E+00  -7.6764445927E-01
    67  3.1277227256E-01  1.9002619276E+00  6.4196065407E-01
    68  -3.9401058568E+00  -2.0393296891E+00  7.6764910751E-01
    69  -5.2971642081E-01  -3.5443525701E-01  5.2114428044E-01
    70  2.6534842249E-01  1.1263971589E-01  -5.1864123799E-01
    71  5.2972783538E-01  3.5445533780E-01  -5.2114428725E-01
    72  -2.6534840368E-01  -1.1263928085E-01  5.1864082046E-01
    73  5.9442838331E-01  -1.5312916971E-02  -1.1345520991E+00
    74  -9.9461483001E-01  -5.7848461682E-01  2.3378009195E+00
    75  -5.9443095964E-01  1.5319245239E-02  1.1345668577E+00
    76  9.9461444679E-01  5.7848747588E-01  -2.3378051988E+00
    77  1.3688983260E+00  -4.0024018378E-01  8.4215364138E-01
    78  -1.6741089924E+00  -5.8343999830E-01  -1.0874906863E+00
    79  -1.3688958673E+00  4.0023854466E-01  -8.4215325556E-01
    80  1.6741096518E+00  5.8344010148E-01  1.0874901379E+00
    81  -3.3000324434E-01  3.2337785970E+00  -1.8139976500E+00
    82  4.6000787764E-01  3.2246315444E+00  1.8938220592E+00
    83  3.2997021052E-01  -3.2337517009E+00  1.8139611110E+00
    84  -4.6000607094E-01  -3.2246317896E+00  -1.8938304949E+00
    85  1.7190983251E+00  9.3935080678E-02  8.4318817450E-01
    86  -1.7556086776E+00  1.1837344354E-01  -7.8479030586E-01
    87  -1.7190934626E+00  -9.3934756769E-02  -8.4318587726E-01
    88  1.7556085125E+00  -1.1837346963E-01  7.8479022065E-01
    89  1.4924505443E-01  -4.8982799269E-01  -5.2458277263E-01
    90  -1.6923938604E-01  -4.5526096055E-01  5.8601492238E-01
    91  -1.4925123111E-01  4.8981852855E-01  5.2461231703E-01
    92  1.6923767989E-01  4.5526263217E-01  -5.8600812716E-01
    93  -7.5180467190E-03  -8.5888754135E-01  4.2695738888E-01
    94  -1.2292654211E-02  -7.6566337694E-01  -3.9288836958E-01
    95  7.5253367789E-03  8.5884421838E-01  -4.2694808717E-01
    96  1.2292214598E-02  7.6566259167E-01  3.9288973639E-01
  Stress tensor (eV/A^3):
  7.4719090667E-02  -1.0998930422E-02  3.6501301573E-02
  -1.0998930422E-02  5.9880829029E-02  4.8737282483E-03
  3.6501301573E-02  4.8737282483E-03  6.6265837714E-02
