  Invoking FHI-aims ...
  | Number of atoms                   :  96
  ...scf iterations...
  | Total energy corrected        :   -8.740880605569E+01 eV
  ...
  Total atomic forces (unitary forces cleaned)
     1  -2.6292169318E-01  5.9801646313E-01  1.8100770198E-01
     2  2.1912565514E-01  5.6679944713E-01  -1.9068285783E-01
     3  2.6292171667E-01  -5.9801637185E-01  -1.8100766883E-01
     4  -2.1912551454E-01  -5.6679934253E-01  1.9068294240E-01
     5  -8.4583673765E-01  1.4622349756E+00  2.2429777980E-01
     6  8.5768483269E-01  1.5872067952E+00  -4.5993427383E-01
     7  8.4583722535E-01  -1.4622348279E+00  -2.2429729347E-01
     8  -8.5768485506E-01  -1.5872069445E+00  4.5993456625E-01
     9  -3.1054735553E-01  1.9083667083E-01  -1.5472865787E-01
    10  6.3492957228E-01  4.6274276828E-01  1.3162528706E-01
    11  3.1054684327E-01  -1.9083672219E-01  1.5472824798E-01
    12  -6.3492993151E-01  -4.6274279713E-01  -1.3162531206E-01
    13  -4.8397382497E-01  -9.8780999659E-01  -1.0004706902E+00
    14  1.7642786962E-01  -1.2719334604E+00  1.0484661184E+00
    15  4.8397320120E-01  9.8781018054E-01  1.0004704175E+00
    16  -1.7642796192E-01  1.2719336918E+00  -1.0484657103E+00
    17  5.4480192604E-01  -7.4834489319E-01  -6.0788407468E-02
    18  -4.6394590014E-01  -9.4530238449E-01  3.5891605112E-01
    19  -5.4480137444E-01  7.4834508556E-01  6.0788838189E-02
    20  4.6394579669E-01  9.4530234308E-01  -3.5891644979E-01
    21  4.5379414031E-01  -9.6731593784E-01  -2.0894610072E-01
    22  -4.4891059120E-01  -9.9112977785E-01  2.3467444696E-01
    23  -4.5379436236E-01  9.6731595119E-01  2.0894586666E-01
    24  4.4891064780E-01  9.9112990295E-01  -2.3467454118E-01
    25  7.7320667552E-01  4.8493832803E-02  5.9805818049E-01
    26  -8.6759001140E-01  2.4020499597E-01  -8.9932248250E-01
    27  -7.7320731549E-01  -4.8494264096E-02  -5.9805881434E-01
    28  8.6759067909E-01  -2.4020463376E-01  8.9932231269E-01
    29  4.7948196796E-01  5.4759190672E-01  7.3980875899E-01
    30  -4.6802128171E-01  5.7086080322E-01  -7.4816672746E-01
    31  -4.7948178039E-01  -5.4759190036E-01  -7.3980891153E-01
    32  4.6802067369E-01  -5.7086109621E-01  7.4816642747E-01
    33  1.4131499013E-01  8.6964055580E-01  7.3814904499E-01
    34  -1.3091889227E-01  8.8182557326E-01  -7.2961852949E-01
    35  -1.4131465298E-01  -8.6964068727E-01  -7.3814878696E-01
    36  1.3091908664E-01  -8.8182572470E-01  7.2961842091E-01
    37  -8.2236235045E-01  6.9314556241E-01  -1.4388010999E-01
    38  8.2533979800E-01  7.1328667518E-01  1.3030621665E-01
    39  8.2236234093E-01  -6.9314570767E-01  1.4388025823E-01
    40  -8.2533948168E-01  -7.1328690968E-01  -1.3030572160E-01
    41  -7.1955059747E-01  9.3329125827E-01  5.5422452340E-02
    42  7.2142976811E-01  9.3398470047E-01  -5.8310228303E-02
    43  7.1955058634E-01  -9.3329114492E-01  -5.5422334536E-02
    44  -7.2142958161E-01  -9.3398453910E-01  5.8310326334E-02
    45  -1.4246265581E+00  2.0751013883E-01  -7.1993001866E-01
    46  3.6465546095E-01  -1.3206465542E+00  7.2443602542E-01
    47  1.4246513853E+00  -2.0750043629E-01  7.1996512392E-01
    48  -3.6465880670E-01  1.3206405595E+00  -7.2443741620E-01
    49  -1.2770209777E+01  -1.0923595992E+00  7.6248396240E+00
    50  2.3733221699E+01  1.3449164231E+01  -1.8135198658E+01
    51  1.2769926631E+01  1.0923469216E+00  -7.6247090244E+00
    52  -2.3733225048E+01  -1.3449126783E+01  1.8135195698E+01
    53  5.7762282726E+00  5.0896258141E+00  -2.9284878878E+00
    54  -4.0581585297E+00  3.1501480590E+00  2.3133629433E+00
    55  -5.7760659971E+00  -5.0894941720E+00  2.9283969234E+00
    56  4.0581830926E+00  -3.1501736222E+00  -2.3133760241E+00
    57  1.7984216478E+00  -2.7748523237E-01  1.6330289321E+00
    58  -4.9378154766E-01  -4.2715687385E-02  -2.1409440456E-01
    59  -1.7984020157E+00  2.7748106615E-01  -1.6330100961E+00
    60  4.9377998733E-01  4.2715012089E-02  2.1409318611E-01
    61  3.9611427550E+00  -3.9610599425E+00  -3.1401490357E+00
    62  -1.7951779718E+01  -1.6745809737E+01  1.3135344142E+01
    63  -3.9610388309E+00  3.9609491560E+00  3.1400551578E+00
    64  1.7951760066E+01  1.6745797712E+01  -1.3135323376E+01
    65  -3.8923413513E-01  -6.2769251302E+00  -3.9529535247E+00
    66  2.0673432453E+00  -5.1041542443E+00  3.3249807501E+00
    67  3.8920172966E-01  6.2768604694E+00  3.9528968240E+00
    68  -2.0673460798E+00  5.1041610261E+00  -3.3249661930E+00
    69  1.2529662320E+00  2.9636972392E+00  4.6450255566E-01
    70  -1.3207086041E+00  3.0171167434E+00  -4.9966858393E-01
    71  -1.2529386669E+00  -2.9636345693E+00  -4.6449937651E-01
    72  1.3207107802E+00  -3.0171206820E+00  4.9966676611E-01
    73  -2.7836060961E-01  6.0499627822E-01  1.6551264149E+00
    74  7.9773575835E-02  7.2952933121E-01  -1.2064066757E+00
    75  2.7834890351E-01  -6.0498508739E-01  -1.6550745053E+00
    76  -7.9769514982E-02  -7.2952665685E-01  1.2063929001E+00
    77  1.4013492014E+00  -3.1030649921E-01  7.8061064540E-01
    78  -1.6975576563E+00  -4.1298195255E-01  -9.7695479954E-01
    79  -1.4013420351E+00  3.1030450347E-01  -7.8060767190E-01
    80  1.6975576798E+00  4.1298177526E-01  9.7695425293E-01
    81  -2.3002900350E+00  1.1608948176E+01  -3.8131900949E+00
    82  2.2512002438E+00  1.1723980931E+01  3.8658884603E+00
    83  2.3001805676E+00  -1.1608725928E+01  3.8131920368E+00
    84  -2.2512004227E+00  -1.1723988538E+01  -3.8659010901E+00
    85  1.8514349664E+00  1.3654383053E-01  9.4894199864E-01
    86  -1.8727798811E+00  1.6176390851E-01  -9.2668512403E-01
    87  -1.8514210569E+00  -1.3654276659E-01  -9.4893563157E-01
    88  1.8727798145E+00  -1.6176389518E-01  9.2668511641E-01
    89  -6.0087654076E-01  -1.5189847059E+00  3.2351407477E+00
    90  5.9294256327E-01  -1.4911613507E+00  -3.2075020754E+00
    91  6.0087358928E-01  1.5189707083E+00  -3.2351252131E+00
    92  -5.9294408063E-01  1.4911642780E+00  3.2075108479E+00
    93  2.8392770459E+00  -7.2032582634E+00  -1.0054113233E+00
    94  -2.8480915765E+00  -7.1501509729E+00  1.0228599242E+00
    95  -2.8391961764E+00  7.2030278692E+00  1.0053864826E+00
    96  2.8480928182E+00  7.1501571949E+00  -1.0228567088E+00
  Stress tensor (eV/A^3):
  3.1745212463E-02  -2.2952601967E-02  6.9640623046E-02
  -2.2952601967E-02  -1.5041920172E-02  1.3890084788E-02
  6.9640623046E-02  1.3890084788E-02  2.3058436835E-02
