  Invoking FHI-aims ...
  | Number of atoms                   :  96
  ...scf iterations...
  | Total energy corrected        :   -9.738813200259E+01 eV
  ...
  Total atomic forces (unitary forces cleaned)
     1  -2.9632603279E-01  6.1364291251E-01  1.9034437336E-01
     2  2.2228620244E-01  5.7852292306E-01  -1.8559758111E-01
     3  2.9632608843E-01  -6.1364281403E-01  -1.9034431053E-01
     4  -2.2228604368E-01  -5.7852273807E-01  1.8559763642E-01
     5  -7.8443657593E-01  1.4757807099E+00  1.5519782392E-01
     6  9.5616102817E-01  -9.9011936388E-01  1.6415456953E+00
     7  7.8443696406E-01  -1.4757805602E+00  -1.5519739571E-01
     8  -9.5616123574E-01  9.9011923173E-01  -1.6415453817E+00
     9  -4.3843346164E-01  2.9781254692E-01  -2.0543480352E-01
    10  5.7838466491E-01  6.6468873382E-02  1.8158695318E-01
    11  4.3843300038E-01  -2.9781236825E-01  2.0543440498E-01
    12  -5.7838407895E-01  -6.6468090744E-02  -1.8158682188E-01
    13  -5.6118487131E-01  -1.0620540412E+00  -1.1455571208E+00
    14  3.7586676393E-01  -9.1146577289E-01  1.2097813837E+00
    15  5.6118422169E-01  1.0620542217E+00  1.1455568128E+00
    16  -3.7586784630E-01  9.1146516637E-01  -1.2097806649E+00
    17  3.5309196719E-01  -4.6504717592E-01  -3.1130792322E-02
    18  -5.4740783237E-01  6.9205175283E-02  -2.1797894173E-01
    19  -3.5309103626E-01  4.6504703973E-01  3.1131373573E-02
    20  5.4740801762E-01  -6.9205767039E-02  2.1797902013E-01
    21  7.6108857035E-01  -1.3968028861E+00  -2.5808835337E-01
    22  -7.3457134650E-01  -1.4777417372E+00  3.5760551076E-01
    23  -7.6108926486E-01  1.3968034069E+00  2.5808784068E-01
    24  7.3457123008E-01  1.4777419959E+00  -3.5760578022E-01
    25  9.9152754979E-01  5.7168993065E-02  8.3318262421E-01
    26  -7.1240886018E-01  -5.2777585573E-01  -4.9054620896E-01
    27  -9.9152940809E-01  -5.7169361209E-02  -8.3318414700E-01
    28  7.1240967538E-01  5.2777670564E-01  4.9054552795E-01
    29  4.9605204122E-01  2.2233123040E-01  5.4115817760E-01
    30  -4.4329839347E-01  3.0956532515E-01  -5.7416652168E-01
    31  -4.9605185240E-01  -2.2233119375E-01  -5.4115823531E-01
    32  4.4329779731E-01  -3.0956547203E-01  5.7416612979E-01
    33  2.5724912860E-01  1.2082343293E+00  1.0887309705E+00
    34  -2.2704367095E-01  1.2821796361E+00  -1.0501408132E+00
    35  -2.5724899989E-01  -1.2082346919E+00  -1.0887306875E+00
    36  2.2704405508E-01  -1.2821800878E+00  1.0501406558E+00
    37  -6.5550729370E-01  3.6031664598E-01  -2.8071953615E-01
    38  6.8719320029E-01  4.3397624322E-01  2.3455203655E-01
    39  6.5550738871E-01  -3.6031693982E-01  2.8071953320E-01
    40  -6.8719323163E-01  -4.3397661285E-01  -2.3455157799E-01
    41  -1.0136977069E+00  1.3484953708E+00  9.3154597592E-02
    42  1.0257861594E+00  1.3679214806E+00  -9.2623932596E-02
    43  1.0136975879E+00  -1.3484951652E+00  -9.3154309593E-02
    44  -1.0257858292E+00  -1.3679211081E+00  9.2624138792E-02
    45  7.5837208265E-01  1.3425586297E-01  8.3839470698E-01
    46  -4.7550244623E+00  -3.2102687891E+00  -2.5671028436E+00
    47  -7.5832299491E-01  -1.3425148939E-01  -8.3835420996E-01
    48  4.7550224875E+00  3.2102655186E+00  2.5671016385E+00
    49  -1.3838254195E+00  2.1864937857E-01  -4.2948286367E-01
    50  3.3373809140E+00  4.7857844138E+00  -3.8136101691E+00
    51  1.3837854690E+00  -2.1863929820E-01  4.2946617253E-01
    52  -3.3373736934E+00  -4.7857787173E+00  3.8136065612E+00
    53  -7.5597905656E-01  -1.1866754145E+00  1.0788692236E-01
    54  1.4224348349E+00  -2.4493169443E+00  -6.5734666450E-01
    55  7.5599806080E-01  1.1866757078E+00  -1.0790030298E-01
    56  -1.4224327499E+00  2.4493163635E+00  6.5734710986E-01
    57  1.3926435373E+00  -2.2693119802E-01  1.3550157992E+00
    58  1.1082753520E+00  5.6559169778E-02  1.8797207918E+00
    59  -1.3926411428E+00  2.2692946308E-01  -1.3550144872E+00
    60  -1.1082777176E+00  -5.6559394717E-02  -1.8797212990E+00
    61  -1.3702220451E-01  1.4720232014E+00  2.7919671788E-02
    62  -4.8903210244E+00  -3.0511207255E+00  3.2423672094E+00
    63  1.3704247854E-01  -1.4720353691E+00  -2.7934969092E-02
    64  4.8903143491E+00  3.0511149612E+00  -3.2423620653E+00
    65  -4.2015819316E-01  5.2030783153E-01  2.0228640324E-01
    66  4.8131841262E+00  4.7047291146E+00  -1.3598341681E+00
    67  4.2013837436E-01  -5.2029779066E-01  -2.0229423693E-01
    68  -4.8131814938E+00  -4.7047275520E+00  1.3598364025E+00
    69  -1.1659737413E+00  -1.3139100632E+00  6.9006794682E-01
    70  1.0924414706E+00  -9.1768226588E-01  -7.9207797710E-01
    71  1.1659795549E+00  1.3139222560E+00  -6.9006570591E-01
    72  -1.0924411615E+00  9.1768233387E-01  7.9207791939E-01
    73  8.4577471469E-01  -3.4216295188E-01  -1.9967075864E+00
    74  -1.1584291115E+00  -1.0119649591E+00  2.9982923268E+00
    75  -8.4577604339E-01  3.4216606126E-01  1.9967157337E+00
    76  1.1584276590E+00  1.0119670322E+00  -2.9982943836E+00
    77  1.2234739606E+00  -3.9693936092E-01  7.3211106368E-01
    78  -1.4965128018E+00  -5.8911587754E-01  -9.8461673891E-01
    79  -1.2234759506E+00  3.9693892587E-01  -7.3211347956E-01
    80  1.4965133723E+00  5.8911598905E-01  9.8461614671E-01
    81  -8.8537006071E-01  3.3196631091E-01  -1.0957537879E-01
    82  9.6055355893E-01  5.9050473791E-01  3.3216639143E-01
    83  8.8533870730E-01  -3.3195940576E-01  1.0955988530E-01
    84  -9.6055270175E-01  -5.9050510604E-01  -3.3216996733E-01
    85  1.4924489132E+00  9.5030207035E-02  7.1671763704E-01
    86  -1.4769806592E+00  1.2270421674E-01  -5.9104295940E-01
    87  -1.4924508524E+00  -9.5030774094E-02  -7.1671824861E-01
    88  1.4769802741E+00  -1.2270424084E-01  5.9104284543E-01
    89  4.7122691828E-01  -3.8849743741E-01  -1.8348117349E+00
    90  -5.0236718788E-01  -3.3447648493E-01  1.9198759756E+00
    91  -4.7122888248E-01  3.8848780623E-01  1.8348252624E+00
    92  5.0236620662E-01  3.3447833365E-01  -1.9198727218E+00
    93  -5.1101136812E-01  1.0241601745E+00  4.1889941493E-01
    94  4.7532427495E-01  1.1836771094E+00  -3.6114319159E-01
    95  5.1101519900E-01  -1.0241830598E+00  -4.1889269010E-01
    96  -4.7532460562E-01  -1.1836781706E+00  3.6114380203E-01
  Stress tensor (eV/A^3):
  7.5820514384E-02  -1.4493963409E-02  3.0540331928E-02
  -1.4493963409E-02  7.3197923510E-02  9.9110952795E-03
  3.0540331928E-02  9.9110952795E-03  6.9806567044E-02
