  Invoking FHI-aims ...
  | Number of atoms                   :  96
  ...scf iterations...
  | Total energy corrected        :   -1.043879245096E+02 eV
  ...
  Total atomic forces (unitary forces cleaned)
     1  -3.2256051023E-01  6.2212751567E-01  1.8936151411E-01
     2  2.4508930831E-01  5.9200981966E-01  -1.8516818115E-01
     3  3.2256050561E-01  -6.2212739312E-01  -1.8936146613E-01
     4  -2.4508914230E-01  -5.9200966753E-01  1.8516824024E-01
     5  -7.4810492378E-01  4.5903286178E-02  -6.7069609566E-01
     6  1.2001144657E+00  -1.5837083772E+00  2.5912805066E+00
     7  7.4810553579E-01  -4.5903120341E-02  6.7069670569E-01
     8  -1.2001145669E+00  1.5837082453E+00  -2.5912801602E+00
     9  -5.0377337499E-01  3.6351681782E-01  -2.0224455123E-01
    10  -1.4334020472E+00  -1.6299138800E+00  1.8397453847E-01
    11  5.0377276612E-01  -3.6351688087E-01  2.0224397494E-01
    12  1.4334024508E+00  1.6299147072E+00  -1.8397493617E-01
    13  -5.8748091885E-01  -1.1249318001E+00  -1.1915662225E+00
    14  2.4436109331E+00  7.1840418687E-01  1.2980408882E+00
    15  5.8748019211E-01  1.1249320653E+00  1.1915659121E+00
    16  -2.4436120450E+00  -7.1840474429E-01  -1.2980400141E+00
    17  5.7267504626E-01  -7.7487998732E-01  -5.5168936549E-02
    18  -1.5611919202E+00  5.4901467458E-01  -1.6531958502E+00
    19  -5.7267440604E-01  7.7488030568E-01  5.5169535325E-02
    20  1.5611927439E+00  -5.4901513164E-01  1.6531957947E+00
    21  6.1409410230E-01  -1.1725489754E+00  -2.3490750255E-01
    22  -4.6268676970E-01  -1.1454859032E+00  4.0529815704E-01
    23  -6.1409465887E-01  1.1725491850E+00  2.3490704190E-01
    24  4.6268667306E-01  1.1454858776E+00  -4.0529824042E-01
    25  9.6846365252E-01  1.1560861800E-01  8.2668836725E-01
    26  1.1167092928E-01  -1.4981730634E+00  1.0997785272E+00
    27  -9.6846960207E-01  -1.1560858425E-01  -8.2669242041E-01
    28  -1.1167038537E-01  1.4981741590E+00  -1.0997789219E+00
    29  5.9308939290E-01  4.7457472070E-01  7.8532499731E-01
    30  -4.5888247011E-01  6.3654931054E-01  -8.3225223650E-01
    31  -5.9308910085E-01  -4.7457492827E-01  -7.8532510856E-01
    32  4.5888188275E-01  -6.3654973888E-01  8.3225195819E-01
    33  2.0745271224E-01  1.0013125636E+00  9.0764683401E-01
    34  -1.8188285031E-01  1.1246189422E+00  -8.9163449255E-01
    35  -2.0745236247E-01  -1.0013128897E+00  -9.0764655919E-01
    36  1.8188309035E-01  -1.1246192799E+00  8.9163430412E-01
    37  -8.9623837040E-01  5.9971787760E-01  -2.9016850181E-01
    38  9.0146973970E-01  7.3706558470E-01  1.6769925876E-01
    39  8.9623839449E-01  -5.9971801166E-01  2.9016862314E-01
    40  -9.0146964102E-01  -7.3706594588E-01  -1.6769874178E-01
    41  -8.4879719008E-01  1.1019213373E+00  6.0049704498E-02
    42  8.9533870901E-01  1.1678540878E+00  -7.5875930733E-02
    43  8.4879713104E-01  -1.1019211878E+00  -6.0049509807E-02
    44  -8.9533847017E-01  -1.1678538797E+00  7.5876106101E-02
    45  1.3292667896E+00  7.9071991663E-02  1.1760096807E+00
    46  -3.8984701130E+00  -5.7036246753E-01  -1.9978404554E+00
    47  -1.3292347842E+00  -7.9072461280E-02  -1.1759858614E+00
    48  3.8984693305E+00  5.7036075413E-01  1.9978414328E+00
    49  -1.1571945536E+00  1.7444877008E-01  1.1403809659E+00
    50  -1.3944654619E-01  2.0150626177E-01  -3.7024368053E+00
    51  1.1571800846E+00  -1.7444484634E-01  -1.1403676552E+00
    52  1.3943317401E-01  -2.0151211973E-01  3.7024407291E+00
    53  -5.5550103457E-01  -1.7305593900E+00  -1.9130424710E-01
    54  2.1496272125E+00  3.2345474801E+00  -8.5149489850E-01
    55  5.5549546639E-01  1.7305283251E+00  1.9130029083E-01
    56  -2.1496202981E+00  -3.2345444082E+00  8.5148831626E-01
    57  5.4212138403E-01  -1.1422135961E-01  1.9123564386E-01
    58  1.1314102528E+00  3.9837658158E-01  2.3307067966E+00
    59  -5.4212088147E-01  1.1422026217E-01  -1.9124401141E-01
    60  -1.1314111888E+00  -3.9837464170E-01  -2.3307045010E+00
    61  2.9824833813E-02  1.7949042472E+00  -1.0801243160E-01
    62  -1.0080355599E+00  -4.8513676062E+00  7.7409434941E-01
    63  -2.9814950343E-02  -1.7948747386E+00  1.0800528312E-01
    64  1.0080449216E+00  4.8513664209E+00  -7.7409606666E-01
    65  1.5938018999E-01  -9.2165356002E-01  -4.5763309073E-01
    66  3.3789977900E+00  -2.9908124580E-01  -4.5467286295E-01
    67  -1.5938104952E-01  9.2164236933E-01  4.5762604001E-01
    68  -3.3789968392E+00  2.9908121716E-01  4.5467530606E-01
    69  -7.1006451336E-01  -5.8409324835E-01  7.1457256958E-01
    70  1.3780998228E+00  -1.2237047630E+00  -1.3337921686E+00
    71  7.1006510785E-01  5.8409721460E-01  -7.1456592001E-01
    72  -1.3780991391E+00  1.2237043201E+00  1.3337918628E+00
    73  6.1991620116E-01  3.2628818352E-01  -1.0759476027E+00
    74  -1.4411121029E+00  -2.6738478086E-01  2.9237091870E+00
    75  -6.1991325230E-01  -3.2628344312E-01  1.0759502276E+00
    76  1.4411105122E+00  2.6738716876E-01  -2.9237113076E+00
    77  3.7975534389E-01  -1.7806678803E-01  1.6307072119E-01
    78  -1.2772186577E+00  -4.3679139161E-01  -8.1901167191E-01
    79  -3.7976542803E-01  1.7806822111E-01  -1.6307785689E-01
    80  1.2772195423E+00  4.3679159487E-01  8.1901149619E-01
    81  2.6291810195E-01  1.1096942348E+00  -6.2795963914E-01
    82  -1.0279674115E+00  2.4997782474E+00  1.2501426659E+00
    83  -2.6291445068E-01  -1.1096818279E+00  6.2794849202E-01
    84  1.0279665143E+00  -2.4997779834E+00  -1.2501434297E+00
    85  3.3998346796E-01  -6.0156995313E-02  2.2931270275E-01
    86  -7.0479169615E-01  1.0845673355E-01  -1.6204862289E-01
    87  -3.3999581706E-01  6.0153908491E-02  -2.2931642170E-01
    88  7.0479054504E-01  -1.0845669265E-01  1.6204849105E-01
    89  3.9559303634E-01  -6.1856979371E-01  -1.2390128565E+00
    90  -5.6908147718E-01  -3.6304960654E-01  1.8930528000E+00
    91  -3.9558712546E-01  6.1855546787E-01  1.2390033318E+00
    92  5.6908153686E-01  3.6305193207E-01  -1.8930523911E+00
    93  -6.3575739766E-01  6.6954964648E-01  8.4325204226E-01
    94  6.7898404922E-01  1.4571922544E+00  -7.0290983852E-01
    95  6.3575122354E-01  -6.6954501062E-01  -8.4323715367E-01
    96  -6.7898479742E-01  -1.4571931569E+00  7.0291143331E-01
  Stress tensor (eV/A^3):
  7.6229312248E-02  -9.0574874173E-03  1.9869507692E-02
  -9.0574874173E-03  6.8155415709E-02  7.7657366892E-03
  1.9869507692E-02  7.7657366892E-03  6.4675238683E-02
