  Invoking FHI-aims ...
  | Number of atoms                   :  96
  ...scf iterations...
  | Total energy corrected        :   -7.564050120247E+01 eV
  ...
  Total atomic forces (unitary forces cleaned)
     1  -2.1890728350E-01  5.8734183994E-01  1.8834969358E-01
     2  2.1246435207E-01  5.7884588697E-01  -1.9465728930E-01
     3  2.1890739962E-01  -5.8734175575E-01  -1.8834962055E-01
     4  -2.1246421511E-01  -5.7884567204E-01  1.9465735492E-01
     5  -8.3998121233E-01  1.1703485922E+00  8.0496492093E-02
     6  8.2873173944E-01  1.1443772271E+00  -1.4588066038E-02
     7  8.3998136779E-01  -1.1703484646E+00  -8.0496266397E-02
     8  -8.2873201725E-01  -1.1443773435E+00  1.4588370699E-02
     9  -2.2063720579E-01  1.6560163737E-01  -1.2201735627E-01
    10  1.5078566662E-01  9.3373522881E-02  1.2607176661E-01
    11  2.2063693309E-01  -1.6560127911E-01  1.2201712678E-01
    12  -1.5078606306E-01  -9.3373785114E-02  -1.2607162507E-01
    13  -4.1306876772E-01  -8.9489811330E-01  -9.2338906394E-01
    14  4.8757616612E-01  -8.2072411601E-01  9.2221680181E-01
    15  4.1306827095E-01  8.9489814192E-01  9.2338880462E-01
    16  -4.8757628044E-01  8.2072445931E-01  -9.2221610729E-01
    17  1.1462598287E+00  -1.6772667817E+00  -1.6012017019E-01
    18  -1.1900776072E+00  -1.6361838425E+00  8.0089536606E-02
    19  -1.1462599559E+00  1.6772681776E+00  1.6012042860E-01
    20  1.1900775166E+00  1.6361840489E+00  -8.0090182864E-02
    21  -2.3510364433E-01  3.6413572666E-02  -1.3633837787E-01
    22  2.4755743343E-01  6.1601356384E-02  1.2740047333E-01
    23  2.3510398799E-01  -3.6414601035E-02  1.3633800127E-01
    24  -2.4755757686E-01  -6.1601474382E-02  -1.2740052370E-01
    25  5.4141100217E-01  4.5802681723E-03  4.7215878463E-01
    26  -5.1664724538E-01  -6.1571157584E-02  -3.9247736338E-01
    27  -5.4141115944E-01  -4.5805616960E-03  -4.7215900403E-01
    28  5.1664791277E-01  6.1571290307E-02  3.9247720458E-01
    29  6.1250994202E-01  1.3376573619E+00  1.4435002937E+00
    30  -6.0423906853E-01  1.3417273696E+00  -1.4344581413E+00
    31  -6.1251008562E-01  -1.3376578530E+00  -1.4435003771E+00
    32  6.0423927579E-01  -1.3417280198E+00  1.4344580746E+00
    33  -9.9022322837E-02  7.2385580619E-04  -9.5139923148E-02
    34  9.2483504716E-02  -1.0122905720E-02  8.6160527473E-02
    35  9.9022503213E-02  -7.2367097416E-04  9.5140231082E-02
    36  -9.2483652366E-02  1.0123230938E-02  -8.6160865443E-02
    37  -1.3655523843E+00  1.6339938179E+00  8.8070050414E-03
    38  1.3634161664E+00  1.6339297362E+00  -1.0067029963E-02
    39  1.3655521903E+00  -1.6339936753E+00  -8.8066814805E-03
    40  -1.3634156772E+00  -1.6339292932E+00  1.0067494458E-02
    41  3.4415412261E-03  -2.8052932708E-02  -4.3903021931E-02
    42  -4.8321895951E-03  -2.9210857117E-02  4.4337086474E-02
    43  -3.4413292085E-03  2.8052607536E-02  4.3902987627E-02
    44  4.8319794608E-03  2.9210535755E-02  -4.4337049262E-02
    45  -1.6670359471E+00  1.6403920857E-01  -1.0738995389E+00
    46  1.5904770039E+00  5.7625151361E-02  1.0234931916E+00
    47  1.6670307383E+00  -1.6403888939E-01  1.0738971298E+00
    48  -1.5904774399E+00  -5.7624858441E-02  -1.0234927535E+00
    49  -1.2384618415E+01  4.8867325052E+00  8.5684912339E+00
    50  1.8557539740E+01  2.1224462534E+01  -1.1288666479E+01
    51  1.2384380148E+01  -4.8865890616E+00  -8.5683917359E+00
    52  -1.8557555384E+01  -2.1224443604E+01  1.1288671542E+01
    53  8.2449898797E+00  5.0967066891E+00  -3.9201817694E+00
    54  -8.4127544046E+00  5.6827419425E+00  4.0228076084E+00
    55  -8.2448227830E+00  -5.0966206494E+00  3.9201033898E+00
    56  8.4127729182E+00  -5.6827556339E+00  -4.0228207583E+00
    57  8.3810316820E-02  -4.2029021352E-02  5.0649746018E-02
    58  -3.7317177485E-01  -8.5397270509E-02  -2.5716519719E-01
    59  -8.3798181481E-02  4.2026603450E-02  -5.0639029605E-02
    60  3.7317277071E-01  8.5397044306E-02  2.5716607559E-01
    61  3.2450898690E+00  -9.1532035563E+00  -1.4405536130E+00
    62  -8.9598674225E+00  -2.6040328915E+01  4.3507879875E+00
    63  -3.2450313230E+00  9.1529810721E+00  1.4405271829E+00
    64  8.9598647688E+00  2.6040323362E+01  -4.3507806987E+00
    65  -3.5517465776E-01  -7.5294883521E+00  -1.6149514188E+00
    66  9.2876803903E-01  -7.0713671079E+00  -1.8055221531E-01
    67  3.5513418654E-01  7.5294274678E+00  1.6149293717E+00
    68  -9.2876773074E-01  7.0713621272E+00  1.8055943480E-01
    69  2.7752670516E+00  3.1619634583E+00  -8.1301392848E-01
    70  -3.0770705788E+00  3.4653028368E+00  8.8867417203E-01
    71  -2.7752270013E+00  -3.1619251570E+00  8.1299690101E-01
    72  3.0770683693E+00  -3.4652998549E+00  -8.8867559460E-01
    73  -5.3157872270E-01  1.1349277677E+00  2.8397035752E+00
    74  1.1871095043E-01  5.2600218662E-01  -1.2687979439E+00
    75  5.3157278035E-01  -1.1349116239E+00  -2.8396668639E+00
    76  -1.1870887541E-01  -5.2600048028E-01  1.2687923283E+00
    77  -5.0698890103E-01  -1.9423923823E-02  -4.2605091651E-01
    78  7.1092481081E-01  -3.2325782061E-02  5.5711545574E-01
    79  5.0699512721E-01  1.9422575494E-02  4.2605538453E-01
    80  -7.1092575942E-01  3.2325563414E-02  -5.5711556174E-01
    81  7.6026782172E-01  1.0417685379E+01  -6.2857657560E+00
    82  -7.5493734496E-01  1.0409272721E+01  6.2782677049E+00
    83  -7.6029795581E-01  -1.0417546703E+01  6.2856434501E+00
    84  7.5494268225E-01  -1.0409262197E+01  -6.2782956922E+00
    85  -2.0166212577E-01  -7.3068902157E-03  -1.2826624422E-01
    86  2.0553386135E-01  -1.0167602497E-02  1.2369788251E-01
    87  2.0167422694E-01  7.3068779160E-03  1.2827296174E-01
    88  -2.0553302821E-01  1.0167397242E-02  -1.2369703215E-01
    89  -9.6175779349E-01  4.5862525386E-01  4.9640129791E+00
    90  9.6243619232E-01  4.5677504622E-01  -4.9670229086E+00
    91  9.6173920550E-01  -4.5860620994E-01  -4.9639160911E+00
    92  -9.6243991259E-01  -4.5677951542E-01  4.9670453481E+00
    93  2.7107669932E+00  -8.6732583708E+00  1.8124987926E-01
    94  -2.7107581371E+00  -8.6796720194E+00  -1.8589185548E-01
    95  -2.7107240439E+00  8.6731030666E+00  -1.8123652459E-01
    96  2.7107554555E+00  8.6796670316E+00  1.8589576993E-01
  Stress tensor (eV/A^3):
  4.3860247468E-03  -9.7745521983E-03  4.5091399313E-02
  -9.7745521983E-03  -7.2979442646E-02  4.2012084708E-03
  4.5091399313E-02  4.2012084708E-03  1.4116910508E-02
