  Invoking FHI-aims ...
  | Number of atoms                   :  96
  ...scf iterations...
  | Total energy corrected        :   -9.704834693589E+01 eV
  ...
  Total atomic forces (unitary forces cleaned)
     1  -3.3942271580E-01  6.0054128943E-01  2.0335920847E-01
     2  2.6792389331E-01  6.1060501009E-01  -1.8759669312E-01
     3  3.3942259847E-01  -6.0054115445E-01  -2.0335919601E-01
     4  -2.6792381169E-01  -6.1060503214E-01  1.8759681104E-01
     5  -7.5565127761E-01  3.6114105488E-01  -5.0813898999E-01
     6  1.3599208208E+00  -3.1363762092E+00  4.4615696217E+00
     7  7.5565244069E-01  -3.6114081812E-01  5.0813998672E-01
     8  -1.3599204263E+00  3.1363759894E+00  -4.4615692417E+00
     9  -5.1173786022E-01  3.1431470618E-01  -1.9950286714E-01
    10  -3.0808162212E+00  -2.5410854154E+00  2.0302724503E-01
    11  5.1173690774E-01  -3.1431552191E-01  1.9950192964E-01
    12  3.0808155509E+00  2.5410860532E+00  -2.0302806437E-01
    13  -5.8385147575E-01  -1.1597314990E+00  -1.1216682175E+00
    14  4.0721434486E+00  1.5295965378E+00  1.2032699383E+00
    15  5.8385046964E-01  1.1597319087E+00  1.1216678361E+00
    16  -4.0721435208E+00  -1.5295966495E+00  -1.2032697005E+00
    17  5.4531346356E-01  -6.8836047175E-01  -2.3611523509E-02
    18  -2.3871108873E+00  1.6825269920E+00  -3.4680194451E+00
    19  -5.4531283012E-01  6.8836084992E-01  2.3612175186E-02
    20  2.3871108022E+00  -1.6825268615E+00  3.4680189838E+00
    21  6.5675465040E-01  -1.1438327016E+00  -1.4373123582E-01
    22  -4.8684130975E-01  -1.1516560053E+00  3.4115701584E-01
    23  -6.5675472957E-01  1.1438327378E+00  1.4373120928E-01
    24  4.8684140070E-01  1.1516560805E+00  -3.4115708112E-01
    25  1.2110524146E+00  1.4827179397E-01  8.7545386363E-01
    26  3.1732752662E-01  -2.6014987986E+00  2.6313793711E+00
    27  -1.2110524054E+00  -1.4827263849E-01  -8.7545428878E-01
    28  -3.1732668130E-01  2.6014994572E+00  -2.6313793402E+00
    29  5.5747724864E-01  4.6038996578E-01  7.1684964496E-01
    30  -4.0321707030E-01  6.7525899209E-01  -7.7726184403E-01
    31  -5.5747714869E-01  -4.6038994830E-01  -7.1685012231E-01
    32  4.0321609468E-01  -6.7525955969E-01  7.7726166913E-01
    33  1.5591776459E-01  1.0559013195E+00  8.7450216680E-01
    34  -1.4528857965E-01  1.1549059044E+00  -9.0379460121E-01
    35  -1.5591759303E-01  -1.0559010805E+00  -8.7450198097E-01
    36  1.4528854444E-01  -1.1549060581E+00  9.0379456077E-01
    37  -8.8483765329E-01  5.2531139472E-01  -2.4831776990E-01
    38  9.1593877358E-01  6.9382429127E-01  1.0376250029E-01
    39  8.8483781756E-01  -5.2531152467E-01  2.4831815973E-01
    40  -9.1593849022E-01  -6.9382501459E-01  -1.0376189526E-01
    41  -9.1459943328E-01  1.1103616193E+00  7.3702632331E-02
    42  9.5443567844E-01  1.1710008976E+00  -8.8597044468E-02
    43  9.1459930458E-01  -1.1103612024E+00  -7.3702599416E-02
    44  -9.5443537562E-01  -1.1710007043E+00  8.8597097993E-02
    45  -1.7685541692E+00  1.1040771590E-01  -1.2094411655E+00
    46  -7.8494160380E-01  -2.0064150666E+00  -2.5376198117E+00
    47  1.7685570209E+00  -1.1040546882E-01  1.2094429376E+00
    48  7.8494163816E-01  2.0064142870E+00  2.5376176299E+00
    49  -1.9093375136E-01  -6.1526482998E-01  1.5246737411E+00
    50  -2.1844469746E-01  -1.2243074817E+00  -1.5004962539E+00
    51  1.9093272352E-01  6.1526441338E-01  -1.5246754643E+00
    52  2.1844331986E-01  1.2243074663E+00  1.5004985702E+00
    53  -7.3234037842E-01  -1.6374626142E+00  -2.0583855948E-01
    54  -1.6274079866E-01  -2.3105098330E+00  6.1890666141E-01
    55  7.3234032721E-01  1.6374628869E+00  2.0583810194E-01
    56  1.6274033456E-01  2.3105097750E+00  -6.1890574141E-01
    57  1.0702743029E+00  -1.4534926123E-01  8.8161125528E-01
    58  2.4479757748E+00  4.3826069605E-01  1.9389195982E+00
    59  -1.0702738643E+00  1.4534836844E-01  -8.8161070353E-01
    60  -2.4479748013E+00  -4.3826086598E-01  -1.9389192818E+00
    61  -1.2924172256E+00  1.0613949539E+00  8.7764792321E-01
    62  -1.6675981912E+00  1.7167815900E+00  8.3401561690E-01
    63  1.2924177669E+00  -1.0613947460E+00  -8.7764743085E-01
    64  1.6675980714E+00  -1.7167809767E+00  -8.3401574453E-01
    65  1.2611458729E+00  -8.0017407956E-01  -5.5316570145E-01
    66  3.2621782297E+00  1.2944068164E-01  2.4841253089E-01
    67  -1.2611481208E+00  8.0017572512E-01  5.5316698381E-01
    68  -3.2621791126E+00  -1.2944133734E-01  -2.4841047622E-01
    69  -3.9920038574E-01  -1.7263220389E+00  -9.9221140022E-02
    70  1.3133712147E+00  -2.1027868811E+00  -7.1588905822E-01
    71  3.9920037111E-01  1.7263206482E+00  9.9221099104E-02
    72  -1.3133715996E+00  2.1027861803E+00  7.1588923079E-01
    73  4.2886536286E-01  6.1632558635E-01  -1.6931078499E+00
    74  -9.5419069498E-01  1.4148888403E+00  2.2696631629E+00
    75  -4.2886533141E-01  -6.1632500230E-01  1.6931063972E+00
    76  9.5419116645E-01  -1.4148871563E+00  -2.2696658843E+00
    77  1.1389645660E+00  -1.0108535874E-01  6.4526163431E-01
    78  -2.7213958867E+00  -7.5433045712E-01  -1.6062932146E+00
    79  -1.1389634774E+00  1.0108501862E-01  -6.4526204823E-01
    80  2.7213965980E+00  7.5433071353E-01  1.6062933927E+00
    81  8.0186861531E-01  1.3393923250E+00  3.5305354009E-01
    82  -8.6072776971E-01  1.9520335029E+00  -2.3576680993E-01
    83  -8.0187134582E-01  -1.3393950225E+00  -3.5305262185E-01
    84  8.6072825142E-01  -1.9520339001E+00  2.3576657069E-01
    85  1.2541968767E+00  6.9934526644E-02  6.9749053005E-01
    86  -1.4240419831E+00  3.2859574217E-01  -6.4152348215E-01
    87  -1.2541963731E+00  -6.9934236547E-02  -6.9749031116E-01
    88  1.4240417807E+00  -3.2859566417E-01  6.4152350571E-01
    89  2.6069171668E-01  7.3886846219E-01  -1.6799617170E+00
    90  -2.8349783400E-01  1.0583787077E+00  1.8453082344E+00
    91  -2.6069140709E-01  -7.3886733203E-01  1.6799605735E+00
    92  2.8349811084E-01  -1.0583781306E+00  -1.8453085032E+00
    93  -1.0224874389E+00  1.0701322883E+00  1.0444261858E+00
    94  1.0807051818E+00  1.4450992881E+00  -1.0406769699E+00
    95  1.0224878030E+00  -1.0701331063E+00  -1.0444261791E+00
    96  -1.0807048741E+00  -1.4450995187E+00  1.0406766312E+00
  Stress tensor (eV/A^3):
  8.5571839449E-02  -6.0043648243E-03  2.5815617576E-02
  -6.0043648243E-03  1.0249658429E-01  1.0022211166E-02
  2.5815617576E-02  1.0022211166E-02  6.3449181731E-02
