  Invoking FHI-aims ...
  | Number of atoms                   :  96
  ...scf iterations...
  | Total energy corrected        :   -8.265679905619E+01 eV
  ...
  Total atomic forces (unitary forces cleaned)
     1  -2.4971653134E-01  5.8488990346E-01  1.8294529701E-01
     2  2.2565504287E-01  5.6637639874E-01  -1.8867151407E-01
     3  2.4971649981E-01  -5.8488982309E-01  -1.8294528360E-01
     4  -2.2565494048E-01  -5.6637636883E-01  1.8867161760E-01
     5  -8.7396786114E-01  1.3081625664E+00  1.6303761594E-01
     6  8.8273832988E-01  1.3375572237E+00  -2.0347954823E-01
     7  8.7396848884E-01  -1.3081624031E+00  -1.6303703984E-01
     8  -8.8273821788E-01  -1.3375573920E+00  2.0347978728E-01
     9  -2.7888757542E-01  1.5771469831E-01  -1.3757864793E-01
    10  3.3520717675E-01  2.0285812190E-01  1.3077979133E-01
    11  2.7888697786E-01  -1.5771496814E-01  1.3757822135E-01
    12  -3.3520744846E-01  -2.0285791868E-01  -1.3077999126E-01
    13  -4.5309285589E-01  -9.7629494664E-01  -9.4062288194E-01
    14  4.1078796896E-01  -1.0243724922E+00  9.6064572808E-01
    15  4.5309223342E-01  9.7629518223E-01  9.4062263902E-01
    16  -4.1078812989E-01  1.0243725411E+00  -9.6064552266E-01
    17  6.9771415073E-01  -9.4790152528E-01  -7.6851788812E-02
    18  -7.0782552720E-01  -1.0047149087E+00  1.2803579583E-01
    19  -6.9771376254E-01  9.4790183107E-01  7.6852197657E-02
    20  7.0782560830E-01  1.0047149806E+00  -1.2803617544E-01
    21  2.7191598848E-01  -7.0920649034E-01  -1.6569581748E-01
    22  -2.6106064785E-01  -7.0574629135E-01  1.7420397415E-01
    23  -2.7191604706E-01  7.0920641855E-01  1.6569570756E-01
    24  2.6106076030E-01  7.0574628934E-01  -1.7420399521E-01
    25  7.1275882278E-01  6.2998830874E-02  5.0547574589E-01
    26  -7.2613123335E-01  9.7787322634E-02  -5.5960166344E-01
    27  -7.1275907745E-01  -6.2999298167E-02  -5.0547605579E-01
    28  7.2613157753E-01  -9.7786922002E-02  5.5960156056E-01
    29  4.9000518594E-01  7.6416913206E-01  8.7254207063E-01
    30  -4.8331629277E-01  7.7304246908E-01  -8.7336376069E-01
    31  -4.9000496570E-01  -7.6416898316E-01  -8.7254226814E-01
    32  4.8331561487E-01  -7.7304281820E-01  8.7336351940E-01
    33  2.9178075818E-02  6.5179223019E-01  5.1717567278E-01
    34  -2.8071157996E-02  6.5157115080E-01  -5.1537702099E-01
    35  -2.9177910289E-02  -6.5179228252E-01  -5.1717561705E-01
    36  2.8071186859E-02  -6.5157120504E-01  5.1537696884E-01
    37  -9.6609054208E-01  8.9861738053E-01  -7.4747411667E-02
    38  9.6426248180E-01  9.0597353729E-01  6.8392987652E-02
    39  9.6609044426E-01  -8.9861738090E-01  7.4747622078E-02
    40  -9.6426198882E-01  -9.0597372473E-01  -6.8392526735E-02
    41  -5.4401961033E-01  6.7826043226E-01  3.3526196825E-02
    42  5.4343088352E-01  6.7755537877E-01  -3.4419612675E-02
    43  5.4401969257E-01  -6.7826041140E-01  -3.3526181638E-02
    44  -5.4343081191E-01  -6.7755537705E-01  3.4419660011E-02
    45  -1.8935603771E+00  8.5544949428E-02  -1.2428535612E+00
    46  1.9030930031E+00  3.6105892045E-02  1.2400062153E+00
    47  1.8935563486E+00  -8.5544904671E-02  1.2428500775E+00
    48  -1.9030931554E+00  -3.6105544505E-02  -1.2400064317E+00
    49  -8.1713754413E+00  -2.5835387392E+00  5.5624144660E+00
    50  9.6005856241E+00  -3.3484876824E-01  -8.9895726331E+00
    51  8.1712877043E+00  2.5835218403E+00  -5.5623691753E+00
    52  -9.6005863966E+00  3.3485206843E-01  8.9895739541E+00
    53  2.8580729311E+00  4.3541807324E+00  -6.0265879831E-01
    54  -2.8249811928E+00  4.3654080119E+00  5.6796570412E-01
    55  -2.8580341855E+00  -4.3541275693E+00  6.0265212559E-01
    56  2.8249837371E+00  -4.3654122004E+00  -5.6796725020E-01
    57  9.9289305220E-01  -1.3296634493E-01  7.7747309908E-01
    58  6.6374986793E-01  1.1004536469E-01  6.6086719235E-01
    59  -9.9289029131E-01  1.3296522365E-01  -7.7747067100E-01
    60  -6.6375171237E-01  -1.1004586788E-01  -6.6086853445E-01
    61  3.2591478654E+00  -2.6771292043E+00  -2.4028467312E+00
    62  -6.3711861924E+00  -5.1424669583E+00  4.4061783036E+00
    63  -3.2591035760E+00  2.6770916250E+00  2.4028125017E+00
    64  6.3711864661E+00  5.1424674555E+00  -4.4061763508E+00
    65  1.1716405290E+00  -4.5733991372E+00  -3.7722011971E+00
    66  -1.5362105361E+00  -4.6660054699E+00  5.2348997215E+00
    67  -1.1716503084E+00  4.5733552503E+00  3.7721577547E+00
    68  1.5362038526E+00  4.6660143267E+00  -5.2348866663E+00
    69  7.7750824987E-01  2.1506151074E+00  5.1630878487E-01
    70  -8.7781496807E-01  2.3884544740E+00  -5.2996393235E-01
    71  -7.7749338682E-01  -2.1505716151E+00  -5.1630342821E-01
    72  8.7781724790E-01  -2.3884608542E+00  5.2996333853E-01
    73  -3.0749575782E-01  5.9486252253E-02  1.3622759280E+00
    74  6.7889017159E-01  -1.0913565973E-01  -2.8288172923E+00
    75  3.0748839983E-01  -5.9489506368E-02  -1.3622431814E+00
    76  -6.7888664943E-01  1.0913363807E-01  2.8288055601E+00
    77  8.6786832534E-01  -1.1683333657E-01  4.8080542483E-01
    78  -8.0228686001E-01  -1.1021234082E-01  -4.4610741412E-01
    79  -8.6786303278E-01  1.1683257386E-01  -4.8080318566E-01
    80  8.0228678142E-01  1.1021220354E-01  4.4610727365E-01
    81  -1.5159935931E+00  8.4545179368E+00  -1.3452055545E+00
    82  1.5111964241E+00  8.4718378165E+00  1.3530125568E+00
    83  1.5159624785E+00  -8.4544313369E+00  1.3451825962E+00
    84  -1.5111963472E+00  -8.4718447368E+00  -1.3530211901E+00
    85  1.0912193386E+00  6.0697034900E-02  5.9378081375E-01
    86  -1.0948624974E+00  6.5663641183E-02  -5.9178824354E-01
    87  -1.0912148121E+00  -6.0696560334E-02  -5.9377839912E-01
    88  1.0948621636E+00  -6.5663614192E-02  5.9178820325E-01
    89  -3.9074834480E-01  -1.4686996858E+00  2.5882908420E+00
    90  3.9161530243E-01  -1.4663639064E+00  -2.5947476235E+00
    91  3.9074125812E-01  1.4686754202E+00  -2.5882443060E+00
    92  -3.9161648690E-01  1.4663670714E+00  2.5947552911E+00
    93  2.5110918395E+00  -3.6258212826E+00  -1.7230190807E+00
    94  -2.5131953889E+00  -3.6116522363E+00  1.7238405609E+00
    95  -2.5110550145E+00  3.6257651078E+00  1.7229928339E+00
    96  2.5131974863E+00  3.6116562744E+00  -1.7238403435E+00
  Stress tensor (eV/A^3):
  4.7072049938E-02  -4.0510097533E-03  4.3629401604E-02
  -4.0510097533E-03  1.8950748150E-02  1.5535770434E-03
  4.3629401604E-02  1.5535770434E-03  2.8441029585E-02
