  Invoking FHI-aims ...
  | Number of atoms                   :  96
  ...scf iterations...
  | Total energy corrected        :   -7.918707742376E+01 eV
  ...
  Total atomic forces (unitary forces cleaned)
     1  -2.4133307879E-01  5.8204454716E-01  1.8439819190E-01
     2  2.2720450293E-01  5.6996208556E-01  -1.8949955132E-01
     3  2.4133305200E-01  -5.8204447105E-01  -1.8439817822E-01
     4  -2.2720439695E-01  -5.6996205433E-01  1.8949965539E-01
     5  -8.7848382562E-01  1.2216177543E+00  1.2234215358E-01
     6  8.7903142955E-01  1.2003696537E+00  -8.7394957806E-02
     7  8.7848442171E-01  -1.2216175942E+00  -1.2234160448E-01
     8  -8.7903132832E-01  -1.2003698209E+00  8.7395187468E-02
     9  -2.5567199978E-01  1.4766816475E-01  -1.2732766361E-01
    10  2.2335591716E-01  1.1413140426E-01  1.2808734020E-01
    11  2.5567142603E-01  -1.4766840963E-01  1.2732727086E-01
    12  -2.2335618487E-01  -1.1413120928E-01  -1.2808753141E-01
    13  -4.3414312795E-01  -9.5757726984E-01  -9.1460225579E-01
    14  4.7644146409E-01  -9.2386575079E-01  9.2139176305E-01
    15  4.3414253875E-01  9.5757749420E-01  9.1460202802E-01
    16  -4.7644161537E-01  9.2386579304E-01  -9.2139155347E-01
    17  8.5796125432E-01  -1.1730763959E+00  -1.0124290826E-01
    18  -8.9754004941E-01  -1.1637271721E+00  6.3744932580E-02
    19  -8.5796093988E-01  1.1730767569E+00  1.0124328736E-01
    20  8.9754015830E-01  1.1637273467E+00  -6.3745331016E-02
    21  8.7131814107E-02  -4.6340597012E-01  -1.4371734142E-01
    22  -7.1781358598E-02  -4.3894520940E-01  1.3907659416E-01
    23  -8.7131822045E-02  4.6340582577E-01  1.4371723133E-01
    24  7.1781454373E-02  4.3894512642E-01  -1.3907661903E-01
    25  6.5114818728E-01  5.8364029292E-02  4.5843161346E-01
    26  -6.3584265348E-01  2.2226979460E-02  -4.2285160023E-01
    27  -6.5114849610E-01  -5.8364461794E-02  -4.5843194235E-01
    28  6.3584295994E-01  -2.2226609371E-02  4.2285149745E-01
    29  5.1889563556E-01  9.7633504193E-01  1.0389463916E+00
    30  -5.1478528851E-01  9.8017917637E-01  -1.0381164574E+00
    31  -5.1889540975E-01  -9.7633481478E-01  -1.0389465059E+00
    32  5.1478468657E-01  -9.8017953769E-01  1.0381162301E+00
    33  -2.8170031029E-02  4.2491660326E-01  3.2028458734E-01
    34  2.8879750729E-02  4.2363221143E-01  -3.1888850339E-01
    35  2.8170191236E-02  -4.2491672712E-01  -3.2028460606E-01
    36  -2.8879754863E-02  -4.2363223069E-01  3.1888845691E-01
    37  -1.1164551702E+00  1.1255570046E+00  -3.1221582267E-02
    38  1.1139242260E+00  1.1284976206E+00  2.7801183753E-02
    39  1.1164550067E+00  -1.1255568849E+00  3.1221799171E-02
    40  -1.1139236545E+00  -1.1284976758E+00  -2.7800749528E-02
    41  -3.5708749727E-01  4.3686274964E-01  7.7574397349E-03
    42  3.5575275481E-01  4.3573320459E-01  -7.7970066511E-03
    43  3.5708764823E-01  -4.3686286407E-01  -7.7574439468E-03
    44  -3.5575278465E-01  -4.3573331790E-01  7.7970495649E-03
    45  -1.7886839633E+00  8.2216482377E-02  -1.1529531438E+00
    46  1.7327353150E+00  1.5674327936E-02  1.0896705660E+00
    47  1.7886799132E+00  -8.2216738830E-02  1.1529498478E+00
    48  -1.7327352001E+00  -1.5673869458E-02  -1.0896708165E+00
    49  -1.1546506629E+01  -3.5420856732E+00  6.9270316207E+00
    50  1.3841539118E+01  -3.8892412018E+00  -8.9375119524E+00
    51  1.1546313276E+01  3.5420575033E+00  -6.9269458525E+00
    52  -1.3841549504E+01  3.8892526523E+00  8.9375150559E+00
    53  4.5488306437E+00  7.2929602414E+00  -6.2418728203E-01
    54  -5.7067601776E+00  9.5384997872E+00  5.9999598872E-01
    55  -4.5487492428E+00  -7.2928357022E+00  6.2417927831E-01
    56  5.7067686959E+00  -9.5385146609E+00  -5.9999920326E-01
    57  7.9328836896E-01  -1.0294457456E-01  5.9267620652E-01
    58  1.0126524793E-01  2.0314481258E-02  1.6863174530E-01
    59  -7.9328162954E-01  1.0294313687E-01  -5.9267075321E-01
    60  -1.0126569888E-01  -2.0314813791E-02  -1.6863191690E-01
    61  5.1944625011E+00  -4.6294732677E+00  -3.7062910818E+00
    62  -7.2440032406E+00  -6.6282979505E+00  5.0732615182E+00
    63  -5.1943593643E+00  4.6293760497E+00  3.7062144409E+00
    64  7.2440057119E+00  6.6283008568E+00  -5.0732608964E+00
    65  1.3053324950E+00  -5.3628377613E+00  -4.1590130087E+00
    66  -1.7383545033E+00  -5.1368265841E+00  6.4325925303E+00
    67  -1.3053509597E+00  5.3627761193E+00  4.1589586877E+00
    68  1.7383439774E+00  5.1368413815E+00  -6.4325696585E+00
    69  1.1802297903E+00  3.1286033290E+00  5.7151093434E-01
    70  -1.3311821333E+00  3.4360187622E+00  -5.4707703829E-01
    71  -1.1802069607E+00  -3.1285402916E+00  -5.7150455052E-01
    72  1.3311859613E+00  -3.4360287364E+00  5.4707640965E-01
    73  -4.5898211578E-01  -8.3689552780E-02  2.0264962125E+00
    74  1.0582769513E+00  -5.5383830582E-01  -4.3766872825E+00
    75  4.5897325775E-01  8.3684407169E-02  -2.0264553457E+00
    76  -1.0582708879E+00  5.5383378366E-01  4.3766659970E+00
    77  4.2315501409E-01  -8.4599333334E-02  2.1203886686E-01
    78  -3.7826015223E-01  -8.8641903290E-02  -1.9055835112E-01
    79  -4.2314731916E-01  8.4598569020E-02  -2.1203482234E-01
    80  3.7825968576E-01  8.8641737435E-02  1.9055804052E-01
    81  -2.6584997703E+00  1.0729742354E+01  -1.1320062803E+00
    82  2.6624983334E+00  1.0728423473E+01  1.1341862248E+00
    83  2.6584286916E+00  -1.0729590469E+01  1.1319805171E+00
    84  -2.6625001789E+00  -1.0728435176E+01  -1.1341990234E+00
    85  7.6376540556E-01  3.8988711986E-02  4.1551570385E-01
    86  -7.6220871774E-01  3.5375241446E-02  -4.1741796693E-01
    87  -7.6375671230E-01  -3.8988324969E-02  -4.1551098295E-01
    88  7.6220892191E-01  -3.5375252185E-02  4.1741823810E-01
    89  -5.6487770259E-01  -1.8874200117E+00  3.7635942763E+00
    90  5.6633814593E-01  -1.8909035105E+00  -3.7750955480E+00
    91  5.6486544953E-01  1.8873837485E+00  -3.7635159160E+00
    92  -5.6634012567E-01  1.8909082281E+00  3.7751080559E+00
    93  4.1033939566E+00  -5.5880175487E+00  -2.9258713519E+00
    94  -4.1093849089E+00  -5.5958460625E+00  2.9288456704E+00
    95  -4.1033161567E+00  5.5879084024E+00  2.9258138183E+00
    96  4.1093891136E+00  5.5958533864E+00  -2.9288464178E+00
  Stress tensor (eV/A^3):
  2.8210650276E-02  -4.1182856756E-04  4.9356168299E-02
  -4.1182856756E-04  -1.7335484962E-02  7.3496147024E-04
  4.9356168299E-02  7.3496147024E-04  1.1697550629E-02
