  Invoking FHI-aims ...
  | Number of atoms                   :  96
  ...scf iterations...
  | Total energy corrected        :   -9.996756464271E+01 eV
  ...
  Total atomic forces (unitary forces cleaned)
     1  -3.0419390123E-01  6.1102643219E-01  1.8442873838E-01
     2  2.2797491336E-01  5.7764316436E-01  -1.8336071128E-01
     3  3.0419389454E-01  -6.1102632222E-01  -1.8442870152E-01
     4  -2.2797476197E-01  -5.7764306463E-01  1.8336078164E-01
     5  -8.1936343476E-01  1.5197671718E+00  2.2041808290E-01
     6  9.6334970505E-01  -9.7794158501E-01  1.5921069493E+00
     7  8.1936407279E-01  -1.5197670060E+00  -2.2041746366E-01
     8  -9.6334969107E-01  9.7794142978E-01  -1.5921066183E+00
     9  -4.4838004733E-01  2.8113189210E-01  -2.0133711513E-01
    10  5.9571432549E-01  5.9475634170E-02  1.7020631554E-01
    11  4.4837942165E-01  -2.8113206263E-01  2.0133654398E-01
    12  -5.9571428053E-01  -5.9475169240E-02  -1.7020643010E-01
    13  -5.6448258163E-01  -1.0847223738E+00  -1.1270329758E+00
    14  3.6785360736E-01  -9.4296723313E-01  1.1973087030E+00
    15  5.6448183862E-01  1.0847226340E+00  1.1270326600E+00
    16  -3.6785416382E-01  9.4296704793E-01  -1.1973082462E+00
    17  3.5086322416E-01  -4.5651012069E-01  -2.4701533237E-02
    18  -5.5150624394E-01  8.8364225338E-02  -2.2931883914E-01
    19  -3.5086247249E-01  4.5651014503E-01  2.4702083110E-02
    20  5.5150640107E-01  -8.8364756147E-02  2.2931884793E-01
    21  7.6712269112E-01  -1.3765556065E+00  -2.4411128607E-01
    22  -7.3019346429E-01  -1.4763403146E+00  3.5237879602E-01
    23  -7.6712318536E-01  1.3765558873E+00  2.4411097596E-01
    24  7.3019357464E-01  1.4763405251E+00  -3.5237890116E-01
    25  9.5397418329E-01  8.9789410594E-02  7.6298726936E-01
    26  -6.1424276329E-01  -5.0535044639E-01  -3.7917557289E-01
    27  -9.5397805405E-01  -8.9789663290E-02  -7.6298992755E-01
    28  6.1424381715E-01  5.0535135221E-01  3.7917515104E-01
    29  4.9908617945E-01  2.3871173878E-01  5.3491267442E-01
    30  -4.4683049900E-01  3.3006144172E-01  -5.7294390872E-01
    31  -4.9908595220E-01  -2.3871185407E-01  -5.3491293772E-01
    32  4.4682973300E-01  -3.3006173779E-01  5.7294357869E-01
    33  2.5276007810E-01  1.2198378666E+00  1.0920217770E+00
    34  -2.4190875201E-01  1.2788588020E+00  -1.0812469609E+00
    35  -2.5275963496E-01  -1.2198379855E+00  -1.0920213588E+00
    36  2.4190903860E-01  -1.2788591207E+00  1.0812468345E+00
    37  -6.6831515695E-01  3.4336888449E-01  -2.6743967922E-01
    38  6.9993154259E-01  4.1810234341E-01  2.1971656019E-01
    39  6.6831528227E-01  -3.4336918778E-01  2.6743980654E-01
    40  -6.9993145881E-01  -4.1810288912E-01  -2.1971602191E-01
    41  -1.0368397740E+00  1.3339877283E+00  9.6430776390E-02
    42  1.0492725311E+00  1.3539039360E+00  -9.6295471041E-02
    43  1.0368396255E+00  -1.3339873854E+00  -9.6430590699E-02
    44  -1.0492721508E+00  -1.3539035602E+00  9.6295612100E-02
    45  2.0523723663E+00  1.1990784337E-01  1.9338685423E+00
    46  -5.8388281046E+00  -1.3039682677E+00  -4.1271555630E+00
    47  -2.0523080370E+00  -1.1990382993E-01  -1.9338104009E+00
    48  5.8387824525E+00  1.3039103978E+00  4.1273241991E+00
    49  -2.5348811550E+00  -1.0221248890E-02  -8.4962946178E-01
    50  3.0495130908E+00  4.1693371047E-01  -2.0646508146E+00
    51  2.5347929235E+00  1.0225871524E-02  8.4962762301E-01
    52  -3.0493122398E+00  -4.1682990040E-01  2.0643334614E+00
    53  9.2120180641E-02  -1.1156271997E+00  -5.5134635579E-01
    54  9.9019307422E-01  2.4123716432E-01  -2.5698985034E-01
    55  -9.2082388576E-02  1.1156319477E+00  5.5131740065E-01
    56  -9.9020205273E-01  -2.4118747719E-01  2.5699228254E-01
    57  1.4992500159E+00  -2.4044776483E-01  1.3887456575E+00
    58  8.8497671782E-01  3.9914471766E-01  1.7405705233E+00
    59  -1.4992382057E+00  2.4044509649E-01  -1.3887369821E+00
    60  -8.8496241311E-01  -3.9914026002E-01  -1.7405541099E+00
    61  -2.5154093795E-03  1.4089100448E+00  -4.5441655296E-02
    62  -3.5718589813E+00  -2.4757654591E+00  2.8467380923E+00
    63  2.5512317621E-03  -1.4089127795E+00  4.5413361313E-02
    64  3.5716593108E+00  2.4756326217E+00  -2.8465974211E+00
    65  -1.0188372695E+00  5.9642036524E-01  7.2545229878E-02
    66  4.9459540405E+00  2.1155571462E+00  -7.3418159714E-01
    67  1.0188125885E+00  -5.9641902040E-01  -7.2558868674E-02
    68  -4.9459146508E+00  -2.1155213041E+00  7.3417620236E-01
    69  -7.2807536047E-01  -1.2030199464E+00  5.3973250965E-01
    70  9.9619266030E-01  -1.2426136170E+00  -9.5628632530E-01
    71  7.2808107613E-01  1.2030377975E+00  -5.3972600158E-01
    72  -9.9619076839E-01  1.2426098770E+00  9.5628576139E-01
    73  7.3634056451E-01  2.3106205977E-01  -1.8138149263E+00
    74  -1.0979043072E+00  2.9417694441E-01  2.2614049906E+00
    75  -7.3634210539E-01  -2.3105687562E-01  1.8138269051E+00
    76  1.0979034554E+00  -2.9417503864E-01  -2.2614072859E+00
    77  1.1695149633E+00  -3.3222210251E-01  5.9664389439E-01
    78  -1.3959753846E+00  -4.3758997581E-01  -8.1309572624E-01
    79  -1.1695194078E+00  3.3222224580E-01  -5.9664757136E-01
    80  1.3959736154E+00  4.3758887755E-01  8.1309388392E-01
    81  -1.7874072085E+00  5.2831757784E-01  -2.8459291949E-01
    82  1.4638601618E+00  1.3892555548E+00  6.9110236547E-01
    83  1.7873561957E+00  -5.2827787258E-01  2.8457984416E-01
    84  -1.4638597683E+00  -1.3892594852E+00  -6.9110667340E-01
    85  1.4597217341E+00  1.4574600448E-01  7.3286179474E-01
    86  -1.5172427012E+00  2.4311328535E-01  -6.2971010872E-01
    87  -1.4597218672E+00  -1.4574718265E-01  -7.3286142013E-01
    88  1.5172421336E+00  -2.4311327481E-01  6.2970984395E-01
    89  4.9406359978E-01  -1.6340634420E-01  -1.7393647805E+00
    90  -5.5262929657E-01  -1.5547504363E-02  1.9452734597E+00
    91  -4.9405953405E-01  1.6339258724E-01  1.7393631072E+00
    92  5.5262900082E-01  1.5550466437E-02  -1.9452712001E+00
    93  -4.1226293012E-01  2.0187097900E-02  7.6153323915E-01
    94  4.1158310393E-01  3.6540740127E-01  -6.9938914445E-01
    95  4.1227719880E-01  -2.0244693107E-02  -7.6152588519E-01
    96  -4.1158316567E-01  -3.6540652837E-01  6.9939060765E-01
  Stress tensor (eV/A^3):
  7.0387357943E-02  -1.0475563189E-02  3.3846877331E-02
  -1.0475563189E-02  6.7404159535E-02  1.0088636184E-02
  3.3846877331E-02  1.0088636184E-02  5.6105392043E-02
