  Invoking FHI-aims ...
  | Number of atoms                   :  96
  ...scf iterations...
  | Total energy corrected        :   -9.229837838931E+01 eV
  ...
  Total atomic forces (unitary forces cleaned)
     1  -3.1471051696E-01  5.9563065319E-01  1.9396598248E-01
     2  2.4160038292E-01  5.8289012833E-01  -1.8103976651E-01
     3  3.1471041386E-01  -5.9563053466E-01  -1.9396597583E-01
     4  -2.4160030233E-01  -5.8289014405E-01  1.8103987669E-01
     5  -8.1074469420E-01  1.4982302123E+00  1.4288595722E-01
     6  1.0187465903E+00  -2.0857632151E+00  2.6095723971E+00
     7  8.1074571051E-01  -1.4982299963E+00  -1.4288507590E-01
     8  -1.0187462893E+00  2.0857630187E+00  -2.6095720909E+00
     9  -4.6229734852E-01  2.5757929250E-01  -1.9864743659E-01
    10  2.3547163352E-01  -3.1015392160E-01  1.7427259152E-01
    11  4.6229648490E-01  -2.5757996861E-01  1.9864665217E-01
    12  -2.3547254250E-01  3.1015386699E-01  -1.7427303848E-01
    13  -5.6421356469E-01  -1.1188362670E+00  -1.0813986729E+00
    14  7.2377514500E-01  -6.4113069554E-01  1.1396446633E+00
    15  5.6421265236E-01  1.1188366335E+00  1.0813983243E+00
    16  -7.2377483988E-01  6.4113118699E-01  -1.1396446439E+00
    17  3.5682971942E-01  -4.4308972733E-01  -9.0386097217E-03
    18  -8.7155367339E-01  6.9460019439E-01  -9.7743075955E-01
    19  -3.5682910274E-01  4.4309004140E-01  9.0392084491E-03
    20  8.7155378655E-01  -6.9460070915E-01  9.7743082499E-01
    21  7.9140621775E-01  -1.3465085440E+00  -1.8565600403E-01
    22  -7.6689971731E-01  -1.4625473408E+00  2.9664027842E-01
    23  -7.9140634163E-01  1.3465086310E+00  1.8565600331E-01
    24  7.6689991115E-01  1.4625476778E+00  -2.9664041295E-01
    25  1.1083044880E+00  1.2329911583E-01  7.8931738955E-01
    26  -6.2917148911E-01  -1.0765882662E+00  2.2506936024E-01
    27  -1.1083044515E+00  -1.2329988652E-01  -7.8931773140E-01
    28  6.2917189985E-01  1.0765892032E+00  -2.2506977082E-01
    29  4.7879862167E-01  2.4628944604E-01  5.1808423997E-01
    30  -4.3383884102E-01  3.5421636679E-01  -5.5809139852E-01
    31  -4.7879851919E-01  -2.4628960385E-01  -5.1808484388E-01
    32  4.3383786053E-01  -3.5421682305E-01  5.5809117354E-01
    33  1.9533831722E-01  1.2522354450E+00  1.0299683723E+00
    34  -1.8486278474E-01  1.2963167138E+00  -1.0316379327E+00
    35  -1.9533810149E-01  -1.2522350450E+00  -1.0299680507E+00
    36  1.8486277345E-01  -1.2963168603E+00  1.0316378839E+00
    37  -6.7882059271E-01  3.2085677070E-01  -2.3939429415E-01
    38  7.1880703350E-01  4.0792902807E-01  1.8593304057E-01
    39  6.7882080906E-01  -3.2085711725E-01  2.3939461446E-01
    40  -7.1880683494E-01  -4.0792982932E-01  -1.8593244685E-01
    41  -1.0653681299E+00  1.3065026015E+00  1.0184584326E-01
    42  1.0791029960E+00  1.3275989263E+00  -1.0206015574E-01
    43  1.0653679222E+00  -1.3065020421E+00  -1.0184580719E-01
    44  -1.0791025631E+00  -1.3275985658E+00  1.0206019171E-01
    45  -1.8769543138E+00  9.9560930304E-02  -1.2612221919E+00
    46  1.8851807061E-01  -2.2469307138E+00  -4.0706067962E-01
    47  1.8769553648E+00  -9.9559144000E-02  1.2612223336E+00
    48  -1.8851966619E-01  2.2469293141E+00  4.0705956747E-01
    49  4.5624966251E-01  -3.4958214422E-01  1.0981707789E+00
    50  -3.6985870122E-01  7.0143539458E-01  -3.0559678209E+00
    51  -4.5625222215E-01  3.4958091536E-01  -1.0981717135E+00
    52  3.6985923964E-01  -7.0143463042E-01  3.0559716795E+00
    53  -9.9116220402E-01  -2.1145888666E+00  -1.5550143657E-01
    54  5.4351990265E-01  -3.0117451001E+00  4.5014210162E-01
    55  9.9116202175E-01  2.1145895306E+00  1.5550111570E-01
    56  -5.4351978971E-01  3.0117451666E+00  -4.5014149406E-01
    57  1.1314188185E+00  -1.6500652436E-01  9.6780218318E-01
    58  1.6376328384E+00  3.6420640310E-01  1.4789686856E+00
    59  -1.1314173846E+00  1.6500541639E-01  -9.6780058157E-01
    60  -1.6376342690E+00  -3.6420689158E-01  -1.4789702323E+00
    61  -1.6804184009E+00  1.2905153581E+00  1.2000758776E+00
    62  -1.1049569933E+00  1.1107996373E+00  6.0075277468E-01
    63  1.6804190480E+00  -1.2905154218E+00  -1.2000752048E+00
    64  1.1049570194E+00  -1.1107998712E+00  -6.0075271223E-01
    65  1.1701812529E+00  -3.7900962374E-01  8.8070243103E-02
    66  1.5798046539E+00  1.2436511986E+00  -7.8144850961E-02
    67  -1.1701830172E+00  3.7901064185E-01  -8.8069136408E-02
    68  -1.5798037074E+00  -1.2436504991E+00  7.8145029002E-02
    69  -4.8065819523E-01  -2.2636799799E+00  -2.0117246717E-01
    70  1.0035369599E+00  -2.7574284237E+00  -1.3694642700E-01
    71  4.8065821669E-01  2.2636784229E+00  2.0117213077E-01
    72  -1.0035373969E+00  2.7574276942E+00  1.3694688288E-01
    73  5.9093842612E-01  6.9403022508E-01  -2.2153836620E+00
    74  -7.1660367599E-01  9.2321776119E-01  2.0835726845E+00
    75  -5.9093839455E-01  -6.9402970790E-01  2.2153814828E+00
    76  7.1660398980E-01  -9.2321662803E-01  -2.0835744992E+00
    77  1.2270567409E+00  -1.2050809517E-01  6.7183655165E-01
    78  -2.2401034776E+00  -4.9036388814E-01  -1.2395602112E+00
    79  -1.2270548672E+00  1.2050762959E-01  -6.7183665184E-01
    80  2.2401040296E+00  4.9036407487E-01  1.2395603820E+00
    81  9.7569784338E-01  6.1211663751E-01  5.2758733930E-01
    82  -1.0353419461E+00  1.0511335844E+00  -4.6097371957E-01
    83  -9.7570125772E-01  -6.1211812406E-01  -5.2758590354E-01
    84  1.0353428262E+00  -1.0511338636E+00  4.6097400100E-01
    85  1.3424556469E+00  1.1064099422E-01  7.3908527742E-01
    86  -1.4359976657E+00  2.4810325552E-01  -7.1544099628E-01
    87  -1.3424538141E+00  -1.1064041112E-01  -7.3908441524E-01
    88  1.4359970343E+00  -2.4810313395E-01  7.1544076265E-01
    89  3.3501655132E-01  1.0945006523E+00  -2.0982321007E+00
    90  -3.4331914316E-01  1.2456773026E+00  2.1722564760E+00
    91  -3.3501613122E-01  -1.0944987832E+00  2.0982303713E+00
    92  3.4331942711E-01  -1.2456766985E+00  -2.1722568117E+00
    93  -1.2762112388E+00  1.4897656458E+00  1.2671492338E+00
    94  1.3030103324E+00  1.6627195372E+00  -1.2566830260E+00
    95  1.2762118563E+00  -1.4897663534E+00  -1.2671494942E+00
    96  -1.3030100289E+00  -1.6627198535E+00  1.2566825444E+00
  Stress tensor (eV/A^3):
  9.7253394792E-02  -4.4957109087E-03  2.2375333845E-02
  -4.4957109087E-03  1.1545575236E-01  5.0384019330E-03
  2.2375333845E-02  5.0384019330E-03  7.9377508756E-02
