  Invoking FHI-aims ...
  | Number of atoms                   :  96
  ...scf iterations...
  | Total energy corrected        :   -6.253690136803E+01 eV
  ...
  Total atomic forces (unitary forces cleaned)
     1  -2.3106413196E-01  5.8398789484E-01  1.8780357502E-01
     2  2.2746181631E-01  5.7937673301E-01  -1.9246166529E-01
     3  2.3106414034E-01  -5.8398782001E-01  -1.8780355119E-01
     4  -2.2746169714E-01  -5.7937666712E-01  1.9246176199E-01
     5  -8.7124319763E-01  1.1081683845E+00  5.5917024763E-02
     6  8.5970775573E-01  1.0607924783E+00  2.6123566359E-02
     7  8.7124366421E-01  -1.1081682399E+00  -5.5916572462E-02
     8  -8.5970773552E-01  -1.0607926334E+00  -2.6123326120E-02
     9  -2.0572768747E-01  1.4619398658E-01  -9.7721062865E-02
    10  1.0637389381E-01  5.1142875206E-02  1.0703087871E-01
    11  2.0572721353E-01  -1.4619407861E-01  9.7720749386E-02
    12  -1.0637419132E-01  -5.1142774211E-02  -1.0703101183E-01
    13  -3.9233539959E-01  -9.1168343123E-01  -8.6693498844E-01
    14  4.9400508239E-01  -8.1419724649E-01  8.5733881868E-01
    15  3.9233487052E-01  9.1168359812E-01  8.6693477048E-01
    16  -4.9400518936E-01  8.1419733709E-01  -8.5733850154E-01
    17  1.7267024941E+00  -2.4056127930E+00  -2.2365077654E-01
    18  -1.7735806052E+00  -2.3334203025E+00  1.1706811085E-01
    19  -1.7267029329E+00  2.4056142261E+00  2.2365109266E-01
    20  1.7735810551E+00  2.3334213344E+00  -1.1706870753E-01
    21  -8.1906908475E-01  7.9798443445E-01  -4.8704083397E-02
    22  8.3249745261E-01  8.2969529246E-01  3.1432475726E-02
    23  8.1906981655E-01  -7.9798571212E-01  4.8703926925E-02
    24  -8.3249775853E-01  -8.2969623888E-01  -3.1432301810E-02
    25  5.0394969300E-01  4.3034866382E-02  3.6948226418E-01
    26  -4.7203867636E-01  -4.8691937987E-02  -2.6288847259E-01
    27  -5.0395016031E-01  -4.3035181385E-02  -3.6948264755E-01
    28  4.7203898896E-01  4.8692242440E-02  2.6288835208E-01
    29  7.4410934815E-01  2.0724944503E+00  1.9792006872E+00
    30  -7.4401574918E-01  2.0706766536E+00  -1.9776585465E+00
    31  -7.4410908531E-01  -2.0724937289E+00  -1.9792001018E+00
    32  7.4401562744E-01  -2.0706774226E+00  1.9776585170E+00
    33  -2.8046674142E-01  -7.1325781497E-01  -6.6729334081E-01
    34  2.7991384895E-01  -7.1547717230E-01  6.6667371061E-01
    35  2.8046684725E-01  7.1325710220E-01  6.6729270735E-01
    36  -2.7991412638E-01  7.1547759634E-01  -6.6667394459E-01
    37  -1.9484952378E+00  2.3070786261E+00  1.2787008041E-01
    38  1.9465519962E+00  2.3051968220E+00  -1.2740503719E-01
    39  1.9484943821E+00  -2.3070774174E+00  -1.2786969114E-01
    40  -1.9465505734E+00  -2.3051956496E+00  1.2740541620E-01
    41  5.6409119743E-01  -7.6842835086E-01  -1.2544155481E-01
    42  -5.6565820714E-01  -7.6958148526E-01  1.2632730766E-01
    43  -5.6409034086E-01  7.6842709059E-01  1.2544137290E-01
    44  5.6565726379E-01  7.6958022931E-01  -1.2632723092E-01
    45  -1.7917662193E+00  9.8958415461E-02  -1.1362555696E+00
    46  1.6654495022E+00  -1.3330188821E-02  1.0398009619E+00
    47  1.7917615416E+00  -9.8958805324E-02  1.1362521673E+00
    48  -1.6654493299E+00  1.3330879091E-02  -1.0398011044E+00
    49  -3.1038085486E+01  -5.3866678227E+00  1.5415162840E+01
    50  4.4403092586E+01  1.0057917912E+01  -2.3087316035E+01
    51  3.1037372002E+01  5.3866397707E+00  -1.5414899365E+01
    52  -4.4403128941E+01  -1.0057870515E+01  2.3087317727E+01
    53  1.5861877790E+01  2.2030275429E+01  -2.2921978735E+00
    54  -1.5820454387E+01  2.3562560988E+01  1.9569702342E+00
    55  -1.5861528024E+01  -2.2029808391E+01  2.2921528594E+00
    56  1.5820487937E+01  -2.3562614369E+01  -1.9569823851E+00
    57  -5.3184577221E-01  4.2825997319E-02  -4.3825216543E-01
    58  -3.1263819727E-01  -5.4161841283E-02  -1.9611392977E-01
    59  5.3186683487E-01  -4.2828572987E-02  4.3826931854E-01
    60  3.1264165955E-01  5.4161969558E-02  1.9611681072E-01
    61  1.4632166082E+01  -1.7339338985E+01  -9.3067079419E+00
    62  -2.7216576455E+01  -3.4198163109E+01  1.8135691260E+01
    63  -1.4631826385E+01  1.7338901458E+01  9.3064802314E+00
    64  2.7216576097E+01  3.4198168147E+01  -1.8135683354E+01
    65  6.0962647191E-01  -1.2465029232E+01  -8.8441008562E+00
    66  -5.6546972078E-01  -1.2029127525E+01  1.0415569095E+01
    67  -6.0968473219E-01  1.2464890418E+01  8.8440090661E+00
    68  5.6544992825E-01  1.2029148913E+01  -1.0415531603E+01
    69  5.0017845120E+00  1.0221932295E+01  3.8358174108E-01
    70  -5.2608228879E+00  1.0607656140E+01  -2.7406741081E-01
    71  -5.0017152653E+00  -1.0221795462E+01  -3.8358236987E-01
    72  5.2608313837E+00  -1.0607671473E+01  2.7406319027E-01
    73  -1.8693314886E+00  -4.8074325574E-01  8.3214187507E+00
    74  2.3100772731E+00  -1.0749506596E+00  -1.0007757296E+01
    75  1.8693167067E+00  4.8073948366E-01  -8.3213338845E+00
    76  -2.3100671223E+00  1.0749446181E+00  1.0007724065E+01
    77  -1.3903174039E+00  -3.7287335786E-02  -1.0208491500E+00
    78  1.3008110991E+00  -1.2634865998E-01  9.5611298678E-01
    79  1.3903247057E+00  3.7286410735E-02  1.0208539904E+00
    80  -1.3008111980E+00  1.2634845157E-01  -9.5611249938E-01
    81  -7.9629270075E+00  2.5255750360E+01  -4.1209962188E+00
    82  7.9680117931E+00  2.5230727979E+01  4.1199630771E+00
    83  7.9626830792E+00  -2.5255296805E+01  4.1209464934E+00
    84  -7.9680178102E+00  -2.5230752388E+01  -4.1199995033E+00
    85  -8.9453029795E-01  5.7434011259E-02  -5.1926935824E-01
    86  9.0215785103E-01  4.6606229872E-02  5.1317372815E-01
    87  8.9454864300E-01  -5.7433697749E-02  5.1927962984E-01
    88  -9.0215543224E-01  -4.6606389372E-02  -5.1317211767E-01
    89  -1.8529565903E+00  -3.6984108644E+00  1.2408101620E+01
    90  1.8586310358E+00  -3.7090936800E+00  -1.2429233569E+01
    91  1.8529251850E+00  3.6983573094E+00  -1.2407900059E+01
    92  -1.8586359762E+00  3.7090999035E+00  1.2429266774E+01
    93  1.2567108789E+01  -1.8323549948E+01  -7.9805157296E+00
    94  -1.2566036011E+01  -1.8333271557E+01  7.9760227838E+00
    95  -1.2566847316E+01  1.8323157598E+01  7.9803519165E+00
    96  1.2566045029E+01  1.8333290291E+01  -7.9760220182E+00
  Stress tensor (eV/A^3):
  -8.3098619089E-02  -1.7303910323E-02  8.5943078617E-02
  -1.7303910323E-02  -2.1271577204E-01  1.2645309950E-02
  8.5943078617E-02  1.2645309950E-02  -7.9891897545E-02
