  Invoking FHI-aims ...
  | Number of atoms                   :  96
  ...scf iterations...
  | Total energy corrected        :   -6.887968310545E+01 eV
  ...
  Total atomic forces (unitary forces cleaned)
     1  -2.1764645414E-01  5.9028756040E-01  1.9231275625E-01
     2  2.1501197837E-01  5.8450055137E-01  -1.9611087557E-01
     3  2.1764657021E-01  -5.9028747665E-01  -1.9231268438E-01
     4  -2.1501185217E-01  -5.8450034353E-01  1.9611093970E-01
     5  -8.3699655319E-01  1.1304933909E+00  4.9669553351E-02
     6  8.2279508599E-01  1.0461157617E+00  5.8060726448E-02
     7  8.3699669757E-01  -1.1304932668E+00  -4.9669337955E-02
     8  -8.2279536140E-01  -1.0461158768E+00  -5.8060424974E-02
     9  -1.8430588744E-01  1.6364836657E-01  -9.3256525433E-02
    10  7.1299477167E-02  4.3391564225E-02  1.0347820937E-01
    11  1.8430563279E-01  -1.6364800733E-01  9.3256313016E-02
    12  -7.1299861423E-02  -4.3391788484E-02  -1.0347811115E-01
    13  -3.7781424268E-01  -8.6816806308E-01  -8.7635386624E-01
    14  4.9189450735E-01  -7.4560601677E-01  8.6489298491E-01
    15  3.7781374224E-01  8.6816806850E-01  8.7635359310E-01
    16  -4.9189462710E-01  7.4560632661E-01  -8.6489231337E-01
    17  2.0865668668E+00  -3.0770179502E+00  -2.8516338767E-01
    18  -2.1282737542E+00  -2.9865895706E+00  1.6225364308E-01
    19  -2.0865691095E+00  3.0770226567E+00  2.8516356558E-01
    20  2.1282738743E+00  2.9865904398E+00  -1.6225455739E-01
    21  -1.2000355340E+00  1.4706061065E+00  -1.2124558089E-02
    22  1.2020588214E+00  1.4838602747E+00  2.2808170817E-03
    23  1.2000380067E+00  -1.4706104770E+00  1.2124260035E-02
    24  -1.2020591371E+00  -1.4838610987E+00  -2.2805363607E-03
    25  4.4746872686E-01  5.6959317423E-03  3.9820615204E-01
    26  -4.1020021328E-01  -9.5022965226E-02  -2.7336433733E-01
    27  -4.4746890559E-01  -5.6961517729E-03  -3.9820634605E-01
    28  4.1020079010E-01  9.5023082051E-02  2.7336420356E-01
    29  8.8064273048E-01  2.5297389862E+00  2.5172694273E+00
    30  -8.8154757902E-01  2.5257360648E+00  -2.5145809684E+00
    31  -8.8064326528E-01  -2.5297405032E+00  -2.5172699632E+00
    32  8.8154862226E-01  -2.5257380633E+00  2.5145817257E+00
    33  -4.0796411508E-01  -1.2227237969E+00  -1.2156643385E+00
    34  4.0526889560E-01  -1.2250410734E+00  1.2128844161E+00
    35  4.0796466338E-01  1.2227249676E+00  1.2156651000E+00
    36  -4.0526985060E-01  1.2250427697E+00  -1.2128855411E+00
    37  -2.2709969904E+00  2.9504642939E+00  1.7695744838E-01
    38  2.2689803919E+00  2.9462475758E+00  -1.7520195466E-01
    39  2.2709961357E+00  -2.9504632103E+00  -1.7695671893E-01
    40  -2.2689789470E+00  -2.9462458237E+00  1.7520249991E-01
    41  9.6819088563E-01  -1.3784390722E+00  -1.8506329291E-01
    42  -9.6912024701E-01  -1.3787499263E+00  1.8597376427E-01
    43  -9.6819002252E-01  1.3784378098E+00  1.8506283931E-01
    44  9.6911909221E-01  1.3787482967E+00  -1.8597382583E-01
    45  -1.4418294415E+00  1.4202673993E-01  -9.0803799719E-01
    46  1.3341065392E+00  -2.1503508470E-02  9.1500015279E-01
    47  1.4418232485E+00  -1.4202629082E-01  9.0803490535E-01
    48  -1.3341069132E+00  2.1503936037E-02  -9.1499990805E-01
    49  -1.6151268269E+01  6.7250022248E+00  1.1538580616E+01
    50  1.5505042224E+01  7.4444991232E+00  -1.0542432341E+01
    51  1.6151127318E+01  -6.7248956570E+00  -1.1538524224E+01
    52  -1.5505052370E+01  -7.4444865260E+00  1.0542434828E+01
    53  1.2357282076E+01  8.0474141243E+00  -5.3565020922E+00
    54  -1.0960674642E+01  7.4717109933E+00  4.7912650641E+00
    55  -1.2357169485E+01  -8.0473729297E+00  5.3564530977E+00
    56  1.0960683860E+01  -7.4717184985E+00  -4.7912752889E+00
    57  -1.7922086323E+00  2.8085748818E-01  -1.4381804021E+00
    58  9.8934297830E-01  1.8989534418E-01  8.3216678805E-01
    59  1.7922131397E+00  -2.8085719603E-01  1.4381844063E+00
    60  -9.8933893212E-01  -1.8989476723E-01  -8.3216265094E-01
    61  4.8341298900E+00  -1.4313857891E+01  -1.7098721263E+00
    62  -4.7752224946E+00  -1.4400033997E+01  1.8993359767E+00
    63  -4.8341063213E+00  1.4313714221E+01  1.7098666776E+00
    64  4.7752205015E+00  1.4400027784E+01  -1.8993321826E+00
    65  -2.2354942640E+00  -1.3926013616E+01  -5.5449169292E+00
    66  2.3555461097E+00  -1.3638810083E+01  5.4735463295E+00
    67  2.2354601752E+00  1.3925955312E+01  5.5449050592E+00
    68  -2.3555513856E+00  1.3638805914E+01  -5.4735397838E+00
    69  7.5538060680E+00  7.7874786604E+00  -2.6491840029E+00
    70  -7.9596653187E+00  8.1853023112E+00  2.7647286238E+00
    71  -7.5537664510E+00  -7.7874519017E+00  2.6491630128E+00
    72  7.9596624256E+00  -8.1852982766E+00  -2.7647332089E+00
    73  -2.3072901438E+00  3.0474097693E+00  9.5330775969E+00
    74  2.3961780698E+00  2.6842548627E+00  -9.7717377385E+00
    75  2.3072903315E+00  -3.0473862249E+00  -9.5330392973E+00
    76  -2.3961718138E+00  -2.6842551153E+00  9.7717334705E+00
    77  -1.7189281833E+00  6.2143218626E-02  -1.3501183388E+00
    78  2.0008623390E+00  -3.8370677432E-02  1.5557702304E+00
    79  1.7189227453E+00  -6.2143113900E-02  1.3501148843E+00
    80  -2.0008611647E+00  3.8370562339E-02  -1.5557679208E+00
    81  1.2247981220E+00  1.4302309433E+01  -1.1677986004E+01
    82  -1.2192126986E+00  1.4290219320E+01  1.1671216779E+01
    83  -1.2248097620E+00  -1.4302222829E+01  1.1677898073E+01
    84  1.2192161837E+00  -1.4290208327E+01  -1.1671240238E+01
    85  -1.8444674536E+00  7.5767677054E-02  -1.1361100897E+00
    86  1.8500192885E+00  7.3178395366E-02  1.1299101213E+00
    87  1.8444670843E+00  -7.5767429369E-02  1.1361094702E+00
    88  -1.8500187421E+00  -7.3178727542E-02  -1.1299090133E+00
    89  -2.0844771994E+00  1.7103147109E+00  1.1746076675E+01
    90  2.0942825294E+00  1.7031855521E+00  -1.1758448047E+01
    91  2.0844675678E+00  -1.7102902523E+00  -1.1746012359E+01
    92  -2.0942834906E+00  -1.7031918802E+00  1.1758463164E+01
    93  4.8651615199E+00  -1.4037009039E+01  -1.2815906237E-01
    94  -4.8629471820E+00  -1.4041614737E+01  1.2223249956E-01
    95  -4.8651331969E+00  1.4036900338E+01  1.2817823532E-01
    96  4.8629439312E+00  1.4041611152E+01  -1.2222596254E-01
  Stress tensor (eV/A^3):
  -5.0479204375E-02  -3.5486195926E-04  5.3590770160E-02
  -3.5486195926E-04  -1.2197420589E-01  6.8409778184E-04
  5.3590770160E-02  6.8409778184E-04  -6.2982485249E-02
