  Invoking FHI-aims ...
  | Number of atoms                   :  96
  ...scf iterations...
  | Total energy corrected        :   -8.476121786335E+01 eV
  ...
  Total atomic forces (unitary forces cleaned)
     1  -3.0240532965E-01  5.9749699624E-01  1.8733288589E-01
     2  2.4071166025E-01  5.7433901336E-01  -1.8322256411E-01
     3  3.0240521708E-01  -5.9749691096E-01  -1.8733288450E-01
     4  -2.4071161221E-01  -5.7433905665E-01  1.8322268364E-01
     5  -8.5070152089E-01  1.6475383374E+00  2.8186407448E-01
     6  8.6626200672E-01  4.9511677055E-01  2.0454506114E-01
     7  8.5070250612E-01  -1.6475381208E+00  -2.8186323686E-01
     8  -8.6626170539E-01  -4.9511696549E-01  -2.0454483463E-01
     9  -3.8694241169E-01  2.0153351289E-01  -1.7144299907E-01
    10  1.0366750562E+00  5.7534897264E-01  1.3622120349E-01
    11  3.8694158089E-01  -2.0153419215E-01  1.7144233547E-01
    12  -1.0366754499E+00  -5.7534872231E-01  -1.3622162411E-01
    13  -5.1561333812E-01  -1.0693739744E+00  -1.0002742591E+00
    14  -1.5685959115E-01  -1.4833337688E+00  1.0554106825E+00
    15  5.1561249470E-01  1.0693743308E+00  1.0002739509E+00
    16  1.5685943350E-01  1.4833339328E+00  -1.0554107992E+00
    17  4.7008119139E-01  -5.7932791353E-01  -2.3992341391E-02
    18  -3.2163103415E-01  -6.5656053060E-01  4.0441530171E-01
    19  -4.7008068666E-01  5.7932829096E-01  2.3992899027E-02
    20  3.2163123013E-01  6.5656008921E-01  -4.0441537300E-01
    21  6.4115052618E-01  -1.1176462515E+00  -1.4886526569E-01
    22  -6.6514007307E-01  -1.2430017003E+00  2.1287902514E-01
    23  -6.4115059383E-01  1.1176462585E+00  1.4886534120E-01
    24  6.6514017819E-01  1.2430020282E+00  -2.1287921864E-01
    25  9.3788637447E-01  1.1512591694E-01  6.3495585276E-01
    26  -1.0514797063E+00  2.2993300849E-01  -1.0097157926E+00
    27  -9.3788642139E-01  -1.1512664021E-01  -6.3495619449E-01
    28  1.0514798550E+00  -2.2993218762E-01  1.0097155866E+00
    29  4.6167736963E-01  4.0206308162E-01  6.1166810137E-01
    30  -4.5533552632E-01  4.4451793293E-01  -6.4433508726E-01
    31  -4.6167724050E-01  -4.0206312447E-01  -6.1166866680E-01
    32  4.5533455099E-01  -4.4451836193E-01  6.4433485825E-01
    33  1.2102368182E-01  1.0480247614E+00  8.2816934249E-01
    34  -1.3018952738E-01  1.0732390950E+00  -8.3129030006E-01
    35  -1.2102348881E-01  -1.0480244245E+00  -8.2816916235E-01
    36  1.3018947232E-01  -1.0732391671E+00  8.3129026384E-01
    37  -7.6299399042E-01  4.9271114598E-01  -1.6711396271E-01
    38  7.8942887211E-01  5.3127119409E-01  1.5013634672E-01
    39  7.6299411256E-01  -4.9271140707E-01  1.6711427653E-01
    40  -7.8942850605E-01  -5.3127186701E-01  -1.5013579122E-01
    41  -9.0157208829E-01  1.0898607965E+00  8.5404747257E-02
    42  9.0755516772E-01  1.1018191712E+00  -8.1893830557E-02
    43  9.0157197357E-01  -1.0898603624E+00  -8.5404773210E-02
    44  -9.0755485017E-01  -1.1018189358E+00  8.1893829933E-02
    45  -1.2285866067E+00  2.2913209483E-02  -8.0121993969E-01
    46  1.5931098699E+00  7.7324459782E-02  1.1853707069E+00
    47  1.2285841225E+00  -2.2913873854E-02  8.0121800322E-01
    48  -1.5931099282E+00  -7.7324508289E-02  -1.1853708797E+00
    49  2.4572840009E-01  -5.1586982126E-01  1.2626771437E+00
    50  5.2069572440E-01  -9.3249926703E-02  -5.3589035070E+00
    51  -2.4572693691E-01  5.1586909469E-01  -1.2626767352E+00
    52  -5.2069480071E-01  9.3248912530E-02  5.3589049381E+00
    53  -5.3521425778E-01  -1.4040559816E+00  -3.0713033512E-01
    54  3.4269932952E-01  -1.6580382091E+00  4.3255194998E-01
    55  5.3521327923E-01  1.4040541495E+00  3.0712997802E-01
    56  -3.4269950939E-01  1.6580386059E+00  -4.3255173710E-01
    57  7.3633961550E-01  -4.4998003882E-02  4.8178598127E-01
    58  1.2917235901E+00  2.4824584895E-01  1.1007186925E+00
    59  -7.3633903295E-01  4.4997441300E-02  -4.8178542697E-01
    60  -1.2917248773E+00  -2.4824622279E-01  -1.1007200411E+00
    61  -1.1602344659E+00  8.1626038908E-01  7.5554302963E-01
    62  -1.1921030207E+00  1.7711583939E-01  8.2305676267E-01
    63  1.1602329860E+00  -8.1625969777E-01  -7.5554117389E-01
    64  1.1921033845E+00  -1.7711572465E-01  -8.2305675518E-01
    65  1.2917443102E+00  -5.2524314769E-01  -3.1768685438E-01
    66  -1.6078581351E+00  -2.4572646837E-01  2.0496683283E+00
    67  -1.2917433719E+00  5.2524370575E-01  3.1768744990E-01
    68  1.6078577050E+00  2.4572696803E-01  -2.0496675112E+00
    69  -2.6001223690E-01  -1.4568366661E+00  -1.4566768001E-01
    70  5.1273875723E-01  -1.8340938570E+00  7.2197746014E-02
    71  2.6001216238E-01  1.4568345007E+00  1.4566697224E-01
    72  -5.1273919269E-01  1.8340938741E+00  -7.2197365183E-02
    73  2.5587205488E-01  6.3237294293E-01  -1.3211673232E+00
    74  -1.1191227166E-01  6.3791369472E-01  4.4959307831E-01
    75  -2.5587194653E-01  -6.3237206973E-01  1.3211655408E+00
    76  1.1191256042E-01  -6.3791353773E-01  -4.4959384695E-01
    77  7.1869174847E-01  7.7102618429E-03  4.9112711376E-01
    78  -1.3819953231E+00  -5.1337203226E-02  -8.5152100860E-01
    79  -7.1869093505E-01  -7.7103156276E-03  -4.9112712433E-01
    80  1.3819956567E+00  5.1337332144E-02  8.5152118147E-01
    81  9.1056200857E-01  1.0263484324E+00  4.8236745627E-01
    82  -9.2399050241E-01  1.1670552820E+00  -4.6892401345E-01
    83  -9.1056052600E-01  -1.0263483483E+00  -4.8236630636E-01
    84  9.2399127957E-01  -1.1670549542E+00  4.6892421176E-01
    85  8.4315102188E-01  -4.4279653786E-02  4.5860626641E-01
    86  -8.7410233837E-01  1.2416230658E-02  -4.4638520538E-01
    87  -8.4315003869E-01  4.4279772194E-02  -4.5860572891E-01
    88  8.7410177559E-01  -1.2416162990E-02  4.4638500543E-01
    89  1.7083109363E-01  7.0513361121E-01  -1.3411490730E+00
    90  -1.6751796775E-01  7.6761444908E-01  1.3625918967E+00
    91  -1.7083082883E-01  -7.0513140575E-01  1.3411471466E+00
    92  1.6751823498E-01  -7.6761419418E-01  -1.3625922651E+00
    93  -9.1692627841E-01  7.9119522488E-01  9.5792792875E-01
    94  9.2759839064E-01  8.4980780194E-01  -9.5439519763E-01
    95  9.1692470538E-01  -7.9119394748E-01  -9.5792617684E-01
    96  -9.2759825647E-01  -8.4980818534E-01  9.5439501390E-01
  Stress tensor (eV/A^3):
  8.7493097117E-02  -1.2784518650E-03  2.0095340606E-02
  -1.2784518650E-03  9.8179233188E-02  6.9398322654E-04
  2.0095340606E-02  6.9398322654E-04  7.4178307343E-02
