  Invoking FHI-aims ...
  | Number of atoms                   :  96
  ...scf iterations...
  | Total energy corrected        :   -9.253044273331E+01 eV
  ...
  Total atomic forces (unitary forces cleaned)
     1  -2.8484869356E-01  6.1063818097E-01  1.9336146424E-01
     2  2.1504708564E-01  5.6775983499E-01  -1.9319093774E-01
     3  2.8484878413E-01  -6.1063809134E-01  -1.9336138773E-01
     4  -2.1504694469E-01  -5.6775960687E-01  1.9319099745E-01
     5  -7.7425388982E-01  1.6759492672E+00  2.6687693965E-01
     6  8.4850930120E-01  2.3839385629E-01  4.8647683826E-01
     7  7.7425413089E-01  -1.6759491254E+00  -2.6687663162E-01
     8  -8.4850960743E-01  -2.3839398139E-01  -4.8647653962E-01
     9  -3.9091039530E-01  2.7117055498E-01  -1.9489445381E-01
    10  9.7279514707E-01  5.9499487368E-01  1.7409634705E-01
    11  3.9091003869E-01  -2.7117019502E-01  1.9489416696E-01
    12  -9.7279512582E-01  -5.9499476352E-01  -1.7409597576E-01
    13  -5.3486251904E-01  -1.0191705355E+00  -1.1118669229E+00
    14  -5.8877438948E-02  -1.3935684404E+00  1.1694829681E+00
    15  5.3486192191E-01  1.0191706513E+00  1.1118666151E+00
    16  5.8876944374E-02  1.3935684438E+00  -1.1694822568E+00
    17  3.8171038026E-01  -5.1037213258E-01  -3.8229140033E-02
    18  -3.0852837898E-01  -4.7814466313E-01  3.6331900102E-01
    19  -3.8170939907E-01  5.1037199163E-01  3.8229736374E-02
    20  3.0852815955E-01  4.7814439910E-01  -3.6331921020E-01
    21  6.8949829664E-01  -1.2998707708E+00  -2.5045612787E-01
    22  -6.9285053714E-01  -1.3860687084E+00  3.1851811733E-01
    23  -6.8949891578E-01  1.2998713700E+00  2.5045555479E-01
    24  6.9285034269E-01  1.3860689608E+00  -3.1851843372E-01
    25  9.5168507871E-01  2.6836556174E-02  8.1153240835E-01
    26  -9.8713683353E-01  -2.9467919180E-03  -1.1070822655E+00
    27  -9.5168523825E-01  -2.6837101317E-02  -8.1153281372E-01
    28  9.8713791161E-01  2.9471963749E-03  1.1070817114E+00
    29  4.7738778540E-01  2.7260071640E-01  5.6727167824E-01
    30  -4.5267161053E-01  3.2546222640E-01  -5.9451932108E-01
    31  -4.7738765811E-01  -2.7260060601E-01  -5.6727162595E-01
    32  4.5267114521E-01  -3.2546228364E-01  5.9451891393E-01
    33  2.0853139499E-01  1.1391330864E+00  1.0009110534E+00
    34  -1.7685290836E-01  1.1904763841E+00  -9.5306197848E-01
    35  -2.0853144405E-01  -1.1391335246E+00  -1.0009108660E+00
    36  1.7685330319E-01  -1.1904768412E+00  9.5306183023E-01
    37  -6.6697904456E-01  4.3794865423E-01  -2.5205949194E-01
    38  6.9083700355E-01  4.8736168314E-01  2.2553437342E-01
    39  6.6697912736E-01  -4.3794892943E-01  2.5205945834E-01
    40  -6.9083705071E-01  -4.8736191077E-01  -2.2553397173E-01
    41  -9.3565633776E-01  1.2670916333E+00  8.7045152423E-02
    42  9.4240359131E-01  1.2801343000E+00  -8.3986608412E-02
    43  9.3565625274E-01  -1.2670915213E+00  -8.7044838333E-02
    44  -9.4240331930E-01  -1.2801339693E+00  8.3986825297E-02
    45  -1.5416559590E+00  1.3351530378E-01  -9.8500366002E-01
    46  -9.6477640779E-01  -4.5476993189E+00  5.7706787292E-01
    47  1.5416694254E+00  -1.3351297914E-01  9.8501354886E-01
    48  9.6477447830E-01  4.5476977019E+00  -5.7707015370E-01
    49  -1.2295590321E+00  6.2844202821E-01  1.5993817479E+00
    50  1.8927417831E+00  6.1650852203E+00  -5.6127761499E+00
    51  1.2295331442E+00  -6.2842708910E-01  -1.5993806858E+00
    52  -1.8927410023E+00  -6.1650851725E+00  5.6127791592E+00
    53  -9.1107343941E-01  -8.3487011457E-01  3.0663640912E-01
    54  9.4091828030E-01  -1.4219120619E+00  -4.1483976361E-01
    55  9.1108681692E-01  8.3487558497E-01  -3.0664445784E-01
    56  -9.4091515055E-01  1.4219104069E+00  4.1483884829E-01
    57  1.3536055413E+00  -2.2130561909E-01  1.2929690190E+00
    58  1.0837711005E+00  -2.0944502572E-02  1.4008845926E+00
    59  -1.3536029175E+00  2.2130395125E-01  -1.2929658386E+00
    60  -1.0837735346E+00  2.0944025478E-02  -1.4008851517E+00
    61  -1.9304581805E-01  1.2805810552E+00  7.9154650466E-02
    62  -2.9857395741E+00  -3.7880047716E+00  1.6556100219E+00
    63  1.9305758782E-01  -1.2805989939E+00  -7.9162877345E-02
    64  2.9857390207E+00  3.7880050789E+00  -1.6556083013E+00
    65  4.2277021304E-01  -1.1861082273E+00  1.7314153994E-01
    66  3.0349410079E+00  3.9789439928E+00  -1.0741884719E+00
    67  -4.2278116956E-01  1.1861085891E+00  -1.7314611270E-01
    68  -3.0349386756E+00  -3.9789429235E+00  1.0741892939E+00
    69  -1.2255587731E+00  -1.1831527977E+00  6.7459357703E-01
    70  1.0610909360E+00  -8.2769078020E-01  -6.1962224224E-01
    71  1.2255622044E+00  1.1831596126E+00  -6.7459288925E-01
    72  -1.0610912221E+00  8.2769139256E-01  6.1962276963E-01
    73  7.5835575452E-01  -5.5085009669E-01  -1.8076098686E+00
    74  -1.0503289245E+00  -1.3738079391E+00  2.8727540337E+00
    75  -7.5835716378E-01  5.5085019098E-01  1.8076147596E+00
    76  1.0503272233E+00  1.3738090182E+00  -2.8727547662E+00
    77  1.2622490646E+00  -3.6394601716E-01  8.4279288719E-01
    78  -1.7201334435E+00  -6.4530971095E-01  -1.1860243109E+00
    79  -1.2622467009E+00  3.6394444299E-01  -8.4279228645E-01
    80  1.7201339970E+00  6.4530983056E-01  1.1860234889E+00
    81  7.6591449337E-01  1.4302887490E+00  -6.3618188961E-01
    82  -7.3720172724E-01  1.4465095664E+00  7.0320962230E-01
    83  -7.6592681897E-01  -1.4302800428E+00  6.3616803903E-01
    84  7.3720312763E-01  -1.4465086883E+00  -7.0321348094E-01
    85  1.5088259814E+00  4.4045754048E-02  7.5077895304E-01
    86  -1.5465309128E+00  5.4017111099E-02  -6.9684346754E-01
    87  -1.5088230171E+00  -4.4045481625E-02  -7.5077768996E-01
    88  1.5465306657E+00  -5.4017151262E-02  6.9684333712E-01
    89  3.8964409503E-01  -4.3998485198E-01  -1.6858307049E+00
    90  -4.0837063076E-01  -4.1388191564E-01  1.7469960393E+00
    91  -3.8964640977E-01  4.3998153457E-01  1.6858415256E+00
    92  4.0836947390E-01  4.1388279176E-01  -1.7469928409E+00
    93  -4.1762041329E-01  1.1768995511E+00  1.4291364527E-01
    94  3.9576199722E-01  1.2534506679E+00  -1.0520167092E-01
    95  4.1762376271E-01  -1.1769144507E+00  -1.4291173795E-01
    96  -3.9576217404E-01  -1.2534517819E+00  1.0520173683E-01
  Stress tensor (eV/A^3):
  8.8586259557E-02  -9.7318377423E-03  2.4733090134E-02
  -9.7318377423E-03  8.1660511339E-02  2.4041109386E-03
  2.4733090134E-02  2.4041109386E-03  8.9021984913E-02
