  Invoking FHI-aims ...
  | Number of atoms                   :  96
  ...scf iterations...
  | Total energy corrected        :   -8.888226254167E+01 eV
  ...
  Total atomic forces (unitary forces cleaned)
     1  -2.9551283748E-01  5.9002749782E-01  1.8956234687E-01
     2  2.2501480177E-01  5.7074710412E-01  -1.8219778633E-01
     3  2.9551275085E-01  -5.9002739711E-01  -1.8956234300E-01
     4  -2.2501471930E-01  -5.7074711567E-01  1.8219789417E-01
     5  -8.4520716666E-01  1.6462495162E+00  2.8735451474E-01
     6  8.6841065287E-01  6.3454288275E-01  1.0941215669E-01
     7  8.4520806041E-01  -1.6462493181E+00  -2.8735373319E-01
     8  -8.6841041259E-01  -6.3454306763E-01  -1.0941189734E-01
     9  -3.9226192081E-01  2.1201683481E-01  -1.7661951678E-01
    10  1.0285413794E+00  5.9031467066E-01  1.4184102493E-01
    11  3.9226114175E-01  -2.1201738798E-01  1.7661887156E-01
    12  -1.0285417391E+00  -5.9031444141E-01  -1.4184136002E-01
    13  -5.2737452400E-01  -1.0688868401E+00  -1.0237319019E+00
    14  -1.1570107010E-01  -1.4854905573E+00  1.0884093380E+00
    15  5.2737370920E-01  1.0688871682E+00  1.0237315905E+00
    16  1.1570090436E-01  1.4854907048E+00  -1.0884093228E+00
    17  4.0946798766E-01  -5.2212043432E-01  -2.0568534824E-02
    18  -2.8144392321E-01  -6.2547852902E-01  4.1944688206E-01
    19  -4.0946743486E-01  5.2212073297E-01  2.0569079180E-02
    20  2.8144402407E-01  6.2547812297E-01  -4.1944701963E-01
    21  6.8182739026E-01  -1.2160358944E+00  -1.8069699587E-01
    22  -6.9286883727E-01  -1.3209990972E+00  2.4322503535E-01
    23  -6.8182752177E-01  1.2160359658E+00  1.8069698100E-01
    24  6.9286901572E-01  1.3209994046E+00  -2.4322517784E-01
    25  9.7067958531E-01  1.0274100624E-01  6.8145010050E-01
    26  -1.0820728563E+00  2.3237278489E-01  -1.0740864754E+00
    27  -9.7067958684E-01  -1.0274168686E-01  -6.8145039477E-01
    28  1.0820731782E+00  -2.3237202996E-01  1.0740862601E+00
    29  4.7364525524E-01  3.4466059707E-01  5.6768384592E-01
    30  -4.5577401276E-01  3.9650065500E-01  -5.8973086702E-01
    31  -4.7364510305E-01  -3.4466068817E-01  -5.6768438218E-01
    32  4.5577306919E-01  -3.9650105584E-01  5.8973061080E-01
    33  1.5069966911E-01  1.1193635701E+00  9.0977093061E-01
    34  -1.4724817860E-01  1.1416168717E+00  -9.0962334413E-01
    35  -1.5069946984E-01  -1.1193632582E+00  -9.0977067024E-01
    36  1.4724817580E-01  -1.1416169862E+00  9.0962329902E-01
    37  -7.1782048584E-01  4.3509426365E-01  -1.9034233583E-01
    38  7.3905915106E-01  4.7637753365E-01  1.6905697634E-01
    39  7.1782061775E-01  -4.3509456231E-01  1.9034260773E-01
    40  -7.3905884555E-01  -4.7637819191E-01  -1.6905640402E-01
    41  -9.5138705443E-01  1.1692329013E+00  9.1630040527E-02
    42  9.5609136580E-01  1.1803188050E+00  -8.8325414874E-02
    43  9.5138691486E-01  -1.1692324576E+00  -9.1630018116E-02
    44  -9.5609100971E-01  -1.1803185107E+00  8.8325443239E-02
    45  -1.8781139352E+00  7.3260223482E-02  -1.2329184527E+00
    46  1.5199486562E+00  -7.9896362607E-01  1.2719702762E+00
    47  1.8781115773E+00  -7.3259717308E-02  1.2329163136E+00
    48  -1.5199502185E+00  7.9896274488E-01  -1.2719701054E+00
    49  -1.7595594730E-01  -6.6104686394E-01  1.5794260883E+00
    50  1.2648039434E+00  4.8985539860E-01  -5.8553808626E+00
    51  1.7594609575E-01  6.6104231192E-01  -1.5794218607E+00
    52  -1.2648031398E+00  -4.8985488078E-01  5.8553831517E+00
    53  -6.7394571439E-01  -1.5110482535E+00  -2.0116035886E-01
    54  4.5564134560E-01  -1.9129993275E+00  3.5889691318E-01
    55  6.7394809912E-01  1.5110532556E+00  2.0115987338E-01
    56  -4.5564084558E-01  1.9129984444E+00  -3.5889664366E-01
    57  1.0515562279E+00  -1.3850837847E-01  8.5544637270E-01
    58  1.2674708256E+00  2.7445216227E-01  1.1932275733E+00
    59  -1.0515539170E+00  1.3850727602E-01  -8.5544414313E-01
    60  -1.2674727382E+00  -2.7445266415E-01  -1.1932293586E+00
    61  -1.2118944906E+00  1.0128385639E+00  8.2395694503E-01
    62  -1.8889793073E+00  6.6667627520E-03  1.2330071225E+00
    63  1.2118984678E+00  -1.0128406698E+00  -8.2395907948E-01
    64  1.8889797603E+00  -6.6666200906E-03  -1.2330069339E+00
    65  1.3722429362E+00  -8.0637931694E-01  -3.3217547313E-01
    66  -7.2842518226E-01  -1.1883149904E-01  1.3621080739E+00
    67  -1.3722434233E+00  8.0637649719E-01  3.3217283713E-01
    68  7.2842532254E-01  1.1883379294E-01  -1.3621064533E+00
    69  -3.9356161235E-01  -1.7838241388E+00  -8.1782025598E-02
    70  6.5735951962E-01  -2.1215344173E+00  -5.9309273310E-02
    71  3.9356207751E-01  1.7838249315E+00  8.1782313771E-02
    72  -6.5735974744E-01  2.1215330810E+00  5.9309794649E-02
    73  4.6031005681E-01  6.1986658604E-01  -1.7856367683E+00
    74  -3.8020254612E-01  7.0129445255E-01  1.1834101406E+00
    75  -4.6031027255E-01  -6.1986624197E-01  1.7856361204E+00
    76  3.8020317036E-01  -7.0129396613E-01  -1.1834126566E+00
    77  1.0778720161E+00  -9.4081697474E-02  6.0916983200E-01
    78  -1.7450557277E+00  -2.5961289636E-01  -9.7567702272E-01
    79  -1.0778695596E+00  9.4081258143E-02  -6.0916944148E-01
    80  1.7450560143E+00  2.5961293429E-01  9.7567708429E-01
    81  8.6911236685E-01  1.3968012204E+00  4.8086208954E-01
    82  -9.0872113485E-01  1.6452247439E+00  -4.5005775028E-01
    83  -8.6911777279E-01  -1.3967933205E+00  -4.8085946828E-01
    84  9.0872181012E-01  -1.6452254213E+00  4.5005758070E-01
    85  1.2191639435E+00  8.3736684140E-02  6.7355142562E-01
    86  -1.2576873404E+00  1.4928099751E-01  -6.6531298300E-01
    87  -1.2191610775E+00  -8.3736130230E-02  -6.7355000548E-01
    88  1.2576867776E+00  -1.4928090737E-01  6.6531279085E-01
    89  2.5630860776E-01  7.9474710503E-01  -1.6765353245E+00
    90  -2.6405027837E-01  8.6350670862E-01  1.7134302838E+00
    91  -2.5630831581E-01  -7.9474662822E-01  1.6765349446E+00
    92  2.6405045975E-01  -8.6350597298E-01  -1.7134301966E+00
    93  -9.2984049925E-01  1.0318346789E+00  9.6100366940E-01
    94  9.4561236489E-01  1.1169767968E+00  -9.5103514379E-01
    95  9.2984409055E-01  -1.0318394303E+00  -9.6100645300E-01
    96  -9.4561187985E-01  -1.1169767126E+00  9.5103469350E-01
  Stress tensor (eV/A^3):
  9.2040274572E-02  -3.2159174196E-03  2.2486205449E-02
  -3.2159174196E-03  1.0628628941E-01  9.6146643203E-04
  2.2486205449E-02  9.6146643203E-04  8.0403475336E-02
