  Invoking FHI-aims ...
  | Number of atoms                   :  96
  ...scf iterations...
  | Total energy corrected        :   -6.681500627407E+01 eV
  ...
  Total atomic forces (unitary forces cleaned)
     1  -2.2626265965E-01  5.8515441569E-01  1.8845032786E-01
     2  2.1896771890E-01  5.7773340659E-01  -1.9311413869E-01
     3  2.2626272112E-01  -5.8515433261E-01  -1.8845028116E-01
     4  -2.1896760032E-01  -5.7773327413E-01  1.9311421839E-01
     5  -8.5314328300E-01  1.1728681936E+00  7.9206203803E-02
     6  8.4753421112E-01  1.1386128906E+00  -1.9403564670E-02
     7  8.5314360279E-01  -1.1728680613E+00  -7.9205853312E-02
     8  -8.4753432912E-01  -1.1386130255E+00  1.9403849582E-02
     9  -2.2395269586E-01  1.5708660497E-01  -1.1730273236E-01
    10  1.5742910689E-01  9.2164802639E-02  1.2212689471E-01
    11  2.2395231015E-01  -1.5708648416E-01  1.1730243838E-01
    12  -1.5742946328E-01  -9.2164887924E-02  -1.2212689290E-01
    13  -4.1540283615E-01  -9.1294418314E-01  -9.1113201083E-01
    14  4.8820216535E-01  -8.4645427462E-01  9.1003514281E-01
    15  4.1540231558E-01  9.1294428739E-01  9.1113177115E-01
    16  -4.8820225819E-01  8.4645449689E-01  -9.1003462388E-01
    17  1.1653306588E+00  -1.6671064445E+00  -1.5840467881E-01
    18  -1.2105979800E+00  -1.6297231854E+00  8.1218110157E-02
    19  -1.1653307062E+00  1.6671074801E+00  1.5840494288E-01
    20  1.2105980062E+00  1.6297234952E+00  -8.1218676284E-02
    21  -2.4811766207E-01  2.9754074376E-02  -1.2473064561E-01
    22  2.6009992080E-01  5.6635112028E-02  1.1821896499E-01
    23  2.4811793797E-01  -2.9754946646E-02  1.2473043479E-01
    24  -2.6010000480E-01  -5.6635375901E-02  -1.1821887856E-01
    25  5.4033149804E-01  2.5221490825E-02  4.3699025770E-01
    26  -5.1779221877E-01  -3.9136506584E-02  -3.6222959180E-01
    27  -5.4033190084E-01  -2.5221766277E-02  -4.3699055134E-01
    28  5.1779273282E-01  3.9136752775E-02  3.6222946223E-01
    29  6.1441593426E-01  1.3723056554E+00  1.4319914253E+00
    30  -6.1254170383E-01  1.3736352839E+00  -1.4309744936E+00
    31  -6.1441589042E-01  -1.3723057559E+00  -1.4319913846E+00
    32  6.1254161362E-01  -1.3736358518E+00  1.4309743443E+00
    33  -8.9988094858E-02  -4.6579164363E-03  -6.8055473210E-02
    34  8.9401758011E-02  -7.0330151847E-03  6.8334799174E-02
    35  8.9988286005E-02  4.6578371846E-03  6.8055468626E-02
    36  -8.9401845442E-02  7.0332345900E-03  -6.8335018941E-02
    37  -1.4004916699E+00  1.6142308060E+00  1.8129463838E-02
    38  1.3981599703E+00  1.6149232072E+00  -1.9879413971E-02
    39  1.4004913979E+00  -1.6142305239E+00  -1.8129170989E-02
    40  -1.3981593066E+00  -1.6149228020E+00  1.9879877863E-02
    41  4.8270908678E-03  -3.1107024376E-02  -4.4280637179E-02
    42  -6.3951818188E-03  -3.2409004480E-02  4.4743471942E-02
    43  -4.8268222173E-03  3.1106638703E-02  4.4280596343E-02
    44  6.3949273192E-03  3.2408620924E-02  -4.4743427318E-02
    45  -1.9945828141E+00  1.3070036741E-01  -1.3041867282E+00
    46  1.9377652944E+00  7.2684796469E-02  1.2939073320E+00
    47  1.9945764113E+00  -1.3070010638E-01  1.3041829453E+00
    48  -1.9377657496E+00  -7.2684029852E-02  -1.2939071680E+00
    49  -3.2565608031E+01  4.8850422018E+00  1.7545483444E+01
    50  2.6161546297E+01  1.0548348940E+01  -1.6073780400E+01
    51  3.2565586294E+01  -4.8850766792E+00  -1.7545454794E+01
    52  -2.6161543406E+01  -1.0548399543E+01  1.6073785166E+01
    53  1.8399222514E+01  1.6993908263E+01  -6.6466136056E+00
    54  -1.2267317325E+01  1.1618342756E+01  4.4494023753E+00
    55  -1.8399157818E+01  -1.6993915744E+01  6.6465835740E+00
    56  1.2267296538E+01  -1.1618324848E+01  -4.4494011727E+00
    57  5.4071652292E-01  -9.8909713498E-02  4.4098315872E-01
    58  -9.9406999970E-02  -2.3565203249E-02  -4.2952750611E-02
    59  -5.4072155210E-01  9.8909804351E-02  -4.4098653640E-01
    60  9.9406976387E-02  2.3564785788E-02  4.2953010450E-02
    61  1.2467959475E+01  -2.1646324785E+01  -7.4826123667E+00
    62  -1.2658738082E+01  -2.2021846218E+01  7.8631680993E+00
    63  -1.2467999230E+01  2.1646369033E+01  7.4826275065E+00
    64  1.2658756986E+01  2.2021878342E+01  -7.8631740261E+00
    65  -3.5698162134E+00  -1.6352173165E+01  -8.4362835896E+00
    66  3.9131858571E+00  -1.5974958414E+01  7.8107515564E+00
    67  3.5697049410E+00  1.6351932672E+01  8.4361288514E+00
    68  -3.9132020104E+00  1.5974958814E+01  -7.8107065851E+00
    69  7.5750013951E+00  1.1555037074E+01  -1.2793519370E+00
    70  -7.8337380036E+00  1.1734937744E+01  1.3399117823E+00
    71  -7.5748609403E+00  -1.1554836310E+01  1.2793153209E+00
    72  7.8337411071E+00  -1.1734940644E+01  -1.3399177620E+00
    73  -2.1483924668E+00  1.4564291690E+00  8.9851184124E+00
    74  2.0451138014E+00  1.0227805736E+00  -8.5004266523E+00
    75  2.1483517146E+00  -1.4563967343E+00  -8.9849363579E+00
    76  -2.0451005674E+00  -1.0227781153E+00  8.5003889009E+00
    77  1.6870832688E-01  -1.5164531148E-01  1.7954525393E-02
    78  -8.1692505286E-02  -1.7262234917E-01  3.6708146887E-02
    79  -1.6869524892E-01  1.5164307506E-01  -1.7946396159E-02
    80  8.1691195462E-02  1.7262208495E-01  -3.6708947433E-02
    81  -4.2599752410E+00  2.6105084434E+01  -1.7281837260E+01
    82  4.2618136047E+00  2.6082350744E+01  1.7293494018E+01
    83  4.2600257165E+00  -2.6104950731E+01  1.7281384069E+01
    84  -4.2618075272E+00  -2.6082362819E+01  -1.7293563367E+01
    85  5.6820603255E-01  2.6517857084E-02  2.8398953682E-01
    86  -5.6153284079E-01  2.1994196664E-02  -2.8683102144E-01
    87  -5.6819920957E-01  -2.6517393892E-02  -2.8398580483E-01
    88  5.6153358173E-01  -2.1994327772E-02  2.8683165911E-01
    89  -3.5723767623E+00  -1.9787161131E+00  1.9780506141E+01
    90  3.5763039467E+00  -1.9779434579E+00  -1.9804290256E+01
    91  3.5722988217E+00  1.9786826748E+00  -1.9780069361E+01
    92  -3.5763134141E+00  1.9779434047E+00  1.9804351099E+01
    93  9.6368615573E+00  -2.0987711813E+01  -3.7514899064E+00
    94  -9.6392820588E+00  -2.0992545123E+01  3.7488443176E+00
    95  -9.6368336305E+00  2.0987617759E+01  3.7514970159E+00
    96  9.6392849674E+00  2.0992557980E+01  -3.7488375397E+00
  Stress tensor (eV/A^3):
  -4.8166612961E-02  -8.1655422635E-03  8.8813883771E-02
  -8.1655422635E-03  -1.8109143146E-01  2.7652024611E-03
  8.8813883771E-02  2.7652024611E-03  -8.3177241973E-02
