  Invoking FHI-aims ...
  | Number of atoms                   :  96
  ...scf iterations...
  | Total energy corrected        :   -9.866283507626E+01 eV
  ...
  Total atomic forces (unitary forces cleaned)
     1  -2.9497638544E-01  6.1184273296E-01  1.8516099793E-01
     2  2.2279348999E-01  5.7859668568E-01  -1.8603621574E-01
     3  2.9497641665E-01  -6.1184263275E-01  -1.8516094802E-01
     4  -2.2279332617E-01  -5.7859654156E-01  1.8603627893E-01
     5  -8.2057981194E-01  1.6056974636E+00  2.7994047800E-01
     6  9.1883081197E-01  -5.7217552106E-01  1.2023740431E+00
     7  8.2058030124E-01  -1.6056973097E+00  -2.7993997290E-01
     8  -9.1883090846E-01  5.7217537773E-01  -1.2023737223E+00
     9  -4.2124853008E-01  2.7260752073E-01  -1.9600536153E-01
    10  7.8353660907E-01  2.8469616910E-01  1.6334173700E-01
    11  4.2124800337E-01  -2.7260750124E-01  1.9600489602E-01
    12  -7.8353647435E-01  -2.8469574007E-01  -1.6334168582E-01
    13  -5.5210508431E-01  -1.0575169060E+00  -1.1168329906E+00
    14  1.5294665307E-01  -1.1371435819E+00  1.1871184986E+00
    15  5.5210440155E-01  1.0575171142E+00  1.1168326821E+00
    16  -1.5294726913E-01  1.1371433709E+00  -1.1871179463E+00
    17  3.6258148764E-01  -4.7817339862E-01  -3.0514326196E-02
    18  -4.3344265698E-01  -1.5668151381E-01  5.5650002969E-02
    19  -3.6258067826E-01  4.7817335366E-01  3.0514865667E-02
    20  4.3344268817E-01  1.5668106195E-01  -5.5650057758E-02
    21  7.3267364103E-01  -1.3509880239E+00  -2.5293710475E-01
    22  -7.1474598728E-01  -1.4486319726E+00  3.4989659476E-01
    23  -7.3267423152E-01  1.3509883693E+00  2.5293669030E-01
    24  7.1474596915E-01  1.4486322085E+00  -3.4989680251E-01
    25  9.2402899312E-01  6.8853783973E-02  7.5901403846E-01
    26  -7.3277510285E-01  -2.7977176856E-01  -6.7988889386E-01
    27  -9.2403216689E-01  -6.8854001844E-02  -7.5901630801E-01
    28  7.3277581913E-01  2.7977246327E-01  6.7988840012E-01
    29  4.9535968288E-01  2.5528726394E-01  5.5387257709E-01
    30  -4.5143161755E-01  3.3506347064E-01  -5.8687358712E-01
    31  -4.9535946239E-01  -2.5528730542E-01  -5.5387272660E-01
    32  4.5143093934E-01  -3.3506369389E-01  5.8687321990E-01
    33  2.4110590918E-01  1.1848402967E+00  1.0575861626E+00
    34  -2.2690916949E-01  1.2391803647E+00  -1.0401208040E+00
    35  -2.4110555109E-01  -1.1848405511E+00  -1.0575857902E+00
    36  2.2690950704E-01  -1.2391807220E+00  1.0401206674E+00
    37  -6.7099268637E-01  3.8203479251E-01  -2.6002625625E-01
    38  7.0030516441E-01  4.4712623845E-01  2.2058227072E-01
    39  6.7099278377E-01  -3.8203508087E-01  2.6002632121E-01
    40  -7.0030509957E-01  -4.4712666552E-01  -2.2058176361E-01
    41  -9.9496990592E-01  1.3030107594E+00  9.2501073603E-02
    42  1.0054290332E+00  1.3203004321E+00  -9.1353598164E-02
    43  9.9496978426E-01  -1.3030105027E+00  -9.2500844467E-02
    44  -1.0054286919E+00  -1.3203000718E+00  9.1353765181E-02
    45  1.5625654885E+00  2.1753924512E-01  1.7122219322E+00
    46  -5.3328827690E+00  -1.8561311551E+00  -3.7215814621E+00
    47  -1.5625031230E+00  -2.1753164829E-01  -1.7121410326E+00
    48  5.3328917343E+00  1.8561479139E+00  3.7215364678E+00
    49  -3.4300136176E+00  2.6441658333E-01  -1.8269620945E-01
    50  5.8435614408E+00  3.2561827015E+00  -4.0193451470E+00
    51  3.4299342405E+00  -2.6440030101E-01  1.8266340453E-01
    52  -5.8436256430E+00  -3.2562249597E+00  4.0194395591E+00
    53  4.5386196810E-01  -7.7467776890E-01  -7.0692824320E-01
    54  1.0209124081E+00  2.2107011162E-01  -2.4942952901E-01
    55  -4.5382815100E-01  7.7467438060E-01  7.0690006376E-01
    56  -1.0208933310E+00  -2.2107756384E-01  2.4941687152E-01
    57  1.6123852585E+00  -2.6277663112E-01  1.5405820766E+00
    58  4.4247550287E-01  2.4213049971E-01  1.3873712967E+00
    59  -1.6123717170E+00  2.6277333758E-01  -1.5405703639E+00
    60  -4.4248306306E-01  -2.4213097597E-01  -1.3873780059E+00
    61  4.6008384661E-01  8.7503699656E-01  -4.4199042951E-01
    62  -6.1215724968E+00  -4.9765804686E+00  4.7071216693E+00
    63  -4.6004921329E-01  -8.7504747006E-01  4.4196086122E-01
    64  6.1216239068E+00  4.9766170789E+00  -4.7071532998E+00
    65  -9.5677539488E-01  -5.2004566115E-02  -3.3694672329E-01
    66  5.0871445906E+00  2.5603009022E+00  -7.9026395353E-01
    67  9.5674780950E-01  5.2005075908E-02  3.3693029555E-01
    68  -5.0871515469E+00  -2.5603094523E+00  7.9026995285E-01
    69  -6.9015007664E-01  -7.4616205786E-01  6.1997770920E-01
    70  6.7274933638E-01  -4.7440227068E-01  -8.6118029644E-01
    71  6.9015913753E-01  7.4618312647E-01  -6.1997317099E-01
    72  -6.7274885354E-01  4.7440196785E-01  8.6117971236E-01
    73  7.0422925704E-01  9.4521373802E-02  -1.5058748461E+00
    74  -1.0889327501E+00  -1.4920579908E-01  2.3176021223E+00
    75  -7.0423138279E-01  -9.4514366314E-02  1.5058903724E+00
    76  1.0889325465E+00  1.4920933316E-01  -2.3176075747E+00
    77  1.2594827431E+00  -3.8092646869E-01  6.9692744486E-01
    78  -1.4291742525E+00  -4.9750396121E-01  -8.8583725581E-01
    79  -1.2594857595E+00  3.8092624128E-01  -6.9693048488E-01
    80  1.4291754425E+00  4.9750426076E-01  8.8583733010E-01
    81  -1.7393106073E+00  1.5182618118E+00  -8.0549374195E-01
    82  1.5773351935E+00  2.0309216994E+00  1.1649092171E+00
    83  1.7392575353E+00  -1.5182171500E+00  8.0547324991E-01
    84  -1.5773360501E+00  -2.0309224287E+00  -1.1649129723E+00
    85  1.6021394133E+00  1.3016660654E-01  7.8369217276E-01
    86  -1.6143951992E+00  1.8412869512E-01  -6.6985553830E-01
    87  -1.6021383205E+00  -1.3016741854E-01  -7.8369132930E-01
    88  1.6143945730E+00  -1.8412862586E-01  6.6985542087E-01
    89  3.8476687930E-01  -4.6058309945E-01  -1.2821267978E+00
    90  -4.3379236623E-01  -3.7816822984E-01  1.4298942795E+00
    91  -3.8476539652E-01  4.6056825199E-01  1.2821323537E+00
    92  4.3379166330E-01  3.7817082866E-01  -1.4298907336E+00
    93  -2.1519144113E-01  -4.6802073190E-01  6.5994743881E-01
    94  1.9381586071E-01  -2.2667161498E-01  -5.9893367356E-01
    95  2.1520377007E-01  4.6795624445E-01  -6.5993449639E-01
    96  -1.9381631574E-01  2.2667162863E-01  5.9893548157E-01
  Stress tensor (eV/A^3):
  6.6653635857E-02  -1.3465038742E-02  3.9443413039E-02
  -1.3465038742E-02  5.6152274511E-02  1.0882749804E-02
  3.9443413039E-02  1.0882749804E-02  5.4749007161E-02
