  Invoking FHI-aims ...
  | Number of atoms                   :  96
  ...scf iterations...
  | Total energy corrected        :   -6.452895984487E+01 eV
  ...
  Total atomic forces (unitary forces cleaned)
     1  -2.0728202041E-01  5.9197309684E-01  2.0459141843E-01
     2  2.0615421898E-01  5.8989436809E-01  -2.0537007969E-01
     3  2.0728215410E-01  -5.9197300821E-01  -2.0459133517E-01
     4  -2.0615410813E-01  -5.8989412617E-01  2.0537013381E-01
     5  -8.1927253444E-01  1.1720962778E+00  5.3165539262E-02
     6  8.1570007407E-01  1.1401644180E+00  -1.7502036994E-02
     7  8.1927260244E-01  -1.1720961557E+00  -5.3165384786E-02
     8  -8.1570043164E-01  -1.1401645245E+00  1.7502343280E-02
     9  -1.7249153839E-01  1.6860394449E-01  -8.6287294457E-02
    10  1.3688414673E-01  1.3001280689E-01  8.9696689329E-02
    11  1.7249134120E-01  -1.6860347113E-01  8.6287117058E-02
    12  -1.3688454493E-01  -1.3001311905E-01  -8.9696519287E-02
    13  -3.6518718335E-01  -8.5258862278E-01  -8.6778181696E-01
    14  4.0115992411E-01  -8.1341233508E-01  8.6402955724E-01
    15  3.6518667932E-01  8.5258858091E-01  8.6778151775E-01
    16  -4.0116006885E-01  8.1341271123E-01  -8.6402883900E-01
    17  2.4497697561E+00  -3.6680482119E+00  -3.3373742434E-01
    18  -2.4611866607E+00  -3.6392581827E+00  2.9575016948E-01
    19  -2.4497735918E+00  3.6680556333E+00  3.3373758685E-01
    20  2.4611866844E+00  3.6392591687E+00  -2.9575124821E-01
    21  -1.5572442198E+00  2.0788900077E+00  3.8942869805E-02
    22  1.5571626463E+00  2.0808427971E+00  -4.1358018799E-02
    23  1.5572484848E+00  -2.0788969878E+00  -3.8943172545E-02
    24  -1.5571629613E+00  -2.0808437158E+00  4.1358432604E-02
    25  4.3349149775E-01  -4.5301099343E-03  4.0167876933E-01
    26  -4.2169576299E-01  -3.4430267399E-02  -3.6277064292E-01
    27  -4.3349152975E-01  4.5298911470E-03  -4.0167887885E-01
    28  4.2169643465E-01  3.4430308444E-02  3.6277048213E-01
    29  9.8876780173E-01  2.9903769543E+00  2.9673896001E+00
    30  -9.8915619181E-01  2.9890404799E+00  -2.9665747781E+00
    31  -9.8876886127E-01  -2.9903799852E+00  -2.9673911448E+00
    32  9.8915793520E-01  -2.9890435954E+00  2.9665763555E+00
    33  -5.5033084336E-01  -1.6938279744E+00  -1.7037128614E+00
    34  5.5004193628E-01  -1.6947410790E+00  1.7034400465E+00
    35  5.5033181199E-01  1.6938306280E+00  1.7037147120E+00
    36  -5.5004347112E-01  1.6947439164E+00  -1.7034419636E+00
    37  -2.6098256855E+00  3.5009066864E+00  2.3598551467E-01
    38  2.6090434861E+00  3.4990960209E+00  -2.3531724225E-01
    39  2.6098246031E+00  -3.5009053462E+00  -2.3598452811E-01
    40  -2.6090417448E+00  -3.4990936906E+00  2.3531785798E-01
    41  1.3417577843E+00  -1.9290112927E+00  -2.4071477957E-01
    42  -1.3417973994E+00  -1.9287084453E+00  2.4095943189E-01
    43  -1.3417566923E+00  1.9290097399E+00  2.4071408457E-01
    44  1.3417958860E+00  1.9287062782E+00  -2.4095957817E-01
    45  -9.3788872566E-01  1.0048134888E-01  -5.8386274251E-01
    46  9.1196099241E-01  4.8459367949E-02  5.9846906957E-01
    47  9.3788469407E-01  -1.0048100880E-01  5.8386096674E-01
    48  -9.1196128341E-01  -4.8459303339E-02  -5.9846900164E-01
    49  -1.7545998835E+01  9.7626544955E+00  1.0807361769E+01
    50  1.6737950784E+01  5.9007147100E+00  -1.0742551614E+01
    51  1.7545914584E+01  -9.7625480159E+00  -1.0807330652E+01
    52  -1.6737960837E+01  -5.9007093579E+00  1.0742555028E+01
    53  1.4261904193E+01  8.0524180833E+00  -6.8522080096E+00
    54  -1.4272012056E+01  8.0724572857E+00  6.8620580773E+00
    55  -1.4261817474E+01  -8.0524074911E+00  6.8521652182E+00
    56  1.4272017994E+01  -8.0724620262E+00  -6.8620694199E+00
    57  -1.1237325744E+00  1.8730560509E-01  -8.9722798613E-01
    58  1.1067061925E+00  1.9312983093E-01  8.9269985891E-01
    59  1.1237362773E+00  -1.8730568514E-01  8.9723114832E-01
    60  -1.1067006644E+00  -1.9312889684E-01  -8.9269459488E-01
    61  3.8684676671E+00  -1.7182833633E+01  -6.0285072989E-01
    62  -3.0294640769E+00  -1.3354286819E+01  5.1428408843E-01
    63  -3.8684731700E+00  1.7182720438E+01  6.0286228820E-01
    64  3.0294637536E+00  1.3354284866E+01  -5.1428127422E-01
    65  -4.7003569727E+00  -1.5291857887E+01  -6.0015851190E+00
    66  4.3687602639E+00  -1.5467422904E+01  7.0565497909E+00
    67  4.7003140426E+00  1.5291794469E+01  6.0015675704E+00
    68  -4.3687632161E+00  1.5467413989E+01  -7.0565414991E+00
    69  9.6222363937E+00  8.2686949344E+00  -4.1993048895E+00
    70  -9.6331655618E+00  8.2713126773E+00  4.2034536949E+00
    71  -9.6221887629E+00  -8.2686723707E+00  4.1992743276E+00
    72  9.6331574838E+00  -8.2713050225E+00  -4.2034567436E+00
    73  -3.0110497616E+00  4.4663428495E+00  1.1217535760E+01
    74  3.3240934511E+00  4.7256284401E+00  -1.2304996665E+01
    75  3.0110466369E+00  -4.4663068613E+00  -1.1217483681E+01
    76  -3.3240839115E+00  -4.7256275006E+00  1.2304989679E+01
    77  -9.9997007656E-01  2.9127927880E-02  -8.1249052496E-01
    78  1.0495473178E+00  8.1418976011E-03  8.5038678175E-01
    79  9.9996748753E-01  -2.9128026564E-02  8.1248892404E-01
    80  -1.0495463032E+00  -8.1419171781E-03  -8.5038509816E-01
    81  9.4538367743E-01  1.3634988061E+01  -1.5323595347E+01
    82  -9.4452303027E-01  1.3632089936E+01  1.5322035776E+01
    83  -9.4537863370E-01  -1.3634952452E+01  1.5323484091E+01
    84  9.4452605115E-01  -1.3632074841E+01  -1.5322062533E+01
    85  -1.0350269329E+00  4.2282769645E-02  -6.4843588437E-01
    86  1.0361299575E+00  4.2163676959E-02  6.4723184842E-01
    87  1.0350279644E+00  -4.2282622984E-02  6.4843612512E-01
    88  -1.0361291446E+00  -4.2163904496E-02  -6.4723068174E-01
    89  -2.6915132608E+00  3.9238252730E+00  1.4067191490E+01
    90  2.6922854732E+00  3.9232554676E+00  -1.4068176286E+01
    91  2.6915003941E+00  -3.9237803580E+00  -1.4067112266E+01
    92  -2.6922863922E+00  -3.9232662119E+00  1.4068194426E+01
    93  4.6005882430E+00  -1.6132435696E+01  7.7466790153E-01
    94  -4.5998792836E+00  -1.6132246811E+01  -7.7621762235E-01
    95  -4.6005768373E+00  1.6132355272E+01  -7.7464011241E-01
    96  4.5998759644E+00  1.6132243485E+01  7.7622461711E-01
  Stress tensor (eV/A^3):
  -6.2576305403E-02  1.5189118741E-03  7.3651485893E-02
  1.5189118741E-03  -1.4998096458E-01  4.7532455701E-04
  7.3651485893E-02  4.7532455701E-04  -8.4452278706E-02
