  Invoking FHI-aims ...
  | Number of atoms                   :  96
  ...scf iterations...
  | Total energy corrected        :   -8.016576776097E+01 eV
  ...
  Total atomic forces (unitary forces cleaned)
     1  -2.2305456221E-01  5.9167996011E-01  1.8733899045E-01
     2  2.0754860237E-01  5.7503239953E-01  -1.9431138875E-01
     3  2.2305470037E-01  -5.9167987363E-01  -1.8733890453E-01
     4  -2.0754847386E-01  -5.7503214905E-01  1.9431144472E-01
     5  -8.2629880779E-01  1.2582636299E+00  1.2574960535E-01
     6  8.2014414879E-01  1.2421769329E+00  -8.9309115111E-02
     7  8.2629888909E-01  -1.2582634992E+00  -1.2574943695E-01
     8  -8.2014451639E-01  -1.2421770426E+00  8.9309422174E-02
     9  -2.4234031888E-01  1.7733704623E-01  -1.3940251215E-01
    10  2.2048585043E-01  1.5205004459E-01  1.3959558514E-01
    11  2.4234009431E-01  -1.7733656104E-01  1.3940231777E-01
    12  -2.2048627477E-01  -1.5205042828E-01  -1.3959533395E-01
    13  -4.3114914760E-01  -9.0327168548E-01  -9.5785112952E-01
    14  4.6034437833E-01  -8.7792502873E-01  9.6468107241E-01
    15  4.3114865523E-01  9.0327168815E-01  9.5785085776E-01
    16  -4.6034450414E-01  8.7792546443E-01  -9.6468028610E-01
    17  8.2235785498E-01  -1.2037132341E+00  -1.1609526534E-01
    18  -8.5035125484E-01  -1.1975198315E+00  8.6452182700E-02
    19  -8.2235749771E-01  1.2037139860E+00  1.1609562588E-01
    20  8.5035109216E-01  1.1975198823E+00  -8.6452780128E-02
    21  1.1030516033E-01  -4.5106523402E-01  -1.8073277163E-01
    22  -9.8801045893E-02  -4.3260489808E-01  1.7694560755E-01
    23  -1.1030510361E-01  4.5106500307E-01  1.8073230176E-01
    24  9.8800864680E-02  4.3260495852E-01  -1.7694578546E-01
    25  6.0431409630E-01  -6.2742291822E-03  5.3925172196E-01
    26  -5.9434867293E-01  -3.4111116303E-02  -5.1117790440E-01
    27  -6.0431408217E-01  6.2738859380E-03  -5.3925188004E-01
    28  5.9434949242E-01  3.4111189921E-02  5.1117770178E-01
    29  5.1993897243E-01  9.1438926106E-01  1.0744498228E+00
    30  -5.1704928146E-01  9.1727162022E-01  -1.0733132421E+00
    31  -5.1993908560E-01  -9.1438957279E-01  -1.0744498321E+00
    32  5.1704936738E-01  -9.1727195946E-01  1.0733130601E+00
    33  -2.3345615360E-03  4.2393460906E-01  2.8845110335E-01
    34  3.0127125380E-03  4.2484128380E-01  -2.8652392568E-01
    35  2.3346073697E-03  -4.2393469951E-01  -2.8845075114E-01
    36  -3.0126263501E-03  -4.2484127022E-01  2.8652369678E-01
    37  -1.0441808452E+00  1.1825788148E+00  -6.1848437845E-02
    38  1.0423650448E+00  1.1846996940E+00  5.9046676127E-02
    39  1.0441808167E+00  -1.1825789097E+00  6.1848630971E-02
    40  -1.0423648557E+00  -1.1846995028E+00  -5.9046282278E-02
    41  -3.3559615373E-01  4.5399129304E-01  5.1277386708E-03
    42  3.3465323732E-01  4.5306897771E-01  -5.1955160897E-03
    43  3.3559622108E-01  -4.5399143051E-01  -5.1276185803E-03
    44  -3.3465323835E-01  -4.5306900129E-01  5.1956168093E-03
    45  -1.3974039048E+00  1.4703048832E-01  -9.1870675483E-01
    46  1.3751922735E+00  1.0550082347E-01  8.6872551252E-01
    47  1.3973989703E+00  -1.4702982736E-01  9.1870460162E-01
    48  -1.3751927182E+00  -1.0550077678E-01  -8.6872518632E-01
    49  -2.7481325328E+00  1.9978280380E+00  3.7380504192E+00
    50  4.4828163171E+00  1.0473358968E+01  -4.7879354792E+00
    51  2.7480959740E+00  -1.9977917841E+00  -3.7380353841E+00
    52  -4.4828176361E+00  -1.0473351781E+01  4.7879353998E+00
    53  1.3623505014E+00  5.5966896240E-01  -8.4387656301E-01
    54  -1.1943408510E+00  5.1008231769E-01  7.8058907659E-01
    55  -1.3623248229E+00  -5.5966040754E-01  8.4386325561E-01
    56  1.1943451571E+00  -5.1008474925E-01  -7.8059186052E-01
    57  2.5997722408E-01  -7.7289882541E-02  1.7592670688E-01
    58  1.3729334920E-01  1.3469896369E-02  2.0610855810E-01
    59  -2.5997288816E-01  7.7288578641E-02  -1.7592241868E-01
    60  -1.3729381887E-01  -1.3470284661E-02  -2.0610853894E-01
    61  5.1842707828E-01  -1.5212439518E+00  -1.9833572689E-01
    62  -2.8185239795E+00  -1.0030708087E+01  9.9459305337E-01
    63  -5.1841979388E-01  1.5212048187E+00  1.9833314275E-01
    64  2.8185227366E+00  1.0030703327E+01  -9.9459015519E-01
    65  5.8833506146E-01  -3.6946170551E+00  3.2664605747E-04
    66  -9.8011126730E-02  -3.2671225400E+00  -1.2135816377E+00
    67  -5.8834556588E-01  3.6946017727E+00  -3.2969411338E-04
    68  9.8012680194E-02  3.2671200636E+00  1.2135829901E+00
    69  3.4796148073E-01  5.3425898560E-01  -3.5169964553E-02
    70  -5.0952361947E-01  6.7663790503E-01  9.8747972380E-02
    71  -3.4795391216E-01  -5.3425241937E-01  3.5166355188E-02
    72  5.0952234488E-01  -6.7663651288E-01  -9.8747809800E-02
    73  1.1076723965E-01  2.7399209019E-01  2.9633281346E-01
    74  -4.3172680755E-01  -2.5283414604E-01  8.3606284412E-01
    75  -1.1076808589E-01  -2.7398851400E-01  -2.9632514046E-01
    76  4.3172649025E-01  2.5283488552E-01  -8.3606408001E-01
    77  6.2679268434E-03  -4.3103395750E-02  -3.3298785065E-02
    78  3.3778085989E-03  -4.8227158573E-02  3.6768453554E-02
    79  -6.2652003656E-03  4.3102586042E-02  3.3300568129E-02
    80  -3.3782818120E-03  4.8227049301E-02  -3.6768796282E-02
    81  1.9379590475E+00  3.2402557780E+00  -2.3101870278E+00
    82  -1.9390547742E+00  3.2349687765E+00  2.3110176132E+00
    83  -1.9379595949E+00  -3.2402358341E+00  2.3101566718E+00
    84  1.9390565826E+00  -3.2349629608E+00  -2.3110254035E+00
    85  9.2666505170E-02  -3.4690500796E-02  7.4284950218E-02
    86  -9.1337300496E-02  -3.6051589748E-02  -7.3701607284E-02
    87  -9.2661811071E-02  3.4690658268E-02  -7.4282359861E-02
    88  9.1337299813E-02  3.6051398911E-02  7.3701933169E-02
    89  -1.7996622465E-01  -1.6332708306E-02  7.1096326450E-01
    90  1.8016388019E-01  -1.6523110995E-02  -7.1309745118E-01
    91  1.7996254325E-01  1.6337855885E-02  -7.1094506225E-01
    92  -1.8016514148E-01  1.6521586951E-02  7.1310357623E-01
    93  2.8563192730E-01  -1.4944762577E+00  2.3529743639E-01
    94  -2.8585274951E-01  -1.4938392422E+00  -2.3673035133E-01
    95  -2.8562699017E-01  1.4944513402E+00  -2.3529239689E-01
    96  2.8585178389E-01  1.4938360597E+00  2.3673113772E-01
  Stress tensor (eV/A^3):
  5.1052029272E-02  -4.7472762659E-03  2.5754520869E-02
  -4.7472762659E-03  3.0794158605E-02  3.9294339087E-04
  2.5754520869E-02  3.9294339087E-04  5.2733115678E-02
