  Invoking FHI-aims ...
  | Number of atoms                   :  96
  ...scf iterations...
  | Total energy corrected        :   -9.492150590863E+01 eV
  ...
  Total atomic forces (unitary forces cleaned)
     1  -3.0093200466E-01  6.1814689158E-01  1.9853431596E-01
     2  2.2920745496E-01  5.7564962514E-01  -1.9261218200E-01
     3  3.0093208396E-01  -6.1814679548E-01  -1.9853424092E-01
     4  -2.2920731349E-01  -5.7564938746E-01  1.9261223834E-01
     5  -7.4333062849E-01  1.2187394672E+00  -5.1719643725E-02
     6  1.0256863174E+00  -1.7330339529E+00  2.4536026828E+00
     7  7.4333090497E-01  -1.2187393219E+00  5.1719982437E-02
     8  -1.0256866531E+00  1.7330338333E+00  -2.4536023924E+00
     9  -4.4447434127E-01  3.2163876208E-01  -2.0836803102E-01
    10  9.1175561692E-02  -4.1220625798E-01  1.9916554751E-01
    11  4.4447395687E-01  -3.2163840800E-01  2.0836772454E-01
    12  -9.1174145724E-02  4.1220773661E-01  -1.9916540072E-01
    13  -5.6156869222E-01  -1.0585625281E+00  -1.1625127813E+00
    14  8.6027436720E-01  -4.2268566421E-01  1.2166411726E+00
    15  5.6156807427E-01  1.0585626724E+00  1.1625124674E+00
    16  -8.6027630092E-01  4.2268431381E-01  -1.2166402251E+00
    17  4.0282773337E-01  -5.3755919525E-01  -3.7929707140E-02
    18  -8.1280683469E-01  3.5099005416E-01  -7.2183454029E-01
    19  -4.0282670870E-01  5.3755903720E-01  3.7930329279E-02
    20  8.1280738611E-01  -3.5099087384E-01  7.2183483477E-01
    21  7.2139079969E-01  -1.3367996480E+00  -2.5178518922E-01
    22  -6.9683711488E-01  -1.4070351566E+00  3.5724215021E-01
    23  -7.2139143285E-01  1.3368002851E+00  2.5178461004E-01
    24  6.9683687341E-01  1.4070353477E+00  -3.5724243913E-01
    25  1.0514629833E+00  4.1688202575E-02  9.0041059130E-01
    26  -6.1912723408E-01  -9.2975545982E-01  -7.5127236280E-02
    27  -1.0514634425E+00  -4.1688777835E-02  -9.0041126043E-01
    28  6.1912773811E-01  9.2975654793E-01  7.5126169529E-02
    29  5.0556002852E-01  2.7264697873E-01  5.9131730424E-01
    30  -4.4491802148E-01  3.6921976250E-01  -6.2305566046E-01
    31  -5.0555989168E-01  -2.7264685230E-01  -5.9131722614E-01
    32  4.4491753954E-01  -3.6921985952E-01  6.2305524937E-01
    33  2.1989937207E-01  1.1619639468E+00  1.0342875165E+00
    34  -1.6616993743E-01  1.2446126513E+00  -9.6639303217E-01
    35  -2.1989942937E-01  -1.1619644091E+00  -1.0342873508E+00
    36  1.6617030720E-01  -1.2446131521E+00  9.6639287362E-01
    37  -6.9932742469E-01  4.2790650570E-01  -2.8798935399E-01
    38  7.3400913972E-01  5.1324933682E-01  2.3211440278E-01
    39  6.9932748861E-01  -4.2790677286E-01  2.8798929777E-01
    40  -7.3400922293E-01  -5.1324959938E-01  -2.3211398452E-01
    41  -9.6192052239E-01  1.2986322134E+00  8.4743633913E-02
    42  9.7715669018E-01  1.3222354696E+00  -8.4980566942E-02
    43  9.6192043262E-01  -1.2986321000E+00  -8.4743311234E-02
    44  -9.7715640712E-01  -1.3222351288E+00  8.4980798590E-02
    45  -1.0013534295E+00  1.2836669473E-01  -5.6430404827E-01
    46  -2.2041914368E+00  -4.1581660333E+00  -8.3011290132E-01
    47  1.0013746356E+00  -1.2836364384E-01  5.6431958341E-01
    48  2.2041905684E+00  4.1581667515E+00  8.3010908082E-01
    49  -2.8530600243E-01  1.9146502156E-01  6.8050365966E-01
    50  6.3882857012E-01  5.2296800148E+00  -4.1555217334E+00
    51  2.8529353111E-01  -1.9145985494E-01  -6.8051301336E-01
    52  -6.3882794909E-01  -5.2296810386E+00  4.1555230311E+00
    53  -1.4502252719E+00  -1.1169513691E+00  6.2019535110E-01
    54  1.6042935612E+00  -2.0328722199E+00  -1.0024576652E+00
    55  1.4502319073E+00  1.1169546599E+00  -6.2019944725E-01
    56  -1.6042914725E+00  2.0328708936E+00  1.0024579946E+00
    57  1.2235810414E+00  -2.0167835264E-01  1.1735969733E+00
    58  1.5812774887E+00  -1.1652842509E-01  2.0179451570E+00
    59  -1.2235815609E+00  2.0167711641E-01  -1.1735973509E+00
    60  -1.5812788567E+00  1.1652808158E-01  -2.0179437739E+00
    61  -4.1164672149E-01  1.8651904482E+00  2.2267471818E-01
    62  -3.0483994511E+00  -2.7508820128E+00  1.6991122690E+00
    63  4.1165606449E-01  -1.8651992601E+00  -2.2268106862E-01
    64  3.0483985995E+00  2.7508824895E+00  -1.6991107287E+00
    65  3.9030304195E-01  -3.4711921082E-01  3.4417797892E-01
    66  3.5871676676E+00  4.7435790171E+00  -1.2661411488E+00
    67  -3.9031188673E-01  3.4712763226E-01  -3.4418033830E-01
    68  -3.5871660474E+00  -4.7435791558E+00  1.2661415565E+00
    69  -1.4298849673E+00  -1.4203983205E+00  7.5664804028E-01
    70  1.1703375630E+00  -8.3387153421E-01  -6.6673687122E-01
    71  1.4298868104E+00  1.4204033878E+00  -7.5664660294E-01
    72  -1.1703376710E+00  8.3387198222E-01  6.6673734226E-01
    73  8.2101958293E-01  -6.5527040594E-01  -2.0248599105E+00
    74  -1.0314877472E+00  -1.5778541134E+00  2.9832583785E+00
    75  -8.2102083258E-01  6.5526959164E-01  2.0248632892E+00
    76  1.0314857885E+00  1.5778549066E+00  -2.9832585555E+00
    77  1.1960473324E+00  -3.5189415336E-01  7.9451481361E-01
    78  -1.5817324510E+00  -6.4257567855E-01  -1.1055624287E+00
    79  -1.1960476345E+00  3.5189323418E-01  -7.9451606086E-01
    80  1.5817330478E+00  6.4257588954E-01  1.1055616485E+00
    81  4.8672319506E-01  5.0051495638E-01  -6.2427440720E-03
    82  -2.9785986113E-01  4.8674525574E-01  5.8563037406E-02
    83  -4.8673772625E-01  -5.0051631952E-01  6.2392612982E-03
    84  2.9786102386E-01  -4.8674516099E-01  -5.8565108119E-02
    85  1.3950036848E+00  4.5560060572E-02  6.8577684030E-01
    86  -1.4033902803E+00  6.0079563388E-02  -5.7181311529E-01
    87  -1.3950048930E+00  -4.5560130633E-02  -6.8577744719E-01
    88  1.4033900132E+00  -6.0079623526E-02  5.7181302091E-01
    89  4.8214026453E-01  -4.6586934043E-01  -2.0514685769E+00
    90  -5.0498417641E-01  -4.2752625785E-01  2.1217703505E+00
    91  -4.8214168815E-01  4.6586529369E-01  2.0514752474E+00
    92  5.0498329158E-01  4.2752736436E-01  -2.1217685465E+00
    93  -5.4557783213E-01  1.7453461474E+00  8.2026369824E-02
    94  4.9992098307E-01  1.8546242096E+00  -2.3485873254E-02
    95  5.4558011811E-01  -1.7453542959E+00  -8.2025775636E-02
    96  -4.9992105840E-01  -1.8546250925E+00  2.3485703647E-02
  Stress tensor (eV/A^3):
  8.7442063125E-02  -1.1498004606E-02  2.2310745722E-02
  -1.1498004606E-02  8.3574757189E-02  7.3564881826E-03
  2.2310745722E-02  7.3564881826E-03  8.4485845246E-02
