  Invoking FHI-aims ...
  | Number of atoms                   :  96
  ...scf iterations...
  | Total energy corrected        :   -9.575221125210E+01 eV
  ...
  Total atomic forces (unitary forces cleaned)
     1  -3.0469116808E-01  6.1962254043E-01  2.0101267585E-01
     2  2.2859777396E-01  5.8730893193E-01  -1.8726300222E-01
     3  3.0469124350E-01  -6.1962244209E-01  -2.0101260115E-01
     4  -2.2859762633E-01  -5.8730870602E-01  1.8726304463E-01
     5  -7.3334060207E-01  8.9751851767E-01  -2.4463635081E-01
     6  1.0868849362E+00  -2.0054326932E+00  2.8352381874E+00
     7  7.3334088993E-01  -8.9751837179E-01  2.4463669874E-01
     8  -1.0868852863E+00  2.0054325788E+00  -2.8352379018E+00
     9  -4.5527467192E-01  3.3734312902E-01  -2.0786094400E-01
    10  -4.9424759348E-01  -9.4828859791E-01  2.0344578540E-01
    11  4.5527427982E-01  -3.3734277696E-01  2.0786063250E-01
    12  4.9424933272E-01  9.4829035307E-01  -2.0344577414E-01
    13  -5.6610847749E-01  -1.0680762212E+00  -1.1733462559E+00
    14  1.4522302502E+00  1.0445262172E-01  1.2304016640E+00
    15  5.6610785296E-01  1.0680763712E+00  1.1733459386E+00
    16  -1.4522325439E+00  -1.0445424613E-01  -1.2304005937E+00
    17  4.4908020787E-01  -6.0522147191E-01  -4.3324067445E-02
    18  -1.0805372469E+00  5.6901063420E-01  -1.2093530867E+00
    19  -4.4907921689E-01  6.0522138510E-01  4.3324687280E-02
    20  1.0805381137E+00  -5.6901157156E-01  1.2093534223E+00
    21  6.9005511583E-01  -1.2874585227E+00  -2.4775311221E-01
    22  -6.4517349181E-01  -1.3335188909E+00  3.6385408404E-01
    23  -6.9005570305E-01  1.2874590946E+00  2.4775254167E-01
    24  6.4517322476E-01  1.3335190205E+00  -3.6385434071E-01
    25  1.0722776150E+00  4.7120878827E-02  9.2042841408E-01
    26  -4.4262426001E-01  -1.2672581148E+00  3.9564316459E-01
    27  -1.0722781619E+00  -4.7121458965E-02  -9.2042915684E-01
    28  4.4262455150E-01  1.2672593697E+00  -3.9564430709E-01
    29  5.2608591618E-01  3.2431107046E-01  6.4546723403E-01
    30  -4.4950808881E-01  4.3501618251E-01  -6.7868389004E-01
    31  -5.2608579029E-01  -3.2431096627E-01  -6.4546715266E-01
    32  4.4950762792E-01  -4.3501632621E-01  6.7868349081E-01
    33  2.1464120008E-01  1.1074280897E+00  9.8823051160E-01
    34  -1.4646605211E-01  1.2104598027E+00  -9.1946849136E-01
    35  -2.1464125891E-01  -1.1074285187E+00  -9.8823034045E-01
    36  1.4646638321E-01  -1.2104602842E+00  9.1946831905E-01
    37  -7.4865413316E-01  4.8208272051E-01  -2.9167689598E-01
    38  7.8235735588E-01  5.8030578724E-01  2.2084055548E-01
    39  7.4865417341E-01  -4.8208296014E-01  2.9167684892E-01
    40  -7.8235741827E-01  -5.8030602965E-01  -2.2084012254E-01
    41  -9.2613474351E-01  1.2476608026E+00  7.7962723224E-02
    42  9.4536974379E-01  1.2769635807E+00  -7.9949796352E-02
    43  9.2613466912E-01  -1.2476607126E+00  -7.7962414548E-02
    44  -9.4536947955E-01  -1.2769632674E+00  7.9950024753E-02
    45  -9.4582894830E-01  1.3724689643E-01  -5.1970237490E-01
    46  -2.2432057337E+00  -3.6905806769E+00  -1.2268033677E+00
    47  9.4584957180E-01  -1.3724381112E-01  5.1971768985E-01
    48  2.2432050597E+00  3.6905815936E+00  1.2267994914E+00
    49  -3.4471193639E-01  2.4448274170E-01  8.2696802190E-01
    50  5.7339230907E-01  4.8974267917E+00  -3.9268829664E+00
    51  3.4470170098E-01  -2.4447802745E-01  -8.2697613322E-01
    52  -5.7339174137E-01  -4.8974280185E+00  3.9268835725E+00
    53  -1.3553957282E+00  -1.0814302441E+00  5.5638984516E-01
    54  1.5177053195E+00  -2.0992259219E+00  -9.9806401451E-01
    55  1.3554018466E+00  1.0814328981E+00  -5.5639371742E-01
    56  -1.5177034912E+00  2.0992246857E+00  9.9806454549E-01
    57  1.1403070985E+00  -1.9364517954E-01  1.0723556570E+00
    58  1.7181193220E+00  -1.6701002328E-01  2.1695662248E+00
    59  -1.1403088418E+00  1.9364410491E-01  -1.0723574516E+00
    60  -1.7181204310E+00  1.6700968259E-01  -2.1695643119E+00
    61  -3.5464806024E-01  1.7503440659E+00  1.6876762939E-01
    62  -3.0641408723E+00  -2.4791904460E+00  1.7077458951E+00
    63  3.5465694714E-01  -1.7503519496E+00  -1.6877373111E-01
    64  3.0641400355E+00  2.4791910512E+00  -1.7077444356E+00
    65  3.8399225551E-01  -5.3705782173E-01  2.6702736297E-01
    66  3.6782730931E+00  4.2710079428E+00  -1.3865940631E+00
    67  -3.8400024501E-01  5.3706484229E-01  -2.6702932396E-01
    68  -3.6782716025E+00  -4.2710083700E+00  1.3865947276E+00
    69  -1.3464055325E+00  -1.2852575624E+00  7.3557482358E-01
    70  1.0306889112E+00  -6.3904906451E-01  -6.3335475613E-01
    71  1.3464076998E+00  1.2852628699E+00  -7.3557356799E-01
    72  -1.0306889709E+00  6.3904950282E-01  6.3335509340E-01
    73  7.8145412995E-01  -5.7143409714E-01  -1.8845900059E+00
    74  -1.0253255684E+00  -1.6229455465E+00  3.0088676232E+00
    75  -7.8145534261E-01  5.7143379061E-01  1.8845938093E+00
    76  1.0253235826E+00  1.6229463986E+00  -3.0088678503E+00
    77  1.1304883332E+00  -3.2906629444E-01  7.5078715169E-01
    78  -1.5276690161E+00  -6.2159308576E-01  -1.0752345896E+00
    79  -1.1304895564E+00  3.2906565435E-01  -7.5078903489E-01
    80  1.5276696061E+00  6.2159331309E-01  1.0752338149E+00
    81  5.5517643890E-01  5.9786308142E-01  -1.3139171065E-01
    82  -3.6621782346E-01  6.2007596605E-01  1.9774718842E-01
    83  -5.5518869672E-01  -5.9786455489E-01  1.3138819057E-01
    84  3.6621887828E-01  -6.2007587762E-01  -1.9774918272E-01
    85  1.3029473470E+00  3.3956129429E-02  6.4810396332E-01
    86  -1.2990823550E+00  4.8116146755E-02  -5.1533354685E-01
    87  -1.3029500792E+00  -3.3956315170E-02  -6.4810521573E-01
    88  1.2990821100E+00  -4.8116228521E-02  5.1533349522E-01
    89  4.3930559035E-01  -4.7661154381E-01  -1.8923100157E+00
    90  -4.6403410486E-01  -4.3320407936E-01  1.9661100326E+00
    91  -4.3930716798E-01  4.7660759312E-01  1.8923171023E+00
    92  4.6403327663E-01  4.3320516337E-01  -1.9661083851E+00
    93  -5.2888457101E-01  1.6218802897E+00  1.0083987995E-01
    94  4.7465700305E-01  1.7392869200E+00  -3.4607042535E-02
    95  5.2888659396E-01  -1.6218879367E+00  -1.0083903379E-01
    96  -4.7465708636E-01  -1.7392877509E+00  3.4606947346E-02
  Stress tensor (eV/A^3):
  8.4465165768E-02  -1.1788999589E-02  2.2369491601E-02
  -1.1788999589E-02  8.0993900956E-02  8.3985240876E-03
  2.2369491601E-02  8.3985240876E-03  8.0611534467E-02
