  Invoking FHI-aims ...
  | Number of atoms                   :  96
  ...scf iterations...
  | Total energy corrected        :   -1.028724885992E+02 eV
  ...
  Total atomic forces (unitary forces cleaned)
     1  -3.1086487895E-01  6.1323925760E-01  1.8765710129E-01
     2  2.3975981871E-01  5.8486402088E-01  -1.8259167551E-01
     3  3.1086486326E-01  -6.1323913788E-01  -1.8765706321E-01
     4  -2.3975967125E-01  -5.8486392095E-01  1.8259174435E-01
     5  -7.8535668133E-01  8.7460946751E-01  -1.7844801011E-01
     6  1.1001177630E+00  -1.6803787449E+00  2.4732763631E+00
     7  7.8535738642E-01  -8.7460929432E-01  1.7844868639E-01
     8  -1.1001177346E+00  1.6803785912E+00  -2.4732760117E+00
     9  -4.8832389746E-01  3.2502743507E-01  -2.0371532621E-01
    10  -6.4354595762E-01  -1.0455159364E+00  1.9179943546E-01
    11  4.8832323064E-01  -3.2502765985E-01  2.0371469053E-01
    12  6.4354628871E-01  1.0455167747E+00  -1.9179978903E-01
    13  -5.7926514680E-01  -1.1139203033E+00  -1.1583533878E+00
    14  1.6317396917E+00  1.3893044842E-01  1.2250758453E+00
    15  5.7926436732E-01  1.1139205911E+00  1.1583530618E+00
    16  -1.6317406198E+00  -1.3893097208E-01  -1.2250752181E+00
    17  4.9330358392E-01  -6.5323017983E-01  -4.0936255664E-02
    18  -1.1943948290E+00  5.4573741424E-01  -1.2097353185E+00
    19  -4.9330290605E-01  6.5323038409E-01  4.0936841523E-02
    20  1.1943952773E+00  -5.4573788918E-01  1.2097353041E+00
    21  6.6478278597E-01  -1.2298547854E+00  -2.2647918906E-01
    22  -5.6123978518E-01  -1.2748356521E+00  3.7221797841E-01
    23  -6.6478325645E-01  1.2298549792E+00  2.2647883269E-01
    24  5.6123984031E-01  1.2748357128E+00  -3.7221802334E-01
    25  9.6313535788E-01  1.1246115299E-01  7.8657925999E-01
    26  -1.2032746267E-01  -1.2500677986E+00  6.5988639099E-01
    27  -9.6314066532E-01  -1.1246129059E-01  -7.8658282681E-01
    28  1.2032788662E-01  1.2500687742E+00  -6.5988686272E-01
    29  5.6090112158E-01  3.9774379235E-01  6.9305579497E-01
    30  -4.7102860653E-01  5.2259256023E-01  -7.3792193788E-01
    31  -5.6090086319E-01  -3.9774394966E-01  -6.9305601188E-01
    32  4.7102788171E-01  -5.2259297263E-01  7.3792165206E-01
    33  2.2254622155E-01  1.0761232645E+00  9.7034694514E-01
    34  -2.0707864905E-01  1.1559828065E+00  -9.6215547862E-01
    35  -2.2254580938E-01  -1.0761234481E+00  -9.7034661562E-01
    36  2.0707888743E-01  -1.1559830871E+00  9.6215536324E-01
    37  -8.2047877605E-01  5.0286107624E-01  -2.7600832493E-01
    38  8.4939026467E-01  6.0764068011E-01  1.9231319534E-01
    39  8.2047885961E-01  -5.0286127122E-01  2.7600849376E-01
    40  -8.4939013510E-01  -6.0764116967E-01  -1.9231263889E-01
    41  -9.2593565977E-01  1.1822291590E+00  7.5748657251E-02
    42  9.4983688893E-01  1.2175717836E+00  -8.0347714481E-02
    43  9.2593555721E-01  -1.1822288976E+00  -7.5748494368E-02
    44  -9.4983658205E-01  -1.2175715076E+00  8.0347856486E-02
    45  1.3868932616E+00  1.0046110824E-01  1.2693319603E+00
    46  -4.0482619529E+00  -4.5805660920E-01  -2.9612337220E+00
    47  -1.3868540279E+00  -1.0046039196E-01  -1.2693007323E+00
    48  4.0482656673E+00  4.5806267524E-01  2.9612176818E+00
    49  -1.5374099323E+00  -1.6014147448E-02  7.0702826958E-01
    50  7.6049770387E-02  -6.4700663321E-01  -3.1269540600E+00
    51  1.5373801876E+00  1.6016689558E-02  -7.0701843884E-01
    52  -7.6059310927E-02  6.4700276797E-01  3.1269814541E+00
    53  -2.6514281620E-01  -1.5467999940E+00  -3.9693323603E-01
    54  1.7761987839E+00  2.5691858184E+00  -8.4211745630E-01
    55  2.6514907468E-01  1.5467767416E+00  3.9692156092E-01
    56  -1.7761909718E+00  -2.5691940155E+00  8.4211088710E-01
    57  7.8655347255E-01  -1.2230708513E-01  5.0294598531E-01
    58  1.5995483786E+00  5.6408673878E-01  2.6156444984E+00
    59  -7.8655157305E-01  1.2230650656E-01  -5.0295127400E-01
    60  -1.5995532579E+00  -5.6408595613E-01  -2.6156484330E+00
    61  -1.0151553750E-01  1.6511238527E+00  3.2013547145E-02
    62  -1.5301611331E+00  -3.9581462419E+00  1.4180985723E+00
    63  1.0152920214E-01  -1.6511010667E+00  -3.2022882329E-02
    64  1.5301685606E+00  3.9581514982E+00  -1.4181000745E+00
    65  -4.3320119648E-02  -5.6928823312E-01  -3.9396864371E-01
    66  3.2429015556E+00  -3.7060561382E-01  -6.8452909611E-02
    67  4.3316132707E-02  5.6927786167E-01  3.9395779642E-01
    68  -3.2429065075E+00  3.7060193362E-01  6.8456597185E-02
    69  -6.0955743911E-01  -8.2119367613E-01  6.0012214546E-01
    70  1.1707898844E+00  -1.3253249477E+00  -1.2119475062E+00
    71  6.0955989273E-01  8.2120339039E-01  -6.0011531076E-01
    72  -1.1707893441E+00  1.3253241629E+00  1.2119470680E+00
    73  5.9206558788E-01  3.8263813995E-01  -1.2548546457E+00
    74  -1.2737967094E+00  4.4328977901E-01  2.3585724240E+00
    75  -5.9206499841E-01  -3.8263279537E-01  1.2548624553E+00
    76  1.2737960391E+00  -4.4328693343E-01  -2.3585760832E+00
    77  6.0102741982E-01  -2.1394489816E-01  2.7836185697E-01
    78  -1.1956818587E+00  -3.2133001531E-01  -7.0277403374E-01
    79  -6.0103808026E-01  2.1394619463E-01  -2.7836898054E-01
    80  1.1956833680E+00  3.2133048707E-01  7.0277453830E-01
    81  -2.4345103752E-01  1.1085325964E+00  -4.4153852480E-01
    82  -3.9857409157E-01  2.4080743340E+00  9.1163845398E-01
    83  2.4344474286E-01  -1.1085131885E+00  4.4152833322E-01
    84  3.9857402178E-01  -2.4080750548E+00  -9.1163970503E-01
    85  6.2098853659E-01  1.1570060400E-03  3.5413173260E-01
    86  -8.5279355512E-01  1.6053889187E-01  -2.8161529206E-01
    87  -6.2100079376E-01  -1.1603060370E-03  -3.5413608015E-01
    88  8.5279250596E-01  -1.6053876701E-01  2.8161511698E-01
    89  4.3111995425E-01  -3.6923916366E-01  -1.3957838839E+00
    90  -5.5036709533E-01  -8.7490724464E-02  1.8650739917E+00
    91  -4.3111415702E-01  3.6922616940E-01  1.3957762239E+00
    92  5.5036736186E-01  8.7492956503E-02  -1.8650736865E+00
    93  -5.9828430242E-01  4.0160877122E-01  8.9134474538E-01
    94  6.4617689593E-01  1.0118519398E+00  -8.1092802126E-01
    95  5.9828261385E-01  -4.0162051185E-01  -8.9133122320E-01
    96  -6.4617752016E-01  -1.0118522990E+00  8.1092962366E-01
  Stress tensor (eV/A^3):
  7.3828617408E-02  -9.4187690016E-03  2.2149064722E-02
  -9.4187690016E-03  6.8042457997E-02  1.0291496063E-02
  2.2149064722E-02  1.0291496063E-02  5.8005368351E-02
