  Invoking FHI-aims ...
  | Number of atoms                   :  96
  ...scf iterations...
  | Total energy corrected        :   -1.009226942742E+02 eV
  ...
  Total atomic forces (unitary forces cleaned)
     1  -3.1784443234E-01  6.2335086733E-01  1.9462470367E-01
     2  2.3924844899E-01  5.9129473819E-01  -1.8609587079E-01
     3  3.1784445770E-01  -6.2335075173E-01  -1.9462464537E-01
     4  -2.3924829395E-01  -5.9129454777E-01  1.8609592089E-01
     5  -7.4199560564E-01  2.6797563581E-01  -5.6738566488E-01
     6  1.1707219837E+00  -1.9628404802E+00  2.9642379863E+00
     7  7.4199605506E-01  -2.6797548080E-01  5.6738614483E-01
     8  -1.1707222196E+00  1.9628403614E+00  -2.9642376733E+00
     9  -4.8393015027E-01  3.5811503883E-01  -2.0410691485E-01
    10  -1.3402325588E+00  -1.6113340396E+00  2.0071421555E-01
    11  4.8392964787E-01  -3.5811489019E-01  2.0410647147E-01
    12  1.3402337176E+00  1.6113353609E+00  -2.0071449598E-01
    13  -5.7998989906E-01  -1.1011842769E+00  -1.1887957214E+00
    14  2.3330971504E+00  7.3566625971E-01  1.2663381248E+00
    15  5.7998922362E-01  1.1011844856E+00  1.1887954064E+00
    16  -2.3330989486E+00  -7.3566738394E-01  -1.2663370592E+00
    17  5.3702662709E-01  -7.3027513981E-01  -5.3178477236E-02
    18  -1.4717767132E+00  6.9434015510E-01  -1.7292316264E+00
    19  -5.3702583532E-01  7.3027528519E-01  5.3179064442E-02
    20  1.4717777358E+00  -6.9434090552E-01  1.7292318265E+00
    21  6.3354454879E-01  -1.2048557433E+00  -2.4235210538E-01
    22  -5.2840450912E-01  -1.2061277813E+00  3.9135486366E-01
    23  -6.3354511673E-01  1.2048560544E+00  2.4235159206E-01
    24  5.2840430644E-01  1.2061278123E+00  -3.9135501385E-01
    25  1.0399261529E+00  8.4451864088E-02  8.8943181602E-01
    26  -6.5491223976E-02  -1.5757439270E+00  1.0362689760E+00
    27  -1.0399290059E+00  -8.4452159524E-02  -8.8943404231E-01
    28  6.5491609012E-02  1.5757452119E+00  -1.0362697468E+00
    29  5.7552418368E-01  4.2586397699E-01  7.5000109843E-01
    30  -4.5477646432E-01  5.7932185624E-01  -7.8504885719E-01
    31  -5.7552400485E-01  -4.2586402566E-01  -7.5000112825E-01
    32  4.5477594841E-01  -5.7932217915E-01  7.8504852245E-01
    33  2.1630627471E-01  1.0243422063E+00  9.3104723629E-01
    34  -1.6821559563E-01  1.1398828257E+00  -8.8020035739E-01
    35  -2.1630614981E-01  -1.0243425523E+00  -9.3104701423E-01
    36  1.6821586919E-01  -1.1398832190E+00  8.8020015611E-01
    37  -8.4999359728E-01  5.7108229997E-01  -2.9376351747E-01
    38  8.6581910199E-01  6.9708715303E-01  1.9248205880E-01
    39  8.4999361156E-01  -5.7108247384E-01  2.9376355681E-01
    40  -8.6581906432E-01  -6.9708744658E-01  -1.9248156886E-01
    41  -8.6361506254E-01  1.1433313959E+00  6.4102408663E-02
    42  9.0023277715E-01  1.1916582623E+00  -7.2864080153E-02
    43  8.6361500050E-01  -1.1433312832E+00  -6.4102163774E-02
    44  -9.0023253131E-01  -1.1916580099E+00  7.2864278881E-02
    45  5.3513128247E-01  1.3637676236E-01  6.1073178610E-01
    46  -3.6784695239E+00  -1.4965263096E+00  -2.5731571743E+00
    47  -5.3510096015E-01  -1.3637611115E-01  -6.1070926197E-01
    48  3.6784694938E+00  1.4965254619E+00  2.5731553079E+00
    49  -9.2412740173E-01  3.0602437277E-01  9.0694763581E-01
    50  6.5621152367E-01  1.8652207036E+00  -4.0654428413E+00
    51  9.2411624307E-01  -3.0601900065E-01  -9.0694289095E-01
    52  -6.5621296385E-01  -1.8652233157E+00  4.0654416032E+00
    53  -7.1547597884E-01  -1.2538605121E+00  5.1318559479E-02
    54  1.0182064257E+00  3.3982846741E-02  -2.9534534869E-01
    55  7.1547946814E-01  1.2538502102E+00  -5.1322834960E-02
    56  -1.0182056096E+00  -3.3978164337E-02  2.9534577370E-01
    57  7.0484344202E-01  -1.4627504303E-01  5.1164486586E-01
    58  1.9165399794E+00  -2.4964710119E-02  2.9858887150E+00
    59  -7.0485017520E-01  1.4627457593E-01  -5.1165534252E-01
    60  -1.9165409739E+00  2.4964815217E-02  -2.9858863423E+00
    61  -1.8949903128E-02  1.4130888652E+00  -9.4332346347E-02
    62  -2.2240830020E+00  -2.5960419026E+00  1.3370422005E+00
    63  1.8961878450E-02  -1.4130835314E+00  9.4323763042E-02
    64  2.2240852775E+00  2.5960386539E+00  -1.3370422271E+00
    65  1.0123135818E-01  -7.5201555937E-01  -1.6410795199E-01
    66  3.8577991278E+00  1.6041268261E+00  -1.2018370668E+00
    67  -1.0123690547E-01  7.5201017000E-01  1.6410304626E-01
    68  -3.8577987711E+00  -1.6041285338E+00  1.2018403609E+00
    69  -8.7758715070E-01  -7.2157227254E-01  6.7586727390E-01
    70  9.9932367526E-01  -6.0370360647E-01  -9.4423039334E-01
    71  8.7759155211E-01  7.2158104351E-01  -6.7586447742E-01
    72  -9.9932318859E-01  6.0370373650E-01  9.4423004705E-01
    73  6.6157564954E-01  2.1897239153E-03  -1.2942996013E+00
    74  -1.2095825340E+00  -9.9410544553E-01  2.9681979633E+00
    75  -6.6157569704E-01  -2.1855059484E-03  1.2943072162E+00
    76  1.2095808514E+00  9.9410803754E-01  -2.9682003254E+00
    77  6.8751674965E-01  -2.3549211815E-01  3.9040464489E-01
    78  -1.2409989331E+00  -4.5065427531E-01  -8.2956463297E-01
    79  -6.8752514733E-01  2.3549331452E-01  -3.9041115543E-01
    80  1.2409997233E+00  4.5065456865E-01  8.2956427970E-01
    81  2.4435107489E-01  8.7234478411E-01  -5.1049007911E-01
    82  -5.9538845945E-01  1.6378131357E+00  9.3320954411E-01
    83  -2.4435260590E-01  -8.7233822484E-01  5.1047950879E-01
    84  5.9538874137E-01  -1.6378131437E+00  -9.3321135671E-01
    85  6.9530689780E-01  -1.1356387991E-02  3.7318473731E-01
    86  -7.1518271704E-01  4.7299569416E-02  -1.8621407649E-01
    87  -6.9531992222E-01  1.1354532477E-02  -3.7318991093E-01
    88  7.1518203737E-01  -4.7299645412E-02  1.8621404479E-01
    89  3.2039118879E-01  -5.3473233460E-01  -1.2249936127E+00
    90  -4.0272195042E-01  -4.3566024186E-01  1.4801788372E+00
    91  -3.2039132458E-01  5.3472288728E-01  1.2250007625E+00
    92  4.0272155324E-01  4.3566189560E-01  -1.4801777307E+00
    93  -5.1972477811E-01  8.5719170703E-01  4.8418235481E-01
    94  4.8554257424E-01  1.2486033899E+00  -3.7061177220E-01
    95  5.1972427180E-01  -8.5719685061E-01  -4.8417527881E-01
    96  -4.8554291332E-01  -1.2486042531E+00  3.7061251655E-01
  Stress tensor (eV/A^3):
  7.1076372336E-02  -9.6443599594E-03  2.3120781939E-02
  -9.6443599594E-03  6.9799710522E-02  8.5267206089E-03
  2.3120781939E-02  8.5267206089E-03  6.1337256731E-02
