  Invoking FHI-aims ...
  | Number of atoms                   :  96
  ...scf iterations...
  | Total energy corrected        :   -1.574857314711E+01 eV
  ...
  Total atomic forces (unitary forces cleaned)
     1  -2.3178430029E-01  5.8693783741E-01  1.9504583936E-01
     2  2.3178006145E-01  5.8693973916E-01  -1.9503657479E-01
     3  2.3178430763E-01  -5.8693776339E-01  -1.9504581590E-01
     4  -2.3177995381E-01  -5.8693967525E-01  1.9503667200E-01
     5  -8.6379596459E-01  1.1539654161E+00  5.9270390342E-02
     6  8.6378918445E-01  1.1539701211E+00  -5.9275347656E-02
     7  8.6379641516E-01  -1.1539652743E+00  -5.9269953067E-02
     8  -8.6378917031E-01  -1.1539702762E+00  5.9275581660E-02
     9  -1.7747008905E-01  1.5038300058E-01  -7.4006241882E-02
    10  1.7747320853E-01  1.5039783548E-01  7.4020145077E-02
    11  1.7746964128E-01  -1.5038307147E-01  7.4005963079E-02
    12  -1.7747350130E-01  -1.5039773200E-01  -7.4020283313E-02
    13  -3.6426997662E-01  -8.9105585010E-01  -8.3291813926E-01
    14  3.6426826426E-01  -8.9107300496E-01  8.3289626276E-01
    15  3.6426945972E-01  8.9105600370E-01  8.3291792061E-01
    16  -3.6426836554E-01  8.9107309479E-01  -8.3289595654E-01
    17  2.7627481868E+00  -3.8489677401E+00  -3.5945914980E-01
    18  -2.7628917135E+00  -3.8492065115E+00  3.5947129350E-01
    19  -2.7627500055E+00  3.8489711476E+00  3.5945952905E-01
    20  2.7628930005E+00  3.8492091409E+00  -3.5947213820E-01
    21  -1.8788134794E+00  2.2696838001E+00  9.8541624196E-02
    22  1.8789896351E+00  2.2699174847E+00  -9.8551160260E-02
    23  1.8788155823E+00  -2.2696870724E+00  -9.8541891542E-02
    24  -1.8789908073E+00  -2.2699200497E+00  9.8551620170E-02
    25  4.2869728142E-01  4.1886933496E-02  3.1470176720E-01
    26  -4.2871414455E-01  4.1879802168E-02  -3.1469367145E-01
    27  -4.2869780676E-01  -4.1887186236E-02  -3.1470213378E-01
    28  4.2871443274E-01  -4.1879511795E-02  3.1469354175E-01
    29  1.0290580752E+00  3.3451264013E+00  3.0712270093E+00
    30  -1.0290621665E+00  3.3451523924E+00  -3.0712016487E+00
    31  -1.0290576011E+00  -3.3451245378E+00  -3.0712252505E+00
    32  1.0290625170E+00  -3.3451539093E+00  3.0712020690E+00
    33  -5.9498467940E-01  -2.0060102393E+00  -1.7953287357E+00
    34  5.9500720190E-01  -2.0060150968E+00  1.7953217012E+00
    35  5.9498451774E-01  2.0060083719E+00  1.7953268859E+00
    36  -5.9500790400E-01  2.0060162781E+00  -1.7953223554E+00
    37  -2.9408554486E+00  3.6502073548E+00  2.9699270728E-01
    38  2.9409617156E+00  3.6504163221E+00  -2.9700651683E-01
    39  2.9408532119E+00  -3.6502041009E+00  -2.9699201928E-01
    40  -2.9409586396E+00  -3.6504129990E+00  2.9700675261E-01
    41  1.6023564024E+00  -2.1361601364E+00  -2.7824395172E-01
    42  -1.6024897423E+00  -2.1363637593E+00  2.7825760805E-01
    43  -1.6023541489E+00  2.1361568136E+00  2.7824346121E-01
    44  1.6024871299E+00  2.1363603589E+00  -2.7825740885E-01
    45  -1.4741128693E+00  7.3484623460E-02  -9.1480852522E-01
    46  1.4740966925E+00  7.3524769391E-02  9.1481687393E-01
    47  1.4741070116E+00  -7.3485031175E-02  9.1480487279E-01
    48  -1.4740965426E+00  -7.3524015900E-02  -9.1481711512E-01
    49  -7.7811618421E+01  -9.2205812157E+00  3.0786874516E+01
    50  7.7807206438E+01  -9.2209511069E+00  -3.0784353452E+01
    51  7.7810740659E+01  9.2205740390E+00  -3.0786564467E+01
    52  -7.7807243432E+01  9.2210054723E+00  3.0784360434E+01
    53  3.9010046525E+01  5.8261257764E+01  -3.2683459515E+00
    54  -3.9008681204E+01  5.8258333762E+01  3.2678076753E+00
    55  -3.9009582926E+01  -5.8260650730E+01  3.2683155275E+00
    56  3.9008713856E+01  -5.8258391296E+01  -3.2678321893E+00
    57  -6.9401142504E-01  5.5107511307E-02  -5.1410230057E-01
    58  6.9400403497E-01  5.5107849697E-02  5.1407272268E-01
    59  6.9401511767E-01  -5.5107912751E-02  5.1410558445E-01
    60  -6.9399637343E-01  -5.5107322295E-02  -5.1406686938E-01
    61  3.8458891043E+01  -4.9701303374E+01  -2.3864562526E+01
    62  -3.8455822787E+01  -4.9698002965E+01  2.3862612872E+01
    63  -3.8458483126E+01  4.9700702662E+01  2.3864288004E+01
    64  3.8455819745E+01  4.9698004809E+01  -2.3862600822E+01
    65  -8.0429911051E+00  -3.6225251411E+01  -3.4823629802E+01
    66  8.0409842876E+00  -3.6219559449E+01  3.4821079684E+01
    67  8.0428648517E+00  3.6224951165E+01  3.4823361571E+01
    68  -8.0410264790E+00  3.6219599545E+01  -3.4820998392E+01
    69  1.9572518275E+01  3.8163648429E+01  -1.1363271736E+00
    70  -1.9569963417E+01  3.8157161171E+01  1.1359149445E+00
    71  -1.9572340894E+01  -3.8163328429E+01  1.1363032878E+00
    72  1.9569979781E+01  -3.8157184927E+01  -1.1359308863E+00
    73  -8.5858181788E+00  -4.4170878891E+00  3.5498177530E+01
    74  8.5852968211E+00  -4.4162978082E+00  -3.5495225896E+01
    75  8.5857690088E+00  4.4170619067E+00  -3.5497889191E+01
    76  -8.5852732894E+00  4.4162815252E+00  3.5495159920E+01
    77  -7.7003969827E-01  -9.5797188690E-02  -6.4379444889E-01
    78  7.7002602992E-01  -9.5802595555E-02  6.4379414289E-01
    79  7.7004157872E-01  9.5796523375E-02  6.4379530332E-01
    80  -7.7002492620E-01  9.5802395131E-02  -6.4379300243E-01
    81  -2.5107460951E+01  6.2506619485E+01  -2.3826528553E+01
    82  2.5106804427E+01  6.2509440675E+01  2.3831188111E+01
    83  2.5107153318E+01  -6.2505980730E+01  2.3826318038E+01
    84  -2.5106810255E+01  -6.2509477326E+01  -2.3831262261E+01
    85  -6.0405559830E-01  8.4056349478E-02  -3.8030666924E-01
    86  6.0390023438E-01  8.4033090232E-02  3.8021503370E-01
    87  6.0405983505E-01  -8.4056107334E-02  3.8030903520E-01
    88  -6.0389736344E-01  -8.4033078633E-02  -3.8021310113E-01
    89  -7.6712562235E+00  -1.1659330254E+01  4.8304989925E+01
    90  7.6732003672E+00  -1.1660354804E+01  -4.8310003894E+01
    91  7.6711874562E+00  1.1659235306E+01  -4.8304538643E+01
    92  -7.6732101651E+00  1.1660357190E+01  4.8310067685E+01
    93  3.5091162277E+01  -4.7845303336E+01  -2.4329584466E+01
    94  -3.5092310697E+01  -4.7847120115E+01  2.4330025454E+01
    95  -3.5090785090E+01  4.7844767591E+01  2.4329339659E+01
    96  3.5092323942E+01  4.7847154658E+01  -2.4330017808E+01
  Stress tensor (eV/A^3):
  -2.6531353977E-01  -5.1929091263E-06  1.9873201952E-01
  -5.1929091263E-06  -6.1422408275E-01  -8.7733102870E-08
  1.9873201952E-01  -8.7733102870E-08  -3.6964716644E-01
