  Invoking FHI-aims ...
  | Number of atoms                   :  96
  ...scf iterations...
  | Total energy corrected        :   -9.408924302673E+01 eV
  ...
  Total atomic forces (unitary forces cleaned)
     1  -2.9659947480E-01  6.1616494134E-01  1.9592442166E-01
     2  2.2410805644E-01  5.7176649657E-01  -1.9211447249E-01
     3  2.9659955802E-01  -6.1616484749E-01  -1.9592434613E-01
     4  -2.2410791348E-01  -5.7176626111E-01  1.9211453015E-01
     5  -7.5415411004E-01  1.4435225662E+00  9.4459832826E-02
     6  9.5713298814E-01  -1.0679130164E+00  1.7322961402E+00
     7  7.5415437603E-01  -1.4435224213E+00  -9.4459502706E-02
     8  -9.5713331347E-01  1.0679128939E+00  -1.7322958459E+00
     9  -4.3333218260E-01  3.0629030236E-01  -2.0838291420E-01
    10  5.5695379081E-01  5.9408228465E-02  1.9155556195E-01
    11  4.3333180500E-01  -3.0628994651E-01  2.0838261192E-01
    12  -5.5695290903E-01  -5.9407252017E-02  -1.9155529724E-01
    13  -5.5729089218E-01  -1.0499127517E+00  -1.1525035521E+00
    14  3.9057456105E-01  -8.8586335356E-01  1.2095500895E+00
    15  5.5729028249E-01  1.0499128907E+00  1.1525032429E+00
    16  -3.9057594234E-01  8.8586250061E-01  -1.2095492539E+00
    17  3.5408641739E-01  -4.6663929344E-01  -3.2502375068E-02
    18  -5.6010629126E-01  9.0019241735E-02  -2.5909515172E-01
    19  -3.5408536613E-01  4.6663907166E-01  3.2502999772E-02
    20  5.6010652712E-01  -9.0019883796E-02  2.5909528250E-01
    21  7.5574747318E-01  -1.3906521919E+00  -2.5623409094E-01
    22  -7.4239017861E-01  -1.4691678995E+00  3.4899713379E-01
    23  -7.5574814778E-01  1.3906528877E+00  2.5623350139E-01
    24  7.4238995676E-01  1.4691681397E+00  -3.4899745159E-01
    25  1.0320290908E+00  3.6546646792E-02  8.8172193519E-01
    26  -7.9303985491E-01  -5.7127200887E-01  -5.3389180622E-01
    27  -1.0320294568E+00  -3.6547218402E-02  -8.8172252701E-01
    28  7.9304060741E-01  5.7127285594E-01  5.3389091123E-01
    29  4.8395707272E-01  2.1767809113E-01  5.3391701360E-01
    30  -4.3531266942E-01  3.0145398017E-01  -5.6223606499E-01
    31  -4.8395692445E-01  -2.1767794579E-01  -5.3391694249E-01
    32  4.3531216421E-01  -3.0145403273E-01  5.6223564661E-01
    33  2.3209307897E-01  1.2127173779E+00  1.0783476680E+00
    34  -1.8595212420E-01  1.2842051220E+00  -1.0166662841E+00
    35  -2.3209314238E-01  -1.2127178568E+00  -1.0783474912E+00
    36  1.8595253162E-01  -1.2842056418E+00  1.0166661349E+00
    37  -6.4757185221E-01  3.7010879735E-01  -2.8486359709E-01
    38  6.8002718060E-01  4.4370055633E-01  2.4006068722E-01
    39  6.4757193830E-01  -3.7010909090E-01  2.8486353034E-01
    40  -6.8002728033E-01  -4.4370083578E-01  -2.4006028563E-01
    41  -1.0004878182E+00  1.3535158886E+00  9.1817965650E-02
    42  1.0123357408E+00  1.3727133420E+00  -9.0818115171E-02
    43  1.0004877137E+00  -1.3535157529E+00  -9.1817627910E-02
    44  -1.0123354415E+00  -1.3727129779E+00  9.0818351612E-02
    45  -1.0413704296E+00  1.1725231805E-01  -5.9616285152E-01
    46  -2.2641129747E+00  -4.7454496169E+00  -5.1004752205E-01
    47  1.0413926123E+00  -1.1724938137E-01  5.9617882384E-01
    48  2.2641114439E+00  4.7454491828E+00  5.1004365184E-01
    49  -2.1418077981E-01  1.2840453130E-01  5.0223871615E-01
    50  4.9339628487E-01  4.9346620801E+00  -3.9606126374E+00
    51  2.1416624565E-01  -1.2839921966E-01  -5.0225003772E-01
    52  -4.9339533877E-01  -4.9346629864E+00  3.9606156146E+00
    53  -1.5543001413E+00  -1.1572083466E+00  6.8940069855E-01
    54  1.6967833369E+00  -1.9625928079E+00  -1.0147080812E+00
    55  1.5543070675E+00  1.1572121810E+00  -6.8940486000E-01
    56  -1.6967809925E+00  1.9625914206E+00  1.0147082148E+00
    57  1.3114977429E+00  -2.1026230163E-01  1.2799223524E+00
    58  1.2765714218E+00  -8.0110657220E-02  1.6863429406E+00
    59  -1.3114968727E+00  2.1026087933E-01  -1.2799211319E+00
    60  -1.2765735200E+00  8.0110263019E-02  -1.6863427568E+00
    61  -4.6795428169E-01  1.9849454204E+00  2.7195335934E-01
    62  -2.6634240757E+00  -2.4132894234E+00  1.5299184033E+00
    63  4.6796396064E-01  -1.9849547818E+00  -2.7195982047E-01
    64  2.6634233943E+00  2.4132898424E+00  -1.5299170156E+00
    65  3.9137216303E-01  -1.4037007290E-01  4.1733744220E-01
    66  3.5630562987E+00  5.4400934894E+00  -1.1117738967E+00
    67  -3.9138210692E-01  1.4038051163E-01  -4.1734026953E-01
    68  -3.5630540314E+00  -5.4400922481E+00  1.1117741171E+00
    69  -1.5151058098E+00  -1.5569521756E+00  7.7801124383E-01
    70  1.3591009589E+00  -1.1041641958E+00  -7.2109873128E-01
    71  1.5151072194E+00  1.5569568251E+00  -7.7800958102E-01
    72  -1.3591010202E+00  1.1041645511E+00  7.2109933979E-01
    73  8.5941670870E-01  -7.3708816339E-01  -2.1618599593E+00
    74  -1.0365941264E+00  -1.5352228656E+00  2.9559904799E+00
    75  -8.5941794540E-01  7.3708677590E-01  2.1618627985E+00
    76  1.0365921913E+00  1.5352236029E+00  -2.9559906168E+00
    77  1.2602156591E+00  -3.8488035414E-01  8.3508708228E-01
    78  -1.6538101369E+00  -6.8247904565E-01  -1.1475647172E+00
    79  -1.2602148504E+00  3.8487915499E-01  -8.3508756847E-01
    80  1.6538106697E+00  6.8247919123E-01  1.1475638659E+00
    81  4.0516037831E-01  3.8105434992E-01  1.2618961122E-01
    82  -2.2719641302E-01  3.5014863022E-01  -8.0106273462E-02
    83  -4.0517776444E-01  -3.8105608631E-01  -1.2619271950E-01
    84  2.2719761387E-01  -3.5014850164E-01  8.0104239632E-02
    85  1.4906532830E+00  5.7485149463E-02  7.2478589192E-01
    86  -1.5099955884E+00  7.2602021208E-02  -6.2871063149E-01
    87  -1.4906527147E+00  -5.7485082854E-02  -7.2478574471E-01
    88  1.5099953001E+00  -7.2602060137E-02  6.2871049575E-01
    89  5.2527672726E-01  -4.5543617183E-01  -2.2126151150E+00
    90  -5.4637766120E-01  -4.2123381163E-01  2.2787803825E+00
    91  -5.2527789807E-01  4.5543202454E-01  2.2126210561E+00
    92  5.4637674154E-01  4.2123494500E-01  -2.2787785109E+00
    93  -5.6206551509E-01  1.8896392106E+00  6.5656300027E-02
    94  5.2493848128E-01  1.9910616252E+00  -1.4827560359E-02
    95  5.6206800746E-01  -1.8896476081E+00  -6.5656019802E-02
    96  -5.2493854875E-01  -1.9910625493E+00  1.4827310758E-02
  Stress tensor (eV/A^3):
  9.1038700636E-02  -1.0938106825E-02  2.2411620494E-02
  -1.0938106825E-02  8.7405531062E-02  5.7680169211E-03
  2.2411620494E-02  5.7680169211E-03  8.8914032893E-02
