  Invoking FHI-aims ...
  | Number of atoms                   :  96
  ...scf iterations...
  | Total energy corrected        :   -7.151881314450E+01 eV
  ...
  Total atomic forces (unitary forces cleaned)
     1  -2.5346256004E-01  5.8383304368E-01  1.9351938469E-01
     2  2.5269207371E-01  5.8290188494E-01  -1.9390247800E-01
     3  2.5346249313E-01  -5.8383299469E-01  -1.9351938769E-01
     4  -2.5269201052E-01  -5.8290191397E-01  1.9390260090E-01
     5  -8.8715288962E-01  1.1375545772E+00  6.9394237136E-02
     6  8.8553904567E-01  1.1279442224E+00  -5.8179520515E-02
     7  8.8715357620E-01  -1.1375543978E+00  -6.9393645680E-02
     8  -8.8553885550E-01  -1.1279444109E+00  5.8179663967E-02
     9  -1.8844534595E-01  1.3522385137E-01  -7.5445772941E-02
    10  1.7683536213E-01  1.2450876338E-01  7.6716585873E-02
    11  1.8844475398E-01  -1.3522422803E-01  7.5445474757E-02
    12  -1.7683554228E-01  -1.2450840216E-01  -7.6716874743E-02
    13  -3.6278798637E-01  -9.1789013718E-01  -7.9931368581E-01
    14  3.7455567130E-01  -9.0699904398E-01  7.9797525836E-01
    15  3.6278745856E-01  9.1789040945E-01  7.9931351295E-01
    16  -3.7455587661E-01  9.0699895920E-01  -7.9797525822E-01
    17  2.6515661345E+00  -3.5192833395E+00  -3.2800960176E-01
    18  -2.6558329462E+00  -3.5094108200E+00  3.1611709852E-01
    19  -2.6515658895E+00  3.5192836349E+00  3.2801013259E-01
    20  2.6558348464E+00  3.5094139577E+00  -3.1611771665E-01
    21  -1.7228572232E+00  1.9743837631E+00  1.4446065580E-01
    22  1.7233353977E+00  1.9761850599E+00  -1.4541836357E-01
    23  1.7228571723E+00  -1.9743838512E+00  -1.4446083046E-01
    24  -1.7233371464E+00  -1.9761880804E+00  1.4541854143E-01
    25  5.2321904449E-01  6.9077050344E-02  3.2459758887E-01
    26  -5.1943036569E-01  5.8073221892E-02  -3.1257548486E-01
    27  -5.2321937400E-01  -6.9077451677E-02  -3.2459789135E-01
    28  5.1943040603E-01  -5.8072844376E-02  3.1257537985E-01
    29  9.5706471121E-01  3.1709672692E+00  2.8049516553E+00
    30  -9.5716170275E-01  3.1704937009E+00  -2.8045953821E+00
    31  -9.5706359733E-01  -3.1709631440E+00  -2.8049488630E+00
    32  9.5716126220E-01  -3.1704942784E+00  2.8045953874E+00
    33  -5.8438460130E-01  -1.8242706675E+00  -1.5948962339E+00
    34  5.8439151518E-01  -1.8242104695E+00  1.5948460963E+00
    35  5.8438379955E-01  1.8242667742E+00  1.5948930687E+00
    36  -5.8439173155E-01  1.8242106874E+00  -1.5948462189E+00
    37  -2.8306994270E+00  3.3421736818E+00  2.9467459290E-01
    38  2.8308279840E+00  3.3422795296E+00  -2.9447601603E-01
    39  2.8306966946E+00  -3.3421696847E+00  -2.9467413249E-01
    40  -2.8308247724E+00  -3.3422764090E+00  2.9447598210E-01
    41  1.4586445989E+00  -1.8631641867E+00  -2.5579388266E-01
    42  -1.4590916062E+00  -1.8637246695E+00  2.5593826185E-01
    43  -1.4586418033E+00  1.8631601774E+00  2.5579356830E-01
    44  1.4590888727E+00  1.8637212970E+00  -2.5593790672E-01
    45  -5.5081400272E-01  1.8509654338E-02  -3.5879624019E-01
    46  5.4479643785E-01  1.3463836542E-02  3.5449577688E-01
    47  5.5081288115E-01  -1.8510027599E-02  3.5879528478E-01
    48  -5.4479614199E-01  -1.3463899974E-02  -3.5449598390E-01
    49  -7.7344233548E+00  -4.5069276280E+00  5.1971252979E+00
    50  7.2779612948E+00  -4.8025938298E+00  -4.8900696752E+00
    51  7.7343814341E+00  4.5069079962E+00  -5.1971126188E+00
    52  -7.2779717001E+00  4.8025993216E+00  4.8900648995E+00
    53  2.6853086793E+00  7.2604818828E+00  1.0021125681E+00
    54  -2.6837457728E+00  7.2679166319E+00  -1.0041893810E+00
    55  -2.6852939299E+00  -7.2604452122E+00  -1.0021037813E+00
    56  2.6837482540E+00  -7.2679236658E+00  1.0041888040E+00
    57  -8.1699828074E-01  6.9288204928E-02  -6.6847666416E-01
    58  8.2944996089E-01  7.0629798140E-02  6.7979052977E-01
    59  8.1699915187E-01  -6.9288065608E-02  6.6847761740E-01
    60  -8.2944259161E-01  -7.0629509636E-02  -6.7978540366E-01
    61  5.3207865631E+00  -3.7012196667E+00  -3.8489807685E+00
    62  -4.8807786177E+00  -3.4110756096E+00  3.5434867155E+00
    63  -5.3207605235E+00  3.7012009163E+00  3.8489597905E+00
    64  4.8807789548E+00  3.4110764852E+00  -3.5434861260E+00
    65  2.2149782417E+00  -5.0339599277E+00  -6.7255313913E+00
    66  -2.1509942007E+00  -5.0968253855E+00  6.5023118412E+00
    67  -2.2149828915E+00  5.0339400471E+00  6.7255044519E+00
    68  2.1509870255E+00  5.0968429609E+00  -6.5022966750E+00
    69  1.6097742000E+00  6.0896680826E+00  1.0470088464E+00
    70  -1.6138958042E+00  6.0964793455E+00  -1.0459191987E+00
    71  -1.6097670654E+00  -6.0896393889E+00  -1.0470037118E+00
    72  1.6138989799E+00  -6.0964885768E+00  1.0459191237E+00
    73  -1.2281540173E+00  -2.1125930059E+00  5.3146982466E+00
    74  1.1808633195E+00  -2.0445090726E+00  -5.0956431982E+00
    75  1.2281517162E+00  2.1125837448E+00  -5.3146785604E+00
    76  -1.1808601104E+00  2.0445012211E+00  5.0956282333E+00
    77  -9.7284903032E-01  -1.8560338686E-02  -5.8661010515E-01
    78  9.6898949287E-01  -2.6047031137E-02  5.8374466530E-01
    79  9.7284989958E-01  1.8560418415E-02  5.8661093733E-01
    80  -9.6898905521E-01  2.6046930092E-02  -5.8374430552E-01
    81  -2.2570538607E+00  9.5308920000E+00  -5.6177843713E-01
    82  2.2573469129E+00  9.5304581706E+00  5.6177846839E-01
    83  2.2570194886E+00  -9.5308501604E+00  5.6179497929E-01
    84  -2.2573513016E+00  -9.5304628295E+00  -5.6178361921E-01
    85  -8.7139731646E-01  -1.5965745259E-02  -4.6659907103E-01
    86  8.7170741598E-01  -1.6648923599E-02  4.6639705888E-01
    87  8.7139993785E-01  1.5965513284E-02  4.6660081069E-01
    88  -8.7170433415E-01  1.6648977281E-02  -4.6639537414E-01
    89  -8.2211095315E-01  -3.4799713746E+00  5.6940271745E+00
    90  8.2230298555E-01  -3.4808280017E+00  -5.6946477337E+00
    91  8.2210911884E-01  3.4799601005E+00  -5.6940126520E+00
    92  -8.2230405564E-01  3.4808287787E+00  5.6946515166E+00
    93  4.7803601145E+00  -4.0864386009E+00  -4.2376742204E+00
    94  -4.7807397593E+00  -4.0874582539E+00  4.2378825963E+00
    95  -4.7803259522E+00  4.0864103663E+00  4.2376424080E+00
    96  4.7807425419E+00  4.0874622556E+00  -4.2378833267E+00
  Stress tensor (eV/A^3):
  -2.3280270139E-04  4.2522232361E-04  4.1566087223E-02
  4.2522232361E-04  -5.4760379094E-02  -1.3361027598E-04
  4.1566087223E-02  -1.3361027598E-04  -2.9861876078E-02
