  Invoking FHI-aims ...
  | Number of atoms                   :  96
  ...scf iterations...
  | Total energy corrected        :   -5.624187786976E+01 eV
  ...
  Total atomic forces (unitary forces cleaned)
     1  -2.2201850577E-01  5.8505877764E-01  1.8999726420E-01
     2  2.2091973118E-01  5.8165987731E-01  -1.9418024708E-01
     3  2.2201856989E-01  -5.8505869667E-01  -1.8999721743E-01
     4  -2.2091960339E-01  -5.8165974128E-01  1.9418032786E-01
     5  -8.5693929507E-01  1.1284614611E+00  5.9047379218E-02
     6  8.4571335125E-01  1.0841192090E+00  1.7947358162E-02
     7  8.5693960133E-01  -1.1284613306E+00  -5.9047041076E-02
     8  -8.4571347185E-01  -1.0841193432E+00  -1.7947077868E-02
     9  -2.0132879426E-01  1.5522590007E-01  -1.0050942825E-01
    10  1.1341921776E-01  6.5488248349E-02  1.0713021807E-01
    11  2.0132842505E-01  -1.5522577033E-01  1.0050915366E-01
    12  -1.1341956875E-01  -6.5488320656E-02  -1.0713023166E-01
    13  -3.9362139806E-01  -8.9536308316E-01  -8.8229069190E-01
    14  4.8387167175E-01  -8.0325395012E-01  8.7591967306E-01
    15  3.9362088592E-01  8.9536317462E-01  8.8229045138E-01
    16  -4.8387176381E-01  8.0325415866E-01  -8.7591916370E-01
    17  1.6949136700E+00  -2.4303597957E+00  -2.2888400455E-01
    18  -1.7405136321E+00  -2.3719804641E+00  1.3502488094E-01
    19  -1.6949145099E+00  2.4303620200E+00  2.2888423725E-01
    20  1.7405138428E+00  2.3719812461E+00  -1.3502557365E-01
    21  -7.9397051277E-01  8.1210584174E-01  -5.7050701698E-02
    22  8.0324713389E-01  8.3724516572E-01  4.7193390847E-02
    23  7.9397157809E-01  -8.1210792119E-01  5.7050513156E-02
    24  -8.0324739432E-01  -8.3724587968E-01  -4.7193205629E-02
    25  4.7822620606E-01  2.4413506622E-02  3.8841621467E-01
    26  -4.4865886894E-01  -5.4780667850E-02  -2.9527571663E-01
    27  -4.7822664953E-01  -2.4413764916E-02  -3.8841655391E-01
    28  4.4865933520E-01  5.4780896415E-02  2.9527559257E-01
    29  7.5803583046E-01  2.0396677701E+00  2.0139251788E+00
    30  -7.5790544742E-01  2.0384637324E+00  -2.0126895472E+00
    31  -7.5803585353E-01  -2.0396679010E+00  -2.0139249836E+00
    32  7.5790569424E-01  -2.0384647670E+00  2.0126896556E+00
    33  -2.6296528643E-01  -6.8759995194E-01  -6.8356391531E-01
    34  2.6174291454E-01  -6.9014076815E-01  6.8344682084E-01
    35  2.6296556030E-01  6.8759991229E-01  6.8356379577E-01
    36  -2.6174331107E-01  6.9014146906E-01  -6.8344727186E-01
    37  -1.9101904591E+00  2.3375359542E+00  1.1458019983E-01
    38  1.9083940053E+00  2.3360318525E+00  -1.1448381353E-01
    39  1.9101897848E+00  -2.3375350614E+00  -1.1457973772E-01
    40  -1.9083927911E+00  -2.3360307086E+00  1.1448427825E-01
    41  5.5263754064E-01  -7.7465200603E-01  -1.2420534882E-01
    42  -5.5400478760E-01  -7.7568227421E-01  1.2484616717E-01
    43  -5.5263686723E-01  7.7465100368E-01  1.2420513031E-01
    44  5.5400397741E-01  7.7568115633E-01  -1.2484614105E-01
    45  -1.8884932001E+00  1.3226582651E-01  -1.2115567540E+00
    46  1.7947003314E+00  8.3436116009E-02  1.1957961689E+00
    47  1.8884876292E+00  -1.3226634423E-01  1.2115532481E+00
    48  -1.7947005199E+00  -8.3435310490E-02  -1.1957958553E+00
    49  -4.6469013553E+01  5.9413866497E+00  2.2633072988E+01
    50  4.8982294965E+01  -1.9378595702E+01  -2.1408498975E+01
    51  4.6468210095E+01  -5.9410011042E+00  -2.2632726590E+01
    52  -4.8982362833E+01  1.9378612543E+01  2.1408537782E+01
    53  2.7734382703E+01  2.6821926961E+01  -8.8956906216E+00
    54  -3.8264706371E+01  3.7469709272E+01  1.2211455178E+01
    55  -2.7733949401E+01  -2.6821564338E+01  8.8955495632E+00
    56  3.8264753095E+01  -3.7469764544E+01  -1.2211490020E+01
    57  -1.6985511054E-01  3.5951114209E-03  -1.2487996083E-01
    58  -1.4532294691E-01  -3.2936884749E-02  -1.0110772197E-01
    59  1.6987068695E-01  -3.5975808894E-03  1.2489300310E-01
    60  1.4532654540E-01  3.2936964750E-02  1.0111086966E-01
    61  1.7786082215E+01  -3.2642851539E+01  -9.9178009379E+00
    62  -9.4671268423E+00  -1.7990752720E+01  5.6745357090E+00
    63  -1.7785730283E+01  3.2642108524E+01  9.9175919726E+00
    64  9.4671452525E+00  1.7990790178E+01  -5.6745426685E+00
    65  -3.0761165543E+00  -1.7413357101E+01  -8.7376357552E+00
    66  3.5364411012E+00  -1.7313865143E+01  8.0353960546E+00
    67  3.0759893898E+00  1.7413130321E+01  8.7375245985E+00
    68  -3.5364590147E+00  1.7313869805E+01  -8.0353553680E+00
    69  8.6931458108E+00  1.2635181693E+01  -1.5675808868E+00
    70  -9.1861997182E+00  1.3221425689E+01  1.6669433685E+00
    71  -8.6930012019E+00  -1.2634986843E+01  1.5675425798E+00
    72  9.1862051568E+00  -1.3221431569E+01  -1.6669508916E+00
    73  -2.4530849818E+00  1.4441141715E+00  1.0561132800E+01
    74  2.3587562224E+00  9.7049579814E-01  -1.0127600084E+01
    75  2.4530578736E+00  -1.4440897953E+00  -1.0560991978E+01
    76  -2.3587440940E+00  -9.7049474609E-01  1.0127567011E+01
    77  -1.1763890973E+00  -4.8254671998E-02  -9.2918762230E-01
    78  1.3930150144E+00  -1.1271090153E-01  1.0732518748E+00
    79  1.1764005979E+00  4.8252818674E-02  9.2919558304E-01
    80  -1.3930158588E+00  1.1271062879E-01  -1.0732515684E+00
    81  -8.5005318864E+00  3.4226192359E+01  -1.3749168753E+01
    82  8.5150758299E+00  3.4215697731E+01  1.3746624869E+01
    83  8.5003907154E+00  -3.4225713866E+01  1.3748772168E+01
    84  -8.5150704847E+00  -3.4215711666E+01  -1.3746709400E+01
    85  -5.5399629116E-01  5.3494844499E-02  -3.6260851474E-01
    86  5.6214399321E-01  4.7032764225E-02  3.5540388913E-01
    87  5.5401543007E-01  -5.3494888138E-02  3.6261899629E-01
    88  -5.6214123956E-01  -4.7032925085E-02  -3.5540197210E-01
    89  -3.2282025243E+00  -1.3698349934E+00  1.9028648469E+01
    90  3.2324249713E+00  -1.3719556202E+00  -1.9048406986E+01
    91  3.2281255908E+00  1.3698212729E+00  -1.9028201864E+01
    92  -3.2324360709E+00  1.3719545632E+00  1.9048479686E+01
    93  1.4577533111E+01  -2.9850867013E+01  -5.8342961788E+00
    94  -1.4582895883E+01  -2.9874695613E+01  5.8296975251E+00
    95  -1.4577327201E+01  2.9850409286E+01  5.8342303623E+00
    96  1.4582899080E+01  2.9874711367E+01  -5.8296886593E+00
  Stress tensor (eV/A^3):
  -1.2605190700E-01  2.9519383655E-02  9.8825870299E-02
  2.9519383655E-02  -2.8798970399E-01  -1.2267148321E-02
  9.8825870299E-02  -1.2267148321E-02  -9.9935537451E-02
