  Invoking FHI-aims ...
  | Number of atoms                   :  96
  ...scf iterations...
  | Total energy corrected        :   -8.552253892197E+01 eV
  ...
  Total atomic forces (unitary forces cleaned)
     1  -3.0930812003E-01  6.3425145371E-01  1.9957271999E-01
     2  2.2427147536E-01  5.8387210747E-01  -1.9553907615E-01
     3  3.0930823492E-01  -6.3425135378E-01  -1.9957262840E-01
     4  -2.2427136063E-01  -5.8387180214E-01  1.9553911004E-01
     5  -7.0815456045E-01  1.4615226877E+00  6.7591188488E-02
     6  9.9286833648E-01  -1.4424712080E+00  2.1629286737E+00
     7  7.0815458761E-01  -1.4615225449E+00  -6.7591054998E-02
     8  -9.9286891941E-01  1.4424711088E+00  -2.1629284497E+00
     9  -4.1328890686E-01  3.2017421695E-01  -2.0664197562E-01
    10  -4.8145495642E-02  -5.1937866370E-01  2.0818217241E-01
    11  4.1328869987E-01  -3.2017351090E-01  2.0664187644E-01
    12  4.8147483193E-02  5.1938060630E-01  -2.0818180754E-01
    13  -5.3616099343E-01  -1.0155693632E+00  -1.1465279908E+00
    14  9.2901709434E-01  -2.7397540165E-01  1.1706257910E+00
    15  5.3616043343E-01  1.0155694072E+00  1.1465276550E+00
    16  -9.2901963276E-01  2.7397348217E-01  -1.1706246360E+00
    17  4.7499861456E-01  -6.5289592151E-01  -4.9278581997E-02
    18  -8.0740370657E-01  1.0236670708E-01  -5.6983668752E-01
    19  -4.7499747247E-01  6.5289580153E-01  4.9279288873E-02
    20  8.0740427131E-01  -1.0236747903E-01  5.6983693180E-01
    21  6.4270201606E-01  -1.1851655486E+00  -2.2426225397E-01
    22  -6.2746157155E-01  -1.2618786964E+00  3.1380318710E-01
    23  -6.4270219025E-01  1.1851663267E+00  2.2426176810E-01
    24  6.2746116066E-01  1.2618788158E+00  -3.1380345160E-01
    25  9.5960649749E-01  9.7779162120E-03  8.6741432908E-01
    26  -6.6758659466E-01  -7.9928546359E-01  -2.4402904117E-01
    27  -9.5960617797E-01  -9.7786209073E-03  -8.6741450985E-01
    28  6.6758711062E-01  7.9928637462E-01  2.4402781194E-01
    29  5.1521261361E-01  3.4348528067E-01  6.8370409258E-01
    30  -4.7402919826E-01  4.2770730618E-01  -7.0339135310E-01
    31  -5.1521260387E-01  -3.4348504277E-01  -6.8370387001E-01
    32  4.7402900098E-01  -4.2770731261E-01  7.0339096724E-01
    33  1.5193431082E-01  1.0190386776E+00  9.0336831101E-01
    34  -6.5810279790E-02  1.0965462546E+00  -8.2736918512E-01
    35  -1.5193439668E-01  -1.0190393175E+00  -9.0336805859E-01
    36  6.5810727053E-02  -1.0965467204E+00  8.2736914158E-01
    37  -7.5796068232E-01  5.6362291424E-01  -2.6360871844E-01
    38  7.8253537063E-01  6.4557695348E-01  2.2198138478E-01
    39  7.5796076577E-01  -5.6362315052E-01  2.6360858198E-01
    40  -7.8253554979E-01  -6.4557699158E-01  -2.2198107183E-01
    41  -8.4078284523E-01  1.1728543529E+00  7.1566785360E-02
    42  8.5626921163E-01  1.1973266589E+00  -7.0218858678E-02
    43  8.4078280871E-01  -1.1728544031E+00  -7.1566416368E-02
    44  -8.5626902813E-01  -1.1973263934E+00  7.0219117315E-02
    45  -1.3137385144E+00  1.3581633116E-01  -9.0985404721E-01
    46  4.8124764994E-01  -2.7828912244E+00  7.4617617156E-02
    47  1.3137347624E+00  -1.3581573128E-01  9.0985271800E-01
    48  -4.8124846595E-01  2.7828892345E+00  -7.4617184526E-02
    49  2.6731324231E-01  3.2802960274E-01  1.2660640985E+00
    50  -1.0043476004E+00  6.7874594585E+00  -3.2372838866E+00
    51  -2.6731058172E-01  -3.2803020030E-01  -1.2660638238E+00
    52  1.0043494727E+00  -6.7874584931E+00  3.2372797892E+00
    53  -1.4731130304E+00  -6.6796324633E-01  7.2709201483E-01
    54  9.5013611083E-01  -6.4172218651E-01  -5.4766116474E-01
    55  1.4731098830E+00  6.6796569769E-01  -7.2708954827E-01
    56  -9.5013482000E-01  6.4172153052E-01  5.4766126554E-01
    57  8.4323499336E-01  -1.8767033371E-01  6.4865235272E-01
    58  1.8949693733E+00  -4.6574117258E-02  1.6413497901E+00
    59  -8.4323546439E-01  1.8766929013E-01  -6.4865207741E-01
    60  -1.8949707550E+00  4.6573649067E-02  -1.6413481121E+00
    61  -1.4908981476E-01  1.6599785296E+00  -2.2348997815E-03
    62  -1.4683274789E+00  -4.8463255224E+00  -1.5807005540E-01
    63  1.4909253692E-01  -1.6599757855E+00  2.2329561488E-03
    64  1.4683271858E+00  4.8463255156E+00  1.5807203574E-01
    65  6.3127026060E-01  -1.1760936659E+00  4.8001408968E-01
    66  1.6256887369E+00  3.1985815896E+00  -4.2757293957E-01
    67  -6.3127083543E-01  1.1760939934E+00  -4.8001227151E-01
    68  -1.6256880922E+00  -3.1985807812E+00  4.2757360057E-01
    69  -1.2419815838E+00  -7.0856504592E-01  6.4589092430E-01
    70  1.3222538635E+00  -6.7585074533E-01  -6.2089459045E-01
    71  1.2419792218E+00  7.0856574541E-01  -6.4588880729E-01
    72  -1.3222533675E+00  6.7585035134E-01  6.2089542391E-01
    73  5.1258144092E-01  -6.2058829538E-01  -1.3471068148E+00
    74  -7.4027818752E-01  -1.8804349540E+00  2.4189004070E+00
    75  -5.1258219342E-01  6.2058391748E-01  1.3471057296E+00
    76  7.4027637921E-01  1.8804354649E+00  -2.4189005421E+00
    77  8.1519577227E-01  -1.1860908964E-01  6.2525184051E-01
    78  -1.8922498529E+00  -7.2470953849E-01  -1.4871393579E+00
    79  -8.1519464199E-01  1.1860849379E-01  -6.2525180281E-01
    80  1.8922506046E+00  7.2470971544E-01  1.4871382619E+00
    81  1.2902449404E+00  4.0358021572E-01  -2.5083011844E-01
    82  -1.3786280736E+00  4.9212556149E-01  3.2689636294E-01
    83  -1.2902430847E+00  -4.0358155385E-01  2.5083109189E-01
    84  1.3786276800E+00  -4.9212541460E-01  -3.2689595499E-01
    85  8.3308519385E-01  -7.8925547451E-02  5.5679110064E-01
    86  -8.5773433821E-01  -5.3746830295E-02  -5.2745095493E-01
    87  -8.3308451792E-01  7.8926030835E-02  -5.5679069782E-01
    88  8.5773405665E-01  5.3746742559E-02  5.2745096156E-01
    89  2.4317757687E-01  -6.7951661219E-01  -1.4431878744E+00
    90  -2.6176070553E-01  -6.3186954973E-01  1.4893807977E+00
    91  -2.4317727864E-01  6.7951379998E-01  1.4431857190E+00
    92  2.6176020824E-01  6.3187037440E-01  -1.4893810351E+00
    93  -3.9375221767E-01  1.5646132757E+00  -1.9997373675E-01
    94  3.6792728913E-01  1.6359438196E+00  2.4832872496E-01
    95  3.9375348901E-01  -1.5646102053E+00  1.9997050547E-01
    96  -3.6792696588E-01  -1.6359437615E+00  -2.4832908927E-01
  Stress tensor (eV/A^3):
  8.5430101712E-02  -4.2299144772E-03  1.9538532536E-02
  -4.2299144772E-03  8.0879023428E-02  3.0883655623E-05
  1.9538532536E-02  3.0883655623E-05  8.4505486107E-02
