  Invoking FHI-aims ...
  | Number of atoms                   :  96
  ...scf iterations...
  | Total energy corrected        :   -7.395797638740E+01 eV
  ...
  Total atomic forces (unitary forces cleaned)
     1  -2.3238931036E-01  5.8642795753E-01  1.8629635699E-01
     2  2.1741238758E-01  5.7409120708E-01  -1.9225951852E-01
     3  2.3238937195E-01  -5.8642787343E-01  -1.8629631030E-01
     4  -2.1741225161E-01  -5.7409106755E-01  1.9225959890E-01
     5  -8.5044020101E-01  1.2331766811E+00  1.1116374340E-01
     6  8.5186226906E-01  1.2503356880E+00  -1.0912479958E-01
     7  8.5044053748E-01  -1.2331765465E+00  -1.1116337763E-01
     8  -8.5186238427E-01  -1.2503358240E+00  1.0912508984E-01
     9  -2.4781301545E-01  1.6329183343E-01  -1.3192488880E-01
    10  2.4548543746E-01  1.6171951750E-01  1.3070256448E-01
    11  2.4781261274E-01  -1.6329172137E-01  1.3192457560E-01
    12  -2.4548580339E-01  -1.6171961939E-01  -1.3070254603E-01
    13  -4.3692951283E-01  -9.3169245846E-01  -9.4061731109E-01
    14  4.4952645702E-01  -9.3024642470E-01  9.5052163993E-01
    15  4.3692897544E-01  9.3169257474E-01  9.4061706504E-01
    16  -4.4952654595E-01  9.3024666823E-01  -9.5052111530E-01
    17  8.3901908226E-01  -1.1939426706E+00  -1.1306883308E-01
    18  -8.6687546475E-01  -1.2084312834E+00  1.0160132016E-01
    19  -8.3901877570E-01  1.1939431974E+00  1.1306915517E-01
    20  8.6687541145E-01  1.2084313843E+00  -1.0160181684E-01
    21  9.7724664552E-02  -4.6677421811E-01  -1.7009560208E-01
    22  -8.5030069285E-02  -4.4429745175E-01  1.6706188245E-01
    23  -9.7724717601E-02  4.6677387872E-01  1.7009534995E-01
    24  8.5030040701E-02  4.4429744052E-01  -1.6706193969E-01
    25  6.0666585803E-01  2.7216636721E-02  4.8860893480E-01
    26  -6.0468630644E-01  1.4956289408E-02  -4.8049035843E-01
    27  -6.0666620280E-01  -2.7216966911E-02  -4.8860928266E-01
    28  6.0468688457E-01  -1.4956033684E-02  4.8049021227E-01
    29  5.3379586210E-01  9.5152329823E-01  1.0728575254E+00
    30  -5.2943653544E-01  9.5714579107E-01  -1.0729397448E+00
    31  -5.3379576818E-01  -9.5152336497E-01  -1.0728575655E+00
    32  5.2943624375E-01  -9.5714615466E-01  1.0729394996E+00
    33  2.2189598806E-02  4.3108175518E-01  3.2587347032E-01
    34  -2.1848351762E-02  4.2976517597E-01  -3.2489105651E-01
    35  -2.2189388395E-02  -4.3108187317E-01  -3.2587333744E-01
    36  2.1848436554E-02  -4.2976518116E-01  3.2489090248E-01
    37  -1.0876160429E+00  1.1562804433E+00  -5.0963129791E-02
    38  1.0852928928E+00  1.1607327153E+00  4.6409445714E-02
    39  1.0876159386E+00  -1.1562804278E+00  5.0963329397E-02
    40  -1.0852924702E+00  -1.1607326389E+00  -4.6408988882E-02
    41  -3.4696461125E-01  4.4589780145E-01  6.0987108135E-03
    42  3.4581893894E-01  4.4479615737E-01  -6.3078100181E-03
    43  3.4696470985E-01  -4.4589791424E-01  -6.0986503765E-03
    44  -3.4581894483E-01  -4.4479621803E-01  6.3078838169E-03
    45  -2.0593810119E+00  1.3016492542E-01  -1.3754206986E+00
    46  2.0276273484E+00  1.0372848162E-01  1.3748449545E+00
    47  2.0593787333E+00  -1.3016482868E-01  1.3754181136E+00
    48  -2.0276280198E+00  -1.0372841137E-01  -1.3748449151E+00
    49  -2.2816276488E+01  1.9536607661E+00  1.3381374933E+01
    50  2.9878460844E+01  1.1856739001E+01  -1.8692712009E+01
    51  2.2815867998E+01  -1.9535459608E+00  -1.3381163293E+01
    52  -2.9878458035E+01  -1.1856653943E+01  1.8692704022E+01
    53  1.2716068987E+01  1.1035999492E+01  -5.2241689137E+00
    54  -1.3529047390E+01  1.2426835470E+01  5.5430883509E+00
    55  -1.2715832068E+01  -1.1035825131E+01  5.2240658755E+00
    56  1.3529080381E+01  -1.2426866956E+01  -5.5431080621E+00
    57  1.0650909785E+00  -1.7449268144E-01  9.0392379722E-01
    58  -5.7903846532E-01  -1.0255169063E-01  -4.2424289117E-01
    59  -1.0650781982E+00  1.7448971159E-01  -9.0391212262E-01
    60  5.7903741015E-01  1.0255105128E-01  4.2424205502E-01
    61  7.8306813516E+00  -1.2680788710E+01  -5.0850851482E+00
    62  -1.4556776985E+01  -2.4027836661E+01  9.6199415981E+00
    63  -7.8305253149E+00  1.2680504986E+01  5.0849722664E+00
    64  1.4556743200E+01  2.4027783003E+01  -9.6199126781E+00
    65  -2.3877044824E+00  -1.3494719506E+01  -8.1256894426E+00
    66  2.6722599561E+00  -1.3242999854E+01  7.6321190651E+00
    67  2.3876656399E+00  1.3494591025E+01  8.1255703516E+00
    68  -2.6722707327E+00  1.3242997170E+01  -7.6320881112E+00
    69  5.3547091992E+00  8.6594286363E+00  -7.3973367697E-01
    70  -5.5308381606E+00  8.6973274507E+00  7.9035740516E-01
    71  -5.3546473803E+00  -8.6593365527E+00  7.3971841937E-01
    72  5.5308388667E+00  -8.6973270536E+00  -7.9036173914E-01
    73  -1.8389757559E+00  1.4957558574E+00  7.5779483790E+00
    74  1.7294807368E+00  1.2249495151E+00  -7.1599564652E+00
    75  1.8389474899E+00  -1.4957254822E+00  -7.5778176247E+00
    76  -1.7294710311E+00  -1.2249469344E+00  7.1599308663E+00
    77  9.1853752331E-01  -2.3507316940E-01  5.3138716197E-01
    78  -9.0158483568E-01  -2.3849257192E-01  -5.2527464122E-01
    79  -9.1853165384E-01  2.3507143085E-01  -5.3138430460E-01
    80  9.0158432640E-01  2.3849237324E-01  5.2527394508E-01
    81  -2.9207567411E+00  2.0021149452E+01  -1.0818163992E+01
    82  2.9256370609E+00  2.0018532029E+01  1.0813235960E+01
    83  2.9206529198E+00  -2.0020861766E+01  1.0818171809E+01
    84  -2.9256355327E+00  -2.0018534914E+01  -1.0813251304E+01
    85  1.1067806832E+00  3.8037084713E-02  5.7737863901E-01
    86  -1.1014348051E+00  3.6180921732E-02  -5.7576014006E-01
    87  -1.1067768091E+00  -3.8036662712E-02  -5.7737704314E-01
    88  1.1014338903E+00  -3.6181003532E-02  5.7575973789E-01
    89  -2.1552261049E+00  -1.6575078118E+00  1.1397556584E+01
    90  2.1549800666E+00  -1.6515108283E+00  -1.1401205660E+01
    91  2.1552262482E+00  1.6575084885E+00  -1.1397554509E+01
    92  -2.1549804009E+00  1.6515092636E+00  1.1401213362E+01
    93  6.3925692668E+00  -1.5152065698E+01  -2.1535562973E+00
    94  -6.4025991790E+00  -1.5162770056E+01  2.1560129516E+00
    95  -6.3924645932E+00  1.5151781827E+01  2.1535406529E+00
    96  6.4025991318E+00  1.5162775266E+01  -2.1560058475E+00
  Stress tensor (eV/A^3):
  -1.6471662652E-02  -9.5246385572E-03  8.2387189039E-02
  -9.5246385572E-03  -1.2332768048E-01  6.2425479516E-03
  8.2387189039E-02  6.2425479516E-03  -3.6113774845E-02
