  Invoking FHI-aims ...
  | Number of atoms                   :  96
  ...scf iterations...
  | Total energy corrected        :   -9.250525733711E+01 eV
  ...
  Total atomic forces (unitary forces cleaned)
     1  -2.7383800179E-01  6.0259921302E-01  1.8957345609E-01
     2  2.1445292436E-01  5.6692978141E-01  -1.9257409414E-01
     3  2.7383807191E-01  -6.0259912426E-01  -1.8957339232E-01
     4  -2.1445277614E-01  -5.6692959440E-01  1.9257416352E-01
     5  -8.1242496220E-01  1.6262686061E+00  2.9089843765E-01
     6  8.2452326760E-01  1.3522883541E+00  -3.9014014283E-01
     7  8.1242528486E-01  -1.6262684651E+00  -2.9089806859E-01
     8  -8.2452346463E-01  -1.3522884861E+00  3.9014045248E-01
     9  -3.4914146970E-01  2.3166661131E-01  -1.7567291261E-01
    10  9.0693258758E-01  6.5014930058E-01  1.4742430075E-01
    11  3.4914106170E-01  -2.3166640049E-01  1.7567257183E-01
    12  -9.0693294099E-01  -6.5014949692E-01  -1.4742407105E-01
    13  -5.1168578533E-01  -9.9947783247E-01  -1.0619407323E+00
    14  -3.8701013110E-02  -1.4451400242E+00  1.1229345561E+00
    15  5.1168518036E-01  9.9947796440E-01  1.0619404368E+00
    16  3.8700897776E-02  1.4451403645E+00  -1.1229339648E+00
    17  4.3840424069E-01  -5.9786861485E-01  -4.8038334000E-02
    18  -3.0037031721E-01  -7.9378395138E-01  5.0892967584E-01
    19  -4.3840345385E-01  5.9786863480E-01  4.8038844410E-02
    20  3.0037002547E-01  7.9378386192E-01  -5.0893005482E-01
    21  5.9849824096E-01  -1.1697956988E+00  -2.4013075903E-01
    22  -5.9684002379E-01  -1.2375545429E+00  2.8575944277E-01
    23  -5.9849877472E-01  1.1697960053E+00  2.4013030501E-01
    24  5.9683992866E-01  1.2375547712E+00  -2.8575969179E-01
    25  8.5547859279E-01  3.2847946141E-02  7.1056944813E-01
    26  -9.7179853181E-01  2.3810337417E-01  -1.1577392773E+00
    27  -8.5547923462E-01  -3.2848372833E-02  -7.1057009849E-01
    28  9.7179957629E-01  -2.3810310676E-01  1.1577389977E+00
    29  4.8419279627E-01  3.7301918471E-01  6.3787285129E-01
    30  -4.5993607524E-01  4.1459929176E-01  -6.4809254695E-01
    31  -4.8419264780E-01  -3.7301917563E-01  -6.3787290569E-01
    32  4.5993556543E-01  -4.1459944970E-01  6.4809217968E-01
    33  1.9146822142E-01  1.0262054779E+00  9.0375599835E-01
    34  -1.7926964946E-01  1.0628539400E+00  -8.7378390396E-01
    35  -1.9146808252E-01  -1.0262057816E+00  -9.0375573851E-01
    36  1.7926997641E-01  -1.0628542625E+00  8.7378374739E-01
    37  -7.1966210937E-01  5.3841493449E-01  -2.0649066529E-01
    38  7.3197459708E-01  5.7138724333E-01  1.8740626918E-01
    39  7.1966216810E-01  -5.3841517290E-01  2.0649071223E-01
    40  -7.3197449917E-01  -5.7138747532E-01  -1.8740581545E-01
    41  -8.5018583237E-01  1.1320260824E+00  7.8393101216E-02
    42  8.5339778414E-01  1.1419193806E+00  -7.4476300828E-02
    43  8.5018576752E-01  -1.1320259536E+00  -7.8392865348E-02
    44  -8.5339753360E-01  -1.1419191019E+00  7.4476468367E-02
    45  -1.1370569793E+00  2.1720312519E-01  -5.5261760868E-01
    46  -1.3445226037E+00  -3.6965193917E+00  2.4115575777E-01
    47  1.1370862501E+00  -2.1719422004E-01  5.5264691123E-01
    48  1.3445203549E+00  3.6965156181E+00  -2.4115826393E-01
    49  -5.4783813980E+00  1.3721217410E+00  3.5090334230E+00
    50  9.6576634559E+00  1.1037460591E+01  -9.2326327126E+00
    51  5.4782904327E+00  -1.3720867053E+00  -3.5090136432E+00
    52  -9.6576580221E+00  -1.1037449371E+01  9.2326324269E+00
    53  1.6804236998E+00  4.6896958192E-01  -1.2317061274E+00
    54  -7.4321069669E-01  -8.0030536453E-01  7.7242795034E-01
    55  -1.6803721667E+00  -4.6895305014E-01  1.2316725306E+00
    56  7.4321640697E-01  8.0030177457E-01  -7.7243116154E-01
    57  1.6072353506E+00  -2.6022516428E-01  1.5308267901E+00
    58  3.1900714984E-01  9.1357609247E-03  6.9680361935E-01
    59  -1.6072265275E+00  2.6022249857E-01  -1.5308177042E+00
    60  -3.1900950494E-01  -9.1363728509E-03  -6.9680502422E-01
    61  1.1138372756E+00  -1.1061760236E+00  -9.0306066765E-01
    62  -8.2010439447E+00  -9.8480582703E+00  5.3991397678E+00
    63  -1.1138032171E+00  1.1061258352E+00  9.0303167961E-01
    64  8.2010356010E+00  9.8480497104E+00  -5.3991311697E+00
    65  -3.2835272526E-01  -3.0845408536E+00  -1.1092224479E+00
    66  3.9534635566E+00  1.1697549855E+00  -5.0060078989E-01
    67  3.2832802084E-01  3.0845232315E+00  1.1092038913E+00
    68  -3.9534619845E+00  -1.1697543954E+00  5.0060633140E-01
    69  -1.3183993862E-01  2.3261396423E-01  4.0964729709E-01
    70  -8.1058208912E-02  5.7096813890E-01  -4.0352691757E-01
    71  1.3185390695E-01  -2.3259069763E-01  -4.0964850441E-01
    72  8.1058004288E-02  -5.7096736728E-01  4.0352635990E-01
    73  4.3238213755E-01  1.7596925952E-01  -5.8159165817E-01
    74  -9.1526757024E-01  -4.3256289038E-01  2.0582499001E+00
    75  -4.3238589252E-01  -1.7596048814E-01  5.8161186261E-01
    76  9.1526762282E-01  4.3256594577E-01  -2.0582549882E+00
    77  1.3703169918E+00  -3.8544087518E-01  8.5004129822E-01
    78  -1.7842650572E+00  -5.9169560141E-01  -1.1582030399E+00
    79  -1.3703134637E+00  3.8543900439E-01  -8.5004018251E-01
    80  1.7842656459E+00  5.9169566821E-01  1.1582023955E+00
    81  -9.6139334151E-02  4.5835395089E+00  -2.6149719773E+00
    82  1.1501579317E-01  4.6249718511E+00  2.6868175826E+00
    83  9.6107315546E-02  -4.5834945339E+00  2.6149346113E+00
    84  -1.1501382237E-01  -4.6249711280E+00  -2.6868268004E+00
    85  1.7143175826E+00  8.3035483857E-02  8.5135553720E-01
    86  -1.7496473388E+00  1.0362410152E-01  -8.0812529341E-01
    87  -1.7143112260E+00  -8.3035019399E-02  -8.5135265299E-01
    88  1.7496471013E+00  -1.0362413183E-01  8.0812515854E-01
    89  -2.4111467865E-02  -5.2473250437E-01  2.0037492824E-01
    90  6.8076458760E-03  -4.9472091612E-01  -1.4268585305E-01
    91  2.4105771978E-02  5.2472431062E-01  -2.0034793226E-01
    92  -6.8093220829E-03  4.9472229618E-01  1.4269293986E-01
    93  2.8199672849E-01  -1.8335117979E+00  3.9949550628E-01
    94  -2.9223297087E-01  -1.7479943241E+00  -3.7200835033E-01
    95  -2.8198632076E-01  1.8334540694E+00  -3.9948517274E-01
    96  2.9223232358E-01  1.7479931628E+00  3.7201010643E-01
  Stress tensor (eV/A^3):
  6.6540527476E-02  -1.6910774143E-02  4.2416430549E-02
  -1.6910774143E-02  4.0573091518E-02  7.0221817249E-03
  4.2416430549E-02  7.0221817249E-03  6.3754897160E-02
