  Invoking FHI-aims ...
  | Number of atoms                   :  96
  ...scf iterations...
  | Total energy corrected        :   -8.274602522653E+01 eV
  ...
  Total atomic forces (unitary forces cleaned)
     1  -2.3291194324E-01  5.9219168333E-01  1.8572621009E-01
     2  2.0973100044E-01  5.7173584796E-01  -1.9305048123E-01
     3  2.3291205475E-01  -5.9219159561E-01  -1.8572613845E-01
     4  -2.0973086591E-01  -5.7173563238E-01  1.9305054541E-01
     5  -8.2936962295E-01  1.3375839512E+00  1.6469205022E-01
     6  8.3304733682E-01  1.3890233068E+00  -2.2517067020E-01
     7  8.2936979943E-01  -1.3375838194E+00  -1.6469180407E-01
     8  -8.3304762026E-01  -1.3890234256E+00  2.2517097821E-01
     9  -2.6623595995E-01  1.8426101767E-01  -1.4721718737E-01
    10  3.5030489764E-01  2.6248276460E-01  1.3875317048E-01
    11  2.6623566397E-01  -1.8426065645E-01  1.4721694191E-01
    12  -3.5030532333E-01  -2.6248309121E-01  -1.3875296460E-01
    13  -4.5259166881E-01  -9.3021608118E-01  -9.8052790715E-01
    14  3.8076095923E-01  -1.0112669197E+00  1.0030098157E+00
    15  4.5259114571E-01  9.3021613249E-01  9.8052763484E-01
    16  -3.8076104421E-01  1.0112673313E+00  -1.0030091066E+00
    17  6.7740231357E-01  -9.7182586375E-01  -9.2577830181E-02
    18  -6.7612240795E-01  -1.0400913155E+00  1.7105304506E-01
    19  -6.7740183889E-01  9.7182634514E-01  9.2578235226E-02
    20  6.7612223188E-01  1.0400913531E+00  -1.7105357437E-01
    21  2.7420013864E-01  -7.1566697323E-01  -1.9953352023E-01
    22  -2.6326011260E-01  -7.0521079389E-01  2.0345866981E-01
    23  -2.7420034721E-01  7.1566689777E-01  1.9953303673E-01
    24  2.6325996069E-01  7.0521087509E-01  -2.0345885367E-01
    25  6.6361935192E-01  7.4872425590E-03  5.7131673346E-01
    26  -6.8769383028E-01  5.5551950382E-02  -6.5515970862E-01
    27  -6.6361941886E-01  -7.4876064169E-03  -5.7131692638E-01
    28  6.8769465590E-01  -5.5551814557E-02  6.5515949859E-01
    29  4.9383229006E-01  7.2061662239E-01  9.0005634522E-01
    30  -4.8733827716E-01  7.3033312709E-01  -9.0140667678E-01
    31  -4.9383228337E-01  -7.2061677267E-01  -9.0005636311E-01
    32  4.8733810836E-01  -7.3033338635E-01  9.0140642868E-01
    33  7.0428174546E-02  6.4635821012E-01  5.0747699752E-01
    34  -6.6053407396E-02  6.4958419623E-01  -5.0081565063E-01
    35  -7.0428152908E-02  -6.4635838877E-01  -5.0747676747E-01
    36  6.6053592512E-02  -6.4958430541E-01  5.0081544390E-01
    37  -9.1853699585E-01  9.4358548593E-01  -1.0349244696E-01
    38  9.1723187659E-01  9.5170060372E-01  9.6470489594E-02
    39  9.1853697821E-01  -9.4358560018E-01  1.0349257725E-01
    40  -9.1723167395E-01  -9.5170054283E-01  -9.6470081740E-02
    41  -5.1679539030E-01  6.9875862966E-01  2.9680150466E-02
    42  5.1655337186E-01  6.9814765435E-01  -3.0747780818E-02
    43  5.1679542625E-01  -6.9875869770E-01  -2.9679983959E-02
    44  -5.1655330184E-01  -6.9814759310E-01  3.0747908254E-02
    45  -1.8790293642E+00  1.6440057856E-01  -1.2419639437E+00
    46  1.9068993045E+00  1.4713118903E-01  1.2323499014E+00
    47  1.8790241493E+00  -1.6440033695E-01  1.2419610274E+00
    48  -1.9069001576E+00  -1.4713130209E-01  -1.2323494817E+00
    49  -7.8138212318E+00  3.3751525474E+00  5.9476268719E+00
    50  8.6719071057E+00  9.4964115007E+00  -8.5412228614E+00
    51  7.8137498798E+00  -3.3750960497E+00  -5.9475839477E+00
    52  -8.6719061996E+00  -9.4964063735E+00  8.5412242508E+00
    53  4.1087032484E+00  2.2350840059E+00  -2.2431756891E+00
    54  -3.8607428869E+00  2.0695833565E+00  2.1463948594E+00
    55  -4.1086520927E+00  -2.2350677091E+00  2.2431484046E+00
    56  3.8607464485E+00  -2.0695857612E+00  -2.1463985395E+00
    57  1.0004471094E+00  -1.8774648114E-01  8.5175707273E-01
    58  5.2621807568E-01  6.3016467642E-02  5.8984575535E-01
    59  -1.0004452479E+00  1.8774512195E-01  -8.5175471022E-01
    60  -5.2622009381E-01  -6.3017115220E-02  -5.8984682722E-01
    61  1.8202334044E+00  -4.5599059306E+00  -1.0223181484E+00
    62  -4.4488699167E+00  -1.0705793900E+01  2.2664769275E+00
    63  -1.8202152742E+00  4.5598394043E+00  1.0223062808E+00
    64  4.4488688820E+00  1.0705791207E+01  -2.2664734272E+00
    65  -6.2151399257E-01  -5.7645760056E+00  -1.5644892220E+00
    66  1.3206640525E+00  -5.1169703261E+00  -6.3535131286E-02
    67  6.2148821121E-01  5.7645276328E+00  1.5644680541E+00
    68  -1.3206640824E+00  5.1169662802E+00  6.3541856365E-02
    69  1.3517606281E+00  1.7967256453E+00  -2.8923888360E-01
    70  -1.3676470782E+00  1.7927213716E+00  2.8361172590E-01
    71  -1.3517343982E+00  -1.7966973764E+00  2.8922827171E-01
    72  1.3676458255E+00  -1.7927194834E+00  -2.8361237151E-01
    73  -1.2137129734E-01  6.8937426271E-01  1.2603025575E+00
    74  -3.8354010599E-01  6.8036619735E-03  4.9341583753E-01
    75  1.2136522732E-01  -6.8936025912E-01  -1.2602714591E+00
    76  3.8354108304E-01  -6.8014090140E-03  -4.9342090673E-01
    77  8.2532198254E-01  -2.0686708940E-01  5.5158956158E-01
    78  -1.0246137081E+00  -2.5175204027E-01  -6.9040488361E-01
    79  -8.2531703876E-01  2.0686550042E-01  -5.5158684030E-01
    80  1.0246133907E+00  2.5175188741E-01  6.9040402792E-01
    81  9.1846174235E-01  6.8593719136E+00  -5.2040698222E+00
    82  -9.3562577153E-01  6.8725965417E+00  5.2239895459E+00
    83  -9.1845798398E-01  -6.8593217886E+00  5.2039905737E+00
    84  9.3562902421E-01  -6.8725924922E+00  -5.2240062898E+00
    85  1.0306136724E+00  -1.9930795018E-02  5.6357560451E-01
    86  -1.0333561762E+00  -1.9654195717E-02  -5.5622749149E-01
    87  -1.0306093351E+00  1.9931079054E-02  -5.6357331417E-01
    88  1.0333561273E+00  1.9654084597E-02  5.5622757016E-01
    89  -6.5029363393E-01  4.1296205539E-02  2.9616436016E+00
    90  6.4948939549E-01  4.5476470942E-02  -2.9603077446E+00
    91  6.5028052550E-01  -4.1288060691E-02  -2.9615822707E+00
    92  -6.4949194675E-01  -4.5478491897E-02  2.9603211132E+00
    93  1.1748126882E+00  -4.5229213741E+00  2.9083527573E-01
    94  -1.1782938790E+00  -4.5087964513E+00  -2.8693292000E-01
    95  -1.1748011776E+00  4.5228649064E+00  -2.9082524893E-01
    96  1.1782930452E+00  4.5087954221E+00  2.8693536492E-01
  Stress tensor (eV/A^3):
  4.7388425431E-02  -5.3325120879E-03  4.0779993309E-02
  -5.3325120879E-03  9.4727351717E-03  4.3164218322E-04
  4.0779993309E-02  4.3164218322E-04  4.3785276747E-02
