  Invoking FHI-aims ...
  | Number of atoms                   :  96
  ...scf iterations...
  | Total energy corrected        :   -9.128112102632E+01 eV
  ...
  Total atomic forces (unitary forces cleaned)
     1  -3.0928250635E-01  5.9423035366E-01  1.9246389574E-01
     2  2.3498460857E-01  5.7808518114E-01  -1.8161613209E-01
     3  3.0928240861E-01  -5.9423024118E-01  -1.9246389020E-01
     4  -2.3498452819E-01  -5.7808519562E-01  1.8161624073E-01
     5  -8.2269007358E-01  1.6145575188E+00  2.2544465699E-01
     6  9.4689179500E-01  -1.4692967294E+00  1.9362668876E+00
     7  8.2269104764E-01  -1.6145573091E+00  -2.2544381007E-01
     8  -9.4689151835E-01  1.4692965383E+00  -1.9362666006E+00
     9  -4.3925514494E-01  2.4200240075E-01  -1.9175480196E-01
    10  7.4702924729E-01  1.7431006431E-01  1.6098796810E-01
    11  4.3925431062E-01  -2.4200303423E-01  1.9175406581E-01
    12  -7.4702995774E-01  -1.7431005467E-01  -1.6098835903E-01
    13  -5.5269679339E-01  -1.1021042759E+00  -1.0626306569E+00
    14  1.9857177147E-01  -1.1056042802E+00  1.1244353298E+00
    15  5.5269591183E-01  1.1021046295E+00  1.0626303195E+00
    16  -1.9857163414E-01  1.1056046866E+00  -1.1244353290E+00
    17  3.6914809270E-01  -4.6169322763E-01  -1.1750565811E-02
    18  -5.7414148852E-01  1.7209007209E-01  -3.2712454702E-01
    19  -3.6914749412E-01  4.6169353747E-01  1.1751149103E-02
    20  5.7414162884E-01  -1.7209062224E-01  3.2712460855E-01
    21  7.5860973332E-01  -1.3081547569E+00  -1.8587252089E-01
    22  -7.5831034312E-01  -1.4395479991E+00  2.8165816793E-01
    23  -7.5860985701E-01  1.3081548356E+00  1.8587251749E-01
    24  7.5831053156E-01  1.4395483341E+00  -2.8165830846E-01
    25  1.0635463441E+00  1.1635751334E-01  7.5401447108E-01
    26  -8.5660954668E-01  -5.2719524334E-01  -3.9401114985E-01
    27  -1.0635463126E+00  -1.1635825571E-01  -7.5401479277E-01
    28  8.5660989474E-01  5.2719618176E-01  3.9401074723E-01
    29  4.7535915237E-01  2.6999701092E-01  5.3233187038E-01
    30  -4.4716671205E-01  3.5656529992E-01  -5.6413182648E-01
    31  -4.7535903354E-01  -2.6999715188E-01  -5.3233245263E-01
    32  4.4716573588E-01  -3.5656573643E-01  5.6413158594E-01
    33  1.8224062248E-01  1.2158936639E+00  9.9647355166E-01
    34  -1.7888011077E-01  1.2465004271E+00  -9.9998714812E-01
    35  -1.8224041086E-01  -1.2158932883E+00  -9.9647324602E-01
    36  1.7888010491E-01  -1.2465005603E+00  9.9998710140E-01
    37  -6.8717286697E-01  3.5099579636E-01  -2.2511340478E-01
    38  7.2294072646E-01  4.1991036849E-01  1.8666284512E-01
    39  6.8717305703E-01  -3.5099613403E-01  2.2511370737E-01
    40  -7.2294048788E-01  -4.1991112763E-01  -1.8666225186E-01
    41  -1.0338798575E+00  1.2691420128E+00  9.9539045931E-02
    42  1.0441152873E+00  1.2858565878E+00  -9.8104156821E-02
    43  1.0338796689E+00  -1.2691414857E+00  -9.9539014055E-02
    44  -1.0441148747E+00  -1.2858562431E+00  9.8104189844E-02
    45  -1.8983988242E+00  8.9295468863E-02  -1.2647552129E+00
    46  6.6176329773E-01  -1.8601193515E+00  3.4542652439E-01
    47  1.8983985255E+00  -8.9294166456E-02  1.2647544034E+00
    48  -6.6176505653E-01  1.8601179941E+00  -3.4542721533E-01
    49  2.7923511763E-01  -4.4234999207E-01  1.2477353122E+00
    50  2.6775661496E-01  7.1341896895E-01  -4.1645634908E+00
    51  -2.7923978114E-01  4.4234769684E-01  -1.2477345068E+00
    52  -2.6775606605E-01  -7.1341833099E-01  4.1645670528E+00
    53  -9.0394001316E-01  -1.9516671113E+00  -1.7140471259E-01
    54  5.5804282281E-01  -2.6979840568E+00  4.1125063168E-01
    55  9.0394050708E-01  1.9516688837E+00  1.7140432766E-01
    56  -5.5804259375E-01  2.6979838343E+00  -4.1125014157E-01
    57  1.1142556681E+00  -1.5748701753E-01  9.3892078446E-01
    58  1.4580054512E+00  3.3008406787E-01  1.3432445792E+00
    59  -1.1142539066E+00  1.5748589775E-01  -9.3891893093E-01
    60  -1.4580070957E+00  -3.3008456928E-01  -1.3432462444E+00
    61  -1.5519259194E+00  1.2189543161E+00  1.0952031043E+00
    62  -1.3991501216E+00  7.5121647485E-01  8.3373198832E-01
    63  1.5519274305E+00  -1.2189548676E+00  -1.0952031649E+00
    64  1.3991504127E+00  -7.5121655979E-01  -8.3373194702E-01
    65  1.2416181887E+00  -5.0891134291E-01  -3.5841769825E-02
    66  8.0436799686E-01  8.6140376120E-01  3.7340525869E-01
    67  -1.2416193954E+00  5.0891111876E-01  3.5841669125E-02
    68  -8.0436713075E-01  -8.6140250140E-01  -3.7340473935E-01
    69  -4.5941907376E-01  -2.1344068653E+00  -1.6576077278E-01
    70  8.8370241729E-01  -2.5781321490E+00  -9.3293497376E-02
    71  4.5941919656E-01  2.1344059071E+00  1.6576061292E-01
    72  -8.8370280266E-01  2.5781312657E+00  9.3293984379E-02
    73  5.5591822118E-01  6.7849003648E-01  -2.1049141439E+00
    74  -6.1450371391E-01  8.5220392900E-01  1.8314368649E+00
    75  -5.5591824702E-01  -6.7848955160E-01  2.1049123518E+00
    76  6.1450413144E-01  -8.5220298403E-01  -1.8314389091E+00
    77  1.1885725611E+00  -1.1242293192E-01  6.5722787215E-01
    78  -2.1060719671E+00  -4.1567453236E-01  -1.1631145006E+00
    79  -1.1885704562E+00  1.1242246761E-01  -6.5722780034E-01
    80  2.1060724529E+00  4.1567467582E-01  1.1631146451E+00
    81  9.5714617592E-01  8.4982936392E-01  5.1768833417E-01
    82  -1.0168683211E+00  1.2375302062E+00  -4.6478166402E-01
    83  -9.5714998320E-01  -8.4982782679E-01  -5.1768654533E-01
    84  1.0168691495E+00  -1.2375305736E+00  4.6478182142E-01
    85  1.3105346681E+00  1.0028233973E-01  7.2154884357E-01
    86  -1.3852609138E+00  2.1723720525E-01  -7.1214670986E-01
    87  -1.3105324329E+00  -1.0028174859E-01  -7.2154776875E-01
    88  1.3852602989E+00  -2.1723709082E-01  7.1214648304E-01
    89  3.1499884428E-01  1.0091638608E+00  -1.9843994658E+00
    90  -3.2113181763E-01  1.1321634317E+00  2.0471628561E+00
    91  -3.1499844125E-01  -1.0091623523E+00  1.9843980361E+00
    92  3.2113207278E-01  -1.1321627902E+00  -2.0471630772E+00
    93  -1.1837050833E+00  1.3645212677E+00  1.1847431269E+00
    94  1.2070803268E+00  1.5048913465E+00  -1.1748039419E+00
    95  1.1837064556E+00  -1.3645230336E+00  -1.1847440252E+00
    96  -1.2070799764E+00  -1.5048915513E+00  1.1748034720E+00
  Stress tensor (eV/A^3):
  9.6563525485E-02  -3.9342918069E-03  2.2376705477E-02
  -3.9342918069E-03  1.1321143193E-01  3.6720947671E-03
  2.2376705477E-02  3.6720947671E-03  8.0962144919E-02
