  Invoking FHI-aims ...
  | Number of atoms                   :  96
  ...scf iterations...
  | Total energy corrected        :   -9.579269595903E+01 eV
  ...
  Total atomic forces (unitary forces cleaned)
     1  -3.3553679900E-01  5.9984035211E-01  2.0134272044E-01
     2  2.6155965423E-01  6.0338603762E-01  -1.8503827075E-01
     3  3.3553668606E-01  -5.9984022242E-01  -2.0134270946E-01
     4  -2.6155957254E-01  -6.0338605765E-01  1.8503838668E-01
     5  -7.7017163522E-01  7.4500422950E-01  -3.0228041170E-01
     6  1.2645598827E+00  -3.0636386228E+00  4.1342661814E+00
     7  7.7017275723E-01  -7.4500399790E-01  3.0228137657E-01
     8  -1.2645595115E+00  3.0636384084E+00  -4.1342658190E+00
     9  -5.0068773093E-01  3.0025248962E-01  -2.0026787894E-01
    10  -2.3480430635E+00  -2.1689438275E+00  2.1136926098E-01
    11  5.0068680454E-01  -3.0025326804E-01  2.0026698399E-01
    12  2.3480422434E+00  2.1689442500E+00  -2.1136998465E-01
    13  -5.7902436023E-01  -1.1487891060E+00  -1.1111943002E+00
    14  3.3294173592E+00  1.1704274718E+00  1.1710434020E+00
    15  5.7902337589E-01  1.1487895046E+00  1.1111939255E+00
    16  -3.3294172368E+00  -1.1704273936E+00  -1.1710432134E+00
    17  5.0479581561E-01  -6.3555299014E-01  -2.5385719282E-02
    18  -2.0614934834E+00  1.6103574981E+00  -2.9742007752E+00
    19  -5.0479518435E-01  6.3555335175E-01  2.5386362038E-02
    20  2.0614934281E+00  -1.6103574921E+00  2.9742004397E+00
    21  6.9035035360E-01  -1.1959926075E+00  -1.5978222295E-01
    22  -5.5200227234E-01  -1.2215655496E+00  3.2583282442E-01
    23  -6.9035044850E-01  1.1959926607E+00  1.5978220829E-01
    24  5.5200239662E-01  1.2215656984E+00  -3.2583290852E-01
    25  1.1846523057E+00  1.4174326689E-01  8.5328159470E-01
    26  1.3088950432E-01  -2.3968221011E+00  2.1705342569E+00
    27  -1.1846522887E+00  -1.4174409301E-01  -8.5328199837E-01
    28  -1.3088876565E-01  2.3968227945E+00  -2.1705343291E+00
    29  5.3954329723E-01  4.0988738126E-01  6.7049999692E-01
    30  -4.1388650571E-01  5.9794206498E-01  -7.2403847290E-01
    31  -5.3954319742E-01  -4.0988741019E-01  -6.7050050800E-01
    32  4.1388552264E-01  -5.9794260592E-01  7.2403828056E-01
    33  1.6384836423E-01  1.0992436692E+00  9.0914856118E-01
    34  -1.5456618417E-01  1.1881263717E+00  -9.3402208731E-01
    35  -1.6384818127E-01  -1.0992433892E+00  -9.0914833985E-01
    36  1.5456615465E-01  -1.1881265225E+00  9.3402204439E-01
    37  -8.3667779830E-01  4.7777846173E-01  -2.4609553107E-01
    38  8.7261473779E-01  6.2318167643E-01  1.2920214122E-01
    39  8.3667797870E-01  -4.7777865025E-01  2.4609590218E-01
    40  -8.7261447487E-01  -6.2318242066E-01  -1.2920153691E-01
    41  -9.4946323727E-01  1.1556178197E+00  8.0362967325E-02
    42  9.8362275254E-01  1.2076348977E+00  -9.1801515754E-02
    43  9.4946308583E-01  -1.1556173646E+00  -8.0362933433E-02
    44  -9.8362241394E-01  -1.2076346584E+00  9.1801564251E-02
    45  -1.8015770701E+00  1.0726774884E-01  -1.2258120641E+00
    46  -5.7399828092E-01  -2.2682892930E+00  -2.1637100276E+00
    47  1.8015794246E+00  -1.0726562011E-01  1.2258133607E+00
    48  5.7399792344E-01  2.2682883598E+00  2.1637081075E+00
    49  -3.4660765764E-02  -5.5025359758E-01  1.4198979020E+00
    50  -1.6613596909E-01  -6.3859939055E-01  -1.8171220375E+00
    51  3.4659323271E-02  5.5025292127E-01  -1.4198992970E+00
    52  1.6613490796E-01  6.3859964630E-01  1.8171245959E+00
    53  -7.9460184174E-01  -1.7549030421E+00  -1.9121141089E-01
    54  -8.9067890177E-02  -2.6950822519E+00  6.7285331763E-01
    55  7.9460176479E-01  1.7549034326E+00  1.9121098611E-01
    56  8.9067723178E-02  2.6950825251E+00  -6.7285252453E-01
    57  1.0874561491E+00  -1.5059319225E-01  9.0503395388E-01
    58  2.2857133869E+00  4.3668173073E-01  1.8758358626E+00
    59  -1.0874554790E+00  1.5059224580E-01  -9.0503315258E-01
    60  -2.2857128730E+00  -4.3668195708E-01  -1.8758358611E+00
    61  -1.3912680508E+00  1.1245795026E+00  9.6391340703E-01
    62  -1.6163145450E+00  1.7686754801E+00  7.9483477464E-01
    63  1.3912686274E+00  -1.1245793821E+00  -9.6391288568E-01
    64  1.6163143160E+00  -1.7686753965E+00  -7.9483477483E-01
    65  1.2368919595E+00  -6.9805527568E-01  -3.9746544353E-01
    66  2.9252778803E+00  4.8803044272E-01  1.7304039890E-01
    67  -1.2368940549E+00  6.9805675681E-01  3.9746672384E-01
    68  -2.9252783755E+00  -4.8803084580E-01  -1.7303869621E-01
    69  -4.1846355157E-01  -1.8611384451E+00  -1.2522994704E-01
    70  1.2374918328E+00  -2.2808174100E+00  -5.8782044717E-01
    71  4.1846353504E-01  1.8611369606E+00  1.2522982446E-01
    72  -1.2374921668E+00  2.2808165963E+00  5.8782059469E-01
    73  4.6892104218E-01  6.4078186416E-01  -1.8276420771E+00
    74  -8.7585958681E-01  1.3201822948E+00  2.1419650874E+00
    75  -4.6892098960E-01  -6.4078127062E-01  1.8276403596E+00
    76  8.7586000896E-01  -1.3201806566E+00  -2.1419676377E+00
    77  1.1644635773E+00  -1.0618754737E-01  6.5369840656E-01
    78  -2.5949028505E+00  -6.7472306041E-01  -1.5066780108E+00
    79  -1.1644622887E+00  1.0618717396E-01  -6.5369874324E-01
    80  2.5949035410E+00  6.7472331065E-01  1.5066781968E+00
    81  8.4258480413E-01  1.1600067282E+00  3.9636323117E-01
    82  -9.0539910079E-01  1.7259702491E+00  -2.9591343630E-01
    83  -8.4258768170E-01  -1.1600090439E+00  -3.9636210135E-01
    84  9.0539966449E-01  -1.7259706321E+00  2.9591330644E-01
    85  1.2790617362E+00  8.0611695425E-02  7.0947355184E-01
    86  -1.4283689071E+00  3.0442012518E-01  -6.6417897976E-01
    87  -1.2790609151E+00  -8.0611330566E-02  -7.0947317944E-01
    88  1.4283686142E+00  -3.0442004088E-01  6.6417894560E-01
    89  2.8053941134E-01  8.3143146197E-01  -1.7849646442E+00
    90  -2.9984109731E-01  1.1013500773E+00  1.9248746015E+00
    91  -2.8053906461E-01  -8.3143010782E-01  1.7849632940E+00
    92  2.9984137456E-01  -1.1013494884E+00  -1.9248748770E+00
    93  -1.0846984076E+00  1.1758070425E+00  1.1004434672E+00
    94  1.1364599445E+00  1.4836791648E+00  -1.0977093606E+00
    95  1.0846988480E+00  -1.1758078552E+00  -1.1004435402E+00
    96  -1.1364596323E+00  -1.4836794096E+00  1.0977089848E+00
  Stress tensor (eV/A^3):
  8.7633346471E-02  -5.7815413404E-03  2.5293721478E-02
  -5.7815413404E-03  1.0532188549E-01  8.9737051795E-03
  2.5293721478E-02  8.9737051795E-03  6.5943141001E-02
