64 
Energy: 2.8135070648982010e+00 
Mg	  0.000000000000 	  0.000000000000 	  0.000000000000 	
Mg	  1.000000000000 	  0.000000000000 	  2.980000000000 	
Mg	  0.000000000000 	  3.980000000000 	  0.000000000000 	
Mg	  1.000000000000 	  3.980000000000 	  2.980000000000 	
Mg	  3.980000000000 	  0.000000000000 	  0.000000000000 	
Mg	  4.980000000000 	  0.000000000000 	  2.980000000000 	
Mg	  3.980000000000 	  3.980000000000 	  0.000000000000 	
Mg	  4.980000000000 	  3.980000000000 	  2.980000000000 	
Mg	  1.707647654171 	  1.801765102781 	  0.000000000000 	
Mg	  2.707647654171 	  1.801765102781 	  2.980000000000 	
Mg	  1.707647654171 	  5.781765102781 	  0.000000000000 	
Mg	  2.707647654171 	  5.781765102781 	  2.980000000000 	
Mg	  5.687647654171 	  1.801765102781 	  0.000000000000 	
Mg	  6.687647654171 	  1.801765102781 	  2.980000000000 	
Mg	  5.687647654171 	  5.781765102781 	  0.000000000000 	
Mg	  6.687647654171 	  5.781765102781 	  2.980000000000 	
Mg	  2.460587243048 	  0.000000000000 	  1.519412756952 	
Mg	  3.460587243048 	  0.000000000000 	  4.499412756952 	
Mg	  2.460587243048 	  3.980000000000 	  1.519412756952 	
Mg	  3.460587243048 	  3.980000000000 	  4.499412756952 	
Mg	  6.440587243048 	  0.000000000000 	  1.519412756952 	
Mg	  7.440587243048 	  0.000000000000 	  4.499412756952 	
Mg	  6.440587243048 	  3.980000000000 	  1.519412756952 	
Mg	  7.440587243048 	  3.980000000000 	  4.499412756952 	
Mg	  0.470587243048 	  1.990000000000 	  1.519412756952 	
Mg	  1.470587243048 	  1.990000000000 	  4.499412756952 	
Mg	  0.470587243048 	  5.970000000000 	  1.519412756952 	
Mg	  1.470587243048 	  5.970000000000 	  4.499412756952 	
Mg	  4.450587243048 	  1.990000000000 	  1.519412756952 	
Mg	  5.450587243048 	  1.990000000000 	  4.499412756952 	
Mg	  4.450587243048 	  5.970000000000 	  1.519412756952 	
Mg	  5.450587243048 	  5.970000000000 	  4.499412756952 	
O	  1.990000000000 	  0.000000000000 	  0.000000000000 	
O	  2.990000000000 	  0.000000000000 	  2.980000000000 	
O	  1.990000000000 	  3.980000000000 	  0.000000000000 	
O	  2.990000000000 	  3.980000000000 	  2.980000000000 	
O	  5.970000000000 	  0.000000000000 	  0.000000000000 	
O	  6.970000000000 	  0.000000000000 	  2.980000000000 	
O	  5.970000000000 	  3.980000000000 	  0.000000000000 	
O	  6.970000000000 	  3.980000000000 	  2.980000000000 	
O	  0.000000000000 	  1.990000000000 	  0.000000000000 	
O	  1.000000000000 	  1.990000000000 	  2.980000000000 	
O	  0.000000000000 	  5.970000000000 	  0.000000000000 	
O	  1.000000000000 	  5.970000000000 	  2.980000000000 	
O	  3.980000000000 	  1.990000000000 	  0.000000000000 	
O	  4.980000000000 	  1.990000000000 	  2.980000000000 	
O	  3.980000000000 	  5.970000000000 	  0.000000000000 	
O	  4.980000000000 	  5.970000000000 	  2.980000000000 	
O	  0.470587243048 	  0.000000000000 	  1.519412756952 	
O	  1.470587243048 	  0.000000000000 	  4.499412756952 	
O	  0.470587243048 	  3.980000000000 	  1.519412756952 	
O	  1.470587243048 	  3.980000000000 	  4.499412756952 	
O	  4.450587243048 	  0.000000000000 	  1.519412756952 	
O	  5.450587243048 	  0.000000000000 	  4.499412756952 	
O	  4.450587243048 	  3.980000000000 	  1.519412756952 	
O	  5.450587243048 	  3.980000000000 	  4.499412756952 	
O	  2.837057037486 	  1.371648362635 	  1.519412756952 	
O	  3.837057037486 	  1.371648362635 	  4.499412756952 	
O	  2.837057037486 	  5.351648362635 	  1.519412756952 	
O	  3.837057037486 	  5.351648362635 	  4.499412756952 	
O	  6.817057037486 	  1.371648362635 	  1.519412756952 	
O	  7.817057037486 	  1.371648362635 	  4.499412756952 	
O	  6.817057037486 	  5.351648362635 	  1.519412756952 	
O	  7.817057037486 	  5.351648362635 	  4.499412756952 	
64 
Energy: 2.8100646055681016e+00 
Mg	  0.000000000000 	  0.000000000000 	  0.000000000000 	
Mg	  1.000000000000 	  0.000000000000 	  2.980000000000 	
Mg	  0.000000000000 	  3.980000000000 	  0.000000000000 	
Mg	  1.000000000000 	  3.980000000000 	  2.980000000000 	
Mg	  3.980000000000 	  0.000000000000 	  0.000000000000 	
Mg	  4.980000000000 	  0.000000000000 	  2.980000000000 	
Mg	  3.980000000000 	  3.980000000000 	  0.000000000000 	
Mg	  4.980000000000 	  3.980000000000 	  2.980000000000 	
Mg	  1.733506620358 	  1.821841278421 	  0.000000000000 	
Mg	  2.733506620358 	  1.821841278421 	  2.980000000000 	
Mg	  1.733506620358 	  5.801841278421 	  0.000000000000 	
Mg	  2.733506620358 	  5.801841278421 	  2.980000000000 	
Mg	  5.713506620358 	  1.821841278421 	  0.000000000000 	
Mg	  6.713506620358 	  1.821841278421 	  2.980000000000 	
Mg	  5.713506620358 	  5.801841278421 	  0.000000000000 	
Mg	  6.713506620358 	  5.801841278421 	  2.980000000000 	
Mg	  2.440183884857 	  0.000000000000 	  1.556837304234 	
Mg	  3.440183884857 	  0.000000000000 	  4.536837304234 	
Mg	  2.440183884857 	  3.980000000000 	  1.556837304234 	
Mg	  3.440183884857 	  3.980000000000 	  4.536837304234 	
Mg	  6.420183884857 	  0.000000000000 	  1.556837304234 	
Mg	  7.420183884857 	  0.000000000000 	  4.536837304234 	
Mg	  6.420183884857 	  3.980000000000 	  1.556837304234 	
Mg	  7.420183884857 	  3.980000000000 	  4.536837304234 	
Mg	  0.441673290311 	  1.998510594545 	  1.556837304234 	
Mg	  1.441673290311 	  1.998510594545 	  4.536837304234 	
Mg	  0.441673290311 	  5.978510594545 	  1.556837304234 	
Mg	  1.441673290311 	  5.978510594545 	  4.536837304234 	
Mg	  4.421673290311 	  1.998510594545 	  1.556837304234 	
Mg	  5.421673290311 	  1.998510594545 	  4.536837304234 	
Mg	  4.421673290311 	  5.978510594545 	  1.556837304234 	
Mg	  5.421673290311 	  5.978510594545 	  4.536837304234 	
O	  1.998510594545 	  0.000000000000 	  0.000000000000 	
O	  2.998510594545 	  0.000000000000 	  2.980000000000 	
O	  1.998510594545 	  3.980000000000 	  0.000000000000 	
O	  2.998510594545 	  3.980000000000 	  2.980000000000 	
O	  5.978510594545 	  0.000000000000 	  0.000000000000 	
O	  6.978510594545 	  0.000000000000 	  2.980000000000 	
O	  5.978510594545 	  3.980000000000 	  0.000000000000 	
O	  6.978510594545 	  3.980000000000 	  2.980000000000 	
O	  0.000000000000 	  1.998510594545 	  0.000000000000 	
O	  1.000000000000 	  1.998510594545 	  2.980000000000 	
O	  0.000000000000 	  5.978510594545 	  0.000000000000 	
O	  1.000000000000 	  5.978510594545 	  2.980000000000 	
O	  3.980000000000 	  1.998510594545 	  0.000000000000 	
O	  4.980000000000 	  1.998510594545 	  2.980000000000 	
O	  3.980000000000 	  5.978510594545 	  0.000000000000 	
O	  4.980000000000 	  5.978510594545 	  2.980000000000 	
O	  0.441673290311 	  0.000000000000 	  1.556837304234 	
O	  1.441673290311 	  0.000000000000 	  4.536837304234 	
O	  0.441673290311 	  3.980000000000 	  1.556837304234 	
O	  1.441673290311 	  3.980000000000 	  4.536837304234 	
O	  4.421673290311 	  0.000000000000 	  1.556837304234 	
O	  5.421673290311 	  0.000000000000 	  4.536837304234 	
O	  4.421673290311 	  3.980000000000 	  1.556837304234 	
O	  5.421673290311 	  3.980000000000 	  4.536837304234 	
O	  2.793522517106 	  1.418151891076 	  1.556837304234 	
O	  3.793522517106 	  1.418151891076 	  4.536837304234 	
O	  2.793522517106 	  5.398151891076 	  1.556837304234 	
O	  3.793522517106 	  5.398151891076 	  4.536837304234 	
O	  6.773522517106 	  1.418151891076 	  1.556837304234 	
O	  7.773522517106 	  1.418151891076 	  4.536837304234 	
O	  6.773522517106 	  5.398151891076 	  1.556837304234 	
O	  7.773522517106 	  5.398151891076 	  4.536837304234 	
64 
Energy: 3.2246830078380921e+00 
Mg	  0.000000000000 	  0.000000000000 	  0.000000000000 	
Mg	  1.000000000000 	  0.000000000000 	  2.980000000000 	
Mg	  0.000000000000 	  3.980000000000 	  0.000000000000 	
Mg	  1.000000000000 	  3.980000000000 	  2.980000000000 	
Mg	  3.980000000000 	  0.000000000000 	  0.000000000000 	
Mg	  4.980000000000 	  0.000000000000 	  2.980000000000 	
Mg	  3.980000000000 	  3.980000000000 	  0.000000000000 	
Mg	  4.980000000000 	  3.980000000000 	  2.980000000000 	
Mg	  1.759551524620 	  1.842005659500 	  0.000000000000 	
Mg	  2.759551524620 	  1.842005659500 	  2.980000000000 	
Mg	  1.759551524620 	  5.822005659500 	  0.000000000000 	
Mg	  2.759551524620 	  5.822005659500 	  2.980000000000 	
Mg	  5.739551524620 	  1.842005659500 	  0.000000000000 	
Mg	  6.739551524620 	  1.842005659500 	  2.980000000000 	
Mg	  5.739551524620 	  5.822005659500 	  0.000000000000 	
Mg	  6.739551524620 	  5.822005659500 	  2.980000000000 	
Mg	  2.419184603663 	  0.000000000000 	  1.594643254859 	
Mg	  3.419184603663 	  0.000000000000 	  4.574643254859 	
Mg	  2.419184603663 	  3.980000000000 	  1.594643254859 	
Mg	  3.419184603663 	  3.980000000000 	  4.574643254859 	
Mg	  6.399184603663 	  0.000000000000 	  1.594643254859 	
Mg	  7.399184603663 	  0.000000000000 	  4.574643254859 	
Mg	  6.399184603663 	  3.980000000000 	  1.594643254859 	
Mg	  7.399184603663 	  3.980000000000 	  4.574643254859 	
Mg	  0.412270674402 	  2.006913929261 	  1.594643254859 	
Mg	  1.412270674402 	  2.006913929261 	  4.574643254859 	
Mg	  0.412270674402 	  5.986913929261 	  1.594643254859 	
Mg	  1.412270674402 	  5.986913929261 	  4.574643254859 	
Mg	  4.392270674402 	  2.006913929261 	  1.594643254859 	
Mg	  5.392270674402 	  2.006913929261 	  4.574643254859 	
Mg	  4.392270674402 	  5.986913929261 	  1.594643254859 	
Mg	  5.392270674402 	  5.986913929261 	  4.574643254859 	
O	  2.006913929261 	  0.000000000000 	  0.000000000000 	
O	  3.006913929261 	  0.000000000000 	  2.980000000000 	
O	  2.006913929261 	  3.980000000000 	  0.000000000000 	
O	  3.006913929261 	  3.980000000000 	  2.980000000000 	
O	  5.986913929261 	  0.000000000000 	  0.000000000000 	
O	  6.986913929261 	  0.000000000000 	  2.980000000000 	
O	  5.986913929261 	  3.980000000000 	  0.000000000000 	
O	  6.986913929261 	  3.980000000000 	  2.980000000000 	
O	  0.000000000000 	  2.006913929261 	  0.000000000000 	
O	  1.000000000000 	  2.006913929261 	  2.980000000000 	
O	  0.000000000000 	  5.986913929261 	  0.000000000000 	
O	  1.000000000000 	  5.986913929261 	  2.980000000000 	
O	  3.980000000000 	  2.006913929261 	  0.000000000000 	
O	  4.980000000000 	  2.006913929261 	  2.980000000000 	
O	  3.980000000000 	  5.986913929261 	  0.000000000000 	
O	  4.980000000000 	  5.986913929261 	  2.980000000000 	
O	  0.412270674402 	  0.000000000000 	  1.594643254859 	
O	  1.412270674402 	  0.000000000000 	  4.574643254859 	
O	  0.412270674402 	  3.980000000000 	  1.594643254859 	
O	  1.412270674402 	  3.980000000000 	  4.574643254859 	
O	  4.392270674402 	  0.000000000000 	  1.594643254859 	
O	  5.392270674402 	  0.000000000000 	  4.574643254859 	
O	  4.392270674402 	  3.980000000000 	  1.594643254859 	
O	  5.392270674402 	  3.980000000000 	  4.574643254859 	
O	  2.749001143185 	  1.465190263097 	  1.594643254859 	
O	  3.749001143185 	  1.465190263097 	  4.574643254859 	
O	  2.749001143185 	  5.445190263097 	  1.594643254859 	
O	  3.749001143185 	  5.445190263097 	  4.574643254859 	
O	  6.729001143185 	  1.465190263097 	  1.594643254859 	
O	  7.729001143185 	  1.465190263097 	  4.574643254859 	
O	  6.729001143185 	  5.445190263097 	  1.594643254859 	
O	  7.729001143185 	  5.445190263097 	  4.574643254859 	
64 
Energy: 3.8469063134579651e+00 
Mg	  0.000000000000 	  0.000000000000 	  0.000000000000 	
Mg	  1.000000000000 	  0.000000000000 	  2.980000000000 	
Mg	  0.000000000000 	  3.980000000000 	  0.000000000000 	
Mg	  1.000000000000 	  3.980000000000 	  2.980000000000 	
Mg	  3.980000000000 	  0.000000000000 	  0.000000000000 	
Mg	  4.980000000000 	  0.000000000000 	  2.980000000000 	
Mg	  3.980000000000 	  3.980000000000 	  0.000000000000 	
Mg	  4.980000000000 	  3.980000000000 	  2.980000000000 	
Mg	  1.785627618576 	  1.862196486665 	  0.000000000000 	
Mg	  2.785627618576 	  1.862196486665 	  2.980000000000 	
Mg	  1.785627618576 	  5.842196486665 	  0.000000000000 	
Mg	  2.785627618576 	  5.842196486665 	  2.980000000000 	
Mg	  5.765627618576 	  1.862196486665 	  0.000000000000 	
Mg	  6.765627618576 	  1.862196486665 	  2.980000000000 	
Mg	  5.765627618576 	  5.842196486665 	  0.000000000000 	
Mg	  6.765627618576 	  5.842196486665 	  2.980000000000 	
Mg	  2.398178563290 	  0.000000000000 	  1.632489882398 	
Mg	  3.398178563290 	  0.000000000000 	  4.612489882398 	
Mg	  2.398178563290 	  3.980000000000 	  1.632489882398 	
Mg	  3.398178563290 	  3.980000000000 	  4.612489882398 	
Mg	  6.378178563290 	  0.000000000000 	  1.632489882398 	
Mg	  7.378178563290 	  0.000000000000 	  4.612489882398 	
Mg	  6.378178563290 	  3.980000000000 	  1.632489882398 	
Mg	  7.378178563290 	  3.980000000000 	  4.612489882398 	
Mg	  0.382844340446 	  2.015334222844 	  1.632489882398 	
Mg	  1.382844340446 	  2.015334222844 	  4.612489882398 	
Mg	  0.382844340446 	  5.995334222844 	  1.632489882398 	
Mg	  1.382844340446 	  5.995334222844 	  4.612489882398 	
Mg	  4.362844340446 	  2.015334222844 	  1.632489882398 	
Mg	  5.362844340446 	  2.015334222844 	  4.612489882398 	
Mg	  4.362844340446 	  5.995334222844 	  1.632489882398 	
Mg	  5.362844340446 	  5.995334222844 	  4.612489882398 	
O	  2.015334222844 	  0.000000000000 	  0.000000000000 	
O	  3.015334222844 	  0.000000000000 	  2.980000000000 	
O	  2.015334222844 	  3.980000000000 	  0.000000000000 	
O	  3.015334222844 	  3.980000000000 	  2.980000000000 	
O	  5.995334222844 	  0.000000000000 	  0.000000000000 	
O	  6.995334222844 	  0.000000000000 	  2.980000000000 	
O	  5.995334222844 	  3.980000000000 	  0.000000000000 	
O	  6.995334222844 	  3.980000000000 	  2.980000000000 	
O	  0.000000000000 	  2.015334222844 	  0.000000000000 	
O	  1.000000000000 	  2.015334222844 	  2.980000000000 	
O	  0.000000000000 	  5.995334222844 	  0.000000000000 	
O	  1.000000000000 	  5.995334222844 	  2.980000000000 	
O	  3.980000000000 	  2.015334222844 	  0.000000000000 	
O	  4.980000000000 	  2.015334222844 	  2.980000000000 	
O	  3.980000000000 	  5.995334222844 	  0.000000000000 	
O	  4.980000000000 	  5.995334222844 	  2.980000000000 	
O	  0.382844340446 	  0.000000000000 	  1.632489882398 	
O	  1.382844340446 	  0.000000000000 	  4.612489882398 	
O	  0.382844340446 	  3.980000000000 	  1.632489882398 	
O	  1.382844340446 	  3.980000000000 	  4.612489882398 	
O	  4.362844340446 	  0.000000000000 	  1.632489882398 	
O	  5.362844340446 	  0.000000000000 	  4.612489882398 	
O	  4.362844340446 	  3.980000000000 	  1.632489882398 	
O	  5.362844340446 	  3.980000000000 	  4.612489882398 	
O	  2.704454035647 	  1.512276759498 	  1.632489882398 	
O	  3.704454035647 	  1.512276759498 	  4.612489882398 	
O	  2.704454035647 	  5.492276759498 	  1.632489882398 	
O	  3.704454035647 	  5.492276759498 	  4.612489882398 	
O	  6.684454035647 	  1.512276759498 	  1.632489882398 	
O	  7.684454035647 	  1.512276759498 	  4.612489882398 	
O	  6.684454035647 	  5.492276759498 	  1.632489882398 	
O	  7.684454035647 	  5.492276759498 	  4.612489882398 	
64 
Energy: 4.5137675686664913e+00 
Mg	  0.000000000000 	  0.000000000000 	  0.000000000000 	
Mg	  1.000000000000 	  0.000000000000 	  2.980000000000 	
Mg	  0.000000000000 	  3.980000000000 	  0.000000000000 	
Mg	  1.000000000000 	  3.980000000000 	  2.980000000000 	
Mg	  3.980000000000 	  0.000000000000 	  0.000000000000 	
Mg	  4.980000000000 	  0.000000000000 	  2.980000000000 	
Mg	  3.980000000000 	  3.980000000000 	  0.000000000000 	
Mg	  4.980000000000 	  3.980000000000 	  2.980000000000 	
Mg	  1.811731810853 	  1.882410075600 	  0.000000000000 	
Mg	  2.811731810853 	  1.882410075600 	  2.980000000000 	
Mg	  1.811731810853 	  5.862410075600 	  0.000000000000 	
Mg	  2.811731810853 	  5.862410075600 	  2.980000000000 	
Mg	  5.791731810853 	  1.882410075600 	  0.000000000000 	
Mg	  6.791731810853 	  1.882410075600 	  2.980000000000 	
Mg	  5.791731810853 	  5.862410075600 	  0.000000000000 	
Mg	  6.791731810853 	  5.862410075600 	  2.980000000000 	
Mg	  2.377157928829 	  0.000000000000 	  1.670375281359 	
Mg	  3.377157928829 	  0.000000000000 	  4.650375281359 	
Mg	  2.377157928829 	  3.980000000000 	  1.670375281359 	
Mg	  3.377157928829 	  3.980000000000 	  4.650375281359 	
Mg	  6.357157928829 	  0.000000000000 	  1.670375281359 	
Mg	  7.357157928829 	  0.000000000000 	  4.650375281359 	
Mg	  6.357157928829 	  3.980000000000 	  1.670375281359 	
Mg	  7.357157928829 	  3.980000000000 	  4.650375281359 	
Mg	  0.353391323735 	  2.023766605094 	  1.670375281359 	
Mg	  1.353391323735 	  2.023766605094 	  4.650375281359 	
Mg	  0.353391323735 	  6.003766605094 	  1.670375281359 	
Mg	  1.353391323735 	  6.003766605094 	  4.650375281359 	
Mg	  4.333391323735 	  2.023766605094 	  1.670375281359 	
Mg	  5.333391323735 	  2.023766605094 	  4.650375281359 	
Mg	  4.333391323735 	  6.003766605094 	  1.670375281359 	
Mg	  5.333391323735 	  6.003766605094 	  4.650375281359 	
O	  2.023766605094 	  0.000000000000 	  0.000000000000 	
O	  3.023766605094 	  0.000000000000 	  2.980000000000 	
O	  2.023766605094 	  3.980000000000 	  0.000000000000 	
O	  3.023766605094 	  3.980000000000 	  2.980000000000 	
O	  6.003766605094 	  0.000000000000 	  0.000000000000 	
O	  7.003766605094 	  0.000000000000 	  2.980000000000 	
O	  6.003766605094 	  3.980000000000 	  0.000000000000 	
O	  7.003766605094 	  3.980000000000 	  2.980000000000 	
O	  0.000000000000 	  2.023766605094 	  0.000000000000 	
O	  1.000000000000 	  2.023766605094 	  2.980000000000 	
O	  0.000000000000 	  6.003766605094 	  0.000000000000 	
O	  1.000000000000 	  6.003766605094 	  2.980000000000 	
O	  3.980000000000 	  2.023766605094 	  0.000000000000 	
O	  4.980000000000 	  2.023766605094 	  2.980000000000 	
O	  3.980000000000 	  6.003766605094 	  0.000000000000 	
O	  4.980000000000 	  6.003766605094 	  2.980000000000 	
O	  0.353391323735 	  0.000000000000 	  1.670375281359 	
O	  1.353391323735 	  0.000000000000 	  4.650375281359 	
O	  0.353391323735 	  3.980000000000 	  1.670375281359 	
O	  1.353391323735 	  3.980000000000 	  4.650375281359 	
O	  4.333391323735 	  0.000000000000 	  1.670375281359 	
O	  5.333391323735 	  0.000000000000 	  4.650375281359 	
O	  4.333391323735 	  3.980000000000 	  1.670375281359 	
O	  5.333391323735 	  3.980000000000 	  4.650375281359 	
O	  2.659870987817 	  1.559410405706 	  1.670375281359 	
O	  3.659870987817 	  1.559410405706 	  4.650375281359 	
O	  2.659870987817 	  5.539410405706 	  1.670375281359 	
O	  3.659870987817 	  5.539410405706 	  4.650375281359 	
O	  6.639870987817 	  1.559410405706 	  1.670375281359 	
O	  7.639870987817 	  1.559410405706 	  4.650375281359 	
O	  6.639870987817 	  5.539410405706 	  1.670375281359 	
O	  7.639870987817 	  5.539410405706 	  4.650375281359 	
64 
Energy: 5.1055571820598429e+00 
Mg	  0.000000000000 	  0.000000000000 	  0.000000000000 	
Mg	  1.000000000000 	  0.000000000000 	  2.980000000000 	
Mg	  0.000000000000 	  3.980000000000 	  0.000000000000 	
Mg	  1.000000000000 	  3.980000000000 	  2.980000000000 	
Mg	  3.980000000000 	  0.000000000000 	  0.000000000000 	
Mg	  4.980000000000 	  0.000000000000 	  2.980000000000 	
Mg	  3.980000000000 	  3.980000000000 	  0.000000000000 	
Mg	  4.980000000000 	  3.980000000000 	  2.980000000000 	
Mg	  1.837854469872 	  1.902639218001 	  0.000000000000 	
Mg	  2.837854469872 	  1.902639218001 	  2.980000000000 	
Mg	  1.837854469872 	  5.882639218001 	  0.000000000000 	
Mg	  2.837854469872 	  5.882639218001 	  2.980000000000 	
Mg	  5.817854469872 	  1.902639218001 	  0.000000000000 	
Mg	  6.817854469872 	  1.902639218001 	  2.980000000000 	
Mg	  5.817854469872 	  5.882639218001 	  0.000000000000 	
Mg	  6.817854469872 	  5.882639218001 	  2.980000000000 	
Mg	  2.356132454903 	  0.000000000000 	  1.708284973614 	
Mg	  3.356132454903 	  0.000000000000 	  4.688284973614 	
Mg	  2.356132454903 	  3.980000000000 	  1.708284973614 	
Mg	  3.356132454903 	  3.980000000000 	  4.688284973614 	
Mg	  6.336132454903 	  0.000000000000 	  1.708284973614 	
Mg	  7.336132454903 	  0.000000000000 	  4.688284973614 	
Mg	  6.336132454903 	  3.980000000000 	  1.708284973614 	
Mg	  7.336132454903 	  3.980000000000 	  4.688284973614 	
Mg	  0.323923740644 	  2.032208714259 	  1.708284973614 	
Mg	  1.323923740644 	  2.032208714259 	  4.688284973614 	
Mg	  0.323923740644 	  6.012208714259 	  1.708284973614 	
Mg	  1.323923740644 	  6.012208714259 	  4.688284973614 	
Mg	  4.303923740644 	  2.032208714259 	  1.708284973614 	
Mg	  5.303923740644 	  2.032208714259 	  4.688284973614 	
Mg	  4.303923740644 	  6.012208714259 	  1.708284973614 	
Mg	  5.303923740644 	  6.012208714259 	  4.688284973614 	
O	  2.032208714259 	  0.000000000000 	  0.000000000000 	
O	  3.032208714259 	  0.000000000000 	  2.980000000000 	
O	  2.032208714259 	  3.980000000000 	  0.000000000000 	
O	  3.032208714259 	  3.980000000000 	  2.980000000000 	
O	  6.012208714259 	  0.000000000000 	  0.000000000000 	
O	  7.012208714259 	  0.000000000000 	  2.980000000000 	
O	  6.012208714259 	  3.980000000000 	  0.000000000000 	
O	  7.012208714259 	  3.980000000000 	  2.980000000000 	
O	  0.000000000000 	  2.032208714259 	  0.000000000000 	
O	  1.000000000000 	  2.032208714259 	  2.980000000000 	
O	  0.000000000000 	  6.012208714259 	  0.000000000000 	
O	  1.000000000000 	  6.012208714259 	  2.980000000000 	
O	  3.980000000000 	  2.032208714259 	  0.000000000000 	
O	  4.980000000000 	  2.032208714259 	  2.980000000000 	
O	  3.980000000000 	  6.012208714259 	  0.000000000000 	
O	  4.980000000000 	  6.012208714259 	  2.980000000000 	
O	  0.323923740644 	  0.000000000000 	  1.708284973614 	
O	  1.323923740644 	  0.000000000000 	  4.688284973614 	
O	  0.323923740644 	  3.980000000000 	  1.708284973614 	
O	  1.323923740644 	  3.980000000000 	  4.688284973614 	
O	  4.303923740644 	  0.000000000000 	  1.708284973614 	
O	  5.303923740644 	  0.000000000000 	  4.688284973614 	
O	  4.303923740644 	  3.980000000000 	  1.708284973614 	
O	  5.303923740644 	  3.980000000000 	  4.688284973614 	
O	  2.615271447418 	  1.606572919052 	  1.708284973614 	
O	  3.615271447418 	  1.606572919052 	  4.688284973614 	
O	  2.615271447418 	  5.586572919052 	  1.708284973614 	
O	  3.615271447418 	  5.586572919052 	  4.688284973614 	
O	  6.595271447418 	  1.606572919052 	  1.708284973614 	
O	  7.595271447418 	  1.606572919052 	  4.688284973614 	
O	  6.595271447418 	  5.586572919052 	  1.708284973614 	
O	  7.595271447418 	  5.586572919052 	  4.688284973614 	
64 
Energy: 5.5361226089336029e+00 
Mg	  0.000000000000 	  0.000000000000 	  0.000000000000 	
Mg	  1.000000000000 	  0.000000000000 	  2.980000000000 	
Mg	  0.000000000000 	  3.980000000000 	  0.000000000000 	
Mg	  1.000000000000 	  3.980000000000 	  2.980000000000 	
Mg	  3.980000000000 	  0.000000000000 	  0.000000000000 	
Mg	  4.980000000000 	  0.000000000000 	  2.980000000000 	
Mg	  3.980000000000 	  3.980000000000 	  0.000000000000 	
Mg	  4.980000000000 	  3.980000000000 	  2.980000000000 	
Mg	  1.863990305867 	  1.922879216125 	  0.000000000000 	
Mg	  2.863990305867 	  1.922879216125 	  2.980000000000 	
Mg	  1.863990305867 	  5.902879216125 	  0.000000000000 	
Mg	  2.863990305867 	  5.902879216125 	  2.980000000000 	
Mg	  5.843990305867 	  1.922879216125 	  0.000000000000 	
Mg	  6.843990305867 	  1.922879216125 	  2.980000000000 	
Mg	  5.843990305867 	  5.902879216125 	  0.000000000000 	
Mg	  6.843990305867 	  5.902879216125 	  2.980000000000 	
Mg	  2.335101587931 	  0.000000000000 	  1.746212485351 	
Mg	  3.335101587931 	  0.000000000000 	  4.726212485351 	
Mg	  2.335101587931 	  3.980000000000 	  1.746212485351 	
Mg	  3.335101587931 	  3.980000000000 	  4.726212485351 	
Mg	  6.315101587931 	  0.000000000000 	  1.746212485351 	
Mg	  7.315101587931 	  0.000000000000 	  4.726212485351 	
Mg	  6.315101587931 	  3.980000000000 	  1.746212485351 	
Mg	  7.315101587931 	  3.980000000000 	  4.726212485351 	
Mg	  0.294444551290 	  2.040657036641 	  1.746212485351 	
Mg	  1.294444551290 	  2.040657036641 	  4.726212485351 	
Mg	  0.294444551290 	  6.020657036641 	  1.746212485351 	
Mg	  1.294444551290 	  6.020657036641 	  4.726212485351 	
Mg	  4.274444551290 	  2.040657036641 	  1.746212485351 	
Mg	  5.274444551290 	  2.040657036641 	  4.726212485351 	
Mg	  4.274444551290 	  6.020657036641 	  1.746212485351 	
Mg	  5.274444551290 	  6.020657036641 	  4.726212485351 	
O	  2.040657036641 	  0.000000000000 	  0.000000000000 	
O	  3.040657036641 	  0.000000000000 	  2.980000000000 	
O	  2.040657036641 	  3.980000000000 	  0.000000000000 	
O	  3.040657036641 	  3.980000000000 	  2.980000000000 	
O	  6.020657036641 	  0.000000000000 	  0.000000000000 	
O	  7.020657036641 	  0.000000000000 	  2.980000000000 	
O	  6.020657036641 	  3.980000000000 	  0.000000000000 	
O	  7.020657036641 	  3.980000000000 	  2.980000000000 	
O	  0.000000000000 	  2.040657036641 	  0.000000000000 	
O	  1.000000000000 	  2.040657036641 	  2.980000000000 	
O	  0.000000000000 	  6.020657036641 	  0.000000000000 	
O	  1.000000000000 	  6.020657036641 	  2.980000000000 	
O	  3.980000000000 	  2.040657036641 	  0.000000000000 	
O	  4.980000000000 	  2.040657036641 	  2.980000000000 	
O	  3.980000000000 	  6.020657036641 	  0.000000000000 	
O	  4.980000000000 	  6.020657036641 	  2.980000000000 	
O	  0.294444551290 	  0.000000000000 	  1.746212485351 	
O	  1.294444551290 	  0.000000000000 	  4.726212485351 	
O	  0.294444551290 	  3.980000000000 	  1.746212485351 	
O	  1.294444551290 	  3.980000000000 	  4.726212485351 	
O	  4.274444551290 	  0.000000000000 	  1.746212485351 	
O	  5.274444551290 	  0.000000000000 	  4.726212485351 	
O	  4.274444551290 	  3.980000000000 	  1.746212485351 	
O	  5.274444551290 	  3.980000000000 	  4.726212485351 	
O	  2.570657228962 	  1.653756896246 	  1.746212485351 	
O	  3.570657228962 	  1.653756896246 	  4.726212485351 	
O	  2.570657228962 	  5.633756896246 	  1.746212485351 	
O	  3.570657228962 	  5.633756896246 	  4.726212485351 	
O	  6.550657228962 	  1.653756896246 	  1.746212485351 	
O	  7.550657228962 	  1.653756896246 	  4.726212485351 	
O	  6.550657228962 	  5.633756896246 	  1.746212485351 	
O	  7.550657228962 	  5.633756896246 	  4.726212485351 	
64 
Energy: 5.7473383800367452e+00 
Mg	  0.000000000000 	  0.000000000000 	  0.000000000000 	
Mg	  1.000000000000 	  0.000000000000 	  2.980000000000 	
Mg	  0.000000000000 	  3.980000000000 	  0.000000000000 	
Mg	  1.000000000000 	  3.980000000000 	  2.980000000000 	
Mg	  3.980000000000 	  0.000000000000 	  0.000000000000 	
Mg	  4.980000000000 	  0.000000000000 	  2.980000000000 	
Mg	  3.980000000000 	  3.980000000000 	  0.000000000000 	
Mg	  4.980000000000 	  3.980000000000 	  2.980000000000 	
Mg	  1.890132921176 	  1.943124913857 	  0.000000000000 	
Mg	  2.890132921176 	  1.943124913857 	  2.980000000000 	
Mg	  1.890132921176 	  5.923124913857 	  0.000000000000 	
Mg	  2.890132921176 	  5.923124913857 	  2.980000000000 	
Mg	  5.870132921176 	  1.943124913857 	  0.000000000000 	
Mg	  6.870132921176 	  1.943124913857 	  2.980000000000 	
Mg	  5.870132921176 	  5.923124913857 	  0.000000000000 	
Mg	  6.870132921176 	  5.923124913857 	  2.980000000000 	
Mg	  2.314068862629 	  0.000000000000 	  1.784148935812 	
Mg	  3.314068862629 	  0.000000000000 	  4.764148935812 	
Mg	  2.314068862629 	  3.980000000000 	  1.784148935812 	
Mg	  3.314068862629 	  3.980000000000 	  4.764148935812 	
Mg	  6.294068862629 	  0.000000000000 	  1.784148935812 	
Mg	  7.294068862629 	  0.000000000000 	  4.764148935812 	
Mg	  6.294068862629 	  3.980000000000 	  1.784148935812 	
Mg	  7.294068862629 	  3.980000000000 	  4.764148935812 	
Mg	  0.264959963408 	  2.049108899221 	  1.784148935812 	
Mg	  1.264959963408 	  2.049108899221 	  4.764148935812 	
Mg	  0.264959963408 	  6.029108899221 	  1.784148935812 	
Mg	  1.264959963408 	  6.029108899221 	  4.764148935812 	
Mg	  4.244959963408 	  2.049108899221 	  1.784148935812 	
Mg	  5.244959963408 	  2.049108899221 	  4.764148935812 	
Mg	  4.244959963408 	  6.029108899221 	  1.784148935812 	
Mg	  5.244959963408 	  6.029108899221 	  4.764148935812 	
O	  2.049108899221 	  0.000000000000 	  0.000000000000 	
O	  3.049108899221 	  0.000000000000 	  2.980000000000 	
O	  2.049108899221 	  3.980000000000 	  0.000000000000 	
O	  3.049108899221 	  3.980000000000 	  2.980000000000 	
O	  6.029108899221 	  0.000000000000 	  0.000000000000 	
O	  7.029108899221 	  0.000000000000 	  2.980000000000 	
O	  6.029108899221 	  3.980000000000 	  0.000000000000 	
O	  7.029108899221 	  3.980000000000 	  2.980000000000 	
O	  0.000000000000 	  2.049108899221 	  0.000000000000 	
O	  1.000000000000 	  2.049108899221 	  2.980000000000 	
O	  0.000000000000 	  6.029108899221 	  0.000000000000 	
O	  1.000000000000 	  6.029108899221 	  2.980000000000 	
O	  3.980000000000 	  2.049108899221 	  0.000000000000 	
O	  4.980000000000 	  2.049108899221 	  2.980000000000 	
O	  3.980000000000 	  6.029108899221 	  0.000000000000 	
O	  4.980000000000 	  6.029108899221 	  2.980000000000 	
O	  0.264959963408 	  0.000000000000 	  1.784148935812 	
O	  1.264959963408 	  0.000000000000 	  4.764148935812 	
O	  0.264959963408 	  3.980000000000 	  1.784148935812 	
O	  1.264959963408 	  3.980000000000 	  4.764148935812 	
O	  4.244959963408 	  0.000000000000 	  1.784148935812 	
O	  5.244959963408 	  0.000000000000 	  4.764148935812 	
O	  4.244959963408 	  3.980000000000 	  1.784148935812 	
O	  5.244959963408 	  3.980000000000 	  4.764148935812 	
O	  2.526036833356 	  1.700951507302 	  1.784148935812 	
O	  3.526036833356 	  1.700951507302 	  4.764148935812 	
O	  2.526036833356 	  5.680951507302 	  1.784148935812 	
O	  3.526036833356 	  5.680951507302 	  4.764148935812 	
O	  6.506036833356 	  1.700951507302 	  1.784148935812 	
O	  7.506036833356 	  1.700951507302 	  4.764148935812 	
O	  6.506036833356 	  5.680951507302 	  1.784148935812 	
O	  7.506036833356 	  5.680951507302 	  4.764148935812 	
64 
Energy: 5.7042930626425239e+00 
Mg	  0.000000000000 	  0.000000000000 	  0.000000000000 	
Mg	  1.000000000000 	  0.000000000000 	  2.980000000000 	
Mg	  0.000000000000 	  3.980000000000 	  0.000000000000 	
Mg	  1.000000000000 	  3.980000000000 	  2.980000000000 	
Mg	  3.980000000000 	  0.000000000000 	  0.000000000000 	
Mg	  4.980000000000 	  0.000000000000 	  2.980000000000 	
Mg	  3.980000000000 	  3.980000000000 	  0.000000000000 	
Mg	  4.980000000000 	  3.980000000000 	  2.980000000000 	
Mg	  1.916277115108 	  1.963371855701 	  0.000000000000 	
Mg	  2.916277115108 	  1.963371855701 	  2.980000000000 	
Mg	  1.916277115108 	  5.943371855701 	  0.000000000000 	
Mg	  2.916277115108 	  5.943371855701 	  2.980000000000 	
Mg	  5.896277115108 	  1.963371855701 	  0.000000000000 	
Mg	  6.896277115108 	  1.963371855701 	  2.980000000000 	
Mg	  5.896277115108 	  5.943371855701 	  0.000000000000 	
Mg	  6.896277115108 	  5.943371855701 	  2.980000000000 	
Mg	  2.293035039849 	  0.000000000000 	  1.822087633923 	
Mg	  3.293035039849 	  0.000000000000 	  4.802087633923 	
Mg	  2.293035039849 	  3.980000000000 	  1.822087633923 	
Mg	  3.293035039849 	  3.980000000000 	  4.802087633923 	
Mg	  6.273035039849 	  0.000000000000 	  1.822087633923 	
Mg	  7.273035039849 	  0.000000000000 	  4.802087633923 	
Mg	  6.273035039849 	  3.980000000000 	  1.822087633923 	
Mg	  7.273035039849 	  3.980000000000 	  4.802087633923 	
Mg	  0.235473702963 	  2.057561336886 	  1.822087633923 	
Mg	  1.235473702963 	  2.057561336886 	  4.802087633923 	
Mg	  0.235473702963 	  6.037561336886 	  1.822087633923 	
Mg	  1.235473702963 	  6.037561336886 	  4.802087633923 	
Mg	  4.215473702963 	  2.057561336886 	  1.822087633923 	
Mg	  5.215473702963 	  2.057561336886 	  4.802087633923 	
Mg	  4.215473702963 	  6.037561336886 	  1.822087633923 	
Mg	  5.215473702963 	  6.037561336886 	  4.802087633923 	
O	  2.057561336886 	  0.000000000000 	  0.000000000000 	
O	  3.057561336886 	  0.000000000000 	  2.980000000000 	
O	  2.057561336886 	  3.980000000000 	  0.000000000000 	
O	  3.057561336886 	  3.980000000000 	  2.980000000000 	
O	  6.037561336886 	  0.000000000000 	  0.000000000000 	
O	  7.037561336886 	  0.000000000000 	  2.980000000000 	
O	  6.037561336886 	  3.980000000000 	  0.000000000000 	
O	  7.037561336886 	  3.980000000000 	  2.980000000000 	
O	  0.000000000000 	  2.057561336886 	  0.000000000000 	
O	  1.000000000000 	  2.057561336886 	  2.980000000000 	
O	  0.000000000000 	  6.037561336886 	  0.000000000000 	
O	  1.000000000000 	  6.037561336886 	  2.980000000000 	
O	  3.980000000000 	  2.057561336886 	  0.000000000000 	
O	  4.980000000000 	  2.057561336886 	  2.980000000000 	
O	  3.980000000000 	  6.037561336886 	  0.000000000000 	
O	  4.980000000000 	  6.037561336886 	  2.980000000000 	
O	  0.235473702963 	  0.000000000000 	  1.822087633923 	
O	  1.235473702963 	  0.000000000000 	  4.802087633923 	
O	  0.235473702963 	  3.980000000000 	  1.822087633923 	
O	  1.235473702963 	  3.980000000000 	  4.802087633923 	
O	  4.215473702963 	  0.000000000000 	  1.822087633923 	
O	  5.215473702963 	  0.000000000000 	  4.802087633923 	
O	  4.215473702963 	  3.980000000000 	  1.822087633923 	
O	  5.215473702963 	  3.980000000000 	  4.802087633923 	
O	  2.481414002220 	  1.748148891192 	  1.822087633923 	
O	  3.481414002220 	  1.748148891192 	  4.802087633923 	
O	  2.481414002220 	  5.728148891192 	  1.822087633923 	
O	  3.481414002220 	  5.728148891192 	  4.802087633923 	
O	  6.461414002220 	  1.748148891192 	  1.822087633923 	
O	  7.461414002220 	  1.748148891192 	  4.802087633923 	
O	  6.461414002220 	  5.728148891192 	  1.822087633923 	
O	  7.461414002220 	  5.728148891192 	  4.802087633923 	
64 
Energy: 5.3942939692735532e+00 
Mg	  0.000000000000 	  0.000000000000 	  0.000000000000 	
Mg	  1.000000000000 	  0.000000000000 	  2.980000000000 	
Mg	  0.000000000000 	  3.980000000000 	  0.000000000000 	
Mg	  1.000000000000 	  3.980000000000 	  2.980000000000 	
Mg	  3.980000000000 	  0.000000000000 	  0.000000000000 	
Mg	  4.980000000000 	  0.000000000000 	  2.980000000000 	
Mg	  3.980000000000 	  3.980000000000 	  0.000000000000 	
Mg	  4.980000000000 	  3.980000000000 	  2.980000000000 	
Mg	  1.942418151336 	  1.983616366023 	  0.000000000000 	
Mg	  2.942418151336 	  1.983616366023 	  2.980000000000 	
Mg	  1.942418151336 	  5.963616366023 	  0.000000000000 	
Mg	  2.942418151336 	  5.963616366023 	  2.980000000000 	
Mg	  5.922418151336 	  1.983616366023 	  0.000000000000 	
Mg	  6.922418151336 	  1.983616366023 	  2.980000000000 	
Mg	  5.922418151336 	  5.963616366023 	  0.000000000000 	
Mg	  6.922418151336 	  5.963616366023 	  2.980000000000 	
Mg	  2.272003868827 	  0.000000000000 	  1.860021721964 	
Mg	  3.272003868827 	  0.000000000000 	  4.840021721964 	
Mg	  2.272003868827 	  3.980000000000 	  1.860021721964 	
Mg	  3.272003868827 	  3.980000000000 	  4.840021721964 	
Mg	  6.252003868827 	  0.000000000000 	  1.860021721964 	
Mg	  7.252003868827 	  0.000000000000 	  4.840021721964 	
Mg	  6.252003868827 	  3.980000000000 	  1.860021721964 	
Mg	  7.252003868827 	  3.980000000000 	  4.840021721964 	
Mg	  0.205991073431 	  2.066012795395 	  1.860021721964 	
Mg	  1.205991073431 	  2.066012795395 	  4.840021721964 	
Mg	  0.205991073431 	  6.046012795395 	  1.860021721964 	
Mg	  1.205991073431 	  6.046012795395 	  4.840021721964 	
Mg	  4.185991073431 	  2.066012795395 	  1.860021721964 	
Mg	  5.185991073431 	  2.066012795395 	  4.840021721964 	
Mg	  4.185991073431 	  6.046012795395 	  1.860021721964 	
Mg	  5.185991073431 	  6.046012795395 	  4.840021721964 	
O	  2.066012795395 	  0.000000000000 	  0.000000000000 	
O	  3.066012795395 	  0.000000000000 	  2.980000000000 	
O	  2.066012795395 	  3.980000000000 	  0.000000000000 	
O	  3.066012795395 	  3.980000000000 	  2.980000000000 	
O	  6.046012795395 	  0.000000000000 	  0.000000000000 	
O	  7.046012795395 	  0.000000000000 	  2.980000000000 	
O	  6.046012795395 	  3.980000000000 	  0.000000000000 	
O	  7.046012795395 	  3.980000000000 	  2.980000000000 	
O	  0.000000000000 	  2.066012795395 	  0.000000000000 	
O	  1.000000000000 	  2.066012795395 	  2.980000000000 	
O	  0.000000000000 	  6.046012795395 	  0.000000000000 	
O	  1.000000000000 	  6.046012795395 	  2.980000000000 	
O	  3.980000000000 	  2.066012795395 	  0.000000000000 	
O	  4.980000000000 	  2.066012795395 	  2.980000000000 	
O	  3.980000000000 	  6.046012795395 	  0.000000000000 	
O	  4.980000000000 	  6.046012795395 	  2.980000000000 	
O	  0.205991073431 	  0.000000000000 	  1.860021721964 	
O	  1.205991073431 	  0.000000000000 	  4.840021721964 	
O	  0.205991073431 	  3.980000000000 	  1.860021721964 	
O	  1.205991073431 	  3.980000000000 	  4.840021721964 	
O	  4.185991073431 	  0.000000000000 	  1.860021721964 	
O	  5.185991073431 	  0.000000000000 	  4.840021721964 	
O	  4.185991073431 	  3.980000000000 	  1.860021721964 	
O	  5.185991073431 	  3.980000000000 	  4.840021721964 	
O	  2.436796727572 	  1.795340524906 	  1.860021721964 	
O	  3.436796727572 	  1.795340524906 	  4.840021721964 	
O	  2.436796727572 	  5.775340524906 	  1.860021721964 	
O	  3.436796727572 	  5.775340524906 	  4.840021721964 	
O	  6.416796727572 	  1.795340524906 	  1.860021721964 	
O	  7.416796727572 	  1.795340524906 	  4.840021721964 	
O	  6.416796727572 	  5.775340524906 	  1.860021721964 	
O	  7.416796727572 	  5.775340524906 	  4.840021721964 	
64 
Energy: 4.8262690636788985e+00 
Mg	  0.000000000000 	  0.000000000000 	  0.000000000000 	
Mg	  1.000000000000 	  0.000000000000 	  2.980000000000 	
Mg	  0.000000000000 	  3.980000000000 	  0.000000000000 	
Mg	  1.000000000000 	  3.980000000000 	  2.980000000000 	
Mg	  3.980000000000 	  0.000000000000 	  0.000000000000 	
Mg	  4.980000000000 	  0.000000000000 	  2.980000000000 	
Mg	  3.980000000000 	  3.980000000000 	  0.000000000000 	
Mg	  4.980000000000 	  3.980000000000 	  2.980000000000 	
Mg	  1.968551643592 	  2.003854936085 	  0.000000000000 	
Mg	  2.968551643592 	  2.003854936085 	  2.980000000000 	
Mg	  1.968551643592 	  5.983854936085 	  0.000000000000 	
Mg	  2.968551643592 	  5.983854936085 	  2.980000000000 	
Mg	  5.948551643592 	  2.003854936085 	  0.000000000000 	
Mg	  6.948551643592 	  2.003854936085 	  2.980000000000 	
Mg	  5.948551643592 	  5.983854936085 	  0.000000000000 	
Mg	  6.948551643592 	  5.983854936085 	  2.980000000000 	
Mg	  2.250977983533 	  0.000000000000 	  1.897945058606 	
Mg	  3.250977983533 	  0.000000000000 	  4.877945058606 	
Mg	  2.250977983533 	  3.980000000000 	  1.897945058606 	
Mg	  3.250977983533 	  3.980000000000 	  4.877945058606 	
Mg	  6.230977983533 	  0.000000000000 	  1.897945058606 	
Mg	  7.230977983533 	  0.000000000000 	  4.877945058606 	
Mg	  6.230977983533 	  3.980000000000 	  1.897945058606 	
Mg	  7.230977983533 	  3.980000000000 	  4.877945058606 	
Mg	  0.176516462463 	  2.074461521070 	  1.897945058606 	
Mg	  1.176516462463 	  2.074461521070 	  4.877945058606 	
Mg	  0.176516462463 	  6.054461521070 	  1.897945058606 	
Mg	  1.176516462463 	  6.054461521070 	  4.877945058606 	
Mg	  4.156516462463 	  2.074461521070 	  1.897945058606 	
Mg	  5.156516462463 	  2.074461521070 	  4.877945058606 	
Mg	  4.156516462463 	  6.054461521070 	  1.897945058606 	
Mg	  5.156516462463 	  6.054461521070 	  4.877945058606 	
O	  2.074461521070 	  0.000000000000 	  0.000000000000 	
O	  3.074461521070 	  0.000000000000 	  2.980000000000 	
O	  2.074461521070 	  3.980000000000 	  0.000000000000 	
O	  3.074461521070 	  3.980000000000 	  2.980000000000 	
O	  6.054461521070 	  0.000000000000 	  0.000000000000 	
O	  7.054461521070 	  0.000000000000 	  2.980000000000 	
O	  6.054461521070 	  3.980000000000 	  0.000000000000 	
O	  7.054461521070 	  3.980000000000 	  2.980000000000 	
O	  0.000000000000 	  2.074461521070 	  0.000000000000 	
O	  1.000000000000 	  2.074461521070 	  2.980000000000 	
O	  0.000000000000 	  6.054461521070 	  0.000000000000 	
O	  1.000000000000 	  6.054461521070 	  2.980000000000 	
O	  3.980000000000 	  2.074461521070 	  0.000000000000 	
O	  4.980000000000 	  2.074461521070 	  2.980000000000 	
O	  3.980000000000 	  6.054461521070 	  0.000000000000 	
O	  4.980000000000 	  6.054461521070 	  2.980000000000 	
O	  0.176516462463 	  0.000000000000 	  1.897945058606 	
O	  1.176516462463 	  0.000000000000 	  4.877945058606 	
O	  0.176516462463 	  3.980000000000 	  1.897945058606 	
O	  1.176516462463 	  3.980000000000 	  4.877945058606 	
O	  4.156516462463 	  0.000000000000 	  1.897945058606 	
O	  5.156516462463 	  0.000000000000 	  4.877945058606 	
O	  4.156516462463 	  3.980000000000 	  1.897945058606 	
O	  5.156516462463 	  3.980000000000 	  4.877945058606 	
O	  2.392191153504 	  1.842518889393 	  1.897945058606 	
O	  3.392191153504 	  1.842518889393 	  4.877945058606 	
O	  2.392191153504 	  5.822518889393 	  1.897945058606 	
O	  3.392191153504 	  5.822518889393 	  4.877945058606 	
O	  6.372191153504 	  1.842518889393 	  1.897945058606 	
O	  7.372191153504 	  1.842518889393 	  4.877945058606 	
O	  6.372191153504 	  5.822518889393 	  1.897945058606 	
O	  7.372191153504 	  5.822518889393 	  4.877945058606 	
64 
Energy: 4.0328498398651433e+00 
Mg	  0.000000000000 	  0.000000000000 	  0.000000000000 	
Mg	  1.000000000000 	  0.000000000000 	  2.980000000000 	
Mg	  0.000000000000 	  3.980000000000 	  0.000000000000 	
Mg	  1.000000000000 	  3.980000000000 	  2.980000000000 	
Mg	  3.980000000000 	  0.000000000000 	  0.000000000000 	
Mg	  4.980000000000 	  0.000000000000 	  2.980000000000 	
Mg	  3.980000000000 	  3.980000000000 	  0.000000000000 	
Mg	  4.980000000000 	  3.980000000000 	  2.980000000000 	
Mg	  1.994673533788 	  2.024084254191 	  0.000000000000 	
Mg	  2.994673533788 	  2.024084254191 	  2.980000000000 	
Mg	  1.994673533788 	  6.004084254191 	  0.000000000000 	
Mg	  2.994673533788 	  6.004084254191 	  2.980000000000 	
Mg	  5.974673533788 	  2.024084254191 	  0.000000000000 	
Mg	  6.974673533788 	  2.024084254191 	  2.980000000000 	
Mg	  5.974673533788 	  6.004084254191 	  0.000000000000 	
Mg	  6.974673533788 	  6.004084254191 	  2.980000000000 	
Mg	  2.229959297011 	  0.000000000000 	  1.935852092982 	
Mg	  3.229959297011 	  0.000000000000 	  4.915852092982 	
Mg	  2.229959297011 	  3.980000000000 	  1.935852092982 	
Mg	  3.229959297011 	  3.980000000000 	  4.915852092982 	
Mg	  6.209959297011 	  0.000000000000 	  1.935852092982 	
Mg	  7.209959297011 	  0.000000000000 	  4.915852092982 	
Mg	  6.209959297011 	  3.980000000000 	  1.935852092982 	
Mg	  7.209959297011 	  3.980000000000 	  4.915852092982 	
Mg	  0.147053602014 	  2.082905694996 	  1.935852092982 	
Mg	  1.147053602014 	  2.082905694996 	  4.915852092982 	
Mg	  0.147053602014 	  6.062905694996 	  1.935852092982 	
Mg	  1.147053602014 	  6.062905694996 	  4.915852092982 	
Mg	  4.127053602014 	  2.082905694996 	  1.935852092982 	
Mg	  5.127053602014 	  2.082905694996 	  4.915852092982 	
Mg	  4.127053602014 	  6.062905694996 	  1.935852092982 	
Mg	  5.127053602014 	  6.062905694996 	  4.915852092982 	
O	  2.082905694996 	  0.000000000000 	  0.000000000000 	
O	  3.082905694996 	  0.000000000000 	  2.980000000000 	
O	  2.082905694996 	  3.980000000000 	  0.000000000000 	
O	  3.082905694996 	  3.980000000000 	  2.980000000000 	
O	  6.062905694996 	  0.000000000000 	  0.000000000000 	
O	  7.062905694996 	  0.000000000000 	  2.980000000000 	
O	  6.062905694996 	  3.980000000000 	  0.000000000000 	
O	  7.062905694996 	  3.980000000000 	  2.980000000000 	
O	  0.000000000000 	  2.082905694996 	  0.000000000000 	
O	  1.000000000000 	  2.082905694996 	  2.980000000000 	
O	  0.000000000000 	  6.062905694996 	  0.000000000000 	
O	  1.000000000000 	  6.062905694996 	  2.980000000000 	
O	  3.980000000000 	  2.082905694996 	  0.000000000000 	
O	  4.980000000000 	  2.082905694996 	  2.980000000000 	
O	  3.980000000000 	  6.062905694996 	  0.000000000000 	
O	  4.980000000000 	  6.062905694996 	  2.980000000000 	
O	  0.147053602014 	  0.000000000000 	  1.935852092982 	
O	  1.147053602014 	  0.000000000000 	  4.915852092982 	
O	  0.147053602014 	  3.980000000000 	  1.935852092982 	
O	  1.147053602014 	  3.980000000000 	  4.915852092982 	
O	  4.127053602014 	  0.000000000000 	  1.935852092982 	
O	  5.127053602014 	  0.000000000000 	  4.915852092982 	
O	  4.127053602014 	  3.980000000000 	  1.935852092982 	
O	  5.127053602014 	  3.980000000000 	  4.915852092982 	
O	  2.347602178623 	  1.889677261950 	  1.935852092982 	
O	  3.347602178623 	  1.889677261950 	  4.915852092982 	
O	  2.347602178623 	  5.869677261950 	  1.935852092982 	
O	  3.347602178623 	  5.869677261950 	  4.915852092982 	
O	  6.327602178623 	  1.889677261950 	  1.935852092982 	
O	  7.327602178623 	  1.889677261950 	  4.915852092982 	
O	  6.327602178623 	  5.869677261950 	  1.935852092982 	
O	  7.327602178623 	  5.869677261950 	  4.915852092982 	
64 
Energy: 3.0738204999669567e+00 
Mg	  0.000000000000 	  0.000000000000 	  0.000000000000 	
Mg	  1.000000000000 	  0.000000000000 	  2.980000000000 	
Mg	  0.000000000000 	  3.980000000000 	  0.000000000000 	
Mg	  1.000000000000 	  3.980000000000 	  2.980000000000 	
Mg	  3.980000000000 	  0.000000000000 	  0.000000000000 	
Mg	  4.980000000000 	  0.000000000000 	  2.980000000000 	
Mg	  3.980000000000 	  3.980000000000 	  0.000000000000 	
Mg	  4.980000000000 	  3.980000000000 	  2.980000000000 	
Mg	  2.020780240423 	  2.044301353516 	  0.000000000000 	
Mg	  3.020780240423 	  2.044301353516 	  2.980000000000 	
Mg	  2.020780240423 	  6.024301353516 	  0.000000000000 	
Mg	  3.020780240423 	  6.024301353516 	  2.980000000000 	
Mg	  6.000780240423 	  2.044301353516 	  0.000000000000 	
Mg	  7.000780240423 	  2.044301353516 	  2.980000000000 	
Mg	  6.000780240423 	  6.024301353516 	  0.000000000000 	
Mg	  7.000780240423 	  6.024301353516 	  2.980000000000 	
Mg	  2.208949145167 	  0.000000000000 	  1.973738014237 	
Mg	  3.208949145167 	  0.000000000000 	  4.953738014237 	
Mg	  2.208949145167 	  3.980000000000 	  1.973738014237 	
Mg	  3.208949145167 	  3.980000000000 	  4.953738014237 	
Mg	  6.188949145167 	  0.000000000000 	  1.973738014237 	
Mg	  7.188949145167 	  0.000000000000 	  4.953738014237 	
Mg	  6.188949145167 	  3.980000000000 	  1.973738014237 	
Mg	  7.188949145167 	  3.980000000000 	  4.953738014237 	
Mg	  0.117605565465 	  2.091343579702 	  1.973738014237 	
Mg	  1.117605565465 	  2.091343579702 	  4.953738014237 	
Mg	  0.117605565465 	  6.071343579702 	  1.973738014237 	
Mg	  1.117605565465 	  6.071343579702 	  4.953738014237 	
Mg	  4.097605565465 	  2.091343579702 	  1.973738014237 	
Mg	  5.097605565465 	  2.091343579702 	  4.953738014237 	
Mg	  4.097605565465 	  6.071343579702 	  1.973738014237 	
Mg	  5.097605565465 	  6.071343579702 	  4.953738014237 	
O	  2.091343579702 	  0.000000000000 	  0.000000000000 	
O	  3.091343579702 	  0.000000000000 	  2.980000000000 	
O	  2.091343579702 	  3.980000000000 	  0.000000000000 	
O	  3.091343579702 	  3.980000000000 	  2.980000000000 	
O	  6.071343579702 	  0.000000000000 	  0.000000000000 	
O	  7.071343579702 	  0.000000000000 	  2.980000000000 	
O	  6.071343579702 	  3.980000000000 	  0.000000000000 	
O	  7.071343579702 	  3.980000000000 	  2.980000000000 	
O	  0.000000000000 	  2.091343579702 	  0.000000000000 	
O	  1.000000000000 	  2.091343579702 	  2.980000000000 	
O	  0.000000000000 	  6.071343579702 	  0.000000000000 	
O	  1.000000000000 	  6.071343579702 	  2.980000000000 	
O	  3.980000000000 	  2.091343579702 	  0.000000000000 	
O	  4.980000000000 	  2.091343579702 	  2.980000000000 	
O	  3.980000000000 	  6.071343579702 	  0.000000000000 	
O	  4.980000000000 	  6.071343579702 	  2.980000000000 	
O	  0.117605565465 	  0.000000000000 	  1.973738014237 	
O	  1.117605565465 	  0.000000000000 	  4.953738014237 	
O	  0.117605565465 	  3.980000000000 	  1.973738014237 	
O	  1.117605565465 	  3.980000000000 	  4.953738014237 	
O	  4.097605565465 	  0.000000000000 	  1.973738014237 	
O	  5.097605565465 	  0.000000000000 	  4.953738014237 	
O	  4.097605565465 	  3.980000000000 	  1.973738014237 	
O	  5.097605565465 	  3.980000000000 	  4.953738014237 	
O	  2.303033597539 	  1.936809866681 	  1.973738014237 	
O	  3.303033597539 	  1.936809866681 	  4.953738014237 	
O	  2.303033597539 	  5.916809866681 	  1.973738014237 	
O	  3.303033597539 	  5.916809866681 	  4.953738014237 	
O	  6.283033597539 	  1.936809866681 	  1.973738014237 	
O	  7.283033597539 	  1.936809866681 	  4.953738014237 	
O	  6.283033597539 	  5.916809866681 	  1.973738014237 	
O	  7.283033597539 	  5.916809866681 	  4.953738014237 	
64 
Energy: 2.0406357124990739e+00 
Mg	  0.000000000000 	  0.000000000000 	  0.000000000000 	
Mg	  1.000000000000 	  0.000000000000 	  2.980000000000 	
Mg	  0.000000000000 	  3.980000000000 	  0.000000000000 	
Mg	  1.000000000000 	  3.980000000000 	  2.980000000000 	
Mg	  3.980000000000 	  0.000000000000 	  0.000000000000 	
Mg	  4.980000000000 	  0.000000000000 	  2.980000000000 	
Mg	  3.980000000000 	  3.980000000000 	  0.000000000000 	
Mg	  4.980000000000 	  3.980000000000 	  2.980000000000 	
Mg	  2.046868626986 	  2.064503590539 	  0.000000000000 	
Mg	  3.046868626986 	  2.064503590539 	  2.980000000000 	
Mg	  2.046868626986 	  6.044503590539 	  0.000000000000 	
Mg	  3.046868626986 	  6.044503590539 	  2.980000000000 	
Mg	  6.026868626986 	  2.064503590539 	  0.000000000000 	
Mg	  7.026868626986 	  2.064503590539 	  2.980000000000 	
Mg	  6.026868626986 	  6.044503590539 	  0.000000000000 	
Mg	  7.026868626986 	  6.044503590539 	  2.980000000000 	
Mg	  2.187948335411 	  0.000000000000 	  2.011598699880 	
Mg	  3.187948335411 	  0.000000000000 	  4.991598699880 	
Mg	  2.187948335411 	  3.980000000000 	  2.011598699880 	
Mg	  3.187948335411 	  3.980000000000 	  4.991598699880 	
Mg	  6.167948335411 	  0.000000000000 	  2.011598699880 	
Mg	  7.167948335411 	  0.000000000000 	  4.991598699880 	
Mg	  6.167948335411 	  3.980000000000 	  2.011598699880 	
Mg	  7.167948335411 	  3.980000000000 	  4.991598699880 	
Mg	  0.088174817766 	  2.099773517646 	  2.011598699880 	
Mg	  1.088174817766 	  2.099773517646 	  4.991598699880 	
Mg	  0.088174817766 	  6.079773517646 	  2.011598699880 	
Mg	  1.088174817766 	  6.079773517646 	  4.991598699880 	
Mg	  4.068174817766 	  2.099773517646 	  2.011598699880 	
Mg	  5.068174817766 	  2.099773517646 	  4.991598699880 	
Mg	  4.068174817766 	  6.079773517646 	  2.011598699880 	
Mg	  5.068174817766 	  6.079773517646 	  4.991598699880 	
O	  2.099773517646 	  0.000000000000 	  0.000000000000 	
O	  3.099773517646 	  0.000000000000 	  2.980000000000 	
O	  2.099773517646 	  3.980000000000 	  0.000000000000 	
O	  3.099773517646 	  3.980000000000 	  2.980000000000 	
O	  6.079773517646 	  0.000000000000 	  0.000000000000 	
O	  7.079773517646 	  0.000000000000 	  2.980000000000 	
O	  6.079773517646 	  3.980000000000 	  0.000000000000 	
O	  7.079773517646 	  3.980000000000 	  2.980000000000 	
O	  0.000000000000 	  2.099773517646 	  0.000000000000 	
O	  1.000000000000 	  2.099773517646 	  2.980000000000 	
O	  0.000000000000 	  6.079773517646 	  0.000000000000 	
O	  1.000000000000 	  6.079773517646 	  2.980000000000 	
O	  3.980000000000 	  2.099773517646 	  0.000000000000 	
O	  4.980000000000 	  2.099773517646 	  2.980000000000 	
O	  3.980000000000 	  6.079773517646 	  0.000000000000 	
O	  4.980000000000 	  6.079773517646 	  2.980000000000 	
O	  0.088174817766 	  0.000000000000 	  2.011598699880 	
O	  1.088174817766 	  0.000000000000 	  4.991598699880 	
O	  0.088174817766 	  3.980000000000 	  2.011598699880 	
O	  1.088174817766 	  3.980000000000 	  4.991598699880 	
O	  4.068174817766 	  0.000000000000 	  2.011598699880 	
O	  5.068174817766 	  0.000000000000 	  4.991598699880 	
O	  4.068174817766 	  3.980000000000 	  2.011598699880 	
O	  5.068174817766 	  3.980000000000 	  4.991598699880 	
O	  2.258488189624 	  1.983911807101 	  2.011598699880 	
O	  3.258488189624 	  1.983911807101 	  4.991598699880 	
O	  2.258488189624 	  5.963911807101 	  2.011598699880 	
O	  3.258488189624 	  5.963911807101 	  4.991598699880 	
O	  6.238488189624 	  1.983911807101 	  2.011598699880 	
O	  7.238488189624 	  1.983911807101 	  4.991598699880 	
O	  6.238488189624 	  5.963911807101 	  2.011598699880 	
O	  7.238488189624 	  5.963911807101 	  4.991598699880 	
64 
Energy: 1.0617732508335291e+00 
Mg	  0.000000000000 	  0.000000000000 	  0.000000000000 	
Mg	  1.000000000000 	  0.000000000000 	  2.980000000000 	
Mg	  0.000000000000 	  3.980000000000 	  0.000000000000 	
Mg	  1.000000000000 	  3.980000000000 	  2.980000000000 	
Mg	  3.980000000000 	  0.000000000000 	  0.000000000000 	
Mg	  4.980000000000 	  0.000000000000 	  2.980000000000 	
Mg	  3.980000000000 	  3.980000000000 	  0.000000000000 	
Mg	  4.980000000000 	  3.980000000000 	  2.980000000000 	
Mg	  2.072936031435 	  2.084688658512 	  0.000000000000 	
Mg	  3.072936031435 	  2.084688658512 	  2.980000000000 	
Mg	  2.072936031435 	  6.064688658512 	  0.000000000000 	
Mg	  3.072936031435 	  6.064688658512 	  2.980000000000 	
Mg	  6.052936031435 	  2.084688658512 	  0.000000000000 	
Mg	  7.052936031435 	  2.084688658512 	  2.980000000000 	
Mg	  6.052936031435 	  6.064688658512 	  0.000000000000 	
Mg	  7.052936031435 	  6.064688658512 	  2.980000000000 	
Mg	  2.166957048054 	  0.000000000000 	  2.049430777280 	
Mg	  3.166957048054 	  0.000000000000 	  5.029430777280 	
Mg	  2.166957048054 	  3.980000000000 	  2.049430777280 	
Mg	  3.166957048054 	  3.980000000000 	  5.029430777280 	
Mg	  6.146957048054 	  0.000000000000 	  2.049430777280 	
Mg	  7.146957048054 	  0.000000000000 	  5.029430777280 	
Mg	  6.146957048054 	  3.980000000000 	  2.049430777280 	
Mg	  7.146957048054 	  3.980000000000 	  5.029430777280 	
Mg	  0.058763135387 	  2.108193912667 	  2.049430777280 	
Mg	  1.058763135387 	  2.108193912667 	  5.029430777280 	
Mg	  0.058763135387 	  6.088193912667 	  2.049430777280 	
Mg	  1.058763135387 	  6.088193912667 	  5.029430777280 	
Mg	  4.038763135387 	  2.108193912667 	  2.049430777280 	
Mg	  5.038763135387 	  2.108193912667 	  5.029430777280 	
Mg	  4.038763135387 	  6.088193912667 	  2.049430777280 	
Mg	  5.038763135387 	  6.088193912667 	  5.029430777280 	
O	  2.108193912667 	  0.000000000000 	  0.000000000000 	
O	  3.108193912667 	  0.000000000000 	  2.980000000000 	
O	  2.108193912667 	  3.980000000000 	  0.000000000000 	
O	  3.108193912667 	  3.980000000000 	  2.980000000000 	
O	  6.088193912667 	  0.000000000000 	  0.000000000000 	
O	  7.088193912667 	  0.000000000000 	  2.980000000000 	
O	  6.088193912667 	  3.980000000000 	  0.000000000000 	
O	  7.088193912667 	  3.980000000000 	  2.980000000000 	
O	  0.000000000000 	  2.108193912667 	  0.000000000000 	
O	  1.000000000000 	  2.108193912667 	  2.980000000000 	
O	  0.000000000000 	  6.088193912667 	  0.000000000000 	
O	  1.000000000000 	  6.088193912667 	  2.980000000000 	
O	  3.980000000000 	  2.108193912667 	  0.000000000000 	
O	  4.980000000000 	  2.108193912667 	  2.980000000000 	
O	  3.980000000000 	  6.088193912667 	  0.000000000000 	
O	  4.980000000000 	  6.088193912667 	  2.980000000000 	
O	  0.058763135387 	  0.000000000000 	  2.049430777280 	
O	  1.058763135387 	  0.000000000000 	  5.029430777280 	
O	  0.058763135387 	  3.980000000000 	  2.049430777280 	
O	  1.058763135387 	  3.980000000000 	  5.029430777280 	
O	  4.038763135387 	  0.000000000000 	  2.049430777280 	
O	  5.038763135387 	  0.000000000000 	  5.029430777280 	
O	  4.038763135387 	  3.980000000000 	  2.049430777280 	
O	  5.038763135387 	  3.980000000000 	  5.029430777280 	
O	  2.213967556363 	  2.030979152769 	  2.049430777280 	
O	  3.213967556363 	  2.030979152769 	  5.029430777280 	
O	  2.213967556363 	  6.010979152769 	  2.049430777280 	
O	  3.213967556363 	  6.010979152769 	  5.029430777280 	
O	  6.193967556363 	  2.030979152769 	  2.049430777280 	
O	  7.193967556363 	  2.030979152769 	  5.029430777280 	
O	  6.193967556363 	  6.010979152769 	  2.049430777280 	
O	  7.193967556363 	  6.010979152769 	  5.029430777280 	
64 
Energy: 3.0845196355914184e-01 
Mg	  0.000000000000 	  0.000000000000 	  0.000000000000 	
Mg	  1.000000000000 	  0.000000000000 	  2.980000000000 	
Mg	  0.000000000000 	  3.980000000000 	  0.000000000000 	
Mg	  1.000000000000 	  3.980000000000 	  2.980000000000 	
Mg	  3.980000000000 	  0.000000000000 	  0.000000000000 	
Mg	  4.980000000000 	  0.000000000000 	  2.980000000000 	
Mg	  3.980000000000 	  3.980000000000 	  0.000000000000 	
Mg	  4.980000000000 	  3.980000000000 	  2.980000000000 	
Mg	  2.098980327584 	  2.104854628083 	  0.000000000000 	
Mg	  3.098980327584 	  2.104854628083 	  2.980000000000 	
Mg	  2.098980327584 	  6.084854628083 	  0.000000000000 	
Mg	  3.098980327584 	  6.084854628083 	  2.980000000000 	
Mg	  6.078980327584 	  2.104854628083 	  0.000000000000 	
Mg	  7.078980327584 	  2.104854628083 	  2.980000000000 	
Mg	  6.078980327584 	  6.084854628083 	  0.000000000000 	
Mg	  7.078980327584 	  6.084854628083 	  2.980000000000 	
Mg	  2.145974731578 	  0.000000000000 	  2.087231726585 	
Mg	  3.145974731578 	  0.000000000000 	  5.067231726585 	
Mg	  2.145974731578 	  3.980000000000 	  2.087231726585 	
Mg	  3.145974731578 	  3.980000000000 	  5.067231726585 	
Mg	  6.125974731578 	  0.000000000000 	  2.087231726585 	
Mg	  7.125974731578 	  0.000000000000 	  5.067231726585 	
Mg	  6.125974731578 	  3.980000000000 	  2.087231726585 	
Mg	  7.125974731578 	  3.980000000000 	  5.067231726585 	
Mg	  0.029371502496 	  2.116603229082 	  2.087231726585 	
Mg	  1.029371502496 	  2.116603229082 	  5.067231726585 	
Mg	  0.029371502496 	  6.096603229082 	  2.087231726585 	
Mg	  1.029371502496 	  6.096603229082 	  5.067231726585 	
Mg	  4.009371502496 	  2.116603229082 	  2.087231726585 	
Mg	  5.009371502496 	  2.116603229082 	  5.067231726585 	
Mg	  4.009371502496 	  6.096603229082 	  2.087231726585 	
Mg	  5.009371502496 	  6.096603229082 	  5.067231726585 	
O	  2.116603229082 	  0.000000000000 	  0.000000000000 	
O	  3.116603229082 	  0.000000000000 	  2.980000000000 	
O	  2.116603229082 	  3.980000000000 	  0.000000000000 	
O	  3.116603229082 	  3.980000000000 	  2.980000000000 	
O	  6.096603229082 	  0.000000000000 	  0.000000000000 	
O	  7.096603229082 	  0.000000000000 	  2.980000000000 	
O	  6.096603229082 	  3.980000000000 	  0.000000000000 	
O	  7.096603229082 	  3.980000000000 	  2.980000000000 	
O	  0.000000000000 	  2.116603229082 	  0.000000000000 	
O	  1.000000000000 	  2.116603229082 	  2.980000000000 	
O	  0.000000000000 	  6.096603229082 	  0.000000000000 	
O	  1.000000000000 	  6.096603229082 	  2.980000000000 	
O	  3.980000000000 	  2.116603229082 	  0.000000000000 	
O	  4.980000000000 	  2.116603229082 	  2.980000000000 	
O	  3.980000000000 	  6.096603229082 	  0.000000000000 	
O	  4.980000000000 	  6.096603229082 	  2.980000000000 	
O	  0.029371502496 	  0.000000000000 	  2.087231726585 	
O	  1.029371502496 	  0.000000000000 	  5.067231726585 	
O	  0.029371502496 	  3.980000000000 	  2.087231726585 	
O	  1.029371502496 	  3.980000000000 	  5.067231726585 	
O	  4.009371502496 	  0.000000000000 	  2.087231726585 	
O	  5.009371502496 	  0.000000000000 	  5.067231726585 	
O	  4.009371502496 	  3.980000000000 	  2.087231726585 	
O	  5.009371502496 	  3.980000000000 	  5.067231726585 	
O	  2.169471933575 	  2.078009074802 	  2.087231726585 	
O	  3.169471933575 	  2.078009074802 	  5.067231726585 	
O	  2.169471933575 	  6.058009074802 	  2.087231726585 	
O	  3.169471933575 	  6.058009074802 	  5.067231726585 	
O	  6.149471933575 	  2.078009074802 	  2.087231726585 	
O	  7.149471933575 	  2.078009074802 	  5.067231726585 	
O	  6.149471933575 	  6.058009074802 	  2.087231726585 	
O	  7.149471933575 	  6.058009074802 	  5.067231726585 	
64 
Energy: 0.0000000000000000e+00 
Mg	  0.000000000000 	  0.000000000000 	  0.000000000000 	
Mg	  1.000000000000 	  0.000000000000 	  2.980000000000 	
Mg	  0.000000000000 	  3.980000000000 	  0.000000000000 	
Mg	  1.000000000000 	  3.980000000000 	  2.980000000000 	
Mg	  3.980000000000 	  0.000000000000 	  0.000000000000 	
Mg	  4.980000000000 	  0.000000000000 	  2.980000000000 	
Mg	  3.980000000000 	  3.980000000000 	  0.000000000000 	
Mg	  4.980000000000 	  3.980000000000 	  2.980000000000 	
Mg	  2.125000000000 	  2.125000000000 	  0.000000000000 	
Mg	  3.125000000000 	  2.125000000000 	  2.980000000000 	
Mg	  2.125000000000 	  6.105000000000 	  0.000000000000 	
Mg	  3.125000000000 	  6.105000000000 	  2.980000000000 	
Mg	  6.105000000000 	  2.125000000000 	  0.000000000000 	
Mg	  7.105000000000 	  2.125000000000 	  2.980000000000 	
Mg	  6.105000000000 	  6.105000000000 	  0.000000000000 	
Mg	  7.105000000000 	  6.105000000000 	  2.980000000000 	
Mg	  2.125000000000 	  0.000000000000 	  2.125000000000 	
Mg	  3.125000000000 	  0.000000000000 	  5.105000000000 	
Mg	  2.125000000000 	  3.980000000000 	  2.125000000000 	
Mg	  3.125000000000 	  3.980000000000 	  5.105000000000 	
Mg	  6.105000000000 	  0.000000000000 	  2.125000000000 	
Mg	  7.105000000000 	  0.000000000000 	  5.105000000000 	
Mg	  6.105000000000 	  3.980000000000 	  2.125000000000 	
Mg	  7.105000000000 	  3.980000000000 	  5.105000000000 	
Mg	  0.000000000000 	  2.125000000000 	  2.125000000000 	
Mg	  1.000000000000 	  2.125000000000 	  5.105000000000 	
Mg	  0.000000000000 	  6.105000000000 	  2.125000000000 	
Mg	  1.000000000000 	  6.105000000000 	  5.105000000000 	
Mg	  3.980000000000 	  2.125000000000 	  2.125000000000 	
Mg	  4.980000000000 	  2.125000000000 	  5.105000000000 	
Mg	  3.980000000000 	  6.105000000000 	  2.125000000000 	
Mg	  4.980000000000 	  6.105000000000 	  5.105000000000 	
O	  2.125000000000 	  0.000000000000 	  0.000000000000 	
O	  3.125000000000 	  0.000000000000 	  2.980000000000 	
O	  2.125000000000 	  3.980000000000 	  0.000000000000 	
O	  3.125000000000 	  3.980000000000 	  2.980000000000 	
O	  6.105000000000 	  0.000000000000 	  0.000000000000 	
O	  7.105000000000 	  0.000000000000 	  2.980000000000 	
O	  6.105000000000 	  3.980000000000 	  0.000000000000 	
O	  7.105000000000 	  3.980000000000 	  2.980000000000 	
O	  0.000000000000 	  2.125000000000 	  0.000000000000 	
O	  1.000000000000 	  2.125000000000 	  2.980000000000 	
O	  0.000000000000 	  6.105000000000 	  0.000000000000 	
O	  1.000000000000 	  6.105000000000 	  2.980000000000 	
O	  3.980000000000 	  2.125000000000 	  0.000000000000 	
O	  4.980000000000 	  2.125000000000 	  2.980000000000 	
O	  3.980000000000 	  6.105000000000 	  0.000000000000 	
O	  4.980000000000 	  6.105000000000 	  2.980000000000 	
O	  0.000000000000 	  0.000000000000 	  2.125000000000 	
O	  1.000000000000 	  0.000000000000 	  5.105000000000 	
O	  0.000000000000 	  3.980000000000 	  2.125000000000 	
O	  1.000000000000 	  3.980000000000 	  5.105000000000 	
O	  3.980000000000 	  0.000000000000 	  2.125000000000 	
O	  4.980000000000 	  0.000000000000 	  5.105000000000 	
O	  3.980000000000 	  3.980000000000 	  2.125000000000 	
O	  4.980000000000 	  3.980000000000 	  5.105000000000 	
O	  2.125000000000 	  2.125000000000 	  2.125000000000 	
O	  3.125000000000 	  2.125000000000 	  5.105000000000 	
O	  2.125000000000 	  6.105000000000 	  2.125000000000 	
O	  3.125000000000 	  6.105000000000 	  5.105000000000 	
O	  6.105000000000 	  2.125000000000 	  2.125000000000 	
O	  7.105000000000 	  2.125000000000 	  5.105000000000 	
O	  6.105000000000 	  6.105000000000 	  2.125000000000 	
O	  7.105000000000 	  6.105000000000 	  5.105000000000 	
