  Invoking FHI-aims ...
  | Number of atoms                   :  96
  ...scf iterations...
  | Total energy corrected        :   -7.042187023005E+01 eV
  ...
  Total atomic forces (unitary forces cleaned)
     1  -2.5312611086E-01  5.8374247828E-01  1.9421427550E-01
     2  2.5312844186E-01  5.8375105959E-01  -1.9419471941E-01
     3  2.5312604422E-01  -5.8374242963E-01  -1.9421427844E-01
     4  -2.5312837865E-01  -5.8375108860E-01  1.9419484241E-01
     5  -8.8635363071E-01  1.1389665604E+00  6.7877451650E-02
     6  8.8631644879E-01  1.1389725268E+00  -6.7883550681E-02
     7  8.8635431469E-01  -1.1389663813E+00  -6.7876862481E-02
     8  -8.8631625953E-01  -1.1389727155E+00  6.7883693256E-02
     9  -1.8500318912E-01  1.3605418947E-01  -7.2489674649E-02
    10  1.8503201899E-01  1.3611679580E-01  7.2498412271E-02
    11  1.8500260191E-01  -1.3605456154E-01  7.2489382927E-02
    12  -1.8503219922E-01  -1.3611643388E-01  -7.2498702466E-02
    13  -3.5930783448E-01  -9.1530070084E-01  -7.9524174221E-01
    14  3.5930482192E-01  -9.1535376406E-01  7.9523194140E-01
    15  3.5930731048E-01  9.1530097256E-01  7.9524157111E-01
    16  -3.5930502525E-01  9.1535367867E-01  -7.9523193937E-01
    17  2.8194550495E+00  -3.7414771931E+00  -3.4959760516E-01
    18  -2.8198553973E+00  -3.7421367776E+00  3.4958642248E-01
    19  -2.8194548110E+00  3.7414774922E+00  3.4959814910E-01
    20  2.8198575520E+00  3.7421403149E+00  -3.4958708239E-01
    21  -1.8927672749E+00  2.1994335606E+00  1.6664763277E-01
    22  1.8932009999E+00  2.2000752484E+00  -1.6668525340E-01
    23  1.8927672289E+00  -2.1994336561E+00  -1.6664782376E-01
    24  -1.8932030030E+00  -2.2000786710E+00  1.6668547379E-01
    25  5.1545760300E-01  6.8717698194E-02  3.1903423661E-01
    26  -5.1549118530E-01  6.8664126627E-02  -3.1900998842E-01
    27  -5.1545793904E-01  -6.8718092556E-02  -3.1903453989E-01
    28  5.1549122035E-01  -6.8663748245E-02  3.1900988031E-01
    29  1.0019983054E+00  3.3739805785E+00  2.9723612550E+00
    30  -1.0019984918E+00  3.3739733363E+00  -2.9723017140E+00
    31  -1.0019970745E+00  -3.3739759443E+00  -2.9723580486E+00
    32  1.0019980765E+00  -3.3739739463E+00  2.9723017422E+00
    33  -6.3315688101E-01  -2.0301073966E+00  -1.7666025648E+00
    34  6.3317442339E-01  -2.0300482687E+00  1.7665561587E+00
    35  6.3315595888E-01  2.0301029913E+00  1.7665989855E+00
    36  -6.3317465666E-01  2.0300485191E+00  -1.7665562991E+00
    37  -2.9904108408E+00  3.5476197218E+00  3.2069730034E-01
    38  2.9907958097E+00  3.5482477319E+00  -3.2071695794E-01
    39  2.9904077488E+00  -3.5476152136E+00  -3.2069679856E-01
    40  -2.9907922427E+00  -3.5482441707E+00  3.2071687341E-01
    41  1.6240895104E+00  -2.0716209041E+00  -2.8002292815E-01
    42  -1.6245099763E+00  -2.0722393634E+00  2.8007725818E-01
    43  -1.6240863498E+00  2.0716163793E+00  2.8002257134E-01
    44  1.6245068837E+00  2.0722355515E+00  -2.8007685518E-01
    45  -5.3268539830E-01  1.8583346690E-02  -3.4705000769E-01
    46  5.3269434876E-01  1.8642616778E-02  3.4702967377E-01
    47  5.3268436992E-01  -1.8583708491E-02  3.4704910202E-01
    48  -5.3269405070E-01  -1.8642693183E-02  -3.4702987398E-01
    49  -8.9471904120E+00  -5.0083085846E+00  5.4633737862E+00
    50  8.9474767833E+00  -5.0072631691E+00  -5.4636297746E+00
    51  8.9471375552E+00  5.0082842319E+00  -5.4633589546E+00
    52  -8.9474884786E+00  5.0072707105E+00  5.4636245545E+00
    53  3.0617754863E+00  8.3466001059E+00  1.1966218551E+00
    54  -3.0616460195E+00  8.3458920276E+00  -1.1965288905E+00
    55  -3.0617572050E+00  -8.3465535948E+00  -1.1966109002E+00
    56  3.0616493075E+00  -8.3459014260E+00  1.1965284564E+00
    57  -7.3523422809E-01  6.2956048025E-02  -6.0723965684E-01
    58  7.3509006348E-01  6.2947391980E-02  6.0713329588E-01
    59  7.3523604976E-01  -6.2955996380E-02  6.0724126118E-01
    60  -7.3508232523E-01  -6.2947096977E-02  -6.0712794391E-01
    61  6.0769188177E+00  -4.2734812269E+00  -4.3842398901E+00
    62  -6.0771823038E+00  -4.2738010543E+00  4.3845129236E+00
    63  -6.0768863286E+00  4.2734574715E+00  4.3842138836E+00
    64  6.0771827508E+00  4.2738022377E+00  -4.3845122646E+00
    65  2.0817461804E+00  -5.5443976840E+00  -7.4829830368E+00
    66  -2.0819063071E+00  -5.5434076793E+00  7.4826886580E+00
    67  -2.0817526031E+00  5.5443730390E+00  7.4829510594E+00
    68  2.0818974689E+00  5.5434300744E+00  -7.4826693936E+00
    69  1.8245307379E+00  6.8958978614E+00  1.1508812487E+00
    70  -1.8243980798E+00  6.8947527425E+00  -1.1506902193E+00
    71  -1.8245219080E+00  -6.8958625259E+00  -1.1508751748E+00
    72  1.8244020977E+00  -6.8947647417E+00  1.1506903929E+00
    73  -1.3675080116E+00  -2.4003980916E+00  5.9456526829E+00
    74  1.3675109425E+00  -2.4002603761E+00  -5.9455433760E+00
    75  1.3675050978E+00  2.4003869622E+00  -5.9456292902E+00
    76  -1.3675068238E+00  2.4002504741E+00  5.9455241131E+00
    77  -9.2635392669E-01  -1.8967753255E-02  -5.5852113363E-01
    78  9.2636571093E-01  -1.8981692224E-02  5.5853803375E-01
    79  9.2635544134E-01  1.8967846299E-02  5.5852237909E-01
    80  -9.2636535522E-01  1.8981602268E-02  -5.5853772224E-01
    81  -2.9406708078E+00  1.0509964103E+01  -6.9591402926E-01
    82  2.9409672732E+00  1.0510742770E+01  6.9616556712E-01
    83  2.9406260839E+00  -1.0509912708E+01  6.9593658722E-01
    84  -2.9409724899E+00  -1.0510748673E+01  -6.9617126778E-01
    85  -7.9763355162E-01  -1.6084248886E-02  -4.2641075156E-01
    86  7.9753985699E-01  -1.6098663567E-02  4.2636681505E-01
    87  7.9763712930E-01  1.6083977489E-02  4.2641300558E-01
    88  -7.9753650059E-01  1.6098744869E-02  -4.2636497831E-01
    89  -9.3593660067E-01  -3.8935272313E+00  6.4468422647E+00
    90  9.3614359019E-01  -3.8939279471E+00  -6.4474644760E+00
    91  9.3593427822E-01  3.8935142892E+00  -6.4468250740E+00
    92  -9.3614489329E-01  3.8939290331E+00  6.4474691771E+00
    93  5.4969973792E+00  -4.6653425149E+00  -4.8997725519E+00
    94  -5.4974186288E+00  -4.6657495438E+00  4.9001917885E+00
    95  -5.4969533766E+00  4.6653063721E+00  4.8997315245E+00
    96  5.4974221918E+00  4.6657544541E+00  -4.9001930388E+00
  Stress tensor (eV/A^3):
  -6.4581569228E-03  -2.9617008841E-06  4.6688004807E-02
  -2.9617008841E-06  -6.9318270158E-02  2.7194234989E-07
  4.6688004807E-02  2.7194234989E-07  -3.9345396296E-02
