  Invoking FHI-aims ...
  | Number of atoms                   :  96
  ...scf iterations...
  | Total energy corrected        :   -7.852703930119E+01 eV
  ...
  Total atomic forces (unitary forces cleaned)
     1  -2.2501919070E-01  5.9664252607E-01  1.8982120999E-01
     2  2.0542300608E-01  5.7703122235E-01  -1.9545093811E-01
     3  2.2501934876E-01  -5.9664243617E-01  -1.8982111243E-01
     4  -2.0542289059E-01  -5.7703093997E-01  1.9545098294E-01
     5  -8.0846029675E-01  1.3064547501E+00  1.3841367991E-01
     6  8.0675743661E-01  1.3071690148E+00  -1.4328352350E-01
     7  8.0846029610E-01  -1.3064546174E+00  -1.3841357822E-01
     8  -8.0675789520E-01  -1.3071691175E+00  1.4328382501E-01
     9  -2.3979302418E-01  1.8255599332E-01  -1.4155997784E-01
    10  2.6677385827E-01  2.0756398447E-01  1.4052518722E-01
    11  2.3979286024E-01  -1.8255538086E-01  1.4155983168E-01
    12  -2.6677429799E-01  -2.0756447247E-01  -1.4052483868E-01
    13  -4.2634907292E-01  -8.9311426279E-01  -9.6069447339E-01
    14  4.0426143569E-01  -9.2010080777E-01  9.6809012974E-01
    15  4.2634859348E-01  8.9311422622E-01  9.6069419094E-01
    16  -4.0426158785E-01  9.2010131891E-01  -9.6808928664E-01
    17  8.2149671511E-01  -1.2153435227E+00  -1.1684315489E-01
    18  -8.2091450052E-01  -1.2383876832E+00  1.4258716437E-01
    19  -8.2149632550E-01  1.2153443290E+00  1.1684353758E-01
    20  8.2091427908E-01  1.2383877285E+00  -1.4258777596E-01
    21  1.2191010151E-01  -4.3209238781E-01  -1.6657155095E-01
    22  -1.1856841571E-01  -4.2783303146E-01  1.6794042357E-01
    23  -1.2190977892E-01  4.3209219013E-01  1.6657115017E-01
    24  1.1856816627E-01  4.2783312688E-01  -1.6794054794E-01
    25  6.0252040394E-01  -1.7327974242E-02  5.5458594938E-01
    26  -6.1042510094E-01  -1.8377456262E-03  -5.8141871254E-01
    27  -6.0252030564E-01  1.7327611224E-02  -5.5458608950E-01
    28  6.1042603682E-01  1.8377460072E-03  5.8141847588E-01
    29  5.2821484419E-01  9.0654454303E-01  1.0802430981E+00
    30  -5.2610188702E-01  9.0880925855E-01  -1.0798362436E+00
    31  -5.2821506357E-01  -9.0654492300E-01  -1.0802431022E+00
    32  5.2610210468E-01  -9.0880959428E-01  1.0798361054E+00
    33  -1.7806163910E-02  4.1125940602E-01  2.7217523269E-01
    34  2.4198120263E-02  4.1490524757E-01  -2.6567862119E-01
    35  1.7806252343E-02  -4.1125950235E-01  -2.7217474211E-01
    36  -2.4198030061E-02  -4.1490520984E-01  2.6567839110E-01
    37  -1.0324657456E+00  1.1979507161E+00  -6.3016506983E-02
    38  1.0323715487E+00  1.2003800065E+00  6.1077360658E-02
    39  1.0324657439E+00  -1.1979508465E+00  6.3016704619E-02
    40  -1.0323714500E+00  -1.2003797778E+00  -6.1077006014E-02
    41  -3.2571969596E-01  4.4846381945E-01  3.7589582570E-03
    42  3.2558335102E-01  4.4814098481E-01  -4.0672962118E-03
    43  3.2571975935E-01  -4.4846397433E-01  -3.7588216507E-03
    44  -3.2558335830E-01  -4.4814100543E-01  4.0674038337E-03
    45  -8.4265827463E-01  8.5564808595E-02  -5.6353120581E-01
    46  8.5583578954E-01  1.2394508663E-01  5.4276937660E-01
    47  8.4265530589E-01  -8.5564339410E-02  5.6353002863E-01
    48  -8.5583607155E-01  -1.2394528398E-01  -5.4276938228E-01
    49  -3.6738158593E-01  1.0358145833E+00  2.5131191945E+00
    50  7.1689224626E-03  3.6174229016E+00  -3.1081430965E+00
    51  3.6738248200E-01  -1.0358088919E+00  -2.5131180727E+00
    52  -7.1672595953E-03  -3.6174215777E+00  3.1081422648E+00
    53  -3.9691303278E-02  -1.0918249019E-01  -1.1710000875E-01
    54  1.2654155543E-01  -1.5652145734E-01  7.9683870832E-02
    55  3.9691764259E-02  1.0918228331E-01  1.1710011716E-01
    56  -1.2654101295E-01  1.5652124482E-01  -7.9683919634E-02
    57  -7.7803000389E-02  -2.2093104887E-02  -1.4818417457E-01
    58  8.3527325575E-01  1.4946090649E-01  8.0259473155E-01
    59  7.7802682601E-02  2.2092845588E-02  1.4818430697E-01
    60  -8.3527428279E-01  -1.4946122795E-01  -8.0259453049E-01
    61  1.0596946479E-01  1.9244302942E-02  -5.1278934178E-02
    62  -5.9610467974E-01  -2.6769730300E+00  5.5717062035E-02
    63  -1.0596910090E-01  -1.9246475113E-02  5.1278431038E-02
    64  5.9610464438E-01  2.6769719560E+00  -5.5716334136E-02
    65  7.7979416506E-01  -2.4999732228E+00  4.4541327060E-01
    66  -4.6721432601E-01  -2.2246584440E+00  -1.1063533884E+00
    67  -7.7979615131E-01  2.4999704739E+00  -4.4541078921E-01
    68  4.6721476238E-01  2.2246575687E+00  1.1063533483E+00
    69  -1.2418029130E-01  1.1857452480E-01  8.6749244732E-02
    70  6.5758423596E-02  1.6422234386E-01  -5.7415605539E-02
    71  1.2418033282E-01  -1.1857411912E-01  -8.6749427015E-02
    72  -6.5758686755E-02  -1.6422208506E-01  5.7415870217E-02
    73  1.4885131051E-01  8.1695959424E-02  -6.3192518069E-02
    74  -3.4746461994E-01  -2.8934886585E-01  7.3264228012E-01
    75  -1.4885103503E-01  -8.1696490749E-02  6.3192934227E-02
    76  3.4746413099E-01  2.8934922142E-01  -7.3264265380E-01
    77  -1.1969967259E-01  3.2751763056E-02  -1.0923403750E-01
    78  5.2949272984E-02  2.9105491447E-02  5.7878115306E-02
    79  1.1969954621E-01  -3.2751898325E-02  1.0923371866E-01
    80  -5.2949251098E-02  -2.9105474991E-02  -5.7878048030E-02
    81  2.0681289841E+00  1.3202833781E+00  -1.0869116169E+00
    82  -2.0694306357E+00  1.3209341010E+00  1.0891320037E+00
    83  -2.0681255810E+00  -1.3202848865E+00  1.0869078651E+00
    84  2.0694308590E+00  -1.3209322605E+00  -1.0891333498E+00
    85  -2.0880475767E-01  -3.2038403492E-02  -6.7710763055E-02
    86  2.0912357012E-01  -3.2882138220E-02  7.0208740012E-02
    87  2.0880451341E-01  3.2038737683E-02  6.7710550925E-02
    88  -2.0912400244E-01  3.2881917321E-02  -7.0208553100E-02
    89  -6.6706390379E-02  -1.5753526982E-01  -1.6143003677E-02
    90  6.6481285594E-02  -1.5698109276E-01  1.6565871643E-02
    91  6.6706194187E-02  1.5753570705E-01  1.6143807769E-02
    92  -6.6481559894E-02  1.5698098190E-01  -1.6565211895E-02
    93  -1.0258148759E-01  -2.4774144641E-02  7.8324524904E-02
    94  1.0157272858E-01  -2.4922109300E-02  -7.7733893539E-02
    95  1.0258173415E-01  2.4773701682E-02  -7.8324304572E-02
    96  -1.0157284486E-01  2.4921457608E-02  7.7734200226E-02
  Stress tensor (eV/A^3):
  5.3580829980E-02  -1.1595532676E-03  2.0095595138E-02
  -1.1595532676E-03  5.6896739351E-02  -1.0836559159E-03
  2.0095595138E-02  -1.0836559159E-03  5.4268814402E-02
