768 
Energy: -7.3825508041559999e+01 
S	  8.778583098100 	  1.541356859400 	  0.034410210600 	
S	  8.210038968100 	  1.541359669400 	 10.164966930600 	
S	  8.778551998100 	  7.724918619400 	  0.034407380600 	
S	  8.210007868100 	  7.724921429400 	 10.164964100600 	
S	 23.459410398100 	  1.541366089400 	  0.062540140600 	
S	 22.890866268100 	  1.541368899400 	 10.193096860600 	
S	 23.459379298100 	  7.724927849400 	  0.062537310600 	
S	 22.890835168100 	  7.724930659400 	 10.193094030600 	
S	  5.617972169000 	  4.633116300900 	  5.058959345800 	
S	  5.049428039000 	  4.633119110900 	 15.189516065800 	
S	  5.617941069000 	 10.816678060900 	  5.058956515800 	
S	  5.049396939000 	 10.816680870900 	 15.189513235800 	
S	 20.298799469000 	  4.633125530900 	  5.087089275800 	
S	 19.730255339000 	  4.633128340900 	 15.217645995800 	
S	 20.298768369000 	 10.816687290900 	  5.087086445800 	
S	 19.730224239000 	 10.816690100900 	 15.217643165800 	
S	  5.333668977500 	  4.642216569600 	 10.124273508100 	
S	  4.765124847500 	  4.642219379600 	 20.254830228100 	
S	  5.333637877500 	 10.825778329600 	 10.124270678100 	
S	  4.765093747500 	 10.825781139600 	 20.254827398100 	
S	 20.014496277500 	  4.642225799600 	 10.152403438100 	
S	 19.445952147500 	  4.642228609600 	 20.282960158100 	
S	 20.014465177500 	 10.825787559600 	 10.152400608100 	
S	 19.445921047500 	 10.825790369600 	 20.282957328100 	
S	  8.494280183300 	  1.550457870200 	  5.099724677400 	
S	  7.925736053300 	  1.550460680200 	 15.230281397400 	
S	  8.494249083300 	  7.734019630200 	  5.099721847400 	
S	  7.925704953300 	  7.734022440200 	 15.230278567400 	
S	 23.175107483300 	  1.550467100200 	  5.127854607400 	
S	 22.606563353300 	  1.550469910200 	 15.258411327400 	
S	 23.175076383300 	  7.734028860200 	  5.127851777400 	
S	 22.606532253300 	  7.734031670200 	 15.258408497400 	
C	  6.798118307500 	  2.504334010600 	  9.780797448900 	
C	  6.229574177500 	  2.504336820600 	 19.911354168900 	
C	  6.798087207500 	  8.687895770600 	  9.780794618900 	
C	  6.229543077500 	  8.687898580600 	 19.911351338900 	
C	 21.478945607500 	  2.504343240600 	  9.808927378900 	
C	 20.910401477500 	  2.504346050600 	 19.939484098900 	
C	 21.478914507500 	  8.687905000600 	  9.808924548900 	
C	 20.910370377500 	  8.687907810600 	 19.939481268900 	
C	  7.029858902800 	  5.596110217300 	  5.443156977400 	
C	  6.461314772800 	  5.596113027300 	 15.573713697400 	
C	  7.029827802800 	 11.779671977300 	  5.443154147400 	
C	  6.461283672800 	 11.779674787300 	 15.573710867400 	
C	 21.710686202800 	  5.596119447300 	  5.471286907400 	
C	 21.142142072800 	  5.596122257300 	 15.601843627400 	
C	 21.710655102800 	 11.779681207300 	  5.471284077400 	
C	 21.142110972800 	 11.779684017300 	 15.601840797400 	
C	  7.314133768200 	  3.679239356500 	  0.377886269800 	
C	  6.745589638200 	  3.679242166500 	 10.508442989800 	
C	  7.314102668200 	  9.862801116500 	  0.377883439800 	
C	  6.745558538200 	  9.862803926500 	 10.508440159800 	
C	 21.994961068200 	  3.679248586500 	  0.406016199800 	
C	 21.426416938200 	  3.679251396500 	 10.536572919800 	
C	 21.994929968200 	  9.862810346500 	  0.406013369800 	
C	 21.426385838200 	  9.862813156500 	 10.536570089800 	
C	  7.082393302600 	  0.587464077300 	  4.715527045500 	
C	  6.513849172600 	  0.587466887300 	 14.846083765500 	
C	  7.082362202600 	  6.771025837300 	  4.715524215500 	
C	  6.513818072600 	  6.771028647300 	 14.846080935500 	
C	 21.763220602600 	  0.587473307300 	  4.743656975500 	
C	 21.194676472600 	  0.587476117300 	 14.874213695500 	
C	 21.763189502600 	  6.771035067300 	  4.743654145500 	
C	 21.194645372600 	  6.771037877300 	 14.874210865500 	
C	  5.707537281800 	  2.321126042300 	  8.876603728600 	
C	  5.138993151800 	  2.321128852300 	 19.007160448600 	
C	  5.707506181800 	  8.504687802300 	  8.876600898600 	
C	  5.138962051800 	  8.504690612300 	 19.007157618600 	
C	 20.388364581800 	  2.321135272300 	  8.904733658600 	
C	 19.819820451800 	  2.321138082300 	 19.035290378600 	
C	 20.388333481800 	  8.504697032300 	  8.904730828600 	
C	 19.819789351800 	  8.504699842300 	 19.035287548600 	
C	  8.120442166400 	  5.412901958300 	  6.347351676700 	
C	  7.551898036400 	  5.412904768300 	 16.477908396700 	
C	  8.120411066400 	 11.596463718300 	  6.347348846700 	
C	  7.551866936400 	 11.596466528300 	 16.477905566700 	
C	 22.801269466400 	  5.412911188300 	  6.375481606700 	
C	 22.232725336400 	  5.412913998300 	 16.506038326700 	
C	 22.801238366400 	 11.596472948300 	  6.375478776700 	
C	 22.232694236400 	 11.596475758300 	 16.506035496700 	
C	  8.404714652800 	  3.862447386700 	  1.282079888500 	
C	  7.836170522800 	  3.862450196700 	 11.412636608500 	
C	  8.404683552800 	 10.046009146700 	  1.282077058500 	
C	  7.836139422800 	 10.046011956700 	 11.412633778500 	
C	 23.085541952800 	  3.862456616700 	  1.310209818500 	
C	 22.516997822800 	  3.862459426700 	 11.440766538500 	
C	 23.085510852800 	 10.046018376700 	  1.310206988500 	
C	 22.516966722800 	 10.046021186700 	 11.440763708500 	
C	  5.991810044800 	  0.770672274600 	  3.811332244900 	
C	  5.423265914800 	  0.770675084600 	 13.941888964900 	
C	  5.991778944800 	  6.954234034600 	  3.811329414900 	
C	  5.423234814800 	  6.954236844600 	 13.941886134900 	
C	 20.672637344800 	  0.770681504600 	  3.839462174900 	
C	 20.104093214800 	  0.770684314600 	 13.970018894900 	
C	 20.672606244800 	  6.954243264600 	  3.839459344900 	
C	 20.104062114800 	  6.954246074600 	 13.970016064900 	
C	  4.807288713200 	  3.418578044500 	  8.955234686400 	
C	  4.238744583200 	  3.418580854500 	 19.085791406400 	
C	  4.807257613200 	  9.602139804500 	  8.955231856400 	
C	  4.238713483200 	  9.602142614500 	 19.085788576400 	
C	 19.488116013200 	  3.418587274500 	  8.983364616400 	
C	 18.919571883200 	  3.418590084500 	 19.113921336400 	
C	 19.488084913200 	  9.602149034500 	  8.983361786400 	
C	 18.919540783200 	  9.602151844500 	 19.113918506400 	
C	  9.020685667900 	  0.326811214600 	  6.268754309600 	
C	  8.452141537900 	  0.326814024600 	 16.399311029600 	
C	  9.020654567900 	  6.510372974600 	  6.268751479600 	
C	  8.452110437900 	  6.510375784600 	 16.399308199600 	
C	 23.701512967900 	  0.326820444600 	  6.296884239600 	
C	 23.132968837900 	  0.326823254600 	 16.427440959600 	
C	 23.701481867900 	  6.510382204600 	  6.296881409600 	
C	 23.132937737900 	  6.510385014600 	 16.427438129600 	
C	  9.304963215700 	  2.764995446300 	  1.203449032000 	
C	  8.736419085700 	  2.764998256300 	 11.334005752000 	
C	  9.304932115700 	  8.948557206300 	  1.203446202000 	
C	  8.736387985700 	  8.948560016300 	 11.334002922000 	
C	 23.985790515700 	  2.765004676300 	  1.231578962000 	
C	 23.417246385700 	  2.765007486300 	 11.362135682000 	
C	 23.985759415700 	  8.948566436300 	  1.231576132000 	
C	 23.417215285700 	  8.948569246300 	 11.362132852000 	
C	  5.091566543200 	  5.856762956400 	  3.889929612000 	
C	  4.523022413200 	  5.856765766400 	 14.020486332000 	
C	  5.091535443200 	 12.040324716400 	  3.889926782000 	
C	  4.522991313200 	 12.040327526400 	 14.020483502000 	
C	 19.772393843200 	  5.856772186400 	  3.918059542000 	
C	 19.203849713200 	  5.856774996400 	 14.048616262000 	
C	 19.772362743200 	 12.040333946400 	  3.918056712000 	
C	 19.203818613200 	 12.040336756400 	 14.048613432000 	
C	  3.638231112900 	  3.456968704600 	  8.193277916700 	
C	  3.069686982900 	  3.456971514600 	 18.323834636700 	
C	  3.638200012900 	  9.640530464600 	  8.193275086700 	
C	  3.069655882900 	  9.640533274600 	 18.323831806700 	
C	 18.319058412900 	  3.456977934600 	  8.221407846700 	
C	 17.750514282900 	  3.456980744600 	 18.351964566700 	
C	 18.319027312900 	  9.640539694600 	  8.221405016700 	
C	 17.750483182900 	  9.640542504600 	 18.351961736700 	
C	 10.189735933600 	  0.365211363600 	  7.030719744100 	
C	  9.621191803600 	  0.365214173600 	 17.161276464100 	
C	 10.189704833600 	  6.548773123600 	  7.030716914100 	
C	  9.621160703600 	  6.548775933600 	 17.161273634100 	
C	 24.870563233600 	  0.365220593600 	  7.058849674100 	
C	 24.302019103600 	  0.365223403600 	 17.189406394100 	
C	 24.870532133600 	  6.548782353600 	  7.058846844100 	
C	 24.301988003600 	  6.548785163600 	 17.189403564100 	
C	 10.474020810300 	  2.726604848100 	  1.965405903000 	
C	  9.905476680300 	  2.726607658100 	 12.095962623000 	
C	 10.473989710300 	  8.910166608100 	  1.965403073000 	
C	  9.905445580300 	  8.910169418100 	 12.095959793000 	
C	 25.154848110300 	  2.726614078100 	  1.993535833000 	
C	 24.586303980300 	  2.726616888100 	 12.124092553000 	
C	 25.154817010300 	  8.910175838100 	  1.993533003000 	
C	 24.586272880300 	  8.910178648100 	 12.124089723000 	
C	  3.922516277600 	  5.818362745600 	  3.127964177500 	
C	  3.353972147600 	  5.818365555600 	 13.258520897500 	
C	  3.922485177600 	 12.001924505600 	  3.127961347500 	
C	  3.353941047600 	 12.001927315600 	 13.258518067500 	
C	 18.603343577600 	  5.818371975600 	  3.156094107500 	
C	 18.034799447600 	  5.818374785600 	 13.286650827500 	
C	 18.603312477600 	 12.001933735600 	  3.156091277500 	
C	 18.034768347600 	 12.001936545600 	 13.286647997500 	
H	  2.977023765500 	  4.314908014000 	  8.276816523600 	
H	  2.408479635500 	  4.314910824000 	 18.407373243600 	
H	  2.976992665500 	 10.498469774000 	  8.276813693600 	
H	  2.408448535500 	 10.498472584000 	 18.407370413600 	
H	 17.657851065500 	  4.314917244000 	  8.304946453600 	
H	 17.089306935500 	  4.314920054000 	 18.435503173600 	
H	 17.657819965500 	 10.498479004000 	  8.304943623600 	
H	 17.089275835500 	 10.498481814000 	 18.435500343600 	
H	 10.850920197100 	  1.223158377000 	  6.947191975500 	
H	 10.282376067100 	  1.223161187000 	 17.077748695500 	
H	 10.850889097100 	  7.406720137000 	  6.947189145500 	
H	 10.282344967100 	  7.406722947000 	 17.077745865500 	
H	 25.531747497100 	  1.223167607000 	  6.975321905500 	
H	 24.963203367100 	  1.223170417000 	 17.105878625500 	
H	 25.531716397100 	  7.406729367000 	  6.975319075500 	
H	 24.963172267100 	  7.406732177000 	 17.105875795500 	
H	 11.135228163400 	  1.868665538700 	  1.881867194800 	
H	 10.566684033400 	  1.868668348700 	 12.012423914800 	
H	 11.135197063400 	  8.052227298700 	  1.881864364800 	
H	 10.566652933400 	  8.052230108700 	 12.012421084800 	
H	 25.816055463400 	  1.868674768700 	  1.909997124800 	
H	 25.247511333400 	  1.868677578700 	 12.040553844800 	
H	 25.816024363400 	  8.052236528700 	  1.909994294800 	
H	 25.247480233400 	  8.052239338700 	 12.040551014800 	
H	  3.261332160800 	  4.960415670400 	  3.211491946300 	
H	  2.692788030800 	  4.960418480400 	 13.342048666300 	
H	  3.261301060800 	 11.143977430400 	  3.211489116300 	
H	  2.692756930800 	 11.143980240400 	 13.342045836300 	
H	 17.942159460800 	  4.960424900400 	  3.239621876300 	
H	 17.373615330800 	  4.960427710400 	 13.370178596300 	
H	 17.942128360800 	 11.143986660400 	  3.239619046300 	
H	 17.373584230800 	 11.143989470400 	 13.370175766300 	
C	  3.326383536000 	  2.393111112500 	  7.336713806700 	
C	  2.757839406000 	  2.393113922500 	 17.467270526700 	
C	  3.326352436000 	  8.576672872500 	  7.336710976700 	
C	  2.757808306000 	  8.576675682500 	 17.467267696700 	
C	 18.007210836000 	  2.393120342500 	  7.364843736700 	
C	 17.438666706000 	  2.393123152500 	 17.495400456700 	
C	 18.007179736000 	  8.576682102500 	  7.364840906700 	
C	 17.438635606000 	  8.576684912500 	 17.495397626700 	
C	 10.501585199000 	  5.484900443400 	  7.887257318900 	
C	  9.933041069000 	  5.484903253400 	 18.017814038900 	
C	 10.501554099000 	 11.668462203400 	  7.887254488900 	
C	  9.933009969000 	 11.668465013400 	 18.017811208900 	
C	 25.182412499000 	  5.484909673400 	  7.915387248900 	
C	 24.613868369000 	  5.484912483400 	 18.045943968900 	
C	 25.182381399000 	 11.668471433400 	  7.915384418900 	
C	 24.613837269000 	 11.668474243400 	 18.045941138900 	
C	 10.785868240400 	  3.790462378300 	  2.821970012800 	
C	 10.217324110400 	  3.790465188300 	 12.952526732800 	
C	 10.785837140400 	  9.974024138300 	  2.821967182800 	
C	 10.217293010400 	  9.974026948300 	 12.952523902800 	
C	 25.466695540400 	  3.790471608300 	  2.850099942800 	
C	 24.898151410400 	  3.790474418300 	 12.980656662800 	
C	 25.466664440400 	  9.974033368300 	  2.850097112800 	
C	 24.898120310400 	  9.974036178300 	 12.980653832800 	
C	  3.610667164600 	  0.698673603900 	  2.271426501600 	
C	  3.042123034600 	  0.698676413900 	 12.401983221600 	
C	  3.610636064600 	  6.882235363900 	  2.271423671600 	
C	  3.042091934600 	  6.882238173900 	 12.401980391600 	
C	 18.291494464600 	  0.698682833900 	  2.299556431600 	
C	 17.722950334600 	  0.698685643900 	 12.430113151600 	
C	 18.291463364600 	  6.882244593900 	  2.299553601600 	
C	 17.722919234600 	  6.882247403900 	 12.430110321600 	
C	  4.246239376200 	  1.326745920100 	  7.232392811600 	
C	  3.677695246200 	  1.326748730100 	 17.362949531600 	
C	  4.246208276200 	  7.510307680100 	  7.232389981600 	
C	  3.677664146200 	  7.510310490100 	 17.362946701600 	
C	 18.927066676200 	  1.326755150100 	  7.260522741600 	
C	 18.358522546200 	  1.326757960100 	 17.391079461600 	
C	 18.927035576200 	  7.510316910100 	  7.260519911600 	
C	 18.358491446200 	  7.510319720100 	 17.391076631600 	
C	  9.581760883400 	  4.418519382000 	  7.991559269300 	
C	  9.013216753400 	  4.418522192000 	 18.122115989300 	
C	  9.581729783400 	 10.602081142000 	  7.991556439300 	
C	  9.013185653400 	 10.602083952000 	 18.122113159300 	
C	 24.262588183400 	  4.418528612000 	  8.019689199300 	
C	 23.694044053400 	  4.418531422000 	 18.150245919300 	
C	 24.262557083400 	 10.602090372000 	  8.019686369300 	
C	 23.694012953400 	 10.602093182000 	 18.150243089300 	
C	  9.866012247700 	  4.856827447100 	  2.926291108900 	
C	  9.297468117700 	  4.856830257100 	 13.056847828900 	
C	  9.865981147700 	 11.040389207100 	  2.926288278900 	
C	  9.297437017700 	 11.040392017100 	 13.056844998900 	
C	 24.546839547700 	  4.856836677100 	  2.954421038900 	
C	 23.978295417700 	  4.856839487100 	 13.084977758900 	
C	 24.546808447700 	 11.040398437100 	  2.954418208900 	
C	 23.978264317700 	 11.040401247100 	 13.084974928900 	
C	  4.530491333400 	  1.765054665300 	  2.167124550900 	
C	  3.961947203400 	  1.765057475300 	 12.297681270900 	
C	  4.530460233400 	  7.948616425300 	  2.167121720900 	
C	  3.961916103400 	  7.948619235300 	 12.297678440900 	
C	 19.211318633400 	  1.765063895300 	  2.195254480900 	
C	 18.642774503400 	  1.765066705300 	 12.325811200900 	
C	 19.211287533400 	  7.948625655300 	  2.195251650900 	
C	 18.642743403400 	  7.948628465300 	 12.325808370900 	
H	  4.049839811700 	  0.502303909100 	  6.552247741900 	
H	  3.481295681700 	  0.502306719100 	 16.682804461900 	
H	  4.049808711700 	  6.685865669100 	  6.552244911900 	
H	  3.481264581700 	  6.685868479100 	 16.682801631900 	
H	 18.730667111700 	  0.502313139100 	  6.580377671900 	
H	 18.162122981700 	  0.502315949100 	 16.710934391900 	
H	 18.730636011700 	  6.685874899100 	  6.580374841900 	
H	 18.162091881700 	  6.685877709100 	 16.710931561900 	
H	  9.778172631800 	  3.594078723200 	  8.671703784000 	
H	  9.209628501800 	  3.594081533200 	 18.802260504000 	
H	  9.778141531800 	  9.777640483200 	  8.671700954000 	
H	  9.209597401800 	  9.777643293200 	 18.802257674000 	
H	 24.458999931800 	  3.594087953200 	  8.699833714000 	
H	 23.890455801800 	  3.594090763200 	 18.830390434000 	
H	 24.458968831800 	  9.777649713200 	  8.699830884000 	
H	 23.890424701800 	  9.777652523200 	 18.830387604000 	
H	 10.062411806500 	  5.681269458100 	  3.606436279800 	
H	  9.493867676500 	  5.681272268100 	 13.736992999800 	
H	 10.062380706500 	 11.864831218100 	  3.606433449800 	
H	  9.493836576500 	 11.864834028100 	 13.736990169800 	
H	 24.743239106500 	  5.681278688100 	  3.634566209800 	
H	 24.174694976500 	  5.681281498100 	 13.765122929800 	
H	 24.743208006500 	 11.864840448100 	  3.634563379800 	
H	 24.174663876500 	 11.864843258100 	 13.765120099800 	
H	  4.334079585100 	  2.589495324100 	  1.486980036300 	
H	  3.765535455100 	  2.589498134100 	 11.617536756300 	
H	  4.334048485100 	  8.773057084100 	  1.486977206300 	
H	  3.765504355100 	  8.773059894100 	 11.617533926300 	
H	 19.014906885100 	  2.589504554100 	  1.515109966300 	
H	 18.446362755100 	  2.589507364100 	 11.645666686300 	
H	 19.014875785100 	  8.773066314100 	  1.515107136300 	
H	 18.446331655100 	  8.773069124100 	 11.645663856300 	
C	  5.415710393500 	  1.283137318900 	  7.979564150100 	
C	  4.847166263500 	  1.283140128900 	 18.110120870100 	
C	  5.415679293500 	  7.466699078900 	  7.979561320100 	
C	  4.847135163500 	  7.466701888900 	 18.110118040100 	
C	 20.096537693500 	  1.283146548900 	  8.007694080100 	
C	 19.527993563500 	  1.283149358900 	 18.138250800100 	
C	 20.096506593500 	  7.466708308900 	  8.007691250100 	
C	 19.527962463500 	  7.466711118900 	 18.138247970100 	
C	  8.412295413000 	  4.374903959500 	  7.244378051500 	
C	  7.843751283000 	  4.374906769500 	 17.374934771500 	
C	  8.412264313000 	 10.558465719500 	  7.244375221500 	
C	  7.843720183000 	 10.558468529500 	 17.374931941500 	
C	 23.093122713000 	  4.374913189500 	  7.272507981500 	
C	 22.524578583000 	  4.374915999500 	 17.403064701500 	
C	 23.093091613000 	 10.558474949500 	  7.272505151500 	
C	 22.524547483000 	 10.558477759500 	 17.403061871500 	
C	  8.696541388600 	  4.900436048200 	  2.179119568000 	
C	  8.127997258600 	  4.900438858200 	 12.309676288000 	
C	  8.696510288600 	 11.083997808200 	  2.179116738000 	
C	  8.127966158600 	 11.084000618200 	 12.309673458000 	
C	 23.377368688600 	  4.900445278200 	  2.207249498000 	
C	 22.808824558600 	  4.900448088200 	 12.337806218000 	
C	 23.377337588600 	 11.084007038200 	  2.207246668000 	
C	 22.808793458600 	 11.084009848200 	 12.337803388000 	
C	  5.699956798100 	  1.808670211500 	  2.914305870100 	
C	  5.131412668100 	  1.808673021500 	 13.044862590100 	
C	  5.699925698100 	  7.992231971500 	  2.914303040100 	
C	  5.131381568100 	  7.992234781500 	 13.044859760100 	
C	 20.380784098100 	  1.808679441500 	  2.942435800100 	
C	 19.812239968100 	  1.808682251500 	 13.072992520100 	
C	 20.380752998100 	  7.992241201500 	  2.942432970100 	
C	 19.812208868100 	  7.992244011500 	 13.072989690100 	
H	  6.095413680900 	  0.440179673500 	  7.880948511900 	
H	  5.526869550900 	  0.440182483500 	 18.011505231900 	
H	  6.095382580900 	  6.623741433500 	  7.880945681900 	
H	  5.526838450900 	  6.623744243500 	 18.011502401900 	
H	 20.776240980900 	  0.440188903500 	  7.909078441900 	
H	 20.207696850900 	  0.440191713500 	 18.039635161900 	
H	 20.776209880900 	  6.623750663500 	  7.909075611900 	
H	 20.207665750900 	  6.623753473500 	 18.039632331900 	
H	  7.732618281700 	  3.531935504600 	  7.342985579400 	
H	  7.164074151700 	  3.531938314600 	 17.473542299400 	
H	  7.732587181700 	  9.715497264600 	  7.342982749400 	
H	  7.164043051700 	  9.715500074600 	 17.473539469400 	
H	 22.413445581700 	  3.531944734600 	  7.371115509400 	
H	 21.844901451700 	  3.531947544600 	 17.501672229400 	
H	 22.413414481700 	  9.715506494600 	  7.371112679400 	
H	 21.844870351700 	  9.715509304600 	 17.501669399400 	
H	  8.016837948600 	  5.743393631800 	  2.277735307300 	
H	  7.448293818600 	  5.743396441800 	 12.408292027300 	
H	  8.016806848600 	 11.926955391800 	  2.277732477300 	
H	  7.448262718600 	 11.926958201800 	 12.408289197300 	
H	 22.697665248600 	  5.743402861800 	  2.305865237300 	
H	 22.129121118600 	  5.743405671800 	 12.436421957300 	
H	 22.697634148600 	 11.926964621800 	  2.305862407300 	
H	 22.129090018600 	 11.926967431800 	 12.436419127300 	
H	  6.379633929400 	  2.651638728300 	  2.815698342200 	
H	  5.811089799400 	  2.651641538300 	 12.946255062200 	
H	  6.379602829400 	  8.835200488300 	  2.815695512200 	
H	  5.811058699400 	  8.835203298300 	 12.946252232200 	
H	 21.060461229400 	  2.651647958300 	  2.843828272200 	
H	 20.491917099400 	  2.651650768300 	 12.974384992200 	
H	 21.060430129400 	  8.835209718300 	  2.843825442200 	
H	 20.491885999400 	  8.835212528300 	 12.974382162200 	
C	  2.038932514800 	  2.415402770700 	  6.496426445200 	
C	  1.470388384800 	  2.415405580700 	 16.626983165200 	
C	  2.038901414800 	  8.598964530700 	  6.496423615200 	
C	  1.470357284800 	  8.598967340700 	 16.626980335200 	
C	 16.719759814800 	  2.415412000700 	  6.524556375200 	
C	 16.151215684800 	  2.415414810700 	 16.655113095200 	
C	 16.719728714800 	  8.598973760700 	  6.524553545200 	
C	 16.151184584800 	  8.598976570700 	 16.655110265200 	
C	 11.789036815200 	  5.507193873300 	  8.727543141800 	
C	 11.220492685200 	  5.507196683300 	 18.858099861800 	
C	 11.789005715200 	 11.690755633300 	  8.727540311800 	
C	 11.220461585200 	 11.690758443300 	 18.858097031800 	
C	 26.469864115200 	  5.507203103300 	  8.755673071800 	
C	 25.901319985200 	  5.507205913300 	 18.886229791800 	
C	 26.469833015200 	 11.690764863300 	  8.755670241800 	
C	 25.901288885200 	 11.690767673300 	 18.886226961800 	
C	 12.073319255900 	  3.768170843800 	  3.662257475500 	
C	 11.504775125900 	  3.768173653800 	 13.792814195500 	
C	 12.073288155900 	  9.951732603800 	  3.662254645500 	
C	 11.504744025900 	  9.951735413800 	 13.792811365500 	
C	 26.754146555900 	  3.768180073800 	  3.690387405500 	
C	 26.185602425900 	  3.768182883800 	 13.820944125500 	
C	 26.754115455900 	  9.951741833800 	  3.690384575500 	
C	 26.185571325900 	  9.951744643800 	 13.820941295500 	
C	  2.323215700900 	  0.676380050400 	  1.431140577700 	
C	  1.754671570900 	  0.676382860400 	 11.561697297700 	
C	  2.323184600900 	  6.859941810400 	  1.431137747700 	
C	  1.754640470900 	  6.859944620400 	 11.561694467700 	
C	 17.004043000900 	  0.676389280400 	  1.459270507700 	
C	 16.435498870900 	  0.676392090400 	 11.589827227700 	
C	 17.004011900900 	  6.859951040400 	  1.459267677700 	
C	 16.435467770900 	  6.859953850400 	 11.589824397700 	
C	  2.316129708800 	  3.196526817000 	  5.195239794800 	
C	  1.747585578800 	  3.196529627000 	 15.325796514800 	
C	  2.316098608800 	  9.380088577000 	  5.195236964800 	
C	  1.747554478800 	  9.380091387000 	 15.325793684800 	
C	 16.996957008800 	  3.196536047000 	  5.223369724800 	
C	 16.428412878800 	  3.196538857000 	 15.353926444800 	
C	 16.996925908800 	  9.380097807000 	  5.223366894800 	
C	 16.428381778800 	  9.380100617000 	 15.353923614800 	
C	 11.511861565400 	  0.104754769900 	 10.028731499500 	
C	 10.943317435400 	  0.104757579900 	 20.159288219500 	
C	 11.511830465400 	  6.288316529900 	 10.028728669500 	
C	 10.943286335400 	  6.288319339900 	 20.159285389500 	
C	 26.192688865400 	  0.104763999900 	 10.056861429500 	
C	 25.624144735400 	  0.104766809900 	 20.187418149500 	
C	 26.192657765400 	  6.288325759900 	 10.056858599500 	
C	 25.624113635400 	  6.288328569900 	 20.187415319500 	
C	 11.796121898000 	  2.987047354100 	  4.963444429600 	
C	 11.227577768000 	  2.987050164100 	 15.094001149600 	
C	 11.796090798000 	  9.170609114100 	  4.963441599600 	
C	 11.227546668000 	  9.170611924100 	 15.093998319600 	
C	 26.476949198000 	  2.987056584100 	  4.991574359600 	
C	 25.908405068000 	  2.987059394100 	 15.122131079600 	
C	 26.476918098000 	  9.170618344100 	  4.991571529600 	
C	 25.908373968000 	  9.170621154100 	 15.122128249600 	
C	  2.600391103200 	  6.078819463000 	  0.129952119000 	
C	  2.031846973200 	  6.078822273000 	 10.260508839000 	
C	  2.600360003200 	 12.262381223000 	  0.129949289000 	
C	  2.031815873200 	 12.262384033000 	 10.260506009000 	
C	 17.281218403200 	  6.078828693000 	  0.158082049000 	
C	 16.712674273200 	  6.078831503000 	 10.288638769000 	
C	 17.281187303200 	 12.262390453000 	  0.158079219000 	
C	 16.712643173200 	 12.262393263000 	 10.288635939000 	
H	  2.612757015800 	  4.227841415400 	  5.421537736000 	
H	  2.044212885800 	  4.227844225400 	 15.552094456000 	
H	  2.612725915800 	 10.411403175400 	  5.421534906000 	
H	  2.044181785800 	 10.411405985400 	 15.552091626000 	
H	 17.293584315800 	  4.227850645400 	  5.449667666000 	
H	 16.725040185800 	  4.227853455400 	 15.580224386000 	
H	 17.293553215800 	 10.411412405400 	  5.449664836000 	
H	 16.725009085800 	 10.411415215400 	 15.580221556000 	
H	 11.215218029300 	  1.136067184600 	  9.802432299100 	
H	 10.646673899300 	  1.136069994600 	 19.932989019100 	
H	 11.215186929300 	  7.319628944600 	  9.802429469100 	
H	 10.646642799300 	  7.319631754600 	 19.932986189100 	
H	 25.896045329300 	  1.136076414600 	  9.830562229100 	
H	 25.327501199300 	  1.136079224600 	 19.961118949100 	
H	 25.896014229300 	  7.319638174600 	  9.830559399100 	
H	 25.327470099300 	  7.319640984600 	 19.961116119100 	
H	 11.499494568300 	  1.955732631900 	  4.737146893600 	
H	 10.930950438300 	  1.955735441900 	 14.867703613600 	
H	 11.499463468300 	  8.139294391900 	  4.737144063600 	
H	 10.930919338300 	  8.139297201900 	 14.867700783600 	
H	 26.180321868300 	  1.955741861900 	  4.765276823600 	
H	 25.611777738300 	  1.955744671900 	 14.895833543600 	
H	 26.180290768300 	  8.139303621900 	  4.765273993600 	
H	 25.611746638300 	  8.139306431900 	 14.895830713600 	
H	  2.897034650700 	  5.047507048200 	  0.356251116800 	
H	  2.328490520700 	  5.047509858200 	 10.486807836800 	
H	  2.897003550700 	 11.231068808200 	  0.356248286800 	
H	  2.328459420700 	 11.231071618200 	 10.486805006800 	
H	 17.577861950700 	  5.047516278200 	  0.384381046800 	
H	 17.009317820700 	  5.047519088200 	 10.514937766800 	
H	 17.577830850700 	 11.231078038200 	  0.384378216800 	
H	 17.009286720700 	 11.231080848200 	 10.514934936800 	
H	  1.412048820700 	  3.230173843200 	  4.570178105800 	
H	  0.843504690700 	  3.230176653200 	 14.700734825800 	
H	  1.412017720700 	  9.413735603200 	  4.570175275800 	
H	  0.843473590700 	  9.413738413200 	 14.700731995800 	
H	 16.092876120700 	  3.230183073200 	  4.598308035800 	
H	 15.524331990700 	  3.230185883200 	 14.728864755800 	
H	 16.092845020700 	  9.413744833200 	  4.598305205800 	
H	 15.524300890700 	  9.413747643200 	 14.728861925800 	
H	 12.984491248900 	  0.138409911600 	  0.523233610500 	
H	 12.415947118900 	  0.138412721600 	 10.653790330500 	
H	 12.984460148900 	  6.321971671600 	  0.523230780500 	
H	 12.415916018900 	  6.321974481600 	 10.653787500500 	
H	 27.665318548900 	  0.138419141600 	  0.551363540500 	
H	 27.096774418900 	  0.138421951600 	 10.681920260500 	
H	 27.665287448900 	  6.321980901600 	  0.551360710500 	
H	 27.096743318900 	  6.321983711600 	 10.681917430500 	
H	 12.700202627900 	  2.953400575200 	  5.588506320900 	
H	 12.131658497900 	  2.953403385200 	 15.719063040900 	
H	 12.700171527900 	  9.136962335200 	  5.588503490900 	
H	 12.131627397900 	  9.136965145200 	 15.719060210900 	
H	 27.381029927900 	  2.953409805200 	  5.616636250900 	
H	 26.812485797900 	  2.953412615200 	 15.747192970900 	
H	 27.380998827900 	  9.136971565200 	  5.616633420900 	
H	 26.812454697900 	  9.136974375200 	 15.747190140900 	
H	  1.127761431100 	  6.045164321200 	  9.635449805400 	
H	  0.559217301100 	  6.045167131200 	 19.766006525400 	
H	  1.127730331100 	 12.228726081200 	  9.635446975400 	
H	  0.559186201100 	 12.228728891200 	 19.766003695400 	
H	 15.808588731100 	  6.045173551200 	  9.663579735400 	
H	 15.240044601100 	  6.045176361200 	 19.794136455400 	
H	 15.808557631100 	 12.228735311200 	  9.663576905400 	
H	 15.240013501100 	 12.228738121200 	 19.794133625400 	
H	  3.117974382100 	  2.721514149100 	  4.615664106800 	
H	  2.549430252100 	  2.721516959100 	 14.746220826800 	
H	  3.117943282100 	  8.905075909100 	  4.615661276800 	
H	  2.549399152100 	  8.905078719100 	 14.746217996800 	
H	 17.798801682100 	  2.721523379100 	  4.643794036800 	
H	 17.230257552100 	  2.721526189100 	 14.774350756800 	
H	 17.798770582100 	  8.905085139100 	  4.643791206800 	
H	 17.230226452100 	  8.905087949100 	 14.774347926800 	
H	 11.278543592100 	  5.813293234200 	  0.477751838000 	
H	 10.709999462100 	  5.813296044200 	 10.608308558000 	
H	 11.278512492100 	 11.996854994200 	  0.477749008000 	
H	 10.709968362100 	 11.996857804200 	 10.608305728000 	
H	 25.959370892100 	  5.813302464200 	  0.505881768000 	
H	 25.390826762100 	  5.813305274200 	 10.636438488000 	
H	 25.959339792100 	 11.996864224200 	  0.505878938000 	
H	 25.390795662100 	 11.996867034200 	 10.636435658000 	
H	 10.994277095000 	  3.462060207400 	  5.543019813300 	
H	 10.425732965000 	  3.462063017400 	 15.673576533300 	
H	 10.994245995000 	  9.645621967400 	  5.543016983300 	
H	 10.425701865000 	  9.645624777400 	 15.673573703300 	
H	 25.675104395000 	  3.462069437400 	  5.571149743300 	
H	 25.106560265000 	  3.462072247400 	 15.701706463300 	
H	 25.675073295000 	  9.645631197400 	  5.571146913300 	
H	 25.106529165000 	  9.645634007400 	 15.701703633300 	
H	  2.833709070800 	  0.370281122300 	  9.680931881800 	
H	  2.265164940800 	  0.370283932300 	 19.811488601800 	
H	  2.833677970800 	  6.553842882300 	  9.680929051800 	
H	  2.265133840800 	  6.553845692300 	 19.811485771800 	
H	 17.514536370800 	  0.370290352300 	  9.709061811800 	
H	 16.945992240800 	  0.370293162300 	 19.839618531800 	
H	 17.514505270800 	  6.553852112300 	  9.709058981800 	
H	 16.945961140800 	  6.553854922300 	 19.839615701800 	
C	  0.887164533100 	  3.099405811500 	  7.256915573700 	
C	  0.318620403100 	  3.099408621500 	 17.387472293700 	
C	  0.887133433100 	  9.282967571500 	  7.256912743700 	
C	  0.318589303100 	  9.282970381500 	 17.387469463700 	
C	 15.567991833100 	  3.099415041500 	  7.285045503700 	
C	 14.999447703100 	  3.099417851500 	 17.415602223700 	
C	 15.567960733100 	  9.282976801500 	  7.285042673700 	
C	 14.999416603100 	  9.282979611500 	 17.415599393700 	
C	 12.940820695000 	  0.007641134200 	  7.967052756600 	
C	 12.372276565000 	  0.007643944200 	 18.097609476600 	
C	 12.940789595000 	  6.191202894200 	  7.967049926600 	
C	 12.372245465000 	  6.191205704200 	 18.097606646600 	
C	 27.621647995000 	  0.007650364200 	  7.995182686600 	
C	 27.053103865000 	  0.007653174200 	 18.125739406600 	
C	 27.621616895000 	  6.191212124200 	  7.995179856600 	
C	 27.053072765000 	  6.191214934200 	 18.125736576600 	
C	 13.225087214900 	  3.084167431900 	  2.901768752300 	
C	 12.656543084900 	  3.084170241900 	 13.032325472300 	
C	 13.225056114900 	  9.267729191900 	  2.901765922300 	
C	 12.656511984900 	  9.267732001900 	 13.032322642300 	
C	 27.905914514900 	  3.084176661900 	  2.929898682300 	
C	 27.337370384900 	  3.084179471900 	 13.060455402300 	
C	 27.905883414900 	  9.267738421900 	  2.929895852300 	
C	 27.337339284900 	  9.267741231900 	 13.060452572300 	
C	  1.171431838100 	  6.175932418400 	  2.191630659100 	
C	  0.602887708100 	  6.175935228400 	 12.322187379100 	
C	  1.171400738100 	 12.359494178400 	  2.191627829100 	
C	  0.602856608100 	 12.359496988400 	 12.322184549100 	
C	 15.852259138100 	  6.175941648400 	  2.219760589100 	
C	 15.283715008100 	  6.175944458400 	 12.350317309100 	
C	 15.852228038100 	 12.359503408400 	  2.219757759100 	
C	 15.283683908100 	 12.359506218400 	 12.350314479100 	
H	  1.090122822200 	  4.156575733700 	  7.463856135200 	
H	  0.521578692200 	  4.156578543700 	 17.594412855200 	
H	  1.090091722200 	 10.340137493700 	  7.463853305200 	
H	  0.521547592200 	 10.340140303700 	 17.594410025200 	
H	 15.770950122200 	  4.156584963700 	  7.491986065200 	
H	 15.202405992200 	  4.156587773700 	 17.622542785200 	
H	 15.770919022200 	 10.340146723700 	  7.491983235200 	
H	 15.202374892200 	 10.340149533700 	 17.622539955200 	
H	 12.737839640600 	  1.064812279800 	  7.760118093700 	
H	 12.169295510600 	  1.064815089800 	 17.890674813700 	
H	 12.737808540600 	  7.248374039800 	  7.760115263700 	
H	 12.169264410600 	  7.248376849800 	 17.890671983700 	
H	 27.418666940600 	  1.064821509800 	  7.788248023700 	
H	 26.850122810600 	  1.064824319800 	 17.918804743700 	
H	 27.418635840600 	  7.248383269800 	  7.788245193700 	
H	 26.850091710600 	  7.248386079800 	 17.918801913700 	
H	 13.022128767600 	  2.026997447900 	  2.694828393100 	
H	 12.453584637600 	  2.027000257900 	 12.825385113100 	
H	 13.022097667600 	  8.210559207900 	  2.694825563100 	
H	 12.453553537600 	  8.210562017900 	 12.825382283100 	
H	 27.702956067600 	  2.027006677900 	  2.722958323100 	
H	 27.134411937600 	  2.027009487900 	 12.853515043100 	
H	 27.702924967600 	  8.210568437900 	  2.722955493100 	
H	 27.134380837600 	  8.210571247900 	 12.853512213100 	
H	  1.374413050700 	  5.118761334700 	  2.398565119600 	
H	  0.805868920700 	  5.118764144700 	 12.529121839600 	
H	  1.374381950700 	 11.302323094700 	  2.398562289600 	
H	  0.805837820700 	 11.302325904700 	 12.529119009600 	
H	 16.055240350700 	  5.118770564700 	  2.426695049600 	
H	 15.486696220700 	  5.118773374700 	 12.557251769600 	
H	 16.055209250700 	 11.302332324700 	  2.426692219600 	
H	 15.486665120700 	 11.302335134700 	 12.557248939600 	
H	  0.683561485800 	  2.596531593500 	  8.210188040200 	
H	  0.115017355800 	  2.596534403500 	 18.340744760200 	
H	  0.683530385800 	  8.780093353500 	  8.210185210200 	
H	  0.114986255800 	  8.780096163500 	 18.340741930200 	
H	 15.364388785800 	  2.596540823500 	  8.238317970200 	
H	 14.795844655800 	  2.596543633500 	 18.368874690200 	
H	 15.364357685800 	  8.780102583500 	  8.238315140200 	
H	 14.795813555800 	  8.780105393500 	 18.368871860200 	
H	 13.144397725400 	  5.688341754300 	  7.013772246600 	
H	 12.575853595400 	  5.688344564300 	 17.144328966600 	
H	 13.144366625400 	 11.871903514300 	  7.013769416600 	
H	 12.575822495400 	 11.871906324300 	 17.144326136600 	
H	 27.825225025400 	  5.688350984300 	  7.041902176600 	
H	 27.256680895400 	  5.688353794300 	 17.172458896600 	
H	 27.825193925400 	 11.871912744300 	  7.041899346600 	
H	 27.256649795400 	 11.871915554300 	 17.172456066600 	
H	 13.428690561400 	  3.587041340800 	  1.948496185000 	
H	 12.860146431400 	  3.587044150800 	 12.079052905000 	
H	 13.428659461400 	  9.770603100800 	  1.948493355000 	
H	 12.860115331400 	  9.770605910800 	 12.079050075000 	
H	 28.109517861400 	  3.587050570800 	  1.976626115000 	
H	 27.540973731400 	  3.587053380800 	 12.107182835000 	
H	 28.109486761400 	  9.770612330800 	  1.976623285000 	
H	 27.540942631400 	  9.770615140800 	 12.107180005000 	
H	  0.967854649600 	  0.495231612900 	  3.144911371300 	
H	  0.399310519600 	  0.495234422900 	 13.275468091300 	
H	  0.967823549600 	  6.678793372900 	  3.144908541300 	
H	  0.399279419600 	  6.678796182900 	 13.275465261300 	
H	 15.648681949600 	  0.495240842900 	  3.173041301300 	
H	 15.080137819600 	  0.495243652900 	 13.303598021300 	
H	 15.648650849600 	  6.678802602900 	  3.173038471300 	
H	 15.080106719600 	  6.678805412900 	 13.303595191300 	
H	 -0.027515277800 	  3.062154096700 	  6.650929329100 	
H	 -0.596059407800 	  3.062156906700 	 16.781486049100 	
H	 -0.027546377800 	  9.245715856700 	  6.650926499100 	
H	 -0.596090507800 	  9.245718666700 	 16.781483219100 	
H	 14.653312022200 	  3.062163326700 	  6.679059259100 	
H	 14.084767892200 	  3.062166136700 	 16.809615979100 	
H	 14.653280922200 	  9.245725086700 	  6.679056429100 	
H	 14.084736792200 	  9.245727896700 	 16.809613149100 	
H	 13.855469667900 	  6.153952088900 	  8.573035597100 	
H	 13.286925537900 	  6.153954898900 	 18.703592317100 	
H	 13.855438567900 	 12.337513848900 	  8.573032767100 	
H	 13.286894437900 	 12.337516658900 	 18.703589487100 	
H	 28.536296967900 	  6.153961318900 	  8.601165527100 	
H	 27.967752837900 	  6.153964128900 	 18.731722247100 	
H	 28.536265867900 	 12.337523078900 	  8.601162697100 	
H	 27.967721737900 	 12.337525888900 	 18.731719417100 	
H	 14.139766867500 	  3.121419146800 	  3.507755199200 	
H	 13.571222737500 	  3.121421956800 	 13.638311919200 	
H	 14.139735767500 	  9.304980906800 	  3.507752369200 	
H	 13.571191637500 	  9.304983716800 	 13.638309089200 	
H	 28.820594167500 	  3.121428376800 	  3.535885129200 	
H	 28.252050037500 	  3.121431186800 	 13.666441849200 	
H	 28.820563067500 	  9.304990136800 	  3.535882299200 	
H	 28.252018937500 	  9.304992946800 	 13.666439019200 	
H	  0.256782865300 	  0.029621463700 	  1.585647818500 	
H	 -0.311761264700 	  0.029624273700 	 11.716204538500 	
H	  0.256751765300 	  6.213183223700 	  1.585644988500 	
H	 -0.311792364700 	  6.213186033700 	 11.716201708500 	
H	 14.937610165300 	  0.029630693700 	  1.613777748500 	
H	 14.369066035300 	  0.029633503700 	 11.744334468500 	
H	 14.937579065300 	  6.213192453700 	  1.613774918500 	
H	 14.369034935300 	  6.213195263700 	 11.744331638500 	
C	  1.581473236200 	  0.991044022700 	  6.130188493600 	
C	  1.012929106200 	  0.991046832700 	 16.260745213600 	
C	  1.581442136200 	  7.174605782700 	  6.130185663600 	
C	  1.012898006200 	  7.174608592700 	 16.260742383600 	
C	 16.262300536200 	  0.991053252700 	  6.158318423600 	
C	 15.693756406200 	  0.991056062700 	 16.288875143600 	
C	 16.262269436200 	  7.174615012700 	  6.158315593600 	
C	 15.693725306200 	  7.174617822700 	 16.288872313600 	
C	 12.246521765400 	  4.082837103900 	  9.093781709700 	
C	 11.677977635400 	  4.082839913900 	 19.224338429700 	
C	 12.246490665400 	 10.266398863900 	  9.093778879700 	
C	 11.677946535400 	 10.266401673900 	 19.224335599700 	
C	 26.927349065400 	  4.082846333900 	  9.121911639700 	
C	 26.358804935400 	  4.082849143900 	 19.252468359700 	
C	 26.927317965400 	 10.266408093900 	  9.121908809700 	
C	 26.358773835400 	 10.266410903900 	 19.252465529700 	
C	 12.530778715400 	  5.192529777300 	  4.028494819600 	
C	 11.962234585400 	  5.192532587300 	 14.159051539600 	
C	 12.530747615400 	 11.376091537300 	  4.028491989600 	
C	 11.962203485400 	 11.376094347300 	 14.159048709600 	
C	 27.211606015400 	  5.192539007300 	  4.056624749600 	
C	 26.643061885400 	  5.192541817300 	 14.187181469600 	
C	 27.211574915400 	 11.376100767300 	  4.056621919600 	
C	 26.643030785400 	 11.376103577300 	 14.187178639600 	
C	  1.865730445700 	  2.100736819800 	  1.064902211900 	
C	  1.297186315700 	  2.100739629800 	 11.195458931900 	
C	  1.865699345700 	  8.284298579800 	  1.064899381900 	
C	  1.297155215700 	  8.284301389800 	 11.195456101900 	
C	 16.546557745700 	  2.100746049800 	  1.093032141900 	
C	 15.978013615700 	  2.100748859800 	 11.223588861900 	
C	 16.546526645700 	  8.284307809800 	  1.093029311900 	
C	 15.977982515700 	  8.284310619800 	 11.223586031900 	
H	  0.610675950600 	  1.034865784000 	  5.618136422600 	
H	  0.042131820600 	  1.034868594000 	 15.748693142600 	
H	  0.610644850600 	  7.218427544000 	  5.618133592600 	
H	  0.042100720600 	  7.218430354000 	 15.748690312600 	
H	 15.291503250600 	  1.034875014000 	  5.646266352600 	
H	 14.722959120600 	  1.034877824000 	 15.776823072600 	
H	 15.291472150600 	  7.218436774000 	  5.646263522600 	
H	 14.722928020600 	  7.218439584000 	 15.776820242600 	
H	 13.217317326700 	  4.126663991400 	  9.605838297400 	
H	 12.648773196700 	  4.126666801400 	 19.736395017400 	
H	 13.217286226700 	 10.310225751400 	  9.605835467400 	
H	 12.648742096700 	 10.310228561400 	 19.736392187400 	
H	 27.898144626700 	  4.126673221400 	  9.633968227400 	
H	 27.329600496700 	  4.126676031400 	 19.764524947400 	
H	 27.898113526700 	 10.310234981400 	  9.633965397400 	
H	 27.329569396700 	 10.310237791400 	 19.764522117400 	
H	 13.501575842900 	  5.148708016000 	  4.540547092900 	
H	 12.933031712900 	  5.148710826000 	 14.671103812900 	
H	 13.501544742900 	 11.332269776000 	  4.540544262900 	
H	 12.933000612900 	 11.332272586000 	 14.671100982900 	
H	 28.182403142900 	  5.148717246000 	  4.568677022900 	
H	 27.613859012900 	  5.148720056000 	 14.699233742900 	
H	 28.182372042900 	 11.332279006000 	  4.568674192900 	
H	 27.613827912900 	 11.332281816000 	 14.699230912900 	
H	  0.894934890100 	  2.056909870500 	  0.552845522900 	
H	  0.326390760100 	  2.056912680500 	 10.683402242900 	
H	  0.894903790100 	  8.240471630500 	  0.552842692900 	
H	  0.326359660100 	  8.240474440500 	 10.683399412900 	
H	 15.575762190100 	  2.056919100500 	  0.580975452900 	
H	 15.007218060100 	  2.056921910500 	 10.711532172900 	
H	 15.575731090100 	  8.240480860500 	  0.580972622900 	
H	 15.007186960100 	  8.240483670500 	 10.711529342900 	
H	  1.459783142400 	  0.369871747300 	  7.026704052400 	
H	  0.891239012400 	  0.369874557300 	 17.157260772400 	
H	  1.459752042400 	  6.553433507300 	  7.026701222400 	
H	  0.891207912400 	  6.553436317300 	 17.157257942400 	
H	 16.140610442400 	  0.369880977300 	  7.054833982400 	
H	 15.572066312400 	  0.369883787300 	 17.185390702400 	
H	 16.140579342400 	  6.553442737300 	  7.054831152400 	
H	 15.572035212400 	  6.553445547300 	 17.185387872400 	
H	 12.368224107600 	  3.461662627600 	  8.197272303400 	
H	 11.799679977600 	  3.461665437600 	 18.327829023400 	
H	 12.368193007600 	  9.645224387600 	  8.197269473400 	
H	 11.799648877600 	  9.645227197600 	 18.327826193400 	
H	 27.049051407600 	  3.461671857600 	  8.225402233400 	
H	 26.480507277600 	  3.461674667600 	 18.355958953400 	
H	 27.049020307600 	  9.645233617600 	  8.225399403400 	
H	 26.480476177600 	  9.645236427600 	 18.355956123400 	
H	 12.652468820600 	  5.813701619900 	  3.131979058100 	
H	 12.083924690600 	  5.813704429900 	 13.262535778100 	
H	 12.652437720600 	 11.997263379900 	  3.131976228100 	
H	 12.083893590600 	 11.997266189900 	 13.262532948100 	
H	 27.333296120600 	  5.813710849900 	  3.160108988100 	
H	 26.764751990600 	  5.813713659900 	 13.290665708100 	
H	 27.333265020600 	 11.997272609900 	  3.160106158100 	
H	 26.764720890600 	 11.997275419900 	 13.290662878100 	
H	  1.744027951100 	  2.721911110600 	  1.961411719200 	
H	  1.175483821100 	  2.721913920600 	 12.091968439200 	
H	  1.743996851100 	  8.905472870600 	  1.961408889200 	
H	  1.175452721100 	  8.905475680600 	 12.091965609200 	
H	 16.424855251100 	  2.721920340600 	  1.989541649200 	
H	 15.856311121100 	  2.721923150600 	 12.120098369200 	
H	 16.424824151100 	  8.905482100600 	  1.989538819200 	
H	 15.856280021100 	  8.905484910600 	 12.120095539200 	
H	  2.286177287500 	  0.494504553500 	  5.453213134500 	
H	  1.717633157500 	  0.494507363500 	 15.583769854500 	
H	  2.286146187500 	  6.678066313500 	  5.453210304500 	
H	  1.717602057500 	  6.678069123500 	 15.583767024500 	
H	 16.967004587500 	  0.494513783500 	  5.481343064500 	
H	 16.398460457500 	  0.494516593500 	 15.611899784500 	
H	 16.966973487500 	  6.678075543500 	  5.481340234500 	
H	 16.398429357500 	  6.678078353500 	 15.611896954500 	
H	 11.541823906000 	  3.586296368900 	  9.770757120400 	
H	 10.973279776000 	  3.586299178900 	 19.901313840400 	
H	 11.541792806000 	  9.769858128900 	  9.770754290400 	
H	 10.973248676000 	  9.769860938900 	 19.901311010400 	
H	 26.222651206000 	  3.586305598900 	  9.798887050400 	
H	 25.654107076000 	  3.586308408900 	 19.929443770400 	
H	 26.222620106000 	  9.769867358900 	  9.798884220400 	
H	 25.654075976000 	  9.769870168900 	 19.929440940400 	
H	 11.826074523000 	  5.689069555700 	  4.705470077100 	
H	 11.257530393000 	  5.689072365700 	 14.836026797100 	
H	 11.826043423000 	 11.872631315700 	  4.705467247100 	
H	 11.257499293000 	 11.872634125700 	 14.836023967100 	
H	 26.506901823000 	  5.689078785700 	  4.733600007100 	
H	 25.938357693000 	  5.689081595700 	 14.864156727100 	
H	 26.506870723000 	 11.872640545700 	  4.733597177100 	
H	 25.938326593000 	 11.872643355700 	 14.864153897100 	
H	  2.570428293700 	  2.597277802200 	  0.387927003800 	
H	  2.001884163700 	  2.597280612200 	 10.518483723800 	
H	  2.570397193700 	  8.780839562200 	  0.387924173800 	
H	  2.001853063700 	  8.780842372200 	 10.518480893800 	
H	 17.251255593700 	  2.597287032200 	  0.416056933800 	
H	 16.682711463700 	  2.597289842200 	 10.546613653800 	
H	 17.251224493700 	  8.780848792200 	  0.416054103800 	
H	 16.682680363700 	  8.780851602200 	 10.546610823800 	
768 
Energy: -7.7359045482590005e+01 
S	  8.730797298645 	  1.532557799083 	  0.045329099106 	
S	  8.162253168645 	  1.532560609083 	 10.175885819106 	
S	  8.730766198645 	  7.716119559083 	  0.045326269106 	
S	  8.162222068645 	  7.716122369083 	 10.175882989106 	
S	 23.411624598645 	  1.532567029083 	  0.073459029106 	
S	 22.843080468645 	  1.532569839083 	 10.204015749106 	
S	 23.411593498645 	  7.716128789083 	  0.073456199106 	
S	 22.843049368645 	  7.716131599083 	 10.204012919106 	
S	  5.606982107972 	  4.620059105363 	  5.083802605174 	
S	  5.038437977972 	  4.620061915363 	 15.214359325174 	
S	  5.606951007972 	 10.803620865363 	  5.083799775174 	
S	  5.038406877972 	 10.803623675363 	 15.214356495174 	
S	 20.287809407972 	  4.620068335363 	  5.111932535174 	
S	 19.719265277972 	  4.620071145363 	 15.242489255174 	
S	 20.287778307972 	 10.803630095363 	  5.111929705174 	
S	 19.719234177972 	 10.803632905363 	 15.242486425174 	
S	  5.328960709829 	  4.642648364646 	 10.175203771289 	
S	  4.760416579829 	  4.642651174646 	 20.305760491289 	
S	  5.328929609829 	 10.826210124646 	 10.175200941289 	
S	  4.760385479829 	 10.826212934646 	 20.305757661289 	
S	 20.009788009829 	  4.642657594646 	 10.203333701289 	
S	 19.441243879829 	  4.642660404646 	 20.333890421289 	
S	 20.009756909829 	 10.826219354646 	 10.203330871289 	
S	 19.441212779829 	 10.826222164646 	 20.333887591289 	
S	  8.452776293475 	  1.555147722270 	  5.136730497064 	
S	  7.884232163475 	  1.555150532270 	 15.267287217064 	
S	  8.452745193475 	  7.738709482270 	  5.136727667064 	
S	  7.884201063475 	  7.738712292270 	 15.267284387064 	
S	 23.133603593475 	  1.555156952270 	  5.164860427064 	
S	 22.565059463475 	  1.555159762270 	 15.295417147064 	
S	 23.133572493475 	  7.738718712270 	  5.164857597064 	
S	 22.565028363475 	  7.738721522270 	 15.295414317064 	
C	  6.766825030224 	  2.512752885133 	  9.836922030783 	
C	  6.198280900224 	  2.512755695133 	 19.967478750783 	
C	  6.766793930224 	  8.696314645133 	  9.836919200783 	
C	  6.198249800224 	  8.696317455133 	 19.967475920783 	
C	 21.447652330224 	  2.512762115133 	  9.865051960783 	
C	 20.879108200224 	  2.512764925133 	 19.995608680783 	
C	 21.447621230224 	  8.696323875133 	  9.865049130783 	
C	 20.879077100224 	  8.696326685133 	 19.995605850783 	
C	  7.014724173953 	  5.599975249591 	  5.475409048639 	
C	  6.446180043953 	  5.599978059591 	 15.605965768639 	
C	  7.014693073953 	 11.783537009591 	  5.475406218639 	
C	  6.446148943953 	 11.783539819591 	 15.605962938639 	
C	 21.695551473953 	  5.599984479591 	  5.503538978639 	
C	 21.127007343953 	  5.599987289591 	 15.634095698639 	
C	 21.695520373953 	 11.783546239591 	  5.503536148639 	
C	 21.126976243953 	 11.783549049591 	 15.634092868639 	
C	  7.292932986974 	  3.662453223561 	  0.383610826627 	
C	  6.724388856974 	  3.662456033561 	 10.514167546627 	
C	  7.292901886974 	  9.846014983561 	  0.383607996627 	
C	  6.724357756974 	  9.846017793561 	 10.514164716627 	
C	 21.973760286974 	  3.662462453561 	  0.411740756627 	
C	 21.405216156974 	  3.662465263561 	 10.542297476627 	
C	 21.973729186974 	  9.846024213561 	  0.411737926627 	
C	 21.405185056974 	  9.846027023561 	 10.542294646627 	
C	  7.045034083172 	  0.575231694295 	  4.745124034284 	
C	  6.476489953172 	  0.575234504295 	 14.875680754284 	
C	  7.045002983172 	  6.758793454295 	  4.745121204284 	
C	  6.476458853172 	  6.758796264295 	 14.875677924284 	
C	 21.725861383172 	  0.575240924295 	  4.773253964284 	
C	 21.157317253172 	  0.575243734295 	 14.903810684284 	
C	 21.725830283172 	  6.758802684295 	  4.773251134284 	
C	 21.157286153172 	  6.758805494295 	 14.903807854284 	
C	  5.688131272306 	  2.330094668710 	  8.923779491524 	
C	  5.119587142306 	  2.330097478710 	 19.054336211524 	
C	  5.688100172306 	  8.513656428710 	  8.923776661524 	
C	  5.119556042306 	  8.513659238710 	 19.054333381524 	
C	 20.368958572306 	  2.330103898710 	  8.951909421524 	
C	 19.800414442306 	  2.330106708710 	 19.082466141524 	
C	 20.368927472306 	  8.513665658710 	  8.951906591524 	
C	 19.800383342306 	  8.513668468710 	 19.082463311524 	
C	  8.093035528945 	  5.417275274518 	  6.388154769529 	
C	  7.524491398945 	  5.417278084518 	 16.518711489529 	
C	  8.093004428945 	 11.600837034518 	  6.388151939529 	
C	  7.524460298945 	 11.600839844518 	 16.518708659529 	
C	 22.773862828945 	  5.417284504518 	  6.416284699529 	
C	 22.205318698945 	  5.417287314518 	 16.546841419529 	
C	 22.773831728945 	 11.600846264518 	  6.416281869529 	
C	 22.205287598945 	 11.600849074518 	 16.546838589529 	
C	  8.371626602985 	  3.845111495843 	  1.296753263798 	
C	  7.803082472985 	  3.845114305843 	 11.427309983798 	
C	  8.371595502985 	 10.028673255843 	  1.296750433798 	
C	  7.803051372985 	 10.028676065843 	 11.427307153798 	
C	 23.052453902985 	  3.845120725843 	  1.324883193798 	
C	 22.483909772985 	  3.845123535843 	 11.455439913798 	
C	 23.052422802985 	 10.028682485843 	  1.324880363798 	
C	 22.483878672985 	 10.028685295843 	 11.455437083798 	
C	  5.966722703476 	  0.757931624242 	  3.832378245293 	
C	  5.398178573476 	  0.757934434242 	 13.962934965293 	
C	  5.966691603476 	  6.941493384242 	  3.832375415293 	
C	  5.398147473476 	  6.941496194242 	 13.962932135293 	
C	 20.647550003476 	  0.757940854242 	  3.860508175293 	
C	 20.079005873476 	  0.757943664242 	 13.991064895293 	
C	 20.647518903476 	  6.941502614242 	  3.860505345293 	
C	 20.078974773476 	  6.941505424242 	 13.991062065293 	
C	  4.794512331914 	  3.423128848969 	  8.993348220158 	
C	  4.225968201914 	  3.423131658969 	 19.123904940158 	
C	  4.794481231914 	  9.606690608969 	  8.993345390158 	
C	  4.225937101914 	  9.606693418969 	 19.123902110158 	
C	 19.475339631914 	  3.423138078969 	  9.021478150158 	
C	 18.906795501914 	  3.423140888969 	 19.152034870158 	
C	 19.475308531914 	  9.606699838969 	  9.021475320158 	
C	 18.906764401914 	  9.606702648969 	 19.152032040158 	
C	  8.987548666138 	  0.335960566807 	  6.318518971204 	
C	  8.419004536138 	  0.335963376807 	 16.449075691204 	
C	  8.987517566138 	  6.519522326807 	  6.318516141204 	
C	  8.418973436138 	  6.519525136807 	 16.449072861204 	
C	 23.668375966138 	  0.335969796807 	  6.346648901204 	
C	 23.099831836138 	  0.335972606807 	 16.477205621204 	
C	 23.668344866138 	  6.519531556807 	  6.346646071204 	
C	 23.099800736138 	  6.519534366807 	 16.477202791204 	
C	  9.265245538842 	  2.752077373308 	  1.227184628927 	
C	  8.696701408842 	  2.752080183308 	 11.357741348927 	
C	  9.265214438842 	  8.935639133308 	  1.227181798927 	
C	  8.696670308842 	  8.935641943308 	 11.357738518927 	
C	 23.946072838842 	  2.752086603308 	  1.255314558927 	
C	 23.377528708842 	  2.752089413308 	 11.385871278927 	
C	 23.946041738842 	  8.935648363308 	  1.255311728927 	
C	 23.377497608842 	  8.935651173308 	 11.385868448927 	
C	  5.072209577497 	  5.839246271068 	  3.902014065744 	
C	  4.503665447497 	  5.839249081068 	 14.032570785744 	
C	  5.072178477497 	 12.022808031068 	  3.902011235744 	
C	  4.503634347497 	 12.022810841068 	 14.032567955744 	
C	 19.753036877497 	  5.839255501068 	  3.930143995744 	
C	 19.184492747497 	  5.839258311068 	 14.060700715744 	
C	 19.753005777497 	 12.022817261068 	  3.930141165744 	
C	 19.184461647497 	 12.022820071068 	 14.060697885744 	
C	  3.654909980764 	  3.458996805795 	  8.229635414587 	
C	  3.086365850764 	  3.458999615795 	 18.360192134587 	
C	  3.654878880764 	  9.642558565795 	  8.229632584587 	
C	  3.086334750764 	  9.642561375795 	 18.360189304587 	
C	 18.335737280764 	  3.459006035795 	  8.257765344587 	
C	 17.767193150764 	  3.459008845795 	 18.388322064587 	
C	 18.335706180764 	  9.642567795795 	  8.257762514587 	
C	 17.767162050764 	  9.642570605795 	 18.388319234587 	
C	 10.126512007778 	  0.371797924061 	  7.081820359220 	
C	  9.557967877778 	  0.371800734061 	 17.212377079220 	
C	 10.126480907778 	  6.555359684061 	  7.081817529220 	
C	  9.557936777778 	  6.555362494061 	 17.212374249220 	
C	 24.807339307778 	  0.371807154061 	  7.109950289220 	
C	 24.238795177778 	  0.371809964061 	 17.240507009220 	
C	 24.807308207778 	  6.555368914061 	  7.109947459220 	
C	 24.238764077778 	  6.555371724061 	 17.240504179220 	
C	 10.404847892519 	  2.716209483809 	  1.990897552619 	
C	  9.836303762519 	  2.716212293809 	 12.121454272619 	
C	 10.404816792519 	  8.899771243809 	  1.990894722619 	
C	  9.836272662519 	  8.899774053809 	 12.121451442619 	
C	 25.085675192519 	  2.716218713809 	  2.019027482619 	
C	 24.517131062519 	  2.716221523809 	 12.149584202619 	
C	 25.085644092519 	  8.899780473809 	  2.019024652619 	
C	 24.517099962519 	  8.899783283809 	 12.149581372619 	
C	  3.933246195075 	  5.803408884694 	  3.138712730406 	
C	  3.364702065075 	  5.803411694694 	 13.269269450406 	
C	  3.933215095075 	 11.986970644694 	  3.138709900406 	
C	  3.364670965075 	 11.986973454694 	 13.269266620406 	
C	 18.614073495075 	  5.803418114694 	  3.166842660406 	
C	 18.045529365075 	  5.803420924694 	 13.297399380406 	
C	 18.614042395075 	 11.986979874694 	  3.166839830406 	
C	 18.045498265075 	 11.986982684694 	 13.297396550406 	
H	  2.972705034532 	  4.355451918043 	  8.315008595178 	
H	  2.404160904532 	  4.355454728043 	 18.445565315178 	
H	  2.972673934532 	 10.539013678043 	  8.315005765178 	
H	  2.404129804532 	 10.539016488043 	 18.445562485178 	
H	 17.653532334532 	  4.355461148043 	  8.343138525178 	
H	 17.084988204532 	  4.355463958043 	 18.473695245178 	
H	 17.653501234532 	 10.539022908043 	  8.343135695178 	
H	 17.084957104532 	 10.539025718043 	 18.473692415178 	
H	 10.808897188242 	  1.267947497786 	  6.996881606599 	
H	 10.240353058242 	  1.267950307786 	 17.127438326599 	
H	 10.808866088242 	  7.451509257786 	  6.996878776599 	
H	 10.240321958242 	  7.451512067786 	 17.127435496599 	
H	 25.489724488242 	  1.267956727786 	  7.025011536599 	
H	 24.921180358242 	  1.267959537786 	 17.155568256599 	
H	 25.489693388242 	  7.451518487786 	  7.025008706599 	
H	 24.921149258242 	  7.451521297786 	 17.155565426599 	
H	 11.087052826690 	  1.819754368150 	  1.905524302706 	
H	 10.518508696690 	  1.819757178150 	 12.036081022706 	
H	 11.087021726690 	  8.003316128150 	  1.905521472706 	
H	 10.518477596690 	  8.003318938150 	 12.036078192706 	
H	 25.767880126690 	  1.819763598150 	  1.933654232706 	
H	 25.199335996690 	  1.819766408150 	 12.064210952706 	
H	 25.767849026690 	  8.003325358150 	  1.933651402706 	
H	 25.199304896690 	  8.003328168150 	 12.064208122706 	
H	  3.250861142996 	  4.907259219768 	  3.223651507083 	
H	  2.682317012996 	  4.907262029768 	 13.354208227083 	
H	  3.250830042996 	 11.090820979768 	  3.223648677083 	
H	  2.682285912996 	 11.090823789768 	 13.354205397083 	
H	 17.931688442996 	  4.907268449768 	  3.251781437083 	
H	 17.363144312996 	  4.907271259768 	 13.382338157083 	
H	 17.931657342996 	 11.090830209768 	  3.251778607083 	
H	 17.363113212996 	 11.090833019768 	 13.382335327083 	
C	  3.329626309373 	  2.428054988801 	  7.370955671800 	
C	  2.761082179373 	  2.428057798801 	 17.501512391800 	
C	  3.329595209373 	  8.611616748801 	  7.370952841800 	
C	  2.761051079373 	  8.611619558801 	 17.501509561800 	
C	 18.010453609373 	  2.428064218801 	  7.399085601800 	
C	 17.441909479373 	  2.428067028801 	 17.529642321800 	
C	 18.010422509373 	  8.611625978801 	  7.399082771800 	
C	 17.441878379373 	  8.611628788801 	 17.529639491800 	
C	 10.452127195430 	  5.515234947841 	  7.941409113917 	
C	  9.883583065430 	  5.515237757841 	 18.071965833917 	
C	 10.452096095430 	 11.698796707841 	  7.941406283917 	
C	  9.883551965430 	 11.698799517841 	 18.071963003917 	
C	 25.132954495430 	  5.515244177841 	  7.969539043917 	
C	 24.564410365430 	  5.515246987841 	 18.100095763917 	
C	 25.132923395430 	 11.698805937841 	  7.969536213917 	
C	 24.564379265430 	 11.698808747841 	 18.100092933917 	
C	 10.730131413105 	  3.747151258921 	  2.849577258421 	
C	 10.161587283105 	  3.747154068921 	 12.980133978421 	
C	 10.730100313105 	  9.930713018921 	  2.849574428421 	
C	 10.161556183105 	  9.930715828921 	 12.980131148421 	
C	 25.410958713105 	  3.747160488921 	  2.877707188421 	
C	 24.842414583105 	  3.747163298921 	 13.008263908421 	
C	 25.410927613105 	  9.930722248921 	  2.877704358421 	
C	 24.842383483105 	  9.930725058921 	 13.008261078421 	
C	  3.607631086433 	  0.659971803951 	  2.279123915625 	
C	  3.039086956433 	  0.659974613951 	 12.409680635625 	
C	  3.607599986433 	  6.843533563951 	  2.279121085625 	
C	  3.039055856433 	  6.843536373951 	 12.409677805625 	
C	 18.288458386433 	  0.659981033951 	  2.307253845625 	
C	 17.719914256433 	  0.659983843951 	 12.437810565625 	
C	 18.288427286433 	  6.843542793951 	  2.307251015625 	
C	 17.719883156433 	  6.843545603951 	 12.437807735625 	
C	  4.242065159133 	  1.375509017040 	  7.286069466399 	
C	  3.673521029133 	  1.375511827040 	 17.416626186399 	
C	  4.242034059133 	  7.559070777040 	  7.286066636399 	
C	  3.673489929133 	  7.559073587040 	 17.416623356399 	
C	 18.922892459133 	  1.375518247040 	  7.314199396399 	
C	 18.354348329133 	  1.375521057040 	 17.444756116399 	
C	 18.922861359133 	  7.559080007040 	  7.314196566399 	
C	 18.354317229133 	  7.559082817040 	 17.444753286399 	
C	  9.539561878885 	  4.463085720478 	  8.025824376976 	
C	  8.971017748885 	  4.463088530478 	 18.156381096976 	
C	  9.539530778885 	 10.646647480478 	  8.025821546976 	
C	  8.970986648885 	 10.646650290478 	 18.156378266976 	
C	 24.220389178885 	  4.463094950478 	  8.053954306976 	
C	 23.651845048885 	  4.463097760478 	 18.184511026976 	
C	 24.220358078885 	 10.646656710478 	  8.053951476976 	
C	 23.651813948885 	 10.646659520478 	 18.184508196976 	
C	  9.817692447261 	  4.799697154503 	  2.934463551143 	
C	  9.249148317261 	  4.799699964503 	 13.065020271143 	
C	  9.817661347261 	 10.983258914503 	  2.934460721143 	
C	  9.249117217261 	 10.983261724503 	 13.065017441143 	
C	 24.498519747261 	  4.799706384503 	  2.962593481143 	
C	 23.929975617261 	  4.799709194503 	 13.093150201143 	
C	 24.498488647261 	 10.983268144503 	  2.962590651143 	
C	 23.929944517261 	 10.983270954503 	 13.093147371143 	
C	  4.520196264417 	  1.712121017469 	  2.194708613888 	
C	  3.951652134417 	  1.712123827469 	 12.325265333888 	
C	  4.520165164417 	  7.895682777469 	  2.194705783888 	
C	  3.951621034417 	  7.895685587469 	 12.325262503888 	
C	 19.201023564417 	  1.712130247469 	  2.222838543888 	
C	 18.632479434417 	  1.712133057469 	 12.353395263888 	
C	 19.200992464417 	  7.895692007469 	  2.222835713888 	
C	 18.632448334417 	  7.895694817469 	 12.353392433888 	
H	  4.033841363853 	  0.525935196037 	  6.572425559443 	
H	  3.465297233853 	  0.525938006037 	 16.702982279443 	
H	  4.033810263853 	  6.709496956037 	  6.572422729443 	
H	  3.465266133853 	  6.709499766037 	 16.702979449443 	
H	 18.714668663853 	  0.525944426037 	  6.600555489443 	
H	 18.146124533853 	  0.525947236037 	 16.731112209443 	
H	 18.714637563853 	  6.709506186037 	  6.600552659443 	
H	 18.146093433853 	  6.709508996037 	 16.731109379443 	
H	  9.747798921471 	  3.613526414310 	  8.739456436417 	
H	  9.179254791471 	  3.613529224310 	 18.870013156417 	
H	  9.747767821471 	  9.797088174310 	  8.739453606417 	
H	  9.179223691471 	  9.797090984310 	 18.870010326417 	
H	 24.428626221471 	  3.613535644310 	  8.767586366417 	
H	 23.860082091471 	  3.613538454310 	 18.898143086417 	
H	 24.428595121471 	  9.797097404310 	  8.767583536417 	
H	 23.860050991471 	  9.797100214310 	 18.898140256417 	
H	 10.025916241330 	  5.649270952514 	  3.648107495025 	
H	  9.457372111330 	  5.649273762514 	 13.778664215025 	
H	 10.025885141330 	 11.832832712514 	  3.648104665025 	
H	  9.457341011330 	 11.832835522514 	 13.778661385025 	
H	 24.706743541330 	  5.649280182514 	  3.676237425025 	
H	 24.138199411330 	  5.649282992514 	 13.806794145025 	
H	 24.706712441330 	 11.832841942514 	  3.676234595025 	
H	 24.138168311330 	 11.832844752514 	 13.806791315025 	
H	  4.311959187583 	  2.561680339923 	  1.481076583293 	
H	  3.743415057583 	  2.561683149923 	 11.611633303293 	
H	  4.311928087583 	  8.745242099923 	  1.481073753293 	
H	  3.743383957583 	  8.745244909923 	 11.611630473293 	
H	 18.992786487583 	  2.561689569923 	  1.509206513293 	
H	 18.424242357583 	  2.561692379923 	 11.639763233293 	
H	 18.992755387583 	  8.745251329923 	  1.509203683293 	
H	 18.424211257583 	  8.745254139923 	 11.639760403293 	
C	  5.375917992977 	  1.320373034445 	  8.023217786072 	
C	  4.807373862977 	  1.320375844445 	 18.153774506072 	
C	  5.375886892977 	  7.503934794445 	  8.023214956072 	
C	  4.807342762977 	  7.503937604445 	 18.153771676072 	
C	 20.056745292977 	  1.320382264445 	  8.051347716072 	
C	 19.488201162977 	  1.320385074445 	 18.181904436072 	
C	 20.056714192977 	  7.503944024445 	  8.051344886072 	
C	 19.488170062977 	  7.503946834445 	 18.181901606072 	
C	  8.405707365834 	  4.407947225050 	  7.288662626739 	
C	  7.837163235834 	  4.407950035050 	 17.419219346739 	
C	  8.405676265834 	 10.591508985050 	  7.288659796739 	
C	  7.837132135834 	 10.591511795050 	 17.419216516739 	
C	 23.086534665834 	  4.407956455050 	  7.316792556739 	
C	 22.517990535834 	  4.407959265050 	 17.447349276739 	
C	 23.086503565834 	 10.591518215050 	  7.316789726739 	
C	 22.517959435834 	 10.591521025050 	 17.447346446739 	
C	  8.683839737796 	  4.854833119012 	  2.197315038953 	
C	  8.115295607796 	  4.854835929012 	 12.327871758953 	
C	  8.683808637796 	 11.038394879012 	  2.197312208953 	
C	  8.115264507796 	 11.038397689012 	 12.327868928953 	
C	 23.364667037796 	  4.854842349012 	  2.225444968953 	
C	 22.796122907796 	  4.854845159012 	 12.356001688953 	
C	 23.364635937796 	 11.038404109012 	  2.225442138953 	
C	 22.796091807796 	 11.038406919012 	 12.355998858953 	
C	  5.654050835432 	  1.767259632576 	  2.931870411508 	
C	  5.085506705432 	  1.767262442576 	 13.062427131508 	
C	  5.654019735432 	  7.950821392576 	  2.931867581508 	
C	  5.085475605432 	  7.950824202576 	 13.062424301508 	
C	 20.334878135432 	  1.767268862576 	  2.960000341508 	
C	 19.766334005432 	  1.767271672576 	 13.090557061508 	
C	 20.334847035432 	  7.950830622576 	  2.959997511508 	
C	 19.766302905432 	  7.950833432576 	 13.090554231508 	
H	  6.076852152997 	  0.440570936468 	  7.922346480702 	
H	  5.508308022997 	  0.440573746468 	 18.052903200702 	
H	  6.076821052997 	  6.624132696468 	  7.922343650702 	
H	  5.508276922997 	  6.624135506468 	 18.052900370702 	
H	 20.757679452997 	  0.440580166468 	  7.950476410702 	
H	 20.189135322997 	  0.440582976468 	 18.081033130702 	
H	 20.757648352997 	  6.624141926468 	  7.950473580702 	
H	 20.189104222997 	  6.624144736468 	 18.081030300702 	
H	  7.704795823310 	  3.528143719261 	  7.389524798511 	
H	  7.136251693310 	  3.528146529261 	 17.520081518511 	
H	  7.704764723310 	  9.711705479261 	  7.389521968511 	
H	  7.136220593310 	  9.711708289261 	 17.520078688511 	
H	 22.385623123310 	  3.528152949261 	  7.417654728511 	
H	 21.817078993310 	  3.528155759261 	 17.548211448511 	
H	 22.385592023310 	  9.711714709261 	  7.417651898511 	
H	 21.817047893310 	  9.711717519261 	 17.548208618511 	
H	  7.982905466651 	  5.734635127670 	  2.298186402889 	
H	  7.414361336651 	  5.734637937670 	 12.428743122889 	
H	  7.982874366651 	 11.918196887670 	  2.298183572889 	
H	  7.414330236651 	 11.918199697670 	 12.428740292889 	
H	 22.663732766651 	  5.734644357670 	  2.326316332889 	
H	 22.095188636651 	  5.734647167670 	 12.456873052889 	
H	 22.663701666651 	 11.918206117670 	  2.326313502889 	
H	 22.095157536651 	 11.918208927670 	 12.456870222889 	
H	  6.354962347965 	  2.647063165151 	  2.831008220402 	
H	  5.786418217965 	  2.647065975151 	 12.961564940402 	
H	  6.354931247965 	  8.830624925151 	  2.831005390402 	
H	  5.786387117965 	  8.830627735151 	 12.961562110402 	
H	 21.035789647965 	  2.647072395151 	  2.859138150402 	
H	 20.467245517965 	  2.647075205151 	 12.989694870402 	
H	 21.035758547965 	  8.830634155151 	  2.859135320402 	
H	 20.467214417965 	  8.830636965151 	 12.989692040402 	
C	  2.034230593385 	  2.461163936757 	  6.517348359206 	
C	  1.465686463385 	  2.461166746757 	 16.647905079206 	
C	  2.034199493385 	  8.644725696757 	  6.517345529206 	
C	  1.465655363385 	  8.644728506757 	 16.647902249206 	
C	 16.715057893385 	  2.461173166757 	  6.545478289206 	
C	 16.146513763385 	  2.461175976757 	 16.676035009206 	
C	 16.715026793385 	  8.644734926757 	  6.545475459206 	
C	 16.146482663385 	  8.644737736757 	 16.676032179206 	
C	 11.747094374618 	  5.548513672881 	  8.794340191636 	
C	 11.178550244618 	  5.548516482881 	 18.924896911636 	
C	 11.747063274618 	 11.732075432881 	  8.794337361636 	
C	 11.178519144618 	 11.732078242881 	 18.924894081636 	
C	 26.427921674618 	  5.548522902881 	  8.822470121636 	
C	 25.859377544618 	  5.548525712881 	 18.953026841636 	
C	 26.427890574618 	 11.732084662881 	  8.822467291636 	
C	 25.859346444618 	 11.732087472881 	 18.953024011636 	
C	 12.025527098107 	  3.714042456554 	  3.703184673214 	
C	 11.456982968107 	  3.714045266554 	 13.833741393214 	
C	 12.025495998107 	  9.897604216554 	  3.703181843214 	
C	 11.456951868107 	  9.897607026554 	 13.833738563214 	
C	 26.706354398107 	  3.714051686554 	  3.731314603214 	
C	 26.137810268107 	  3.714054496554 	 13.861871323214 	
C	 26.706323298107 	  9.897613446554 	  3.731311773214 	
C	 26.137779168107 	  9.897616256554 	 13.861868493214 	
C	  2.312663995870 	  0.626692962303 	  1.426192801628 	
C	  1.744119865870 	  0.626695772303 	 11.556749521628 	
C	  2.312632895870 	  6.810254722303 	  1.426189971628 	
C	  1.744088765870 	  6.810257532303 	 11.556746691628 	
C	 16.993491295870 	  0.626702192303 	  1.454322731628 	
C	 16.424947165870 	  0.626705002303 	 11.584879451628 	
C	 16.993460195870 	  6.810263952303 	  1.454319901628 	
C	 16.424916065870 	  6.810266762303 	 11.584876621628 	
C	  2.277955112589 	  3.082266386858 	  5.256045478099 	
C	  1.709410982589 	  3.082269196858 	 15.386602198099 	
C	  2.277924012589 	  9.265828146858 	  5.256042648099 	
C	  1.709379882589 	  9.265830956858 	 15.386599368099 	
C	 16.958782412589 	  3.082275616858 	  5.284175408099 	
C	 16.390238282589 	  3.082278426858 	 15.414732128099 	
C	 16.958751312589 	  9.265837376858 	  5.284172578099 	
C	 16.390207182589 	  9.265840186858 	 15.414729298099 	
C	 11.494227403735 	 -0.009723779598 	 10.060495072958 	
C	 10.925683273735 	 -0.009720969598 	 20.191051792958 	
C	 11.494196303735 	  6.173837980402 	 10.060492242958 	
C	 10.925652173735 	  6.173840790402 	 20.191048962958 	
C	 26.175054703735 	 -0.009714549598 	 10.088625002958 	
C	 25.606510573735 	 -0.009711739598 	 20.219181722958 	
C	 26.175023603735 	  6.173847210402 	 10.088622172958 	
C	 25.606479473735 	  6.173850020402 	 20.219178892958 	
C	 11.781802223132 	  3.092940293996 	  4.964487962010 	
C	 11.213258093132 	  3.092943103996 	 15.095044682010 	
C	 11.781771123132 	  9.276502053996 	  4.964485132010 	
C	 11.213226993132 	  9.276504863996 	 15.095041852010 	
C	 26.462629523132 	  3.092949523996 	  4.992617892010 	
C	 25.894085393132 	  3.092952333996 	 15.123174612010 	
C	 26.462598423132 	  9.276511283996 	  4.992615062010 	
C	 25.894054293132 	  9.276514093996 	 15.123171782010 	
C	  2.565531001917 	  6.184930716845 	  0.160037802496 	
C	  1.996986871917 	  6.184933526845 	 10.290594522496 	
C	  2.565499901917 	 12.368492476845 	  0.160034972496 	
C	  1.996955771917 	 12.368495286845 	 10.290591692496 	
C	 17.246358301917 	  6.184939946845 	  0.188167732496 	
C	 16.677814171917 	  6.184942756845 	 10.318724452496 	
C	 17.246327201917 	 12.368501706845 	  0.188164902496 	
C	 16.677783071917 	 12.368504516845 	 10.318721622496 	
H	  2.675373957203 	  4.111347951875 	  5.379122358769 	
H	  2.106829827203 	  4.111350761875 	 15.509679078769 	
H	  2.675342857203 	 10.294909711875 	  5.379119528769 	
H	  2.106798727203 	 10.294912521875 	 15.509676248769 	
H	 17.356201257203 	  4.111357181875 	  5.407252288769 	
H	 16.787657127203 	  4.111359991875 	 15.537809008769 	
H	 17.356170157203 	 10.294918941875 	  5.407249458769 	
H	 16.787626027203 	 10.294921751875 	 15.537806178769 	
H	 11.106719367303 	  1.023299151822 	  9.932773838920 	
H	 10.538175237303 	  1.023301961822 	 20.063330558920 	
H	 11.106688267303 	  7.206860911822 	  9.932771008920 	
H	 10.538144137303 	  7.206863721822 	 20.063327728920 	
H	 25.787546667303 	  1.023308381822 	  9.960903768920 	
H	 25.219002537303 	  1.023311191822 	 20.091460488920 	
H	 25.787515567303 	  7.206870141822 	  9.960900938920 	
H	 25.218971437303 	  7.206872951822 	 20.091457658920 	
H	 11.384383562795 	  2.063858588562 	  4.841411366698 	
H	 10.815839432795 	  2.063861398562 	 14.971968086698 	
H	 11.384352462795 	  8.247420348562 	  4.841408536698 	
H	 10.815808332795 	  8.247423158562 	 14.971965256698 	
H	 26.065210862795 	  2.063867818562 	  4.869541296698 	
H	 25.496666732795 	  2.063870628562 	 15.000098016698 	
H	 26.065179762795 	  8.247429578562 	  4.869538466698 	
H	 25.496635632795 	  8.247432388562 	 15.000095186698 	
H	  2.953039079733 	  5.151907777260 	  0.287758834908 	
H	  2.384494949733 	  5.151910587260 	 10.418315554908 	
H	  2.953007979733 	 11.335469537260 	  0.287756004908 	
H	  2.384463849733 	 11.335472347260 	 10.418312724908 	
H	 17.633866379733 	  5.151917007260 	  0.315888764908 	
H	 17.065322249733 	  5.151919817260 	 10.446445484908 	
H	 17.633835279733 	 11.335478767260 	  0.315885934908 	
H	 17.065291149733 	 11.335481577260 	 10.446442654908 	
H	  1.402300600690 	  3.159111484989 	  4.580456784310 	
H	  0.833756470690 	  3.159114294989 	 14.711013504310 	
H	  1.402269500690 	  9.342673244989 	  4.580453954310 	
H	  0.833725370690 	  9.342676054989 	 14.711010674310 	
H	 16.083127900690 	  3.159120714989 	  4.608586714310 	
H	 15.514583770690 	  3.159123524989 	 14.739143434310 	
H	 16.083096800690 	  9.342682474989 	  4.608583884310 	
H	 15.514552670690 	  9.342685284989 	 14.739140604310 	
H	 12.936988996735 	  0.071694047877 	  0.549814474884 	
H	 12.368444866735 	  0.071696857877 	 10.680371194884 	
H	 12.936957896735 	  6.255255807877 	  0.549811644884 	
H	 12.368413766735 	  6.255258617877 	 10.680368364884 	
H	 27.617816296735 	  0.071703277877 	  0.577944404884 	
H	 27.049272166735 	  0.071706087877 	 10.708501124884 	
H	 27.617785196735 	  6.255265037877 	  0.577941574884 	
H	 27.049241066735 	  6.255267847877 	 10.708498294884 	
H	 12.657456694350 	  3.016095577035 	  5.640076759005 	
H	 12.088912564350 	  3.016098387035 	 15.770633479005 	
H	 12.657425594350 	  9.199657337035 	  5.640073929005 	
H	 12.088881464350 	  9.199660147035 	 15.770630649005 	
H	 27.338283994350 	  3.016104807035 	  5.668206689005 	
H	 26.769739864350 	  3.016107617035 	 15.798763409005 	
H	 27.338252894350 	  9.199666567035 	  5.668203859005 	
H	 26.769708764350 	  9.199669377035 	 15.798760579005 	
H	  1.122769477514 	  6.103512892455 	  9.670718314650 	
H	  0.554225347514 	  6.103515702455 	 19.801275034650 	
H	  1.122738377514 	 12.287074652455 	  9.670715484650 	
H	  0.554194247514 	 12.287077462455 	 19.801272204650 	
H	 15.803596777514 	  6.103522122455 	  9.698848244650 	
H	 15.235052647514 	  6.103524932455 	 19.829404964650 	
H	 15.803565677514 	 12.287083882455 	  9.698845414650 	
H	 15.235021547514 	 12.287086692455 	 19.829402134650 	
H	  3.071914833702 	  2.563492509030 	  4.678632031390 	
H	  2.503370703702 	  2.563495319030 	 14.809188751390 	
H	  3.071883733702 	  8.747054269030 	  4.678629201390 	
H	  2.503339603702 	  8.747057079030 	 14.809185921390 	
H	 17.752742133702 	  2.563501739030 	  4.706761961390 	
H	 17.184198003702 	  2.563504549030 	 14.837318681390 	
H	 17.752711033702 	  8.747063499030 	  4.706759131390 	
H	 17.184166903702 	  8.747066309030 	 14.837315851390 	
H	 11.273574252295 	  5.655923977010 	  0.445268992977 	
H	 10.705030122295 	  5.655926787010 	 10.575825712977 	
H	 11.273543152295 	 11.839485737010 	  0.445266162977 	
H	 10.704999022295 	 11.839488547010 	 10.575822882977 	
H	 25.954401552295 	  5.655933207010 	  0.473398922977 	
H	 25.385857422295 	  5.655936017010 	 10.603955642977 	
H	 25.954370452295 	 11.839494967010 	  0.473396092977 	
H	 25.385826322295 	 11.839497777010 	 10.603952812977 	
H	 10.987842374457 	  3.611714362783 	  5.541901109635 	
H	 10.419298244457 	  3.611717172783 	 15.672457829635 	
H	 10.987811274457 	  9.795276122783 	  5.541898279635 	
H	 10.419267144457 	  9.795278932783 	 15.672454999635 	
H	 25.668669674457 	  3.611723592783 	  5.570031039635 	
H	 25.100125544457 	  3.611726402783 	 15.700587759635 	
H	 25.668638574457 	  9.795285352783 	  5.570028209635 	
H	 25.100094444457 	  9.795288162783 	 15.700584929635 	
H	  2.786184196853 	  0.519283068687 	  9.775264026584 	
H	  2.217640066853 	  0.519285878687 	 19.905820746584 	
H	  2.786153096853 	  6.702844828687 	  9.775261196584 	
H	  2.217608966853 	  6.702847638687 	 19.905817916584 	
H	 17.467011496853 	  0.519292298687 	  9.803393956584 	
H	 16.898467366853 	  0.519295108687 	 19.933950676584 	
H	 17.466980396853 	  6.702854058687 	  9.803391126584 	
H	 16.898436266853 	  6.702856868687 	 19.933947846584 	
C	  0.988599958423 	  3.185674145908 	  7.152784410446 	
C	  0.420055828423 	  3.185676955908 	 17.283341130446 	
C	  0.988568858423 	  9.369235905908 	  7.152781580446 	
C	  0.420024728423 	  9.369238715908 	 17.283338300446 	
C	 15.669427258423 	  3.185683375908 	  7.180914340446 	
C	 15.100883128423 	  3.185686185908 	 17.311471060446 	
C	 15.669396158423 	  9.369245135908 	  7.180911510446 	
C	 15.100852028423 	  9.369247945908 	 17.311468230446 	
C	 12.794624454941 	  0.097536843566 	  8.155228362197 	
C	 12.226080324941 	  0.097539653566 	 18.285785082197 	
C	 12.794593354941 	  6.281098603566 	  8.155225532197 	
C	 12.226049224941 	  6.281101413566 	 18.285782252197 	
C	 27.475451754941 	  0.097546073566 	  8.183358292197 	
C	 26.906907624941 	  0.097548883566 	 18.313915012197 	
C	 27.475420654941 	  6.281107833566 	  8.183355462197 	
C	 26.906876524941 	  6.281110643566 	 18.313912182197 	
C	 13.071157865402 	  2.989531857294 	  3.067748758815 	
C	 12.502613735402 	  2.989534667294 	 13.198305478815 	
C	 13.071126765402 	  9.173093617294 	  3.067745928815 	
C	 12.502582635402 	  9.173096427294 	 13.198302648815 	
C	 27.751985165402 	  2.989541087294 	  3.095878688815 	
C	 27.183441035402 	  2.989543897294 	 13.226435408815 	
C	 27.751954065402 	  9.173102847294 	  3.095875858815 	
C	 27.183409935402 	  9.173105657294 	 13.226432578815 	
C	  1.265133901911 	  6.077669502066 	  2.065304401339 	
C	  0.696589771911 	  6.077672312066 	 12.195861121339 	
C	  1.265102801911 	 12.261231262066 	  2.065301571339 	
C	  0.696558671911 	 12.261234072066 	 12.195858291339 	
C	 15.945961201911 	  6.077678732066 	  2.093434331339 	
C	 15.377417071911 	  6.077681542066 	 12.223991051339 	
C	 15.945930101911 	 12.261240492066 	  2.093431501339 	
C	 15.377385971911 	 12.261243302066 	 12.223988221339 	
H	  1.232125001330 	  4.253644176684 	  7.343348220131 	
H	  0.663580871330 	  4.253646986684 	 17.473904940131 	
H	  1.232093901330 	 10.437205936684 	  7.343345390131 	
H	  0.663549771330 	 10.437208746684 	 17.473902110131 	
H	 15.912952301330 	  4.253653406684 	  7.371478150131 	
H	 15.344408171330 	  4.253656216684 	 17.502034870131 	
H	 15.912921201330 	 10.437215166684 	  7.371475320131 	
H	 15.344377071330 	 10.437217976684 	 17.502032040131 	
H	 12.549366690979 	  1.166107438383 	  7.968637351719 	
H	 11.980822560979 	  1.166110248383 	 18.099194071719 	
H	 12.549335590979 	  7.349669198383 	  7.968634521719 	
H	 11.980791460979 	  7.349672008383 	 18.099191241719 	
H	 27.230193990979 	  1.166116668383 	  7.996767281719 	
H	 26.661649860979 	  1.166119478383 	 18.127324001719 	
H	 27.230162890979 	  7.349678428383 	  7.996764451719 	
H	 26.661618760979 	  7.349681238383 	 18.127321171719 	
H	 12.827632722211 	  1.921561794435 	  2.877185159127 	
H	 12.259088592211 	  1.921564604435 	 13.007741879127 	
H	 12.827601622211 	  8.105123554435 	  2.877182329127 	
H	 12.259057492211 	  8.105126364435 	 13.007739049127 	
H	 27.508460022211 	  1.921571024435 	  2.905315089127 	
H	 26.939915892211 	  1.921573834435 	 13.035871809127 	
H	 27.508428922211 	  8.105132784435 	  2.905312259127 	
H	 26.939884792211 	  8.105135594435 	 13.035868979127 	
H	  1.510391833713 	  5.009098906484 	  2.251895130390 	
H	  0.941847703713 	  5.009101716484 	 12.382451850390 	
H	  1.510360733713 	 11.192660666484 	  2.251892300390 	
H	  0.941816603713 	 11.192663476484 	 12.382449020390 	
H	 16.191219133713 	  5.009108136484 	  2.280025060390 	
H	 15.622675003713 	  5.009110946484 	 12.410581780390 	
H	 16.191188033713 	 11.192669896484 	  2.280022230390 	
H	 15.622643903713 	 11.192672706484 	 12.410578950390 	
H	  0.746223094624 	  2.797420479223 	  8.165744874502 	
H	  0.177678964624 	  2.797423289223 	 18.296301594502 	
H	  0.746191994624 	  8.980982239223 	  8.165742044502 	
H	  0.177647864624 	  8.980985049223 	 18.296298764502 	
H	 15.427050394624 	  2.797429709223 	  8.193874804502 	
H	 14.858506264624 	  2.797432519223 	 18.324431524502 	
H	 15.427019294624 	  8.980991469223 	  8.193871974502 	
H	 14.858475164624 	  8.980994279223 	 18.324428694502 	
H	 13.034584098848 	  5.886009535726 	  7.149922705493 	
H	 12.466039968848 	  5.886012345726 	 17.280479425493 	
H	 13.034552998848 	 12.069571295726 	  7.149919875493 	
H	 12.466008868848 	 12.069574105726 	 17.280476595493 	
H	 27.715411398848 	  5.886018765726 	  7.178052635493 	
H	 27.146867268848 	  5.886021575726 	 17.308609355493 	
H	 27.715380298848 	 12.069580525726 	  7.178049805493 	
H	 27.146836168848 	 12.069583335726 	 17.308606525493 	
H	 13.313535092180 	  3.377785404463 	  2.054788328844 	
H	 12.744990962180 	  3.377788214463 	 12.185345048844 	
H	 13.313503992180 	  9.561347164463 	  2.054785498844 	
H	 12.744959862180 	  9.561349974463 	 12.185342218844 	
H	 27.994362392180 	  3.377794634463 	  2.082918258844 	
H	 27.425818262180 	  3.377797444463 	 12.213474978844 	
H	 27.994331292180 	  9.561356394463 	  2.082915428844 	
H	 27.425787162180 	  9.561359204463 	 12.213472148844 	
H	  1.025174211343 	  0.289196553475 	  3.070610168898 	
H	  0.456630081343 	  0.289199363475 	 13.201166888898 	
H	  1.025143111343 	  6.472758313475 	  3.070607338898 	
H	  0.456598981343 	  6.472761123475 	 13.201164058898 	
H	 15.706001511343 	  0.289205783475 	  3.098740098898 	
H	 15.137457381343 	  0.289208593475 	 13.229296818898 	
H	 15.705970411343 	  6.472767543475 	  3.098737268898 	
H	 15.137426281343 	  6.472770353475 	 13.229293988898 	
H	  0.044368776326 	  3.189043069464 	  6.570687429365 	
H	 -0.524175353674 	  3.189045879464 	 16.701244149365 	
H	  0.044337676326 	  9.372604829464 	  6.570684599365 	
H	 -0.524206453674 	  9.372607639464 	 16.701241319365 	
H	 14.725196076326 	  3.189052299464 	  6.598817359365 	
H	 14.156651946326 	  3.189055109464 	 16.729374079365 	
H	 14.725164976326 	  9.372614059464 	  6.598814529365 	
H	 14.156620846326 	  9.372616869464 	 16.729371249365 	
H	 13.736867152654 	  6.276393256998 	  8.740974106041 	
H	 13.168323022654 	  6.276396066998 	 18.871530826041 	
H	 13.736836052654 	 12.459955016998 	  8.740971276041 	
H	 13.168291922654 	 12.459957826998 	 18.871527996041 	
H	 28.417694452654 	  6.276402486998 	  8.769104036041 	
H	 27.849150322654 	  6.276405296998 	 18.899660756041 	
H	 28.417663352654 	 12.459964246998 	  8.769101206041 	
H	 27.849119222654 	 12.459967056998 	 18.899657926041 	
H	 14.015388859543 	  2.986163007320 	  3.649846059426 	
H	 13.446844729543 	  2.986165817320 	 13.780402779426 	
H	 14.015357759543 	  9.169724767320 	  3.649843229426 	
H	 13.446813629543 	  9.169727577320 	 13.780399949426 	
H	 28.696216159543 	  2.986172237320 	  3.677975989426 	
H	 28.127672029543 	  2.986175047320 	 13.808532709426 	
H	 28.696185059543 	  9.169733997320 	  3.677973159426 	
H	 28.127640929543 	  9.169736807320 	 13.808529879426 	
H	  0.322891196463 	 -0.101186966130 	  1.479558664367 	
H	 -0.245652933537 	 -0.101184156130 	 11.610115384367 	
H	  0.322860096463 	  6.082374793870 	  1.479555834367 	
H	 -0.245684033537 	  6.082377603870 	 11.610112554367 	
H	 15.003718496463 	 -0.101177736130 	  1.507688594367 	
H	 14.435174366463 	 -0.101174926130 	 11.638245314367 	
H	 15.003687396463 	  6.082384023870 	  1.507685764367 	
H	 14.435143266463 	  6.082386833870 	 11.638242484367 	
C	  1.517379188936 	  1.163799132284 	  6.253953541340 	
C	  0.948835058936 	  1.163801942284 	 16.384510261340 	
C	  1.517348088936 	  7.347360892284 	  6.253950711340 	
C	  0.948803958936 	  7.347363702284 	 16.384507431340 	
C	 16.198206488936 	  1.163808362284 	  6.282083471340 	
C	 15.629662358936 	  1.163811172284 	 16.412640191340 	
C	 16.198175388936 	  7.347370122284 	  6.282080641340 	
C	 15.629631258936 	  7.347372932284 	 16.412637361340 	
C	 12.264251363217 	  4.251368184109 	  9.057939234996 	
C	 11.695707233217 	  4.251370994109 	 19.188495954996 	
C	 12.264220263217 	 10.434929944109 	  9.057936404996 	
C	 11.695676133217 	 10.434932754109 	 19.188493124996 	
C	 26.945078663217 	  4.251377414109 	  9.086069164996 	
C	 26.376534533217 	  4.251380224109 	 19.216625884996 	
C	 26.945047563217 	 10.434939174109 	  9.086066334996 	
C	 26.376503433217 	 10.434941984109 	 19.216623054996 	
C	 12.542378548533 	  5.011407780031 	  3.966579055043 	
C	 11.973834418533 	  5.011410590031 	 14.097135775043 	
C	 12.542347448533 	 11.194969540031 	  3.966576225043 	
C	 11.973803318533 	 11.194972350031 	 14.097132945043 	
C	 27.223205848533 	  5.011417010031 	  3.994708985043 	
C	 26.654661718533 	  5.011419820031 	 14.125265705043 	
C	 27.223174748533 	 11.194978770031 	  3.994706155043 	
C	 26.654630618533 	 11.194981580031 	 14.125262875043 	
C	  1.795506709531 	  1.923838402679 	  1.162593966165 	
C	  1.226962579531 	  1.923841212679 	 11.293150686165 	
C	  1.795475609531 	  8.107400162679 	  1.162591136165 	
C	  1.226931479531 	  8.107402972679 	 11.293147856165 	
C	 16.476334009531 	  1.923847632679 	  1.190723896165 	
C	 15.907789879531 	  1.923850442679 	 11.321280616165 	
C	 16.476302909531 	  8.107409392679 	  1.190721066165 	
C	 15.907758779531 	  8.107412202679 	 11.321277786165 	
H	  0.542382268431 	  1.152919595668 	  5.726353836648 	
H	 -0.026161861569 	  1.152922405668 	 15.856910556648 	
H	  0.542351168431 	  7.336481355668 	  5.726351006648 	
H	 -0.026192961569 	  7.336484165668 	 15.856907726648 	
H	 15.223209568431 	  1.152928825668 	  5.754483766648 	
H	 14.654665438431 	  1.152931635668 	 15.885040486648 	
H	 15.223178468431 	  7.336490585668 	  5.754480936648 	
H	 14.654634338431 	  7.336493395668 	 15.885037656648 	
H	 13.239255688620 	  4.240504973031 	  9.585543493369 	
H	 12.670711558620 	  4.240507783031 	 19.716100213369 	
H	 13.239224588620 	 10.424066733031 	  9.585540663369 	
H	 12.670680458620 	 10.424069543031 	 19.716097383369 	
H	 27.920082988620 	  4.240514203031 	  9.613673423369 	
H	 27.351538858620 	  4.240517013031 	 19.744230143369 	
H	 27.920051888620 	 10.424075963031 	  9.613670593369 	
H	 27.351507758620 	 10.424078773031 	 19.744227313369 	
H	 13.517375405225 	  5.022287165600 	  4.494178878450 	
H	 12.948831275225 	  5.022289975600 	 14.624735598450 	
H	 13.517344305225 	 11.205848925600 	  4.494176048450 	
H	 12.948800175225 	 11.205851735600 	 14.624732768450 	
H	 28.198202705225 	  5.022296395600 	  4.522308808450 	
H	 27.629658575225 	  5.022299205600 	 14.652865528450 	
H	 28.198171605225 	 11.205858155600 	  4.522305978450 	
H	 27.629627475225 	 11.205860965600 	 14.652862698450 	
H	  0.820502406943 	  1.934701562077 	  0.634989669680 	
H	  0.251958276943 	  1.934704372077 	 10.765546389680 	
H	  0.820471306943 	  8.118263322077 	  0.634986839680 	
H	  0.251927176943 	  8.118266132077 	 10.765543559680 	
H	 15.501329706943 	  1.934710792077 	  0.663119599680 	
H	 14.932785576943 	  1.934713602077 	 10.793676319680 	
H	 15.501298606943 	  8.118272552077 	  0.663116769680 	
H	 14.932754476943 	  8.118275362077 	 10.793673489680 	
H	  1.384625685345 	  0.566667945782 	  7.181877937052 	
H	  0.816081555345 	  0.566670755782 	 17.312434657052 	
H	  1.384594585345 	  6.750229705782 	  7.181875107052 	
H	  0.816050455345 	  6.750232515782 	 17.312431827052 	
H	 16.065452985345 	  0.566677175782 	  7.210007867052 	
H	 15.496908855345 	  0.566679985782 	 17.340564587052 	
H	 16.065421885345 	  6.750238935782 	  7.210005037052 	
H	 15.496877755345 	  6.750241745782 	 17.340561757052 	
H	 12.397017180187 	  3.654254472215 	  8.130018818416 	
H	 11.828473050187 	  3.654257282215 	 18.260575538416 	
H	 12.396986080187 	  9.837816232215 	  8.130015988416 	
H	 11.828441950187 	  9.837819042215 	 18.260572708416 	
H	 27.077844480187 	  3.654263702215 	  8.158148748416 	
H	 26.509300350187 	  3.654266512215 	 18.288705468416 	
H	 27.077813380187 	  9.837825462215 	  8.158145918416 	
H	 26.509269250187 	  9.837828272215 	 18.288702638416 	
H	 12.675132156351 	  5.608538536110 	  3.038654406718 	
H	 12.106588026351 	  5.608541346110 	 13.169211126718 	
H	 12.675101056351 	 11.792100296110 	  3.038651576718 	
H	 12.106556926351 	 11.792103106110 	 13.169208296718 	
H	 27.355959456351 	  5.608547766110 	  3.066784336718 	
H	 26.787415326351 	  5.608550576110 	 13.197341056718 	
H	 27.355928356351 	 11.792109526110 	  3.066781506718 	
H	 26.787384226351 	 11.792112336110 	 13.197338226718 	
H	  1.662740791867 	  2.520951923167 	  2.090514491783 	
H	  1.094196661867 	  2.520954733167 	 12.221071211783 	
H	  1.662709691867 	  8.704513683167 	  2.090511661783 	
H	  1.094165561867 	  8.704516493167 	 12.221068381783 	
H	 16.343568091867 	  2.520961153167 	  2.118644421783 	
H	 15.775023961867 	  2.520963963167 	 12.249201141783 	
H	 16.343536991867 	  8.704522913167 	  2.118641591783 	
H	 15.774992861867 	  8.704525723167 	 12.249198311783 	
H	  2.196313490997 	  0.539604030333 	  5.635430912281 	
H	  1.627769360997 	  0.539606840333 	 15.765987632281 	
H	  2.196282390997 	  6.723165790333 	  5.635428082281 	
H	  1.627738260997 	  6.723168600333 	 15.765984802281 	
H	 16.877140790997 	  0.539613260333 	  5.663560842281 	
H	 16.308596660997 	  0.539616070333 	 15.794117562281 	
H	 16.877109690997 	  6.723175020333 	  5.663558012281 	
H	 16.308565560997 	  6.723177830333 	 15.794114732281 	
H	 11.585315594767 	  3.627184743871 	  9.676463261259 	
H	 11.016771464767 	  3.627187553871 	 19.807019981259 	
H	 11.585284494767 	  9.810746503871 	  9.676460431259 	
H	 11.016740364767 	  9.810749313871 	 19.807017151259 	
H	 26.266142894767 	  3.627193973871 	  9.704593191259 	
H	 25.697598764767 	  3.627196783871 	 19.835149911259 	
H	 26.266111794767 	  9.810755733871 	  9.704590361259 	
H	 25.697567664767 	  9.810758543871 	 19.835147081259 	
H	 11.863444188082 	  5.635602957524 	  4.585101630297 	
H	 11.294900058082 	  5.635605767524 	 14.715658350297 	
H	 11.863413088082 	 11.819164717524 	  4.585098800297 	
H	 11.294868958082 	 11.819167527524 	 14.715655520297 	
H	 26.544271488082 	  5.635612187524 	  4.613231560297 	
H	 25.975727358082 	  5.635614997524 	 14.743788280297 	
H	 26.544240388082 	 11.819173947524 	  4.613228730297 	
H	 25.975696258082 	 11.819176757524 	 14.743785450297 	
H	  2.474442475960 	  2.548022091409 	  0.544070192899 	
H	  1.905898345960 	  2.548024901409 	 10.674626912899 	
H	  2.474411375960 	  8.731583851409 	  0.544067362899 	
H	  1.905867245960 	  8.731586661409 	 10.674624082899 	
H	 17.155269775960 	  2.548031321409 	  0.572200122899 	
H	 16.586725645960 	  2.548034131409 	 10.702756842899 	
H	 17.155238675960 	  8.731593081409 	  0.572197292899 	
H	 16.586694545960 	  8.731595891409 	 10.702754012899 	
768 
Energy: -7.8649955247609995e+01 
S	  8.684993389020 	  1.517615594009 	  0.054451568442 	
S	  8.116449259020 	  1.517618404009 	 10.185008288442 	
S	  8.684962289020 	  7.701177354009 	  0.054448738442 	
S	  8.116418159020 	  7.701180164009 	 10.185005458442 	
S	 23.365820689020 	  1.517624824009 	  0.082581498442 	
S	 22.797276559020 	  1.517627634009 	 10.213138218442 	
S	 23.365789589020 	  7.701186584009 	  0.082578668442 	
S	 22.797245459020 	  7.701189394009 	 10.213135388442 	
S	  5.593270748458 	  4.600866522878 	  5.111032728453 	
S	  5.024726618458 	  4.600869332878 	 15.241589448453 	
S	  5.593239648458 	 10.784428282878 	  5.111029898453 	
S	  5.024695518458 	 10.784431092878 	 15.241586618453 	
S	 20.274098048458 	  4.600875752878 	  5.139162658453 	
S	 19.705553918458 	  4.600878562878 	 15.269719378453 	
S	 20.274066948458 	 10.784437512878 	  5.139159828453 	
S	 19.705522818458 	 10.784440322878 	 15.269716548453 	
S	  5.321385868841 	  4.649082290223 	 10.228972799738 	
S	  4.752841738841 	  4.649085100223 	 20.359529519738 	
S	  5.321354768841 	 10.832644050223 	 10.228969969738 	
S	  4.752810638841 	 10.832646860223 	 20.359526689738 	
S	 20.002213168841 	  4.649091520223 	 10.257102729738 	
S	 19.433669038841 	  4.649094330223 	 20.387659449738 	
S	 20.002182068841 	 10.832653280223 	 10.257099899738 	
S	 19.433637938841 	 10.832656090223 	 20.387656619738 	
S	  8.413109018921 	  1.565831946706 	  5.172391796239 	
S	  7.844564888921 	  1.565834756706 	 15.302948516239 	
S	  8.413077918921 	  7.749393706706 	  5.172388966239 	
S	  7.844533788921 	  7.749396516706 	 15.302945686239 	
S	 23.093936318921 	  1.565841176706 	  5.200521726239 	
S	 22.525392188921 	  1.565843986706 	 15.331078446239 	
S	 23.093905218921 	  7.749402936706 	  5.200518896239 	
S	 22.525361088921 	  7.749405746706 	 15.331075616239 	
C	  6.744169039232 	  2.509196664849 	  9.892996176411 	
C	  6.175624909232 	  2.509199474849 	 20.023552896411 	
C	  6.744137939232 	  8.692758424849 	  9.892993346411 	
C	  6.175593809232 	  8.692761234849 	 20.023550066411 	
C	 21.424996339232 	  2.509205894849 	  9.921126106411 	
C	 20.856452209232 	  2.509208704849 	 20.051682826411 	
C	 21.424965239232 	  8.692767654849 	  9.921123276411 	
C	 20.856421109232 	  8.692770464849 	 20.051679996411 	
C	  6.990144697323 	  5.591614184314 	  5.509414391395 	
C	  6.421600567323 	  5.591616994314 	 15.639971111395 	
C	  6.990113597323 	 11.775175944314 	  5.509411561395 	
C	  6.421569467323 	 11.775178754314 	 15.639968281395 	
C	 21.670971997323 	  5.591623414314 	  5.537544321395 	
C	 21.102427867323 	  5.591626224314 	 15.668101041395 	
C	 21.670940897323 	 11.775185174314 	  5.537541491395 	
C	 21.102396767323 	 11.775187984314 	 15.668098211395 	
C	  7.262210227122 	  3.657501169717 	  0.390428158687 	
C	  6.693666097122 	  3.657503979717 	 10.520984878687 	
C	  7.262179127122 	  9.841062929717 	  0.390425328687 	
C	  6.693634997122 	  9.841065739717 	 10.520982048687 	
C	 21.943037527122 	  3.657510399717 	  0.418558088687 	
C	 21.374493397122 	  3.657513209717 	 10.549114808687 	
C	 21.943006427122 	  9.841072159717 	  0.418555258687 	
C	 21.374462297122 	  9.841074969717 	 10.549111978687 	
C	  7.016234926542 	  0.575084395638 	  4.774010094782 	
C	  6.447690796542 	  0.575087205638 	 14.904566814782 	
C	  7.016203826542 	  6.758646155638 	  4.774007264782 	
C	  6.447659696542 	  6.758648965638 	 14.904563984782 	
C	 21.697062226542 	  0.575093625638 	  4.802140024782 	
C	 21.128518096542 	  0.575096435638 	 14.932696744782 	
C	 21.697031126542 	  6.758655385638 	  4.802137194782 	
C	 21.128486996542 	  6.758658195638 	 14.932693914782 	
C	  5.670587702468 	  2.337901702791 	  8.972695135252 	
C	  5.102043572468 	  2.337904512791 	 19.103251855252 	
C	  5.670556602468 	  8.521463462791 	  8.972692305252 	
C	  5.102012472468 	  8.521466272791 	 19.103249025252 	
C	 20.351415002468 	  2.337910932791 	  9.000825065252 	
C	 19.782870872468 	  2.337913742791 	 19.131381785252 	
C	 20.351383902468 	  8.521472692791 	  9.000822235252 	
C	 19.782839772468 	  8.521475502791 	 19.131378955252 	
C	  8.062690909316 	  5.420123164370 	  6.428721333377 	
C	  7.494146779316 	  5.420125974370 	 16.559278053377 	
C	  8.062659809316 	 11.603684924370 	  6.428718503377 	
C	  7.494115679316 	 11.603687734370 	 16.559275223377 	
C	 22.743518209316 	  5.420132394370 	  6.456851263377 	
C	 22.174974079316 	  5.420135204370 	 16.587407983377 	
C	 22.743487109316 	 11.603694154370 	  6.456848433377 	
C	 22.174942979316 	 11.603696964370 	 16.587405153377 	
C	  8.335791436118 	  3.828796188721 	  1.310729107559 	
C	  7.767247306118 	  3.828798998721 	 11.441285827559 	
C	  8.335760336118 	 10.012357948721 	  1.310726277559 	
C	  7.767216206118 	 10.012360758721 	 11.441282997559 	
C	 23.016618736118 	  3.828805418721 	  1.338859037559 	
C	 22.448074606118 	  3.828808228721 	 11.469415757559 	
C	 23.016587636118 	 10.012367178721 	  1.338856207559 	
C	 22.448043506118 	 10.012369988721 	 11.469412927559 	
C	  5.943688662735 	  0.746575380631 	  3.854703123095 	
C	  5.375144532735 	  0.746578190631 	 13.985259843095 	
C	  5.943657562735 	  6.930137140631 	  3.854700293095 	
C	  5.375113432735 	  6.930139950631 	 13.985257013095 	
C	 20.624515962735 	  0.746584610631 	  3.882833053095 	
C	 20.055971832735 	  0.746587420631 	 14.013389773095 	
C	 20.624484862735 	  6.930146370631 	  3.882830223095 	
C	 20.055940732735 	  6.930149180631 	 14.013386943095 	
C	  4.785462285820 	  3.437453600835 	  9.040366585940 	
C	  4.216918155820 	  3.437456410835 	 19.170923305940 	
C	  4.785431185820 	  9.621015360835 	  9.040363755940 	
C	  4.216887055820 	  9.621018170835 	 19.170920475940 	
C	 19.466289585820 	  3.437462830835 	  9.068496515940 	
C	 18.897745455820 	  3.437465640835 	 19.199053235940 	
C	 19.466258485820 	  9.621024590835 	  9.068493685940 	
C	 18.897714355820 	  9.621027400835 	 19.199050405940 	
C	  8.950192079919 	  0.355260320491 	  6.360825609903 	
C	  8.381647949919 	  0.355263130491 	 16.491382329903 	
C	  8.950160979919 	  6.538822080491 	  6.360822779903 	
C	  8.381616849919 	  6.538824890491 	 16.491379499903 	
C	 23.631019379919 	  0.355269550491 	  6.388955539903 	
C	 23.062475249919 	  0.355272360491 	 16.519512259903 	
C	 23.630988279919 	  6.538831310491 	  6.388952709903 	
C	 23.062444149919 	  6.538834120491 	 16.519509429903 	
C	  9.220916848345 	  2.729244335815 	  1.243057741226 	
C	  8.652372718345 	  2.729247145815 	 11.373614461226 	
C	  9.220885748345 	  8.912806095815 	  1.243054911226 	
C	  8.652341618345 	  8.912808905815 	 11.373611631226 	
C	 23.901744148345 	  2.729253565815 	  1.271187671226 	
C	 23.333200018345 	  2.729256375815 	 11.401744391226 	
C	 23.901713048345 	  8.912815325815 	  1.271184841226 	
C	 23.333168918345 	  8.912818135815 	 11.401741561226 	
C	  5.056187516379 	  5.811438170753 	  3.922598889044 	
C	  4.487643386379 	  5.811440980753 	 14.053155609044 	
C	  5.056156416379 	 11.994999930753 	  3.922596059044 	
C	  4.487612286379 	 11.995002740753 	 14.053152779044 	
C	 19.737014816379 	  5.811447400753 	  3.950728819044 	
C	 19.168470686379 	  5.811450210753 	 14.081285539044 	
C	 19.736983716379 	 11.995009160753 	  3.950725989044 	
C	 19.168439586379 	 11.995011970753 	 14.081282709044 	
C	  3.652860828805 	  3.485900218447 	  8.268861723717 	
C	  3.084316698805 	  3.485903028447 	 18.399418443717 	
C	  3.652829728805 	  9.669461978447 	  8.268858893717 	
C	  3.084285598805 	  9.669464788447 	 18.399415613717 	
C	 18.333688128805 	  3.485909448447 	  8.296991653717 	
C	 17.765143998805 	  3.485912258447 	 18.427548373717 	
C	 18.333657028805 	  9.669471208447 	  8.296988823717 	
C	 17.765112898805 	  9.669474018447 	 18.427545543717 	
C	 10.081122623406 	  0.403581702939 	  7.131220669510 	
C	  9.512578493406 	  0.403584512939 	 17.261777389510 	
C	 10.081091523406 	  6.587143462939 	  7.131217839510 	
C	  9.512547393406 	  6.587146272939 	 17.261774559510 	
C	 24.761949923406 	  0.403590932939 	  7.159350599510 	
C	 24.193405793406 	  0.403593742939 	 17.289907319510 	
C	 24.761918823406 	  6.587152692939 	  7.159347769510 	
C	 24.193374693406 	  6.587155502939 	 17.289904489510 	
C	 10.353518304628 	  2.680797795762 	  2.014562731499 	
C	  9.784974174628 	  2.680800605762 	 12.145119451499 	
C	 10.353487204628 	  8.864359555762 	  2.014559901499 	
C	  9.784943074628 	  8.864362365762 	 12.145116621499 	
C	 25.034345604628 	  2.680807025762 	  2.042692661499 	
C	 24.465801474628 	  2.680809835762 	 12.173249381499 	
C	 25.034314504628 	  8.864368785762 	  2.042689831499 	
C	 24.465770374628 	  8.864371595762 	 12.173246551499 	
C	  3.925256876829 	  5.763116774109 	  3.152203938413 	
C	  3.356712746829 	  5.763119584109 	 13.282760658413 	
C	  3.925225776829 	 11.946678534109 	  3.152201108413 	
C	  3.356681646829 	 11.946681344109 	 13.282757828413 	
C	 18.606084176829 	  5.763126004109 	  3.180333868413 	
C	 18.037540046829 	  5.763128814109 	 13.310890588413 	
C	 18.606053076829 	 11.946687764109 	  3.180331038413 	
C	 18.037508946829 	 11.946690574109 	 13.310887758413 	
H	  2.977391352791 	  4.387760225579 	  8.353233870203 	
H	  2.408847222791 	  4.387763035579 	 18.483790590203 	
H	  2.977360252791 	 10.571321985579 	  8.353231040203 	
H	  2.408816122791 	 10.571324795579 	 18.483787760203 	
H	 17.658218652791 	  4.387769455579 	  8.381363800203 	
H	 17.089674522791 	  4.387772265579 	 18.511920520203 	
H	 17.658187552791 	 10.571331215579 	  8.381360970203 	
H	 17.089643422791 	 10.571334025579 	 18.511917690203 	
H	 10.757096819863 	  1.304613694208 	  7.047994822278 	
H	 10.188552689863 	  1.304616504208 	 17.178551542278 	
H	 10.757065719863 	  7.488175454208 	  7.047991992278 	
H	 10.188521589863 	  7.488178264208 	 17.178548712278 	
H	 25.437924119863 	  1.304622924208 	  7.076124752278 	
H	 24.869379989863 	  1.304625734208 	 17.206681472278 	
H	 25.437893019863 	  7.488184684208 	  7.076121922278 	
H	 24.869348889863 	  7.488187494208 	 17.206678642278 	
H	 11.028987760049 	  1.778937776280 	  1.930190554020 	
H	 10.460443630049 	  1.778940586280 	 12.060747274020 	
H	 11.028956660049 	  7.962499536280 	  1.930187724020 	
H	 10.460412530049 	  7.962502346280 	 12.060744444020 	
H	 25.709815060049 	  1.778947006280 	  1.958320484020 	
H	 25.141270930049 	  1.778949816280 	 12.088877204020 	
H	 25.709783960049 	  7.962508766280 	  1.958317654020 	
H	 25.141239830049 	  7.962511576280 	 12.088874374020 	
H	  3.249282810610 	  4.862084693955 	  3.235429830628 	
H	  2.680738680610 	  4.862087503955 	 13.365986550628 	
H	  3.249251710610 	 11.045646453955 	  3.235427000628 	
H	  2.680707580610 	 11.045649263955 	 13.365983720628 	
H	 17.930110110610 	  4.862093923955 	  3.263559760628 	
H	 17.361565980610 	  4.862096733955 	 13.394116480628 	
H	 17.930079010610 	 11.045655683955 	  3.263556930628 	
H	 17.361534880610 	 11.045658493955 	 13.394113650628 	
C	  3.326757643356 	  2.462745843341 	  7.402075497697 	
C	  2.758213513356 	  2.462748653341 	 17.532632217697 	
C	  3.326726543356 	  8.646307603341 	  7.402072667697 	
C	  2.758182413356 	  8.646310413341 	 17.532629387697 	
C	 18.007584943356 	  2.462755073341 	  7.430205427697 	
C	 17.439040813356 	  2.462757883341 	 17.560762147697 	
C	 18.007553843356 	  8.646316833341 	  7.430202597697 	
C	 17.439009713356 	  8.646319643341 	 17.560759317697 	
C	 10.408092303182 	  5.544968406461 	  8.000475336815 	
C	  9.839548173182 	  5.544971216461 	 18.131032056815 	
C	 10.408061203182 	 11.728530166461 	  8.000472506815 	
C	  9.839517073182 	 11.728532976461 	 18.131029226815 	
C	 25.088919603182 	  5.544977636461 	  8.028605266815 	
C	 24.520375473182 	  5.544980446461 	 18.159161986815 	
C	 25.088888503182 	 11.728539396461 	  8.028602436815 	
C	 24.520344373182 	 11.728542206461 	 18.159159156815 	
C	 10.679621343494 	  3.703952152927 	  2.881348891540 	
C	 10.111077213494 	  3.703954962927 	 13.011905611540 	
C	 10.679590243494 	  9.887513912927 	  2.881346061540 	
C	 10.111046113494 	  9.887516722927 	 13.011902781540 	
C	 25.360448643494 	  3.703961382927 	  2.909478821540 	
C	 24.791904513494 	  3.703964192927 	 13.040035541540 	
C	 25.360417543494 	  9.887523142927 	  2.909475991540 	
C	 24.791873413494 	  9.887525952927 	 13.040032711540 	
C	  3.598287212464 	  0.621730031285 	  2.282949249416 	
C	  3.029743082464 	  0.621732841285 	 12.413505969416 	
C	  3.598256112464 	  6.805291791285 	  2.282946419416 	
C	  3.029711982464 	  6.805294601285 	 12.413503139416 	
C	 18.279114512464 	  0.621739261285 	  2.311079179416 	
C	 17.710570382464 	  0.621742071285 	 12.441635899416 	
C	 18.279083412464 	  6.805301021285 	  2.311076349416 	
C	 17.710539282464 	  6.805303831285 	 12.441633069416 	
C	  4.230260730059 	  1.402670448557 	  7.320503301716 	
C	  3.661716600059 	  1.402673258557 	 17.451060021716 	
C	  4.230229630059 	  7.586232208557 	  7.320500471716 	
C	  3.661685500059 	  7.586235018557 	 17.451057191716 	
C	 18.911088030059 	  1.402679678557 	  7.348633231716 	
C	 18.342543900059 	  1.402682488557 	 17.479189951716 	
C	 18.911056930059 	  7.586241438557 	  7.348630401716 	
C	 18.342512800059 	  7.586244248557 	 17.479187121716 	
C	  9.504210797222 	  4.485970256214 	  8.080821223895 	
C	  8.935666667222 	  4.485973066214 	 18.211377943895 	
C	  9.504179697222 	 10.669532016214 	  8.080818393895 	
C	  8.935635567222 	 10.669534826214 	 18.211375113895 	
C	 24.185038097222 	  4.485979486214 	  8.108951153895 	
C	 23.616493967222 	  4.485982296214 	 18.239507873895 	
C	 24.185006997222 	 10.669541246214 	  8.108948323895 	
C	 23.616462867222 	 10.669544056214 	 18.239505043895 	
C	  9.776118167541 	  4.764027489255 	  2.962921144982 	
C	  9.207574037541 	  4.764030299255 	 13.093477864982 	
C	  9.776087067541 	 10.947589249255 	  2.962918314982 	
C	  9.207542937541 	 10.947592059255 	 13.093475034982 	
C	 24.456945467541 	  4.764036719255 	  2.991051074982 	
C	 23.888401337541 	  4.764039529255 	 13.121607794982 	
C	 24.456914367541 	 10.947598479255 	  2.991048244982 	
C	 23.888370237541 	 10.947601289255 	 13.121604964982 	
C	  4.502168595446 	  1.680728161252 	  2.202603284965 	
C	  3.933624465446 	  1.680730971252 	 12.333160004965 	
C	  4.502137495446 	  7.864289921252 	  2.202600454965 	
C	  3.933593365446 	  7.864292731252 	 12.333157174965 	
C	 19.182995895446 	  1.680737391252 	  2.230733214965 	
C	 18.614451765446 	  1.680740201252 	 12.361289934965 	
C	 19.182964795446 	  7.864299151252 	  2.230730384965 	
C	 18.614420665446 	  7.864301961252 	 12.361287104965 	
H	  4.021133353399 	  0.558385426690 	  6.600767531917 	
H	  3.452589223399 	  0.558388236690 	 16.731324251917 	
H	  4.021102253399 	  6.741947186690 	  6.600764701917 	
H	  3.452558123399 	  6.741949996690 	 16.731321421917 	
H	 18.701960653399 	  0.558394656690 	  6.628897461917 	
H	 18.133416523399 	  0.558397466690 	 16.759454181917 	
H	 18.701929553399 	  6.741956416690 	  6.628894631917 	
H	 18.133385423399 	  6.741959226690 	 16.759451351917 	
H	  9.713352555236 	  3.641717380039 	  8.800525951135 	
H	  9.144808425236 	  3.641720190039 	 18.931082671135 	
H	  9.713321455236 	  9.825279140039 	  8.800523121135 	
H	  9.144777325236 	  9.825281950039 	 18.931079841135 	
H	 24.394179855236 	  3.641726610039 	  8.828655881135 	
H	 23.825635725236 	  3.641729420039 	 18.959212601135 	
H	 24.394148755236 	  9.825288370039 	  8.828653051135 	
H	 23.825604625236 	  9.825291180039 	 18.959209771135 	
H	  9.985245559503 	  5.608312512259 	  3.682656916979 	
H	  9.416701429503 	  5.608315322259 	 13.813213636979 	
H	  9.985214459503 	 11.791874272259 	  3.682654086979 	
H	  9.416670329503 	 11.791877082259 	 13.813210806979 	
H	 24.666072859503 	  5.608321742259 	  3.710786846979 	
H	 24.097528729503 	  5.608324552259 	 13.841343566979 	
H	 24.666041759503 	 11.791883502259 	  3.710784016979 	
H	 24.097497629503 	 11.791886312259 	 13.841340736979 	
H	  4.293026761674 	  2.524981067219 	  1.482898614829 	
H	  3.724482631674 	  2.524983877219 	 11.613455334829 	
H	  4.292995661674 	  8.708542827219 	  1.482895784829 	
H	  3.724451531674 	  8.708545637219 	 11.613452504829 	
H	 18.973854061674 	  2.524990297219 	  1.511028544829 	
H	 18.405309931674 	  2.524993107219 	 11.641585264829 	
H	 18.973822961674 	  8.708552057219 	  1.511025714829 	
H	 18.405278831674 	  8.708554867219 	 11.641582434829 	
C	  5.356628075766 	  1.334518215860 	  8.065850501627 	
C	  4.788083945766 	  1.334521025860 	 18.196407221627 	
C	  5.356596975766 	  7.518079975860 	  8.065847671627 	
C	  4.788052845766 	  7.518082785860 	 18.196404391627 	
C	 20.037455375766 	  1.334527445860 	  8.093980431627 	
C	 19.468911245766 	  1.334530255860 	 18.224537151627 	
C	 20.037424275766 	  7.518089205860 	  8.093977601627 	
C	 19.468880145766 	  7.518092015860 	 18.224534321627 	
C	  8.377828005870 	  4.417816708662 	  7.335453588439 	
C	  7.809283875870 	  4.417819518662 	 17.466010308439 	
C	  8.377796905870 	 10.601378468662 	  7.335450758439 	
C	  7.809252775870 	 10.601381278662 	 17.466007478439 	
C	 23.058655305870 	  4.417825938662 	  7.363583518439 	
C	 22.490111175870 	  4.417828748662 	 17.494140238439 	
C	 23.058624205870 	 10.601387698662 	  7.363580688439 	
C	 22.490080075870 	 10.601390508662 	 17.494137408439 	
C	  8.649750934134 	  4.832179689424 	  2.217573772694 	
C	  8.081206804134 	  4.832182499424 	 12.348130492694 	
C	  8.649719834134 	 11.015741449424 	  2.217570942694 	
C	  8.081175704134 	 11.015744259424 	 12.348127662694 	
C	 23.330578234134 	  4.832188919424 	  2.245703702694 	
C	 22.762034104134 	  4.832191729424 	 12.376260422694 	
C	 23.330547134134 	 11.015750679424 	  2.245700872694 	
C	 22.762003004134 	 11.015753489424 	 12.376257592694 	
C	  5.628551483263 	  1.748881807326 	  2.947970910738 	
C	  5.060007353263 	  1.748884617326 	 13.078527630738 	
C	  5.628520383263 	  7.932443567326 	  2.947968080738 	
C	  5.059976253263 	  7.932446377326 	 13.078524800738 	
C	 20.309378783263 	  1.748891037326 	  2.976100840738 	
C	 19.740834653263 	  1.748893847326 	 13.106657560738 	
C	 20.309347683263 	  7.932452797326 	  2.976098010738 	
C	 19.740803553263 	  7.932455607326 	 13.106654730738 	
H	  6.051337701710 	  0.449465303662 	  7.965852581380 	
H	  5.482793571710 	  0.449468113662 	 18.096409301380 	
H	  6.051306601710 	  6.633027063662 	  7.965849751380 	
H	  5.482762471710 	  6.633029873662 	 18.096406471380 	
H	 20.732165001710 	  0.449474533662 	  7.993982511380 	
H	 20.163620871710 	  0.449477343662 	 18.124539231380 	
H	 20.732133901710 	  6.633036293662 	  7.993979681380 	
H	 20.163589771710 	  6.633039103662 	 18.124536401380 	
H	  7.683143985909 	  3.532786414673 	  7.435440095564 	
H	  7.114599855909 	  3.532789224673 	 17.565996815564 	
H	  7.683112885909 	  9.716348174673 	  7.435437265564 	
H	  7.114568755909 	  9.716350984673 	 17.565993985564 	
H	 22.363971285909 	  3.532795644673 	  7.463570025564 	
H	 21.795427155909 	  3.532798454673 	 17.594126745564 	
H	 22.363940185909 	  9.716357404673 	  7.463567195564 	
H	 21.795396055909 	  9.716360214673 	 17.594123915564 	
H	  7.955041209523 	  5.717232527152 	  2.317571712527 	
H	  7.386497079523 	  5.717235337152 	 12.448128432527 	
H	  7.955010109523 	 11.900794287152 	  2.317568882527 	
H	  7.386465979523 	 11.900797097152 	 12.448125602527 	
H	 22.635868509523 	  5.717241757152 	  2.345701642527 	
H	 22.067324379523 	  5.717244567152 	 12.476258362527 	
H	 22.635837409523 	 11.900803517152 	  2.345698812527 	
H	 22.067293279523 	 11.900806327152 	 12.476255532527 	
H	  6.323235475344 	  2.633912122993 	  2.847984363760 	
H	  5.754691345344 	  2.633914932993 	 12.978541083760 	
H	  6.323204375344 	  8.817473882993 	  2.847981533760 	
H	  5.754660245344 	  8.817476692993 	 12.978538253760 	
H	 21.004062775344 	  2.633921352993 	  2.876114293760 	
H	 20.435518645344 	  2.633924162993 	 13.006671013760 	
H	 21.004031675344 	  8.817483112993 	  2.876111463760 	
H	 20.435487545344 	  8.817485922993 	 13.006668183760 	
C	  2.031215426143 	  2.507690521577 	  6.539999453841 	
C	  1.462671296143 	  2.507693331577 	 16.670556173841 	
C	  2.031184326143 	  8.691252281577 	  6.539996623841 	
C	  1.462640196143 	  8.691255091577 	 16.670553343841 	
C	 16.712042726143 	  2.507699751577 	  6.568129383841 	
C	 16.143498596143 	  2.507702561577 	 16.698686103841 	
C	 16.712011626143 	  8.691261511577 	  6.568126553841 	
C	 16.143467496143 	  8.691264321577 	 16.698683273841 	
C	 11.702223374536 	  5.590168924454 	  8.860652703382 	
C	 11.133679244536 	  5.590171734454 	 18.991209423382 	
C	 11.702192274536 	 11.773730684454 	  8.860649873382 	
C	 11.133648144536 	 11.773733494454 	 18.991206593382 	
C	 26.383050674536 	  5.590178154454 	  8.888782633382 	
C	 25.814506544536 	  5.590180964454 	 19.019339353382 	
C	 26.383019574536 	 11.773739914454 	  8.888779803382 	
C	 25.814475444536 	 11.773742724454 	 19.019336523382 	
C	 11.975163493048 	  3.659007641786 	  3.743425033681 	
C	 11.406619363048 	  3.659010451786 	 13.873981753681 	
C	 11.975132393048 	  9.842569401786 	  3.743422203681 	
C	 11.406588263048 	  9.842572211786 	 13.873978923681 	
C	 26.655990793048 	  3.659016871786 	  3.771554963681 	
C	 26.087446663048 	  3.659019681786 	 13.902111683681 	
C	 26.655959693048 	  9.842578631786 	  3.771552133681 	
C	 26.087415563048 	  9.842581441786 	 13.902108853681 	
C	  2.304156161912 	  0.576529411499 	  1.422771912557 	
C	  1.735612031912 	  0.576532221499 	 11.553328632557 	
C	  2.304125061912 	  6.760091171499 	  1.422769082557 	
C	  1.735580931912 	  6.760093981499 	 11.553325802557 	
C	 16.984983461912 	  0.576538641499 	  1.450901842557 	
C	 16.416439331912 	  0.576541451499 	 11.581458562557 	
C	 16.984952361912 	  6.760100401499 	  1.450899012557 	
C	 16.416408231912 	  6.760103211499 	 11.581455732557 	
C	  2.257969592816 	  2.991433103226 	  5.294235407670 	
C	  1.689425462816 	  2.991435913226 	 15.424792127670 	
C	  2.257938492816 	  9.174994863226 	  5.294232577670 	
C	  1.689394362816 	  9.174997673226 	 15.424789297670 	
C	 16.938796892816 	  2.991442333226 	  5.322365337670 	
C	 16.370252762816 	  2.991445143226 	 15.452922057670 	
C	 16.938765792816 	  9.175004093226 	  5.322362507670 	
C	 16.370221662816 	  9.175006903226 	 15.452919227670 	
C	 11.456187783957 	 -0.104378598578 	 10.124180820364 	
C	 10.887643653957 	 -0.104375788578 	 20.254737540364 	
C	 11.456156683957 	  6.079183161422 	 10.124177990364 	
C	 10.887612553957 	  6.079185971422 	 20.254734710364 	
C	 26.137015083957 	 -0.104369368578 	 10.152310750364 	
C	 25.568470953957 	 -0.104366558578 	 20.282867470364 	
C	 26.136983983957 	  6.079192391422 	 10.152307920364 	
C	 25.568439853957 	  6.079195201422 	 20.282864640364 	
C	 11.748408974305 	  3.175265181415 	  4.989189553806 	
C	 11.179864844305 	  3.175267991415 	 15.119746273806 	
C	 11.748377874305 	  9.358826941415 	  4.989186723806 	
C	 11.179833744305 	  9.358829751415 	 15.119743443806 	
C	 26.429236274305 	  3.175274411415 	  5.017319483806 	
C	 25.860692144305 	  3.175277221415 	 15.147876203806 	
C	 26.429205174305 	  9.358836171415 	  5.017316653806 	
C	 25.860661044305 	  9.358838981415 	 15.147873373806 	
C	  2.550191734020 	  6.271077200107 	  0.159243688535 	
C	  1.981647604020 	  6.271080010107 	 10.289800408535 	
C	  2.550160634020 	 12.454638960107 	  0.159240858535 	
C	  1.981616504020 	 12.454641770107 	 10.289797578535 	
C	 17.231019034020 	  6.271086430107 	  0.187373618535 	
C	 16.662474904020 	  6.271089240107 	 10.317930338535 	
C	 17.230987934020 	 12.454648190107 	  0.187370788535 	
C	 16.662443804020 	 12.454651000107 	 10.317927508535 	
H	  2.735848457417 	  3.969196235263 	  5.330362182893 	
H	  2.167304327417 	  3.969199045263 	 15.460918902893 	
H	  2.735817357417 	 10.152757995263 	  5.330359352893 	
H	  2.167273227417 	 10.152760805263 	 15.460916072893 	
H	 17.416675757417 	  3.969205465263 	  5.358492112893 	
H	 16.848131627417 	  3.969208275263 	 15.489048832893 	
H	 17.416644657417 	 10.152767225263 	  5.358489282893 	
H	 16.848100527417 	 10.152770035263 	 15.489046002893 	
H	 11.000734331694 	  0.883626871344 	 10.070746613196 	
H	 10.432190201694 	  0.883629681344 	 20.201303333196 	
H	 11.000703231694 	  7.067188631344 	 10.070743783196 	
H	 10.432159101694 	  7.067191441344 	 20.201300503196 	
H	 25.681561631694 	  0.883636101344 	 10.098876543196 	
H	 25.113017501694 	  0.883638911344 	 20.229433263196 	
H	 25.681530531694 	  7.067197861344 	 10.098873713196 	
H	 25.112986401694 	  7.067200671344 	 20.229430433196 	
H	 11.270530260207 	  2.197501557883 	  4.953062922095 	
H	 10.701986130207 	  2.197504367883 	 15.083619642095 	
H	 11.270499160207 	  8.381063317883 	  4.953060092095 	
H	 10.701955030207 	  8.381066127883 	 15.083616812095 	
H	 25.951357560207 	  2.197510787883 	  4.981192852095 	
H	 25.382813430207 	  2.197513597883 	 15.111749572095 	
H	 25.951326460207 	  8.381072547883 	  4.981190022095 	
H	 25.382782330207 	  8.381075357883 	 15.111746742095 	
H	  3.005645181750 	  5.283071773495 	  0.212677665933 	
H	  2.437101051750 	  5.283074583495 	 10.343234385933 	
H	  3.005614081750 	 11.466633533495 	  0.212674835933 	
H	  2.437069951750 	 11.466636343495 	 10.343231555933 	
H	 17.686472481750 	  5.283081003495 	  0.240807595933 	
H	 17.117928351750 	  5.283083813495 	 10.371364315933 	
H	 17.686441381750 	 11.466642763495 	  0.240804765933 	
H	 17.117897251750 	 11.466645573495 	 10.371361485933 	
H	  1.396270219313 	  3.086333200628 	  4.594701503045 	
H	  0.827726089313 	  3.086336010628 	 14.725258223045 	
H	  1.396239119313 	  9.269894960628 	  4.594698673045 	
H	  0.827694989313 	  9.269897770628 	 14.725255393045 	
H	 16.077097519313 	  3.086342430628 	  4.622831433045 	
H	 15.508553389313 	  3.086345240628 	 14.753388153045 	
H	 16.077066419313 	  9.269904190628 	  4.622828603045 	
H	 15.508522289313 	  9.269907000628 	 14.753385323045 	
H	 12.878974475426 	  0.002863060876 	  0.568761300195 	
H	 12.310430345426 	  0.002865870876 	 10.699318020195 	
H	 12.878943375426 	  6.186424820876 	  0.568758470195 	
H	 12.310399245426 	  6.186427630876 	 10.699315190195 	
H	 27.559801775426 	  0.002872290876 	  0.596891230195 	
H	 26.991257645426 	  0.002875100876 	 10.727447950195 	
H	 27.559770675426 	  6.186434050876 	  0.596888400195 	
H	 26.991226545426 	  6.186436860876 	 10.727445120195 	
H	 12.610108237349 	  3.080365489909 	  5.688723499879 	
H	 12.041564107349 	  3.080368299909 	 15.819280219879 	
H	 12.610077137349 	  9.263927249909 	  5.688720669879 	
H	 12.041533007349 	  9.263930059909 	 15.819277389879 	
H	 27.290935537349 	  3.080374719909 	  5.716853429879 	
H	 26.722391407349 	  3.080377529909 	 15.847410149879 	
H	 27.290904437349 	  9.263936479909 	  5.716850599879 	
H	 26.722360307349 	  9.263939289909 	 15.847407319879 	
H	  1.127405060138 	  6.163835571996 	  9.714663183634 	
H	  0.558860930138 	  6.163838381996 	 19.845219903634 	
H	  1.127373960138 	 12.347397331996 	  9.714660353634 	
H	  0.558829830138 	 12.347400141996 	 19.845217073634 	
H	 15.808232360138 	  6.163844801996 	  9.742793113634 	
H	 15.239688230138 	  6.163847611996 	 19.873349833634 	
H	 15.808201260138 	 12.347406561996 	  9.742790283634 	
H	 15.239657130138 	 12.347409371996 	 19.873347003634 	
H	  3.009308823178 	  2.410284930040 	  4.756333702136 	
H	  2.440764693178 	  2.410287740040 	 14.886890422136 	
H	  3.009277723178 	  8.593846690040 	  4.756330872136 	
H	  2.440733593178 	  8.593849500040 	 14.886887592136 	
H	 17.690136123178 	  2.410294160040 	  4.784463632136 	
H	 17.121591993178 	  2.410296970040 	 14.915020352136 	
H	 17.690105023178 	  8.593855920040 	  4.784460802136 	
H	 17.121560893178 	  8.593858730040 	 14.915017522136 	
H	 11.289951493475 	  5.508832339663 	  0.395899039426 	
H	 10.721407363475 	  5.508835149663 	 10.526455759426 	
H	 11.289920393475 	 11.692394099663 	  0.395896209426 	
H	 10.721376263475 	 11.692396909663 	 10.526452929426 	
H	 25.970778793475 	  5.508841569663 	  0.424028969426 	
H	 25.402234663475 	  5.508844379663 	 10.554585689426 	
H	 25.970747693475 	 11.692403329663 	  0.424026139426 	
H	 25.402203563475 	 11.692406139663 	 10.554582859426 	
H	 10.997069286960 	  3.756413560550 	  5.527091120562 	
H	 10.428525156960 	  3.756416370550 	 15.657647840562 	
H	 10.997038186960 	  9.939975320550 	  5.527088290562 	
H	 10.428494056960 	  9.939978130550 	 15.657645010562 	
H	 25.677896586960 	  3.756422790550 	  5.555221050562 	
H	 25.109352456960 	  3.756425600550 	 15.685777770562 	
H	 25.677865486960 	  9.939984550550 	  5.555218220562 	
H	 25.109321356960 	  9.939987360550 	 15.685774940562 	
H	  2.716428054733 	  0.657866375745 	  9.887525625622 	
H	  2.147883924733 	  0.657869185745 	 20.018082345622 	
H	  2.716396954733 	  6.841428135745 	  9.887522795622 	
H	  2.147852824733 	  6.841430945745 	 20.018079515622 	
H	 17.397255354733 	  0.657875605745 	  9.915655555622 	
H	 16.828711224733 	  0.657878415745 	 20.046212275622 	
H	 17.397224254733 	  6.841437365745 	  9.915652725622 	
H	 16.828680124733 	  6.841440175745 	 20.046209445622 	
C	  1.070438663281 	  3.287214656267 	  7.070014912479 	
C	  0.501894533281 	  3.287217466267 	 17.200571632479 	
C	  1.070407563281 	  9.470776416267 	  7.070012082479 	
C	  0.501863433281 	  9.470779226267 	 17.200568802479 	
C	 15.751265963281 	  3.287223886267 	  7.098144842479 	
C	 15.182721833281 	  3.287226696267 	 17.228701562479 	
C	 15.751234863281 	  9.470785646267 	  7.098142012479 	
C	 15.182690733281 	  9.470788456267 	 17.228698732479 	
C	 12.668702408982 	  0.204836235282 	  8.320800055848 	
C	 12.100158278982 	  0.204839045282 	 18.451356775848 	
C	 12.668671308982 	  6.388397995282 	  8.320797225848 	
C	 12.100127178982 	  6.388400805282 	 18.451353945848 	
C	 27.349529708982 	  0.204845465282 	  8.348929985848 	
C	 26.780985578982 	  0.204848275282 	 18.479486705848 	
C	 27.349498608982 	  6.388407225282 	  8.348927155848 	
C	 26.780954478982 	  6.388410035282 	 18.479483875848 	
C	 12.935940575645 	  2.879483149717 	  3.213409537262 	
C	 12.367396445645 	  2.879485959717 	 13.343966257262 	
C	 12.935909475645 	  9.063044909717 	  3.213406707262 	
C	 12.367365345645 	  9.063047719717 	 13.343963427262 	
C	 27.616767875645 	  2.879492379717 	  3.241539467262 	
C	 27.048223745645 	  2.879495189717 	 13.372096187262 	
C	 27.616736775645 	  9.063054139717 	  3.241536637262 	
C	 27.048192645645 	  9.063056949717 	 13.372093357262 	
C	  1.337677115730 	  5.961861808902 	  1.962624333036 	
C	  0.769132985730 	  5.961864618902 	 12.093181053036 	
C	  1.337646015730 	 12.145423568902 	  1.962621503036 	
C	  0.769101885730 	 12.145426378902 	 12.093178223036 	
C	 16.018504415730 	  5.961871038902 	  1.990754263036 	
C	 15.449960285730 	  5.961873848902 	 12.121310983036 	
C	 16.018473315730 	 12.145432798902 	  1.990751433036 	
C	 15.449929185730 	 12.145435608902 	 12.121308153036 	
H	  1.375108490586 	  4.335712659387 	  7.215886469928 	
H	  0.806564360586 	  4.335715469387 	 17.346443189928 	
H	  1.375077390586 	 10.519274419387 	  7.215883639928 	
H	  0.806533260586 	 10.519277229387 	 17.346440359928 	
H	 16.055935790586 	  4.335721889387 	  7.244016399928 	
H	 15.487391660586 	  4.335724699387 	 17.374573119928 	
H	 16.055904690586 	 10.519283649387 	  7.244013569928 	
H	 15.487360560586 	 10.519286459387 	 17.374570289928 	
H	 12.358945667502 	  1.252773120587 	  8.185770642215 	
H	 11.790401537502 	  1.252775930587 	 18.316327362215 	
H	 12.358914567502 	  7.436334880587 	  8.185767812215 	
H	 11.790370437502 	  7.436337690587 	 18.316324532215 	
H	 27.039772967502 	  1.252782350587 	  8.213900572215 	
H	 26.471228837502 	  1.252785160587 	 18.344457292215 	
H	 27.039741867502 	  7.436344110587 	  8.213897742215 	
H	 26.471197737502 	  7.436346920587 	 18.344454462215 	
H	 12.631270660659 	  1.830984964043 	  3.067538083576 	
H	 12.062726530659 	  1.830987774043 	 13.198094803576 	
H	 12.631239560659 	  8.014546724043 	  3.067535253576 	
H	 12.062695430659 	  8.014549534043 	 13.198091973576 	
H	 27.312097960659 	  1.830994194043 	  3.095668013576 	
H	 26.743553830659 	  1.830997004043 	 13.226224733576 	
H	 27.312066860659 	  8.014555954043 	  3.095665183576 	
H	 26.743522730659 	  8.014558764043 	 13.226221903576 	
H	  1.647433991642 	  4.913924980386 	  2.097653451465 	
H	  1.078889861642 	  4.913927790386 	 12.228210171465 	
H	  1.647402891642 	 11.097486740386 	  2.097650621465 	
H	  1.078858761642 	 11.097489550386 	 12.228207341465 	
H	 16.328261291642 	  4.913934210386 	  2.125783381465 	
H	 15.759717161642 	  4.913937020386 	 12.256340101465 	
H	 16.328230191642 	 11.097495970386 	  2.125780551465 	
H	 15.759686061642 	 11.097498780386 	 12.256337271465 	
H	  0.813588097217 	  3.010578151859 	  8.108356164148 	
H	  0.245043967217 	  3.010580961859 	 18.238912884148 	
H	  0.813556997217 	  9.194139911859 	  8.108353334148 	
H	  0.245012867217 	  9.194142721859 	 18.238910054148 	
H	 15.494415397217 	  3.010587381859 	  8.136486094148 	
H	 14.925871267217 	  3.010590191859 	 18.267042814148 	
H	 15.494384297217 	  9.194149141859 	  8.136483264148 	
H	 14.925840167217 	  9.194151951859 	 18.267039984148 	
H	 12.918790783857 	  6.094315925443 	  7.302923586456 	
H	 12.350246653857 	  6.094318735443 	 17.433480306456 	
H	 12.918759683857 	 12.277877685443 	  7.302920756456 	
H	 12.350215553857 	 12.277880495443 	 17.433477476456 	
H	 27.599618083857 	  6.094325155443 	  7.331053516456 	
H	 27.031073953857 	  6.094327965443 	 17.461610236456 	
H	 27.599586983857 	 12.277886915443 	  7.331050686456 	
H	 27.031042853857 	 12.277889725443 	 17.461607406456 	
H	 13.192791564942 	  3.156119724923 	  2.175068293980 	
H	 12.624247434942 	  3.156122534923 	 12.305625013980 	
H	 13.192760464942 	  9.339681484923 	  2.175065463980 	
H	 12.624216334942 	  9.339684294923 	 12.305622183980 	
H	 27.873618864942 	  3.156128954923 	  2.203198223980 	
H	 27.305074734942 	  3.156131764923 	 12.333754943980 	
H	 27.873587764942 	  9.339690714923 	  2.203195393980 	
H	 27.305043634942 	  9.339693524923 	 12.333752113980 	
H	  1.087588762950 	  0.072381907478 	  2.980500965462 	
H	  0.519044632950 	  0.072384717478 	 13.111057685462 	
H	  1.087557662950 	  6.255943667478 	  2.980498135462 	
H	  0.519013532950 	  6.255946477478 	 13.111054855462 	
H	 15.768416062950 	  0.072391137478 	  3.008630895462 	
H	 15.199871932950 	  0.072393947478 	 13.139187615462 	
H	 15.768384962950 	  6.255952897478 	  3.008628065462 	
H	 15.199840832950 	  6.255955707478 	 13.139184785462 	
H	  0.122868709629 	  3.318065369387 	  6.491109108745 	
H	 -0.445675420371 	  3.318068179387 	 16.621665828745 	
H	  0.122837609629 	  9.501627129387 	  6.491106278745 	
H	 -0.445706520371 	  9.501629939387 	 16.621662998745 	
H	 14.803696009629 	  3.318074599387 	  6.519239038745 	
H	 14.235151879629 	  3.318077409387 	 16.649795758745 	
H	 14.803664909629 	  9.501636359387 	  6.519236208745 	
H	 14.235120779629 	  9.501639169387 	 16.649792928745 	
H	 13.610630691312 	  6.400568611791 	  8.909555879617 	
H	 13.042086561312 	  6.400571421791 	 19.040112599617 	
H	 13.610599591312 	 12.584130371791 	  8.909553049617 	
H	 13.042055461312 	 12.584133181791 	 19.040109769617 	
H	 28.291457991312 	  6.400577841791 	  8.937685809617 	
H	 27.722913861312 	  6.400580651791 	 19.068242529617 	
H	 28.291426891312 	 12.584139601791 	  8.937682979617 	
H	 27.722882761312 	 12.584142411791 	 19.068239699617 	
H	 13.883510281167 	  2.848632526978 	  3.792315674731 	
H	 13.314966151167 	  2.848635336978 	 13.922872394731 	
H	 13.883479181167 	  9.032194286978 	  3.792312844731 	
H	 13.314935051167 	  9.032197096978 	 13.922869564731 	
H	 28.564337581167 	  2.848641756978 	  3.820445604731 	
H	 27.995793451167 	  2.848644566978 	 13.951002324731 	
H	 28.564306481167 	  9.032203516978 	  3.820442774731 	
H	 27.995762351167 	  9.032206326978 	 13.950999494731 	
H	  0.395748784108 	 -0.233870595918 	  1.373868594059 	
H	 -0.172795345892 	 -0.233867785918 	 11.504425314059 	
H	  0.395717684108 	  5.949691164082 	  1.373865764059 	
H	 -0.172826445892 	  5.949693974082 	 11.504422484059 	
H	 15.076576084108 	 -0.233861365918 	  1.401998524059 	
H	 14.508031954108 	 -0.233858555918 	 11.532555244059 	
H	 15.076544984108 	  5.949700394082 	  1.401995694059 	
H	 14.508000854108 	  5.949703204082 	 11.532552414059 	
C	  1.454545782059 	  1.302515226446 	  6.369151895662 	
C	  0.886001652059 	  1.302518036446 	 16.499708615662 	
C	  1.454514682059 	  7.486076986446 	  6.369149065662 	
C	  0.885970552059 	  7.486079796446 	 16.499705785662 	
C	 16.135373082059 	  1.302524456446 	  6.397281825662 	
C	 15.566828952059 	  1.302527266446 	 16.527838545662 	
C	 16.135341982059 	  7.486086216446 	  6.397278995662 	
C	 15.566797852059 	  7.486089026446 	 16.527835715662 	
C	 12.279953367420 	  4.385712579569 	  9.032128027575 	
C	 11.711409237420 	  4.385715389569 	 19.162684747575 	
C	 12.279922267420 	 10.569274339569 	  9.032125197575 	
C	 11.711378137420 	 10.569277149569 	 19.162681917575 	
C	 26.960780667420 	  4.385721809569 	  9.060257957575 	
C	 26.392236537420 	  4.385724619569 	 19.190814677575 	
C	 26.960749567420 	 10.569283569569 	  9.060255127575 	
C	 26.392205437420 	 10.569286379569 	 19.190811847575 	
C	 12.551833232616 	  4.864183612999 	  3.914272220228 	
C	 11.983289102616 	  4.864186422999 	 14.044828940228 	
C	 12.551802132616 	 11.047745372999 	  3.914269390228 	
C	 11.983258002616 	 11.047748182999 	 14.044826110228 	
C	 27.232660532616 	  4.864192842999 	  3.942402150228 	
C	 26.664116402616 	  4.864195652999 	 14.072958870228 	
C	 27.232629432616 	 11.047754602999 	  3.942399320228 	
C	 26.664085302616 	 11.047757412999 	 14.072956040228 	
C	  1.726425906020 	  1.780985676540 	  1.251296821350 	
C	  1.157881776020 	  1.780988486540 	 11.381853541350 	
C	  1.726394806020 	  7.964547436540 	  1.251293991350 	
C	  1.157850676020 	  7.964550246540 	 11.381850711350 	
C	 16.407253206020 	  1.780994906540 	  1.279426751350 	
C	 15.838709076020 	  1.780997716540 	 11.409983471350 	
C	 16.407222106020 	  7.964556666540 	  1.279423921350 	
C	 15.838677976020 	  7.964559476540 	 11.409980641350 	
H	  0.477288450201 	  1.273780820564 	  5.838519868531 	
H	 -0.091255679799 	  1.273783630564 	 15.969076588531 	
H	  0.477257350201 	  7.457342580564 	  5.838517038531 	
H	 -0.091286779799 	  7.457345390564 	 15.969073758531 	
H	 15.158115750201 	  1.273790050564 	  5.866649798531 	
H	 14.589571620201 	  1.273792860564 	 15.997206518531 	
H	 15.158084650201 	  7.457351810564 	  5.866646968531 	
H	 14.589540520201 	  7.457354620564 	 15.997203688531 	
H	 13.257236455078 	  4.357042741901 	  9.562764774332 	
H	 12.688692325078 	  4.357045551901 	 19.693321494332 	
H	 13.257205355078 	 10.540604501901 	  9.562761944332 	
H	 12.688661225078 	 10.540607311901 	 19.693318664332 	
H	 27.938063755078 	  4.357051971901 	  9.590894704332 	
H	 27.369519625078 	  4.357054781901 	 19.721451424332 	
H	 27.938032655078 	 10.540613731901 	  9.590891874332 	
H	 27.369488525078 	 10.540616541901 	 19.721448594332 	
H	 13.529090404499 	  4.892917895239 	  4.444904382465 	
H	 12.960546274499 	  4.892920705239 	 14.575461102465 	
H	 13.529059304499 	 11.076479655239 	  4.444901552465 	
H	 12.960515174499 	 11.076482465239 	 14.575458272465 	
H	 28.209917704499 	  4.892927125239 	  4.473034312465 	
H	 27.641373574499 	  4.892929935239 	 14.603591032465 	
H	 28.209886604499 	 11.076488885239 	  4.473031482465 	
H	 27.641342474499 	 11.076491695239 	 14.603588202465 	
H	  0.749142816232 	  1.809655451230 	  0.720660071997 	
H	  0.180598686232 	  1.809658261230 	 10.851216791997 	
H	  0.749111716232 	  7.993217211230 	  0.720657241997 	
H	  0.180567586232 	  7.993220021230 	 10.851213961997 	
H	 15.429970116232 	  1.809664681230 	  0.748790001997 	
H	 14.861425986232 	  1.809667491230 	 10.879346721997 	
H	 15.429939016232 	  7.993226441230 	  0.748787171997 	
H	 14.861394886232 	  7.993229251230 	 10.879343891997 	
H	  1.310951835797 	  0.779646705149 	  7.326807832946 	
H	  0.742407705797 	  0.779649515149 	 17.457364552946 	
H	  1.310920735797 	  6.963208465149 	  7.326805002946 	
H	  0.742376605797 	  6.963211275149 	 17.457361722946 	
H	 15.991779135797 	  0.779655935149 	  7.354937762946 	
H	 15.423235005797 	  0.779658745149 	 17.485494482946 	
H	 15.991748035797 	  6.963217695149 	  7.354934932946 	
H	 15.423203905797 	  6.963220505149 	 17.485491652946 	
H	 12.423543425230 	  3.862944101270 	  8.074478016276 	
H	 11.854999295230 	  3.862946911270 	 18.205034736276 	
H	 12.423512325230 	 10.046505861270 	  8.074475186276 	
H	 11.854968195230 	 10.046508671270 	 18.205031906276 	
H	 27.104370725230 	  3.862953331270 	  8.102607946276 	
H	 26.535826595230 	  3.862956141270 	 18.233164666276 	
H	 27.104339625230 	 10.046515091270 	  8.102605116276 	
H	 26.535795495230 	 10.046517901270 	 18.233161836276 	
H	 12.695427217924 	  5.387051931992 	  2.956616018323 	
H	 12.126883087924 	  5.387054741992 	 13.087172738323 	
H	 12.695396117924 	 11.570613691992 	  2.956613188323 	
H	 12.126851987924 	 11.570616501992 	 13.087169908323 	
H	 27.376254517924 	  5.387061161992 	  2.984745948323 	
H	 26.807710387924 	  5.387063971992 	 13.115302668323 	
H	 27.376223417924 	 11.570622921992 	  2.984743118323 	
H	 26.807679287924 	 11.570625731992 	 13.115299838323 	
H	  1.582835780881 	  2.303753929648 	  2.208946911775 	
H	  1.014291650881 	  2.303756739648 	 12.339503631775 	
H	  1.582804680881 	  8.487315689648 	  2.208944081775 	
H	  1.014260550881 	  8.487318499648 	 12.339500801775 	
H	 16.263663080881 	  2.303763159648 	  2.237076841775 	
H	 15.695118950881 	  2.303765969648 	 12.367633561775 	
H	 16.263631980881 	  8.487324919648 	  2.237074011775 	
H	 15.695087850881 	  8.487327729648 	 12.367630731775 	
H	  2.090026002578 	  0.593663066755 	  5.836457279835 	
H	  1.521481872578 	  0.593665876755 	 15.967013999835 	
H	  2.089994902578 	  6.777224826755 	  5.836454449835 	
H	  1.521450772578 	  6.777227636755 	 15.967011169835 	
H	 16.770853302578 	  0.593672296755 	  5.864587209835 	
H	 16.202309172578 	  0.593675106755 	 15.995143929835 	
H	 16.770822202578 	  6.777234056755 	  5.864584379835 	
H	 16.202278072578 	  6.777236866755 	 15.995141099835 	
H	 11.644457279623 	  3.676931327291 	  9.564825510225 	
H	 11.075913149623 	  3.676934137291 	 19.695382230225 	
H	 11.644426179623 	  9.860493087291 	  9.564822680225 	
H	 11.075882049623 	  9.860495897291 	 19.695379400225 	
H	 26.325284579623 	  3.676940557291 	  9.592955440225 	
H	 25.756740449623 	  3.676943367291 	 19.723512160225 	
H	 26.325253479623 	  9.860502317291 	  9.592952610225 	
H	 25.756709349623 	  9.860505127291 	 19.723509330225 	
H	 11.916352683500 	  5.573035917817 	  4.446967125858 	
H	 11.347808553500 	  5.573038727817 	 14.577523845858 	
H	 11.916321583500 	 11.756597677817 	  4.446964295858 	
H	 11.347777453500 	 11.756600487817 	 14.577521015858 	
H	 26.597179983500 	  5.573045147817 	  4.475097055858 	
H	 26.028635853500 	  5.573047957817 	 14.605653775858 	
H	 26.597148883500 	 11.756606907817 	  4.475094225858 	
H	 26.028604753500 	 11.756609717817 	 14.605650945858 	
H	  2.361921960783 	  2.489767140916 	  0.718599632876 	
H	  1.793377830783 	  2.489769950916 	 10.849156352876 	
H	  2.361890860783 	  8.673328900916 	  0.718596802876 	
H	  1.793346730783 	  8.673331710916 	 10.849153522876 	
H	 17.042749260783 	  2.489776370916 	  0.746729562876 	
H	 16.474205130783 	  2.489779180916 	 10.877286282876 	
H	 17.042718160783 	  8.673338130916 	  0.746726732876 	
H	 16.474174030783 	  8.673340940916 	 10.877283452876 	
768 
Energy: -7.5557437306889994e+01 
S	  8.639086620842 	  1.502663677750 	  0.063590425372 	
S	  8.070542490842 	  1.502666487750 	 10.194147145372 	
S	  8.639055520842 	  7.686225437750 	  0.063587595372 	
S	  8.070511390842 	  7.686228247750 	 10.194144315372 	
S	 23.319913920842 	  1.502672907750 	  0.091720355372 	
S	 22.751369790842 	  1.502675717750 	 10.222277075372 	
S	 23.319882820842 	  7.686234667750 	  0.091717525372 	
S	 22.751338690842 	  7.686237477750 	 10.222274245372 	
S	  5.579569635099 	  4.581660740457 	  5.138264808368 	
S	  5.011025505099 	  4.581663550457 	 15.268821528368 	
S	  5.579538535099 	 10.765222500457 	  5.138261978368 	
S	  5.010994405099 	 10.765225310457 	 15.268818698368 	
S	 20.260396935099 	  4.581669970457 	  5.166394738368 	
S	 19.691852805099 	  4.581672780457 	 15.296951458368 	
S	 20.260365835099 	 10.765231730457 	  5.166391908368 	
S	 19.691821705099 	 10.765234540457 	 15.296948628368 	
S	  5.313910478640 	  4.655525383727 	 10.282729455792 	
S	  4.745366348640 	  4.655528193727 	 20.413286175792 	
S	  5.313879378640 	 10.839087143727 	 10.282726625792 	
S	  4.745335248640 	 10.839089953727 	 20.413283345792 	
S	 19.994737778640 	  4.655534613727 	 10.310859385792 	
S	 19.426193648640 	  4.655537423727 	 20.441416105792 	
S	 19.994706678640 	 10.839096373727 	 10.310856555792 	
S	 19.426162548640 	 10.839099183727 	 20.441413275792 	
S	  8.373428090348 	  1.576528827895 	  5.208055153955 	
S	  7.804883960348 	  1.576531637895 	 15.338611873955 	
S	  8.373396990348 	  7.760090587895 	  5.208052323955 	
S	  7.804852860348 	  7.760093397895 	 15.338609043955 	
S	 23.054255390348 	  1.576538057895 	  5.236185083955 	
S	 22.485711260348 	  1.576540867895 	 15.366741803955 	
S	 23.054224290348 	  7.760099817895 	  5.236182253955 	
S	 22.485680160348 	  7.760102627895 	 15.366738973955 	
C	  6.721568066145 	  2.505723944746 	  9.949082538800 	
C	  6.153023936145 	  2.505726754746 	 20.079639258800 	
C	  6.721536966145 	  8.689285704746 	  9.949079708800 	
C	  6.152992836145 	  8.689288514746 	 20.079636428800 	
C	 21.402395366145 	  2.505733174746 	  9.977212468800 	
C	 20.833851236145 	  2.505735984746 	 20.107769188800 	
C	 21.402364266145 	  8.689294934746 	  9.977209638800 	
C	 20.833820136145 	  8.689297744746 	 20.107766358800 	
C	  6.965552950021 	  5.583665049178 	  5.543060677854 	
C	  6.397008820021 	  5.583667859178 	 15.673617397854 	
C	  6.965521850021 	 11.767226809178 	  5.543057847854 	
C	  6.396977720021 	 11.767229619178 	 15.673614567854 	
C	 21.646380250021 	  5.583674279178 	  5.571190607854 	
C	 21.077836120021 	  5.583677089178 	 15.701747327854 	
C	 21.646349150021 	 11.767236039178 	  5.571187777854 	
C	 21.077805020021 	 11.767238849178 	 15.701744497854 	
C	  7.231429041470 	  3.652465072516 	  0.397237289129 	
C	  6.662884911470 	  3.652467882516 	 10.527794009129 	
C	  7.231397941470 	  9.836026832516 	  0.397234459129 	
C	  6.662853811470 	  9.836029642516 	 10.527791179129 	
C	 21.912256341470 	  3.652474302516 	  0.425367219129 	
C	 21.343712211470 	  3.652477112516 	 10.555923939129 	
C	 21.912225241470 	  9.836036062516 	  0.425364389129 	
C	 21.343681111470 	  9.836038872516 	 10.555921109129 	
C	  6.987444632670 	  0.574524623646 	  4.803259226721 	
C	  6.418900502670 	  0.574527433646 	 14.933815946721 	
C	  6.987413532670 	  6.758086383646 	  4.803256396721 	
C	  6.418869402670 	  6.758089193646 	 14.933813116721 	
C	 21.668271932670 	  0.574533853646 	  4.831389156721 	
C	 21.099727802670 	  0.574536663646 	 14.961945876721 	
C	 21.668240832670 	  6.758095613646 	  4.831386326721 	
C	 21.099696702670 	  6.758098423646 	 14.961943046721 	
C	  5.653050914480 	  2.345703917532 	  9.021615852078 	
C	  5.084506784480 	  2.345706727532 	 19.152172572078 	
C	  5.653019814480 	  8.529265677532 	  9.021613022078 	
C	  5.084475684480 	  8.529268487532 	 19.152169742078 	
C	 20.333878214480 	  2.345713147532 	  9.049745782078 	
C	 19.765334084480 	  2.345715957532 	 19.180302502078 	
C	 20.333847114480 	  8.529274907532 	  9.049742952078 	
C	 19.765302984480 	  8.529277717532 	 19.180299672078 	
C	  8.032695158339 	  5.423288458390 	  6.469253829130 	
C	  7.464151028339 	  5.423291268390 	 16.599810549130 	
C	  8.032664058339 	 11.606850218390 	  6.469250999130 	
C	  7.464119928339 	 11.606853028390 	 16.599807719130 	
C	 22.713522458339 	  5.423297688390 	  6.497383759130 	
C	 22.144978328339 	  5.423300498390 	 16.627940479130 	
C	 22.713491358339 	 11.606859448390 	  6.497380929130 	
C	 22.144947228339 	 11.606862258390 	 16.627937649130 	
C	  8.299946079572 	  3.812485157788 	  1.324703893465 	
C	  7.731401949572 	  3.812487967788 	 11.455260613465 	
C	  8.299914979572 	  9.996046917788 	  1.324701063465 	
C	  7.731370849572 	  9.996049727788 	 11.455257783465 	
C	 22.980773379572 	  3.812494387788 	  1.352833823465 	
C	 22.412229249572 	  3.812497197788 	 11.483390543465 	
C	 22.980742279572 	  9.996056147788 	  1.352830993465 	
C	 22.412198149572 	  9.996058957788 	 11.483387713465 	
C	  5.920302345594 	  0.734901189664 	  3.877066084202 	
C	  5.351758215594 	  0.734903999664 	 14.007622804202 	
C	  5.920271245594 	  6.918462949664 	  3.877063254202 	
C	  5.351727115594 	  6.918465759664 	 14.007619974202 	
C	 20.601129645594 	  0.734910419664 	  3.905196014202 	
C	 20.032585515594 	  0.734913229664 	 14.035752734202 	
C	 20.601098545594 	  6.918472179664 	  3.905193184202 	
C	 20.032554415594 	  6.918474989664 	 14.035749904202 	
C	  4.776398447145 	  3.451786137861 	  9.087524910481 	
C	  4.207854317145 	  3.451788947861 	 19.218081630481 	
C	  4.776367347145 	  9.635347897861 	  9.087522080481 	
C	  4.207823217145 	  9.635350707861 	 19.218078800481 	
C	 19.457225747145 	  3.451795367861 	  9.115654840481 	
C	 18.888681617145 	  3.451798177861 	 19.246211560481 	
C	 19.457194647145 	  9.635357127861 	  9.115652010481 	
C	 18.888650517145 	  9.635359937861 	 19.246208730481 	
C	  8.912485045871 	  0.374237589920 	  6.403036788291 	
C	  8.343940915871 	  0.374240399920 	 16.533593508291 	
C	  8.912453945871 	  6.557799349920 	  6.403033958291 	
C	  8.343909815871 	  6.557802159920 	 16.533590678291 	
C	 23.593312345871 	  0.374246819920 	  6.431166718291 	
C	 23.024768215871 	  0.374249629920 	 16.561723438291 	
C	 23.593281245871 	  6.557808579920 	  6.431163888291 	
C	 23.024737115871 	  6.557811389920 	 16.561720608291 	
C	  9.176598542580 	  2.706402969963 	  1.258794909984 	
C	  8.608054412580 	  2.706405779963 	 11.389351629984 	
C	  9.176567442580 	  8.889964729963 	  1.258792079984 	
C	  8.608023312580 	  8.889967539963 	 11.389348799984 	
C	 23.857425842580 	  2.706412199963 	  1.286924839984 	
C	 23.288881712580 	  2.706415009963 	 11.417481559984 	
C	 23.857394742580 	  8.889973959963 	  1.286922009984 	
C	 23.288850612580 	  8.889976769963 	 11.417478729984 	
C	  5.040512495036 	  5.783952011455 	  3.943283187805 	
C	  4.471968365036 	  5.783954821455 	 14.073839907805 	
C	  5.040481395036 	 11.967513771455 	  3.943280357805 	
C	  4.471937265036 	 11.967516581455 	 14.073837077805 	
C	 19.721339795036 	  5.783961241455 	  3.971413117805 	
C	 19.152795665036 	  5.783964051455 	 14.101969837805 	
C	 19.721308695036 	 11.967523001455 	  3.971410287805 	
C	 19.152764565036 	 11.967525811455 	 14.101967007805 	
C	  3.650730156592 	  3.512915588211 	  8.308093327021 	
C	  3.082186026592 	  3.512918398211 	 18.438650047021 	
C	  3.650699056592 	  9.696477348211 	  8.308090497021 	
C	  3.082154926592 	  9.696480158211 	 18.438647217021 	
C	 18.331557456592 	  3.512924818211 	  8.336223257021 	
C	 17.763013326592 	  3.512927628211 	 18.466779977021 	
C	 18.331526356592 	  9.696486578211 	  8.336220427021 	
C	 17.762982226592 	  9.696489388211 	 18.466777147021 	
C	 10.035943940477 	  0.435136742875 	  7.180987532499 	
C	  9.467399810477 	  0.435139552875 	 17.311544252499 	
C	 10.035912840477 	  6.618698502875 	  7.180984702499 	
C	  9.467368710477 	  6.618701312875 	 17.311541422499 	
C	 24.716771240477 	  0.435145972875 	  7.209117462499 	
C	 24.148227110477 	  0.435148782875 	 17.339674182499 	
C	 24.716740140477 	  6.618707732875 	  7.209114632499 	
C	 24.148196010477 	  6.618710542875 	 17.339671352499 	
C	 10.302266829275 	  2.645273607388 	  2.038226631357 	
C	  9.733722699275 	  2.645276417388 	 12.168783351357 	
C	 10.302235729275 	  8.828835367388 	  2.038223801357 	
C	  9.733691599275 	  8.828838177388 	 12.168780521357 	
C	 24.983094129275 	  2.645282837388 	  2.066356561357 	
C	 24.414549999275 	  2.645285647388 	 12.196913281357 	
C	 24.983063029275 	  8.828844597388 	  2.066353731357 	
C	 24.414518899275 	  8.828847407388 	 12.196910451357 	
C	  3.917053449389 	  5.723052859124 	  3.165332608915 	
C	  3.348509319389 	  5.723055669124 	 13.295889328915 	
C	  3.917022349389 	 11.906614619124 	  3.165329778915 	
C	  3.348478219389 	 11.906617429124 	 13.295886498915 	
C	 18.597880749389 	  5.723062089124 	  3.193462538915 	
C	 18.029336619389 	  5.723064899124 	 13.324019258915 	
C	 18.597849649389 	 11.906623849124 	  3.193459708915 	
C	 18.029305519389 	 11.906626659124 	 13.324016428915 	
H	  2.982254221904 	  4.419961190049 	  8.391365628980 	
H	  2.413710091904 	  4.419964000049 	 18.521922348980 	
H	  2.982223121904 	 10.603522950049 	  8.391362798980 	
H	  2.413678991904 	 10.603525760049 	 18.521919518980 	
H	 17.663081521904 	  4.419970420049 	  8.419495558980 	
H	 17.094537391904 	  4.419973230049 	 18.550052278980 	
H	 17.663050421904 	 10.603532180049 	  8.419492728980 	
H	 17.094506291904 	 10.603534990049 	 18.550049448980 	
H	 10.705103725387 	  1.341128850726 	  7.099236653715 	
H	 10.136559595387 	  1.341131660726 	 17.229793373715 	
H	 10.705072625387 	  7.524690610726 	  7.099233823715 	
H	 10.136528495387 	  7.524693420726 	 17.229790543715 	
H	 25.385931025387 	  1.341138080726 	  7.127366583715 	
H	 24.817386895387 	  1.341140890726 	 17.257923303715 	
H	 25.385899925387 	  7.524699840726 	  7.127363753715 	
H	 24.817355795387 	  7.524702650726 	 17.257920473715 	
H	 10.970742734934 	  1.738227984291 	  1.954954337016 	
H	 10.402198604934 	  1.738230794291 	 12.085511057016 	
H	 10.970711634934 	  7.921789744291 	  1.954951507016 	
H	 10.402167504934 	  7.921792554291 	 12.085508227016 	
H	 25.651570034934 	  1.738237214291 	  1.983084267016 	
H	 25.083025904934 	  1.738240024291 	 12.113640987016 	
H	 25.651538934934 	  7.921798974291 	  1.983081437016 	
H	 25.082994804934 	  7.921801784291 	 12.113638157016 	
H	  3.247893796093 	  4.817060664933 	  3.247083553818 	
H	  2.679349666093 	  4.817063474933 	 13.377640273818 	
H	  3.247862696093 	 11.000622424933 	  3.247080723818 	
H	  2.679318566093 	 11.000625234933 	 13.377637443818 	
H	 17.928721096093 	  4.817069894933 	  3.275213483818 	
H	 17.360176966093 	  4.817072704933 	 13.405770203818 	
H	 17.928689996093 	 11.000631654933 	  3.275210653818 	
H	 17.360145866093 	 11.000634464933 	 13.405767373818 	
C	  3.323886691867 	  2.497440836575 	  7.433196525380 	
C	  2.755342561867 	  2.497443646575 	 17.563753245380 	
C	  3.323855591867 	  8.681002596575 	  7.433193695380 	
C	  2.755311461867 	  8.681005406575 	 17.563750415380 	
C	 18.004713991867 	  2.497450066575 	  7.461326455380 	
C	 17.436169861867 	  2.497452876575 	 17.591883175380 	
C	 18.004682891867 	  8.681011826575 	  7.461323625380 	
C	 17.436138761867 	  8.681014636575 	 17.591880345380 	
C	 10.363928528285 	  5.575061360272 	  8.059177122950 	
C	  9.795384398285 	  5.575064170272 	 18.189733842950 	
C	 10.363897428285 	 11.758623120272 	  8.059174292950 	
C	  9.795353298285 	 11.758625930272 	 18.189731012950 	
C	 25.044755828285 	  5.575070590272 	  8.087307052950 	
C	 24.476211698285 	  5.575073400272 	 18.217863772950 	
C	 25.044724728285 	 11.758632350272 	  8.087304222950 	
C	 24.476180598285 	 11.758635160272 	 18.217860942950 	
C	 10.629110151472 	  3.660748365008 	  2.913123337951 	
C	 10.060566021472 	  3.660751175008 	 13.043680057951 	
C	 10.629079051472 	  9.844310125008 	  2.913120507951 	
C	 10.060534921472 	  9.844312935008 	 13.043677227951 	
C	 25.309937451472 	  3.660757595008 	  2.941253267951 	
C	 24.741393321472 	  3.660760405008 	 13.071809987951 	
C	 25.309906351472 	  9.844319355008 	  2.941250437951 	
C	 24.741362221472 	  9.844322165008 	 13.071807157951 	
C	  3.589068813172 	  0.583128220264 	  2.287143035269 	
C	  3.020524683172 	  0.583131030264 	 12.417699755269 	
C	  3.589037713172 	  6.766689980264 	  2.287140205269 	
C	  3.020493583172 	  6.766692790264 	 12.417696925269 	
C	 18.269896113172 	  0.583137450264 	  2.315272965269 	
C	 17.701351983172 	  0.583140260264 	 12.445829685269 	
C	 18.269865013172 	  6.766699210264 	  2.315270135269 	
C	 17.701320883172 	  6.766702020264 	 12.445826855269 	
C	  4.218455450522 	  1.429763553757 	  7.354719266054 	
C	  3.649911320522 	  1.429766363757 	 17.485275986054 	
C	  4.218424350522 	  7.613325313757 	  7.354716436054 	
C	  3.649880220522 	  7.613328123757 	 17.485273156054 	
C	 18.899282750522 	  1.429772783757 	  7.382849196054 	
C	 18.330738620522 	  1.429775593757 	 17.513405916054 	
C	 18.899251650522 	  7.613334543757 	  7.382846366054 	
C	 18.330707520522 	  7.613337353757 	 17.513403086054 	
C	  9.468858153603 	  4.508800158838 	  8.136027816517 	
C	  8.900314023603 	  4.508802968838 	 18.266584536517 	
C	  9.468827053603 	 10.692361918838 	  8.136024986517 	
C	  8.900282923603 	 10.692364728838 	 18.266581706517 	
C	 24.149685453603 	  4.508809388838 	  8.164157746517 	
C	 23.581141323603 	  4.508812198838 	 18.294714466517 	
C	 24.149654353603 	 10.692371148838 	  8.164154916517 	
C	 23.581110223603 	 10.692373958838 	 18.294711636517 	
C	  9.734541330286 	  4.728425606871 	  2.991600624771 	
C	  9.165997200286 	  4.728428416871 	 13.122157344771 	
C	  9.734510230286 	 10.911987366871 	  2.991597794771 	
C	  9.165966100286 	 10.911990176871 	 13.122154514771 	
C	 24.415368630286 	  4.728434836871 	  3.019730554771 	
C	 23.846824500286 	  4.728437646871 	 13.150287274771 	
C	 24.415337530286 	 10.911996596871 	  3.019727724771 	
C	 23.846793400286 	 10.911999406871 	 13.150284444771 	
C	  4.484139080650 	  1.649389394833 	  2.210292225644 	
C	  3.915594950650 	  1.649392204833 	 12.340848945644 	
C	  4.484107980650 	  7.832951154833 	  2.210289395644 	
C	  3.915563850650 	  7.832953964833 	 12.340846115644 	
C	 19.164966380650 	  1.649398624833 	  2.238422155644 	
C	 18.596422250650 	  1.649401434833 	 12.368978875644 	
C	 19.164935280650 	  7.832960384833 	  2.238419325644 	
C	 18.596391150650 	  7.832963194833 	 12.368976045644 	
H	  4.008551298689 	  0.590868343968 	  6.629062364320 	
H	  3.440007168689 	  0.590871153968 	 16.759619084320 	
H	  4.008520198689 	  6.774430103968 	  6.629059534320 	
H	  3.439976068689 	  6.774432913968 	 16.759616254320 	
H	 18.689378598689 	  0.590877573968 	  6.657192294320 	
H	 18.120834468689 	  0.590880383968 	 16.787749014320 	
H	 18.689347498689 	  6.774439333968 	  6.657189464320 	
H	 18.120803368689 	  6.774442143968 	 16.787746184320 	
H	  9.678775259862 	  3.669940149344 	  8.861644953987 	
H	  9.110231129862 	  3.669942959344 	 18.992201673987 	
H	  9.678744159862 	  9.853501909344 	  8.861642123987 	
H	  9.110200029862 	  9.853504719344 	 18.992198843987 	
H	 24.359602559862 	  3.669949379344 	  8.889774883987 	
H	 23.791058429862 	  3.669952189344 	 19.020331603987 	
H	 24.359571459862 	  9.853511139344 	  8.889772053987 	
H	 23.791027329862 	  9.853513949344 	 19.020328773987 	
H	  9.944445514468 	  5.567320842433 	  3.717257494608 	
H	  9.375901384468 	  5.567323652433 	 13.847814214608 	
H	  9.944414414468 	 11.750882602433 	  3.717254664608 	
H	  9.375870284468 	 11.750885412433 	 13.847811384608 	
H	 24.625272814468 	  5.567330072433 	  3.745387424608 	
H	 24.056728684468 	  5.567332882433 	 13.875944144608 	
H	 24.625241714468 	 11.750891832433 	  3.745384594608 	
H	 24.056697584468 	 11.750894642433 	 13.875941314608 	
H	  4.274221857177 	  2.488249447841 	  1.484675173253 	
H	  3.705677727177 	  2.488252257841 	 11.615231893253 	
H	  4.274190757177 	  8.671811207841 	  1.484672343253 	
H	  3.705646627177 	  8.671814017841 	 11.615229063253 	
H	 18.955049157177 	  2.488258677841 	  1.512805103253 	
H	 18.386505027177 	  2.488261487841 	 11.643361823253 	
H	 18.955018057177 	  8.671820437841 	  1.512802273253 	
H	 18.386473927177 	  8.671823247841 	 11.643358993253 	
C	  5.337453496774 	  1.348547212309 	  8.108483235637 	
C	  4.768909366774 	  1.348550022309 	 18.239039955637 	
C	  5.337422396774 	  7.532108972309 	  8.108480405637 	
C	  4.768878266774 	  7.532111782309 	 18.239037125637 	
C	 20.018280796774 	  1.348556442309 	  8.136613165637 	
C	 19.449736666774 	  1.348559252309 	 18.267169885637 	
C	 20.018249696774 	  7.532118202309 	  8.136610335637 	
C	 19.449705566774 	  7.532121012309 	 18.267167055637 	
C	  8.349837212522 	  4.427583710174 	  7.382243879656 	
C	  7.781293082522 	  4.427586520174 	 17.512800599656 	
C	  8.349806112522 	 10.611145470174 	  7.382241049656 	
C	  7.781261982522 	 10.611148280174 	 17.512797769656 	
C	 23.030664512522 	  4.427592940174 	  7.410373809656 	
C	 22.462120382522 	  4.427595750174 	 17.540930529656 	
C	 23.030633412522 	 10.611154700174 	  7.410370979656 	
C	 22.462089282522 	 10.611157510174 	 17.540927699656 	
C	  8.615543384368 	  4.809641901589 	  2.237836503180 	
C	  8.046999254368 	  4.809644711589 	 12.368393223180 	
C	  8.615512284368 	 10.993203661589 	  2.237833673180 	
C	  8.046968154368 	 10.993206471589 	 12.368390393180 	
C	 23.296370684368 	  4.809651131589 	  2.265966433180 	
C	 22.727826554368 	  4.809653941589 	 12.396523153180 	
C	 23.296339584368 	 10.993212891589 	  2.265963603180 	
C	 22.727795454368 	 10.993215701589 	 12.396520323180 	
C	  5.603160156407 	  1.730605920867 	  2.964076095570 	
C	  5.034616026407 	  1.730608730867 	 13.094632815570 	
C	  5.603129056407 	  7.914167680867 	  2.964073265570 	
C	  5.034584926407 	  7.914170490867 	 13.094629985570 	
C	 20.283987456407 	  1.730615150867 	  2.992206025570 	
C	 19.715443326407 	  1.730617960867 	 13.122762745570 	
C	 20.283956356407 	  7.914176910867 	  2.992203195570 	
C	 19.715412226407 	  7.914179720867 	 13.122759915570 	
H	  6.025777307392 	  0.458419071937 	  8.009367427696 	
H	  5.457233177392 	  0.458421881937 	 18.139924147696 	
H	  6.025746207392 	  6.641980831937 	  8.009364597696 	
H	  5.457202077392 	  6.641983641937 	 18.139921317696 	
H	 20.706604607392 	  0.458428301937 	  8.037497357696 	
H	 20.138060477392 	  0.458431111937 	 18.168054077696 	
H	 20.706573507392 	  6.641990061937 	  8.037494527696 	
H	 20.138029377392 	  6.641992871937 	 18.168051247696 	
H	  7.661537625268 	  3.537488801059 	  7.481349399261 	
H	  7.092993495268 	  3.537491611059 	 17.611906119261 	
H	  7.661506525268 	  9.721050561059 	  7.481346569261 	
H	  7.092962395268 	  9.721053371059 	 17.611903289261 	
H	 22.342364925268 	  3.537498031059 	  7.509479329261 	
H	 21.773820795268 	  3.537500841059 	 17.640036049261 	
H	 22.342333825268 	  9.721059791059 	  7.509476499261 	
H	 21.773789695268 	  9.721062601059 	 17.640033219261 	
H	  7.927219487624 	  5.699769982355 	  2.336952291691 	
H	  7.358675357624 	  5.699772792355 	 12.467509011691 	
H	  7.927188387624 	 11.883331742355 	  2.336949461691 	
H	  7.358644257624 	 11.883334552355 	 12.467506181691 	
H	 22.608046787624 	  5.699779212355 	  2.365082221691 	
H	 22.039502657624 	  5.699782022355 	 12.495638941691 	
H	 22.608015687624 	 11.883340972355 	  2.365079391691 	
H	 22.039471557624 	 11.883343782355 	 12.495636111691 	
H	  6.291459718163 	  2.620700846771 	  2.864970515644 	
H	  5.722915588163 	  2.620703656771 	 12.995527235644 	
H	  6.291428618163 	  8.804262606771 	  2.864967685644 	
H	  5.722884488163 	  8.804265416771 	 12.995524405644 	
H	 20.972287018163 	  2.620710076771 	  2.893100445644 	
H	 20.403742888163 	  2.620712886771 	 13.023657165644 	
H	 20.972255918163 	  8.804271836771 	  2.893097615644 	
H	 20.403711788163 	  8.804274646771 	 13.023654335644 	
C	  2.028864956423 	  2.554348469395 	  6.563012659009 	
C	  1.460320826423 	  2.554351279395 	 16.693569379009 	
C	  2.028833856423 	  8.737910229395 	  6.563009829009 	
C	  1.460289726423 	  8.737913039395 	 16.693566549009 	
C	 16.709692256423 	  2.554357699395 	  6.591142589009 	
C	 16.141148126423 	  2.554360509395 	 16.721699309009 	
C	 16.709661156423 	  8.737919459395 	  6.591139759009 	
C	 16.141117026423 	  8.737922269395 	 16.721696479009 	
C	 11.656825126242 	  5.632098006447 	  8.926776303353 	
C	 11.088280996242 	  5.632100816447 	 19.057333023353 	
C	 11.656794026242 	 11.815659766447 	  8.926773473353 	
C	 11.088249896242 	 11.815662576447 	 19.057330193353 	
C	 26.337652426242 	  5.632107236447 	  8.954906233353 	
C	 25.769108296242 	  5.632110046447 	 19.085462953353 	
C	 26.337621326242 	 11.815668996447 	  8.954903403353 	
C	 25.769077196242 	 11.815671806447 	 19.085460123353 	
C	 11.924131790049 	  3.603840922421 	  3.783307302731 	
C	 11.355587660049 	  3.603843732421 	 13.913864022731 	
C	 11.924100690049 	  9.787402682421 	  3.783304472731 	
C	 11.355556560049 	  9.787405492421 	 13.913861192731 	
C	 26.604959090049 	  3.603850152421 	  3.811437232731 	
C	 26.036414960049 	  3.603852962421 	 13.941993952731 	
C	 26.604927990049 	  9.787411912421 	  3.811434402731 	
C	 26.036383860049 	  9.787414722421 	 13.941991122731 	
C	  2.296172167628 	  0.526091486808 	  1.419543952135 	
C	  1.727628037628 	  0.526094296808 	 11.550100672135 	
C	  2.296141067628 	  6.709653246808 	  1.419541122135 	
C	  1.727596937628 	  6.709656056808 	 11.550097842135 	
C	 16.976999467628 	  0.526100716808 	  1.447673882135 	
C	 16.408455337628 	  0.526103526808 	 11.578230602135 	
C	 16.976968367628 	  6.709662476808 	  1.447671052135 	
C	 16.408424237628 	  6.709665286808 	 11.578227772135 	
C	  2.255990879967 	  2.909408619151 	  5.324532826874 	
C	  1.687446749967 	  2.909411429151 	 15.455089546874 	
C	  2.255959779967 	  9.092970379151 	  5.324529996874 	
C	  1.687415649967 	  9.092973189151 	 15.455086716874 	
C	 16.936818179967 	  2.909417849151 	  5.352662756874 	
C	 16.368274049967 	  2.909420659151 	 15.483219476874 	
C	 16.936787079967 	  9.092979609151 	  5.352659926874 	
C	 16.368242949967 	  9.092982419151 	 15.483216646874 	
C	 11.421073307495 	 -0.170779993268 	 10.178587577578 	
C	 10.852529177495 	 -0.170777183268 	 20.309144297578 	
C	 11.421042207495 	  6.012781766732 	 10.178584747578 	
C	 10.852498077495 	  6.012784576732 	 20.309141467578 	
C	 26.101900607495 	 -0.170770763268 	 10.206717507578 	
C	 25.533356477495 	 -0.170767953268 	 20.337274227578 	
C	 26.101869507495 	  6.012790996732 	 10.206714677578 	
C	 25.533325377495 	  6.012793806732 	 20.337271397578 	
C	 11.697005498472 	  3.248780679509 	  5.021787662184 	
C	 11.128461368472 	  3.248783489509 	 15.152344382184 	
C	 11.696974398472 	  9.432342439509 	  5.021784832184 	
C	 11.128430268472 	  9.432345249509 	 15.152341552184 	
C	 26.377832798472 	  3.248789909509 	  5.049917592184 	
C	 25.809288668472 	  3.248792719509 	 15.180474312184 	
C	 26.377801698472 	  9.432351669509 	  5.049914762184 	
C	 25.809257568472 	  9.432354479509 	 15.180471482184 	
C	  2.531923913472 	  6.328969734011 	  0.167732568406 	
C	  1.963379783472 	  6.328972544011 	 10.298289288406 	
C	  2.531892813472 	 12.512531494011 	  0.167729738406 	
C	  1.963348683472 	 12.512534304011 	 10.298286458406 	
C	 17.212751213472 	  6.328978964011 	  0.195862498406 	
C	 16.644207083472 	  6.328981774011 	 10.326419218406 	
C	 17.212720113472 	 12.512540724011 	  0.195859668406 	
C	 16.644175983472 	 12.512543534011 	 10.326416388406 	
H	  2.789669228316 	  3.804992536261 	  5.277388219674 	
H	  2.221125098316 	  3.804995346261 	 15.407944939674 	
H	  2.789638128316 	  9.988554296261 	  5.277385389674 	
H	  2.221093998316 	  9.988557106261 	 15.407942109674 	
H	 17.470496528316 	  3.805001766261 	  5.305518149674 	
H	 16.901952398316 	  3.805004576261 	 15.436074869674 	
H	 17.470465428316 	  9.988563526261 	  5.305515319674 	
H	 16.901921298316 	  9.988566336261 	 15.436072039674 	
H	 10.903241993300 	  0.722563322810 	 10.211922451788 	
H	 10.334697863300 	  0.722566132810 	 20.342479171788 	
H	 10.903210893300 	  6.906125082810 	 10.211919621788 	
H	 10.334666763300 	  6.906127892810 	 20.342476341788 	
H	 25.584069293300 	  0.722572552810 	 10.240052381788 	
H	 25.015525163300 	  0.722575362810 	 20.370609101788 	
H	 25.584038193300 	  6.906134312810 	 10.240049551788 	
H	 25.015494063300 	  6.906137122810 	 20.370606271788 	
H	 11.163327267274 	  2.353195893013 	  5.068932240397 	
H	 10.594783137274 	  2.353198703013 	 15.199488960397 	
H	 11.163296167274 	  8.536757653013 	  5.068929410397 	
H	 10.594752037274 	  8.536760463013 	 15.199486130397 	
H	 25.844154567274 	  2.353205123013 	  5.097062170397 	
H	 25.275610437274 	  2.353207933013 	 15.227618890397 	
H	 25.844123467274 	  8.536766883013 	  5.097059340397 	
H	 25.275579337274 	  8.536769693013 	 15.227616060397 	
H	  3.049755184935 	  5.435626478640 	  0.134397455597 	
H	  2.481211054935 	  5.435629288640 	 10.264954175597 	
H	  3.049724084935 	 11.619188238640 	  0.134394625597 	
H	  2.481179954935 	 11.619191048640 	 10.264951345597 	
H	 17.730582484935 	  5.435635708640 	  0.162527385597 	
H	 17.162038354935 	  5.435638518640 	 10.293084105597 	
H	 17.730551384935 	 11.619197468640 	  0.162524555597 	
H	 17.162007254935 	 11.619200278640 	 10.293081275597 	
H	  1.392797929279 	  3.013540664623 	  4.610943545535 	
H	  0.824253799279 	  3.013543474623 	 14.741500265535 	
H	  1.392766829279 	  9.197102424623 	  4.610940715535 	
H	  0.824222699279 	  9.197105234623 	 14.741497435535 	
H	 16.073625229279 	  3.013549894623 	  4.639073475535 	
H	 15.505081099279 	  3.013552704623 	 14.769630195535 	
H	 16.073594129279 	  9.197111654623 	  4.639070645535 	
H	 15.505049999279 	  9.197114464623 	 14.769627365535 	
H	 12.818680557928 	 -0.066118866876 	  0.585786997280 	
H	 12.250136427928 	 -0.066116056876 	 10.716343717280 	
H	 12.818649457928 	  6.117442893124 	  0.585784167280 	
H	 12.250105327928 	  6.117445703124 	 10.716340887280 	
H	 27.499507857928 	 -0.066109636876 	  0.613916927280 	
H	 26.930963727928 	 -0.066106826876 	 10.744473647280 	
H	 27.499476757928 	  6.117452123124 	  0.613914097280 	
H	 26.930932627928 	  6.117454933124 	 10.744470817280 	
H	 12.560198323824 	  3.144649105818 	  5.735376966216 	
H	 11.991654193824 	  3.144651915818 	 15.865933686216 	
H	 12.560167223824 	  9.328210865818 	  5.735374136216 	
H	 11.991623093824 	  9.328213675818 	 15.865930856216 	
H	 27.241025623824 	  3.144658335818 	  5.763506896216 	
H	 26.672481493824 	  3.144661145818 	 15.894063616216 	
H	 27.240994523824 	  9.328220095818 	  5.763504066216 	
H	 26.672450393824 	  9.328222905818 	 15.894060786216 	
H	  1.134316629946 	  6.224308648826 	  9.760533194986 	
H	  0.565772499946 	  6.224311458826 	 19.891089914986 	
H	  1.134285529946 	 12.407870408826 	  9.760530364986 	
H	  0.565741399946 	 12.407873218826 	 19.891087084986 	
H	 15.815143929946 	  6.224317878826 	  9.788663124986 	
H	 15.246599799946 	  6.224320688826 	 19.919219844986 	
H	 15.815112829946 	 12.407879638826 	  9.788660294986 	
H	 15.246568699946 	 12.407882448826 	 19.919217014986 	
H	  2.932950337332 	  2.271884988583 	  4.843901199178 	
H	  2.364406207332 	  2.271887798583 	 14.974457919178 	
H	  2.932919237332 	  8.455446748583 	  4.843898369178 	
H	  2.364375107332 	  8.455449558583 	 14.974455089178 	
H	 17.613777637332 	  2.271894218583 	  4.872031129178 	
H	 17.045233507332 	  2.271897028583 	 15.002587849178 	
H	 17.613746537332 	  8.455455978583 	  4.872028299178 	
H	 17.045202407332 	  8.455458788583 	 15.002585019178 	
H	 11.297194306323 	  5.356291951277 	  0.354413592212 	
H	 10.728650176323 	  5.356294761277 	 10.484970312212 	
H	 11.297163206323 	 11.539853711277 	  0.354410762212 	
H	 10.728619076323 	 11.539856521277 	 10.484967482212 	
H	 25.978021606323 	  5.356301181277 	  0.382543522212 	
H	 25.409477476323 	  5.356303991277 	 10.513100242212 	
H	 25.977990506323 	 11.539862941277 	  0.382540692212 	
H	 25.409446376323 	 11.539865751277 	 10.513097412212 	
H	 11.020045246338 	  3.886304711911 	  5.502419333697 	
H	 10.451501116338 	  3.886307521911 	 15.632976053697 	
H	 11.020014146338 	 10.069866471911 	  5.502416503697 	
H	 10.451470016338 	 10.069869281911 	 15.632973223697 	
H	 25.700872546338 	  3.886313941911 	  5.530549263697 	
H	 25.132328416338 	  3.886316751911 	 15.661105983697 	
H	 25.700841446338 	 10.069875701911 	  5.530546433697 	
H	 25.132297316338 	 10.069878511911 	 15.661103153697 	
H	  2.655802930147 	  0.801897888659 	  9.991906737859 	
H	  2.087258800147 	  0.801900698659 	 20.122463457859 	
H	  2.655771830147 	  6.985459648659 	  9.991903907859 	
H	  2.087227700147 	  6.985462458659 	 20.122460627859 	
H	 17.336630230147 	  0.801907118659 	 10.020036667859 	
H	 16.768086100147 	  0.801909928659 	 20.150593387859 	
H	 17.336599130147 	  6.985468878659 	 10.020033837859 	
H	 16.768055000147 	  6.985471688659 	 20.150590557859 	
C	  1.150976987227 	  3.395893425835 	  7.001036102641 	
C	  0.582432857227 	  3.395896235835 	 17.131592822641 	
C	  1.150945887227 	  9.579455185835 	  7.001033272641 	
C	  0.582401757227 	  9.579457995835 	 17.131589992641 	
C	 15.831804287227 	  3.395902655835 	  7.029166032641 	
C	 15.263260157227 	  3.395905465835 	 17.159722752641 	
C	 15.831773187227 	  9.579464415835 	  7.029163202641 	
C	 15.263229057227 	  9.579467225835 	 17.159719922641 	
C	 12.542193403614 	  0.322481095704 	  8.479103549514 	
C	 11.973649273614 	  0.322483905704 	 18.609660269514 	
C	 12.542162303614 	  6.506042855704 	  8.479100719514 	
C	 11.973618173614 	  6.506045665704 	 18.609657439514 	
C	 27.223020703614 	  0.322490325704 	  8.507233479514 	
C	 26.654476573614 	  0.322493135704 	 18.637790199514 	
C	 27.222989603614 	  6.506052085704 	  8.507230649514 	
C	 26.654445473614 	  6.506054895704 	 18.637787369514 	
C	 12.802020263338 	  2.762295699336 	  3.345283745446 	
C	 12.233476133338 	  2.762298509336 	 13.475840465446 	
C	 12.801989163338 	  8.945857459336 	  3.345280915446 	
C	 12.233445033338 	  8.945860269336 	 13.475837635446 	
C	 27.482847563338 	  2.762304929336 	  3.373413675446 	
C	 26.914303433338 	  2.762307739336 	 13.503970395446 	
C	 27.482816463338 	  8.945866689336 	  3.373410845446 	
C	 26.914272333338 	  8.945869499336 	 13.503967565446 	
C	  1.410803883699 	  5.835708116674 	  1.867216478954 	
C	  0.842259753699 	  5.835710926674 	 11.997773198954 	
C	  1.410772783699 	 12.019269876674 	  1.867213648954 	
C	  0.842228653699 	 12.019272686674 	 11.997770368954 	
C	 16.091631183699 	  5.835717346674 	  1.895346408954 	
C	 15.523087053699 	  5.835720156674 	 12.025903128954 	
C	 16.091600083699 	 12.019279106674 	  1.895343578954 	
C	 15.523055953699 	 12.019281916674 	 12.025900298954 	
H	  1.513889594176 	  4.403630632013 	  7.087258214178 	
H	  0.945345464176 	  4.403633442013 	 17.217814934178 	
H	  1.513858494176 	 10.587192392013 	  7.087255384178 	
H	  0.945314364176 	 10.587195202013 	 17.217812104178 	
H	 16.194716894176 	  4.403639862013 	  7.115388144178 	
H	 15.626172764176 	  4.403642672013 	 17.245944864178 	
H	 16.194685794176 	 10.587201622013 	  7.115385314178 	
H	 15.626141664176 	 10.587204432013 	 17.245942034178 	
H	 12.172347514433 	  1.326017496471 	  8.404193454654 	
H	 11.603803384433 	  1.326020306471 	 18.534750174654 	
H	 12.172316414433 	  7.509579256471 	  8.404190624654 	
H	 11.603772284433 	  7.509582066471 	 18.534747344654 	
H	 26.853174814433 	  1.326026726471 	  8.432323384654 	
H	 26.284630684433 	  1.326029536471 	 18.562880104654 	
H	 26.853143714433 	  7.509588486471 	  8.432320554654 	
H	 26.284599584433 	  7.509591296471 	 18.562877274654 	
H	 12.439107518456 	  1.754557991185 	  3.259061545156 	
H	 11.870563388456 	  1.754560801185 	 13.389618265156 	
H	 12.439076418456 	  7.938119751185 	  3.259058715156 	
H	 11.870532288456 	  7.938122561185 	 13.389615435156 	
H	 27.119934818456 	  1.754567221185 	  3.287191475156 	
H	 26.551390688456 	  1.754570031185 	 13.417748195156 	
H	 27.119903718456 	  7.938128981185 	  3.287188645156 	
H	 26.551359588456 	  7.938131791185 	 13.417745365156 	
H	  1.780649869401 	  4.832171809804 	  1.942126272212 	
H	  1.212105739401 	  4.832174619804 	 12.072682992212 	
H	  1.780618769401 	 11.015733569804 	  1.942123442212 	
H	  1.212074639401 	 11.015736379804 	 12.072680162212 	
H	 16.461477169401 	  4.832181039804 	  1.970256202212 	
H	 15.892933039401 	  4.832183849804 	 12.100812922212 	
H	 16.461446069401 	 11.015742799804 	  1.970253372212 	
H	 15.892901939401 	 11.015745609804 	 12.100810092212 	
H	  0.884107339349 	  3.230257456795 	  8.039103812109 	
H	  0.315563209349 	  3.230260266795 	 18.169660532109 	
H	  0.884076239349 	  9.413819216795 	  8.039100982109 	
H	  0.315532109349 	  9.413822026795 	 18.169657702109 	
H	 15.564934639349 	  3.230266686795 	  8.067233742109 	
H	 14.996390509349 	  3.230269496795 	 18.197790462109 	
H	 15.564903539349 	  9.413828446795 	  8.067230912109 	
H	 14.996359409349 	  9.413831256795 	 18.197787632109 	
H	 12.801376908775 	  6.305175405924 	  7.461127748325 	
H	 12.232832778775 	  6.305178215924 	 17.591684468325 	
H	 12.801345808775 	 12.488737165924 	  7.461124918325 	
H	 12.232801678775 	 12.488739975924 	 17.591681638325 	
H	 27.482204208775 	  6.305184635924 	  7.489257678325 	
H	 26.913660078775 	  6.305187445924 	 17.619814398325 	
H	 27.482173108775 	 12.488746395924 	  7.489254848325 	
H	 26.913628978775 	 12.488749205924 	 17.619811568325 	
H	 13.068890420728 	  2.927931916887 	  2.307215792239 	
H	 12.500346290728 	  2.927934726887 	 12.437772512239 	
H	 13.068859320728 	  9.111493676887 	  2.307212962239 	
H	 12.500315190728 	  9.111496486887 	 12.437769682239 	
H	 27.749717720728 	  2.927941146887 	  2.335345722239 	
H	 27.181173590728 	  2.927943956887 	 12.465902442239 	
H	 27.749686620728 	  9.111502906887 	  2.335342892239 	
H	 27.181142490728 	  9.111505716887 	 12.465899612239 	
H	  1.151620468220 	 -0.146986378127 	  2.885192490286 	
H	  0.583076338220 	 -0.146983568127 	 13.015749210286 	
H	  1.151589368220 	  6.036575381873 	  2.885189660286 	
H	  0.583045238220 	  6.036578191873 	 13.015746380286 	
H	 15.832447768220 	 -0.146977148127 	  2.913322420286 	
H	 15.263903638220 	 -0.146974338127 	 13.043879140286 	
H	 15.832416668220 	  6.036584611873 	  2.913319590286 	
H	 15.263872538220 	  6.036587421873 	 13.043876310286 	
H	  0.202456093016 	  3.447055704829 	  6.412355817308 	
H	 -0.366088036984 	  3.447058514829 	 16.542912537308 	
H	  0.202424993016 	  9.630617464829 	  6.412352987308 	
H	 -0.366119136984 	  9.630620274829 	 16.542909707308 	
H	 14.883283393016 	  3.447064934829 	  6.440485747308 	
H	 14.314739263016 	  3.447067744829 	 16.571042467308 	
H	 14.883252293016 	  9.630626694829 	  6.440482917308 	
H	 14.314708163016 	  9.630629504829 	 16.571039637308 	
H	 13.483768774496 	  6.524846527851 	  9.077595459111 	
H	 12.915224644496 	  6.524849337851 	 19.208152179111 	
H	 13.483737674496 	 12.708408287851 	  9.077592629111 	
H	 12.915193544496 	 12.708411097851 	 19.208149349111 	
H	 28.164596074496 	  6.524855757851 	  9.105725389111 	
H	 27.596051944496 	  6.524858567851 	 19.236282109111 	
H	 28.164564974496 	 12.708417517851 	  9.105722559111 	
H	 27.596020844496 	 12.708420327851 	 19.236279279111 	
H	 13.750540861536 	  2.711133466886 	  3.933964285472 	
H	 13.181996731536 	  2.711136276886 	 14.064521005472 	
H	 13.750509761536 	  8.894695226886 	  3.933961455472 	
H	 13.181965631536 	  8.894698036886 	 14.064518175472 	
H	 28.431368161536 	  2.711142696886 	  3.962094215472 	
H	 27.862824031536 	  2.711145506886 	 14.092650935472 	
H	 28.431337061536 	  8.894704456886 	  3.962091385472 	
H	 27.862792931536 	  8.894707266886 	 14.092648105472 	
H	  0.469228418084 	 -0.366657329956 	  1.268724733030 	
H	 -0.099315711916 	 -0.366654519956 	 11.399281453030 	
H	  0.469197318084 	  5.816904430044 	  1.268721903030 	
H	 -0.099346811916 	  5.816907240044 	 11.399278623030 	
H	 15.150055718084 	 -0.366648099956 	  1.296854663030 	
H	 14.581511588084 	 -0.366645289956 	 11.427411383030 	
H	 15.150024618084 	  5.816913660044 	  1.296851833030 	
H	 14.581480488084 	  5.816916470044 	 11.427408553030 	
C	  1.399890430843 	  1.422195683738 	  6.486563280694 	
C	  0.831346300843 	  1.422198493738 	 16.617120000694 	
C	  1.399859330843 	  7.605757443738 	  6.486560450694 	
C	  0.831315200843 	  7.605760253738 	 16.617117170694 	
C	 16.080717730843 	  1.422204913738 	  6.514693210694 	
C	 15.512173600844 	  1.422207723738 	 16.645249930694 	
C	 16.080686630843 	  7.605766673738 	  6.514690380694 	
C	 15.512142500843 	  7.605769483738 	 16.645247100694 	
C	 12.287496039864 	  4.501039327401 	  9.004098913967 	
C	 11.718951909864 	  4.501042137401 	 19.134655633967 	
C	 12.287464939864 	 10.684601087401 	  9.004096083967 	
C	 11.718920809864 	 10.684603897401 	 19.134652803967 	
C	 26.968323339864 	  4.501048557401 	  9.032228843967 	
C	 26.399779209864 	  4.501051367401 	 19.162785563967 	
C	 26.968292239864 	 10.684610317401 	  9.032226013967 	
C	 26.399748109864 	 10.684613127401 	 19.162782733967 	
C	 12.553106406344 	  4.735994488373 	  3.859756504256 	
C	 11.984562276344 	  4.735997298373 	 13.990313224256 	
C	 12.553075306344 	 10.919556248373 	  3.859753674256 	
C	 11.984531176344 	 10.919559058373 	 13.990310394256 	
C	 27.233933706344 	  4.736003718373 	  3.887886434256 	
C	 26.665389576344 	  4.736006528373 	 14.018443154256 	
C	 27.233902606344 	 10.919565478373 	  3.887883604256 	
C	 26.665358476344 	 10.919568288373 	 14.018440324256 	
C	  1.665501018261 	  1.657150059089 	  1.342221618891 	
C	  1.096956888261 	  1.657152869089 	 11.472778338891 	
C	  1.665469918261 	  7.840711819089 	  1.342218788891 	
C	  1.096925788261 	  7.840714629089 	 11.472775508891 	
C	 16.346328318261 	  1.657159289089 	  1.370351548891 	
C	 15.777784188261 	  1.657162099089 	 11.500908268891 	
C	 16.346297218261 	  7.840721049089 	  1.370348718891 	
C	 15.777753088261 	  7.840723859089 	 11.500905438891 	
H	  0.414209294799 	  1.394608783946 	  5.951698872857 	
H	 -0.154334835201 	  1.394611593946 	 16.082255592857 	
H	  0.414178194799 	  7.578170543946 	  5.951696042857 	
H	 -0.154365935201 	  7.578173353946 	 16.082252762857 	
H	 15.095036594799 	  1.394618013946 	  5.979828802857 	
H	 14.526492464799 	  1.394620823946 	 16.110385522857 	
H	 15.095005494799 	  7.578179773946 	  5.979825972857 	
H	 14.526461364799 	  7.578182583946 	 16.110382692857 	
H	 13.273201429243 	  4.473565204051 	  9.538971349427 	
H	 12.704657299243 	  4.473568014051 	 19.669528069427 	
H	 13.273170329243 	 10.657126964051 	  9.538968519427 	
H	 12.704626199243 	 10.657129774051 	 19.669525239427 	
H	 27.954028729243 	  4.473574434051 	  9.567101279427 	
H	 27.385484599243 	  4.473577244051 	 19.697657999427 	
H	 27.953997629243 	 10.657136194051 	  9.567098449427 	
H	 27.385453499243 	 10.657139004051 	 19.697655169427 	
H	 13.538787366093 	  4.763581344441 	  4.394620946436 	
H	 12.970243236093 	  4.763584154441 	 14.525177666436 	
H	 13.538756266093 	 10.947143104441 	  4.394618116436 	
H	 12.970212136093 	 10.947145914441 	 14.525174836436 	
H	 28.219614666093 	  4.763590574441 	  4.422750876436 	
H	 27.651070536093 	  4.763593384441 	 14.553307596436 	
H	 28.219583566093 	 10.947152334441 	  4.422748046436 	
H	 27.651039436093 	 10.947155144441 	 14.553304766436 	
H	  0.679795612262 	  1.684624103747 	  0.807349196795 	
H	  0.111251482262 	  1.684626913747 	 10.937905916795 	
H	  0.679764512262 	  7.868185863747 	  0.807346366795 	
H	  0.111220382262 	  7.868188673747 	 10.937903086795 	
H	 15.360622912262 	  1.684633333747 	  0.835479126795 	
H	 14.792078782262 	  1.684636143747 	 10.966035846795 	
H	 15.360591812262 	  7.868195093747 	  0.835476296795 	
H	 14.792047682262 	  7.868197903747 	 10.966033016795 	
H	  1.240195270422 	  1.000380168092 	  7.454383803016 	
H	  0.671651140422 	  1.000382978092 	 17.584940523016 	
H	  1.240164170422 	  7.183941928092 	  7.454380973016 	
H	  0.671620040422 	  7.183944738092 	 17.584937693016 	
H	 15.921022570422 	  1.000389398092 	  7.482513733016 	
H	 15.352478440422 	  1.000392208092 	 17.613070453016 	
H	 15.920991470422 	  7.183951158092 	  7.482510903016 	
H	 15.352447340422 	  7.183953968092 	 17.613067623016 	
H	 12.447152861673 	  4.079400432672 	  8.036278243278 	
H	 11.878608731673 	  4.079403242672 	 18.166834963278 	
H	 12.447121761673 	 10.262962192672 	  8.036275413278 	
H	 11.878577631673 	 10.262965002672 	 18.166832133278 	
H	 27.127980161673 	  4.079409662672 	  8.064408173278 	
H	 26.559436031673 	  4.079412472672 	 18.194964893278 	
H	 27.127949061673 	 10.262971422672 	  8.064405343278 	
H	 26.559404931673 	 10.262974232672 	 18.194962063278 	
H	 12.712801625402 	  5.157810124486 	  2.891935370273 	
H	 12.144257495402 	  5.157812934486 	 13.022492090273 	
H	 12.712770525402 	 11.341371884486 	  2.891932540273 	
H	 12.144226395402 	 11.341374694486 	 13.022489260273 	
H	 27.393628925402 	  5.157819354486 	  2.920065300273 	
H	 26.825084795402 	  5.157822164486 	 13.050622020273 	
H	 27.393597825402 	 11.341381114486 	  2.920062470273 	
H	 26.825053695402 	 11.341383924486 	 13.050619190273 	
H	  1.505844176337 	  2.078788693440 	  2.310042297361 	
H	  0.937300046337 	  2.078791503440 	 12.440599017361 	
H	  1.505813076337 	  8.262350453440 	  2.310039467361 	
H	  0.937268946337 	  8.262353263440 	 12.440596187361 	
H	 16.186671476337 	  2.078797923440 	  2.338172227361 	
H	 15.618127346337 	  2.078800733440 	 12.468728947361 	
H	 16.186640376337 	  8.262359683440 	  2.338169397361 	
H	 15.618096246337 	  8.262362493440 	 12.468726117361 	
H	  1.970632679552 	  0.657818920505 	  6.050304299538 	
H	  1.402088549552 	  0.657821730505 	 16.180861019538 	
H	  1.970601579552 	  6.841380680505 	  6.050301469538 	
H	  1.402057449552 	  6.841383490505 	 16.180858189538 	
H	 16.651459979552 	  0.657828150505 	  6.078434229538 	
H	 16.082915849552 	  0.657830960505 	 16.208990949538 	
H	 16.651428879552 	  6.841389910505 	  6.078431399538 	
H	 16.082884749552 	  6.841392720505 	 16.208988119538 	
H	 11.716700290853 	  3.736772173559 	  9.440367706722 	
H	 11.148156160853 	  3.736774983559 	 19.570924426722 	
H	 11.716669190853 	  9.920333933559 	  9.440364876722 	
H	 11.148125060853 	  9.920336743559 	 19.570921596722 	
H	 26.397527590853 	  3.736781403559 	  9.468497636722 	
H	 25.828983460853 	  3.736784213559 	 19.599054356722 	
H	 26.397496490853 	  9.920343163559 	  9.468494806722 	
H	 25.828952360853 	  9.920345973559 	 19.599051526722 	
H	 11.982363582120 	  5.500371517799 	  4.296016025543 	
H	 11.413819452120 	  5.500374327799 	 14.426572745543 	
H	 11.982332482120 	 11.683933277799 	  4.296013195543 	
H	 11.413788352120 	 11.683936087799 	 14.426569915543 	
H	 26.663190882120 	  5.500380747799 	  4.324145955543 	
H	 26.094646752120 	  5.500383557799 	 14.454702675543 	
H	 26.663159782120 	 11.683942507799 	  4.324143125543 	
H	 26.094615652120 	 11.683945317799 	 14.454699845543 	
H	  2.236296710888 	  2.421417377881 	  0.905953138101 	
H	  1.667752580888 	  2.421420187881 	 11.036509858101 	
H	  2.236265610888 	  8.604979137881 	  0.905950308101 	
H	  1.667721480888 	  8.604981947881 	 11.036507028101 	
H	 16.917124010888 	  2.421426607881 	  0.934083068101 	
H	 16.348579880888 	  2.421429417881 	 11.064639788101 	
H	 16.917092910888 	  8.604988367881 	  0.934080238101 	
H	 16.348548780888 	  8.604991177881 	 11.064636958101 	
768 
Energy: -6.8855399192540006e+01 
S	  8.593141780382 	  1.487697016362 	  0.072747602102 	
S	  8.024597650382 	  1.487699826362 	 10.203304322102 	
S	  8.593110680382 	  7.671258776362 	  0.072744772102 	
S	  8.024566550382 	  7.671261586362 	 10.203301492102 	
S	 23.273969080382 	  1.487706246362 	  0.100877532102 	
S	 22.705424950382 	  1.487709056362 	 10.231434252102 	
S	 23.273937980382 	  7.671268006362 	  0.100874702102 	
S	 22.705393850382 	  7.671270816362 	 10.231431422102 	
S	  5.565863485351 	  4.562443827171 	  5.165514202195 	
S	  4.997319355351 	  4.562446637171 	 15.296070922195 	
S	  5.565832385351 	 10.746005587171 	  5.165511372195 	
S	  4.997288255351 	 10.746008397171 	 15.296068092195 	
S	 20.246690785351 	  4.562453057171 	  5.193644132195 	
S	 19.678146655351 	  4.562455867171 	 15.324200852195 	
S	 20.246659685351 	 10.746014817171 	  5.193641302195 	
S	 19.678115555351 	 10.746017627171 	 15.324198022195 	
S	  5.306430855110 	  4.661976479060 	 10.336517637049 	
S	  4.737886725110 	  4.661979289060 	 20.467074357049 	
S	  5.306399755110 	 10.845538239060 	 10.336514807049 	
S	  4.737855625110 	 10.845541049060 	 20.467071527049 	
S	 19.987258155110 	  4.661985709060 	 10.364647567049 	
S	 19.418714025110 	  4.661988519060 	 20.495204287049 	
S	 19.987227055110 	 10.845547469060 	 10.364644737049 	
S	 19.418682925110 	 10.845550279060 	 20.495201457049 	
S	  8.333709892642 	  1.587230096626 	  5.243751042694 	
S	  7.765165762642 	  1.587232906626 	 15.374307762694 	
S	  8.333678792642 	  7.770791856626 	  5.243748212694 	
S	  7.765134662642 	  7.770794666626 	 15.374304932694 	
S	 23.014537192642 	  1.587239326626 	  5.271880972694 	
S	 22.445993062642 	  1.587242136626 	 15.402437692694 	
S	 23.014506092642 	  7.770801086626 	  5.271878142694 	
S	 22.445961962642 	  7.770803896626 	 15.402434862694 	
C	  6.698959665146 	  2.502406706407 	 10.005269506436 	
C	  6.130415535146 	  2.502409516407 	 20.135826226436 	
C	  6.698928565146 	  8.685968466407 	 10.005266676436 	
C	  6.130384435146 	  8.685971276407 	 20.135823396436 	
C	 21.379786965146 	  2.502415936407 	 10.033399436436 	
C	 20.811242835146 	  2.502418746407 	 20.163956156436 	
C	 21.379755865146 	  8.685977696407 	 10.033396606436 	
C	 20.811211735146 	  8.685980506407 	 20.163953326436 	
C	  6.940961375157 	  5.576068813798 	  5.576434803583 	
C	  6.372417245157 	  5.576071623798 	 15.706991523583 	
C	  6.940930275157 	 11.759630573798 	  5.576431973583 	
C	  6.372386145157 	 11.759633383798 	 15.706988693583 	
C	 21.621788675157 	  5.576078043798 	  5.604564733583 	
C	 21.053244545157 	  5.576080853798 	 15.735121453583 	
C	 21.621757575157 	 11.759639803798 	  5.604561903583 	
C	 21.053213445157 	 11.759642613798 	 15.735118623583 	
C	  7.200612978123 	  3.647266750296 	  0.403995659289 	
C	  6.632068848123 	  3.647269560296 	 10.534552379289 	
C	  7.200581878123 	  9.830828510296 	  0.403992829289 	
C	  6.632037748123 	  9.830831320296 	 10.534549549289 	
C	 21.881440278123 	  3.647275980296 	  0.432125589289 	
C	 21.312896148123 	  3.647278790296 	 10.562682309289 	
C	 21.881409178123 	  9.830837740296 	  0.432122759289 	
C	 21.312865048123 	  9.830840550296 	 10.562679479289 	
C	  6.958611860800 	  0.573605208544 	  4.832830364266 	
C	  6.390067730800 	  0.573608018544 	 14.963387084266 	
C	  6.958580760800 	  6.757166968544 	  4.832827534266 	
C	  6.390036630800 	  6.757169778544 	 14.963384254266 	
C	 21.639439160800 	  0.573614438544 	  4.860960294266 	
C	 21.070895030801 	  0.573617248544 	 14.991517014266 	
C	 21.639408060800 	  6.757176198544 	  4.860957464266 	
C	 21.070863930800 	  6.757179008544 	 14.991514184266 	
C	  5.635500791217 	  2.353512153314 	  9.070575055572 	
C	  5.066956661217 	  2.353514963314 	 19.201131775572 	
C	  5.635469691217 	  8.537073913314 	  9.070572225572 	
C	  5.066925561217 	  8.537076723314 	 19.201128945572 	
C	 20.316328091217 	  2.353521383314 	  9.098704985572 	
C	 19.747783961217 	  2.353524193314 	 19.229261705572 	
C	 20.316296991217 	  8.537083143314 	  9.098702155572 	
C	 19.747752861217 	  8.537085953314 	 19.229258875572 	
C	  8.002960743239 	  5.426718653729 	  6.509788244687 	
C	  7.434416613239 	  5.426721463729 	 16.640344964687 	
C	  8.002929643239 	 11.610280413729 	  6.509785414687 	
C	  7.434385513239 	 11.610283223729 	 16.640342134687 	
C	 22.683788043239 	  5.426727883729 	  6.537918174687 	
C	 22.115243913239 	  5.426730693729 	 16.668474894687 	
C	 22.683756943239 	 11.610289643729 	  6.537915344687 	
C	 22.115212813239 	 11.610292453729 	 16.668472064687 	
C	  8.264071752705 	  3.796161362551 	  1.338690037730 	
C	  7.695527622705 	  3.796164172551 	 11.469246757730 	
C	  8.264040652705 	  9.979723122551 	  1.338687207730 	
C	  7.695496522705 	  9.979725932551 	 11.469243927730 	
C	 22.944899052705 	  3.796170592551 	  1.366819967730 	
C	 22.376354922705 	  3.796173402551 	 11.497376687730 	
C	 22.944867952705 	  9.979732352551 	  1.366817137730 	
C	 22.376323822705 	  9.979735162551 	 11.497373857730 	
C	  5.896612387113 	  0.722955354052 	  3.899476970484 	
C	  5.328068257113 	  0.722958164052 	 14.030033690484 	
C	  5.896581287113 	  6.906517114052 	  3.899474140484 	
C	  5.328037157113 	  6.906519924052 	 14.030030860484 	
C	 20.577439687113 	  0.722964584052 	  3.927606900484 	
C	 20.008895557113 	  0.722967394052 	 14.058163620484 	
C	 20.577408587113 	  6.906526344052 	  3.927604070484 	
C	 20.008864457113 	  6.906529154052 	 14.058160790484 	
C	  4.767339316743 	  3.466134136810 	  9.134731010236 	
C	  4.198795186743 	  3.466136946810 	 19.265287730236 	
C	  4.767308216743 	  9.649695896810 	  9.134728180236 	
C	  4.198764086743 	  9.649698706810 	 19.265284900236 	
C	 19.448166616743 	  3.466143366810 	  9.162860940236 	
C	 18.879622486743 	  3.466146176810 	 19.293417660236 	
C	 19.448135516743 	  9.649705126810 	  9.162858110236 	
C	 18.879591386743 	  9.649707936810 	 19.293414830236 	
C	  8.874447816774 	  0.392965287586 	  6.445305894272 	
C	  8.305903686774 	  0.392968097586 	 16.575862614272 	
C	  8.874416716774 	  6.576527047586 	  6.445303064272 	
C	  8.305872586774 	  6.576529857586 	 16.575859784272 	
C	 23.555275116774 	  0.392974517586 	  6.473435824272 	
C	 22.986730986774 	  0.392977327586 	 16.603992544272 	
C	 23.555244016774 	  6.576536277586 	  6.473432994272 	
C	 22.986699886774 	  6.576539087586 	 16.603989714272 	
C	  9.132233222934 	  2.683539398898 	  1.274534148499 	
C	  8.563689092934 	  2.683542208898 	 11.405090868499 	
C	  9.132202122934 	  8.867101158898 	  1.274531318499 	
C	  8.563657992934 	  8.867103968898 	 11.405088038499 	
C	 23.813060522934 	  2.683548628898 	  1.302664078499 	
C	 23.244516392934 	  2.683551438898 	 11.433220798499 	
C	 23.813029422934 	  8.867110388898 	  1.302661248499 	
C	 23.244485292934 	  8.867113198898 	 11.433217968499 	
C	  5.025125363060 	  5.756708680586 	  3.963959403877 	
C	  4.456581233060 	  5.756711490586 	 14.094516123877 	
C	  5.025094263060 	 11.940270440586 	  3.963956573877 	
C	  4.456550133060 	 11.940273250586 	 14.094513293877 	
C	 19.705952663060 	  5.756717910586 	  3.992089333877 	
C	 19.137408533060 	  5.756720720586 	 14.122646053877 	
C	 19.705921563060 	 11.940279670586 	  3.992086503877 	
C	 19.137377433060 	 11.940282480586 	 14.122643223877 	
C	  3.648582056303 	  3.539988811840 	  8.347356201606 	
C	  3.080037926303 	  3.539991621840 	 18.477912921606 	
C	  3.648550956303 	  9.723550571840 	  8.347353371606 	
C	  3.080006826303 	  9.723553381840 	 18.477910091606 	
C	 18.329409356303 	  3.539998041840 	  8.375486131606 	
C	 17.760865226303 	  3.540000851840 	 18.506042851606 	
C	 18.329378256303 	  9.723559801840 	  8.375483301606 	
C	 17.760834126303 	  9.723562611840 	 18.506040021606 	
C	  9.990859086291 	  0.466507668485 	  7.231096274158 	
C	  9.422314956291 	  0.466510478485 	 17.361652994158 	
C	  9.990827986291 	  6.650069428485 	  7.231093444158 	
C	  9.422283856291 	  6.650072238485 	 17.361650164158 	
C	 24.671686386291 	  0.466516898485 	  7.259226204158 	
C	 24.103142256291 	  0.466519708485 	 17.389782924158 	
C	 24.671655286291 	  6.650078658485 	  7.259223374158 	
C	 24.103111156291 	  6.650081468485 	 17.389780094158 	
C	 10.250990476616 	  2.609684821800 	  2.061909104932 	
C	  9.682446346616 	  2.609687631800 	 12.192465824932 	
C	 10.250959376616 	  8.793246581800 	  2.061906274932 	
C	  9.682415246616 	  8.793249391800 	 12.192462994932 	
C	 24.931817776616 	  2.609694051800 	  2.090039034932 	
C	 24.363273646616 	  2.609696861800 	 12.220595754932 	
C	 24.931786676616 	  8.793255811800 	  2.090036204932 	
C	 24.363242546616 	  8.793258621800 	 12.220592924932 	
C	  3.908713887703 	  5.683166315101 	  3.178169245788 	
C	  3.340169757703 	  5.683169125101 	 13.308725965788 	
C	  3.908682787703 	 11.866728075101 	  3.178166415788 	
C	  3.340138657703 	 11.866730885101 	 13.308723135788 	
C	 18.589541187703 	  5.683175545101 	  3.206299175788 	
C	 18.020997057703 	  5.683178355101 	 13.336855895788 	
C	 18.589510087703 	 11.866737305101 	  3.206296345788 	
C	 18.020965957703 	 11.866740115101 	 13.336853065788 	
H	  2.987252154752 	  4.452201065835 	  8.429635654955 	
H	  2.418708024752 	  4.452203875835 	 18.560192374955 	
H	  2.987221054752 	 10.635762825835 	  8.429632824955 	
H	  2.418676924752 	 10.635765635835 	 18.560189544955 	
H	 17.668079454752 	  4.452210295835 	  8.457765584955 	
H	 17.099535324752 	  4.452213105835 	 18.588322304955 	
H	 17.668048354752 	 10.635772055835 	  8.457762754955 	
H	 17.099504224752 	 10.635774865835 	 18.588319474955 	
H	 10.652939097507 	  1.377692691272 	  7.150379103310 	
H	 10.084394967507 	  1.377695501272 	 17.280935823310 	
H	 10.652907997507 	  7.561254451272 	  7.150376273310 	
H	 10.084363867507 	  7.561257261272 	 17.280932993310 	
H	 25.333766397507 	  1.377701921272 	  7.178509033310 	
H	 24.765222267507 	  1.377704731272 	 17.309065753310 	
H	 25.333735297507 	  7.561263681272 	  7.178506203310 	
H	 24.765191167507 	  7.561266491272 	 17.309062923310 	
H	 10.912320340199 	  1.697472537586 	  1.979629698279 	
H	 10.343776210199 	  1.697475347586 	 12.110186418279 	
H	 10.912289240199 	  7.881034297586 	  1.979626868279 	
H	 10.343745110199 	  7.881037107586 	 12.110183588279 	
H	 25.593147640199 	  1.697481767586 	  2.007759628279 	
H	 25.024603510199 	  1.697484577586 	 12.138316348279 	
H	 25.593116540199 	  7.881043527586 	  2.007756798279 	
H	 25.024572410199 	  7.881046337586 	 12.138313518279 	
H	  3.246634008714 	  4.771981208706 	  3.258886503550 	
H	  2.678089878714 	  4.771984018706 	 13.389443223550 	
H	  3.246602908714 	 10.955542968706 	  3.258883673550 	
H	  2.678058778714 	 10.955545778706 	 13.389440393550 	
H	 17.927461308714 	  4.771990438706 	  3.287016433550 	
H	 17.358917178714 	  4.771993248706 	 13.417573153550 	
H	 17.927430208714 	 10.955552198706 	  3.287013603550 	
H	 17.358886078714 	 10.955555008706 	 13.417570323550 	
C	  3.321047675393 	  2.532168002215 	  7.464362019879 	
C	  2.752503545393 	  2.532170812215 	 17.594918739879 	
C	  3.321016575393 	  8.715729762215 	  7.464359189879 	
C	  2.752472445393 	  8.715732572215 	 17.594915909879 	
C	 18.001874975393 	  2.532177232215 	  7.492491949879 	
C	 17.433330845393 	  2.532180042215 	 17.623048669879 	
C	 18.001843875393 	  8.715738992215 	  7.492489119879 	
C	 17.433299745393 	  8.715741802215 	 17.623045839879 	
C	 10.319604427234 	  5.605461686771 	  8.117599304126 	
C	  9.751060297234 	  5.605464496771 	 18.248156024126 	
C	 10.319573327234 	 11.789023446771 	  8.117596474126 	
C	  9.751029197234 	 11.789026256771 	 18.248153194126 	
C	 25.000431727234 	  5.605470916771 	  8.145729234126 	
C	 24.431887597234 	  5.605473726771 	 18.276285954126 	
C	 25.000400627234 	 11.789032676771 	  8.145726404126 	
C	 24.431856497234 	 11.789035486771 	 18.276283124126 	
C	 10.578524718904 	  3.617505661359 	  2.944903162556 	
C	 10.009980588904 	  3.617508471359 	 13.075459882556 	
C	 10.578493618904 	  9.801067421359 	  2.944900332556 	
C	 10.009949488904 	  9.801070231359 	 13.075457052556 	
C	 25.259352018904 	  3.617514891359 	  2.973033092556 	
C	 24.690807888904 	  3.617517701359 	 13.103589812556 	
C	 25.259320918904 	  9.801076651359 	  2.973030262556 	
C	 24.690776788904 	  9.801079461359 	 13.103586982556 	
C	  3.579968434361 	  0.544212293235 	  2.291666271187 	
C	  3.011424304361 	  0.544215103235 	 12.422222991187 	
C	  3.579937334361 	  6.727774053235 	  2.291663441187 	
C	  3.011393204361 	  6.727776863235 	 12.422220161187 	
C	 18.260795734361 	  0.544221523235 	  2.319796201187 	
C	 17.692251604361 	  0.544224333235 	 12.450352921187 	
C	 18.260764634361 	  6.727783283235 	  2.319793371187 	
C	 17.692220504361 	  6.727786093235 	 12.450350091187 	
C	  4.206590157440 	  1.456784449221 	  7.389023514337 	
C	  3.638046027440 	  1.456787259221 	 17.519580234337 	
C	  4.206559057440 	  7.640346209221 	  7.389020684337 	
C	  3.638014927440 	  7.640349019221 	 17.519577404337 	
C	 18.887417457440 	  1.456793679221 	  7.417153444337 	
C	 18.318873327440 	  1.456796489221 	 17.547710164337 	
C	 18.887386357440 	  7.640355439221 	  7.417150614337 	
C	 18.318842227440 	  7.640358249221 	 17.547707334337 	
C	  9.433530185613 	  4.531564947736 	  8.191212504800 	
C	  8.864986055613 	  4.531567757736 	 18.321769224800 	
C	  9.433499085613 	 10.715126707736 	  8.191209674800 	
C	  8.864954955613 	 10.715129517736 	 18.321766394800 	
C	 24.114357485613 	  4.531574177736 	  8.219342434800 	
C	 23.545813355613 	  4.531576987736 	 18.349899154800 	
C	 24.114326385613 	 10.715135937736 	  8.219339604800 	
C	 23.545782255613 	 10.715138747736 	 18.349896324800 	
C	  9.692982200838 	  4.692889190885 	  3.020241665275 	
C	  9.124438070838 	  4.692892000885 	 13.150798385275 	
C	  9.692951100838 	 10.876450950885 	  3.020238835275 	
C	  9.124406970838 	 10.876453760885 	 13.150795555275 	
C	 24.373809500838 	  4.692898420885 	  3.048371595275 	
C	 23.805265370838 	  4.692901230885 	 13.178928315275 	
C	 24.373778400838 	 10.876460180885 	  3.048368765275 	
C	 23.805234270838 	 10.876462990885 	 13.178925485275 	
C	  4.466042584778 	  1.618108998741 	  2.218052915944 	
C	  3.897498454778 	  1.618111808741 	 12.348609635944 	
C	  4.466011484778 	  7.801670758741 	  2.218050085944 	
C	  3.897467354778 	  7.801673568741 	 12.348606805944 	
C	 19.146869884778 	  1.618118228741 	  2.246182845944 	
C	 18.578325754778 	  1.618121038741 	 12.376739565944 	
C	 19.146838784778 	  7.801679988741 	  2.246180015944 	
C	 18.578294654778 	  7.801682798741 	 12.376736735944 	
H	  3.996094772889 	  0.623384432289 	  6.657336422450 	
H	  3.427550642889 	  0.623387242289 	 16.787893142450 	
H	  3.996063672889 	  6.806946192289 	  6.657333592450 	
H	  3.427519542889 	  6.806949002289 	 16.787890312450 	
H	 18.676922072889 	  0.623393662289 	  6.685466352450 	
H	 18.108377942889 	  0.623396472289 	 16.816023072450 	
H	 18.676890972889 	  6.806955422289 	  6.685463522450 	
H	 18.108346842889 	  6.806958232289 	 16.816020242450 	
H	  9.644033573207 	  3.698194144726 	  8.922855452898 	
H	  9.075489443207 	  3.698196954726 	 19.053412172898 	
H	  9.644002473207 	  9.881755904726 	  8.922852622898 	
H	  9.075458343207 	  9.881758714726 	 19.053409342898 	
H	 24.324860873207 	  3.698203374726 	  8.950985382898 	
H	 23.756316743207 	  3.698206184726 	 19.081542102898 	
H	 24.324829773207 	  9.881765134726 	  8.950982552898 	
H	 23.756285643207 	  9.881767944726 	 19.081539272898 	
H	  9.903477634927 	  5.526289258334 	  3.751928691486 	
H	  9.334933504927 	  5.526292068334 	 13.882485411486 	
H	  9.903446534927 	 11.709851018334 	  3.751925861486 	
H	  9.334902404927 	 11.709853828334 	 13.882482581486 	
H	 24.584304934927 	  5.526298488334 	  3.780058621486 	
H	 24.015760804927 	  5.526301298334 	 13.910615341486 	
H	 24.584273834927 	 11.709860248334 	  3.780055791486 	
H	 24.015729704927 	 11.709863058334 	 13.910612511486 	
H	  4.255539038270 	  2.451479859165 	  1.486410080452 	
H	  3.686994908270 	  2.451482669165 	 11.616966800452 	
H	  4.255507938270 	  8.635041619165 	  1.486407250452 	
H	  3.686963808270 	  8.635044429165 	 11.616963970452 	
H	 18.936366338270 	  2.451489089165 	  1.514540010452 	
H	 18.367822208270 	  2.451491899165 	 11.645096730452 	
H	 18.936335238270 	  8.635050849165 	  1.514537180452 	
H	 18.367791108270 	  8.635053659165 	 11.645093900452 	
C	  5.318293304154 	  1.362560486232 	  8.151154229772 	
C	  4.749749174154 	  1.362563296232 	 18.281710949772 	
C	  5.318262204154 	  7.546122246232 	  8.151151399772 	
C	  4.749718074154 	  7.546125056232 	 18.281708119772 	
C	 19.999120604154 	  1.362569716232 	  8.179284159772 	
C	 19.430576474154 	  1.362572526232 	 18.309840879772 	
C	 19.999089504154 	  7.546131476232 	  8.179281329772 	
C	 19.430545374154 	  7.546134286232 	 18.309838049772 	
C	  8.321800144874 	  4.437340800617 	  7.429062844705 	
C	  7.753256014874 	  4.437343610617 	 17.559619564705 	
C	  8.321769044874 	 10.620902560617 	  7.429060014705 	
C	  7.753224914874 	 10.620905370617 	 17.559616734705 	
C	 23.002627444874 	  4.437350030617 	  7.457192774705 	
C	 22.434083314874 	  4.437352840617 	 17.587749494705 	
C	 23.002596344874 	 10.620911790617 	  7.457189944705 	
C	 22.434052214874 	 10.620914600617 	 17.587746664705 	
C	  8.581279142548 	  4.787113093117 	  2.258110818516 	
C	  8.012735012548 	  4.787115903117 	 12.388667538516 	
C	  8.581248042548 	 10.970674853117 	  2.258107988516 	
C	  8.012703912548 	 10.970677663117 	 12.388664708516 	
C	 23.262106442548 	  4.787122323117 	  2.286240748516 	
C	 22.693562312548 	  4.787125133117 	 12.416797468516 	
C	 23.262075342548 	 10.970684083117 	  2.286237918516 	
C	 22.693531212548 	 10.970686893117 	 12.416794638516 	
C	  5.577772798152 	  1.712333202091 	  2.980202451455 	
C	  5.009228668152 	  1.712336012091 	 13.110759171455 	
C	  5.577741698152 	  7.895894962091 	  2.980199621455 	
C	  5.009197568152 	  7.895897772091 	 13.110756341455 	
C	 20.258600098152 	  1.712342432091 	  3.008332381455 	
C	 19.690055968152 	  1.712345242091 	 13.138889101455 	
C	 20.258568998152 	  7.895904192091 	  3.008329551455 	
C	 19.690024868152 	  7.895907002091 	 13.138886271455 	
H	  6.000184361861 	  0.467400039191 	  8.052916662397 	
H	  5.431640231861 	  0.467402849191 	 18.183473382397 	
H	  6.000153261861 	  6.650961799191 	  8.052913832397 	
H	  5.431609131861 	  6.650964609191 	 18.183470552397 	
H	 20.681011661861 	  0.467409269191 	  8.081046592397 	
H	 20.112467531861 	  0.467412079191 	 18.211603312397 	
H	 20.680980561861 	  6.650971029191 	  8.081043762397 	
H	 20.112436431861 	  6.650973839191 	 18.211600482397 	
H	  7.639929357253 	  3.542216372637 	  7.527292408235 	
H	  7.071385227253 	  3.542219182637 	 17.657849128235 	
H	  7.639898257253 	  9.725778132637 	  7.527289578235 	
H	  7.071354127253 	  9.725780942637 	 17.657846298235 	
H	 22.320756657253 	  3.542225602637 	  7.555422338235 	
H	 21.752212527253 	  3.542228412637 	 17.685979058235 	
H	 22.320725557253 	  9.725787362637 	  7.555419508235 	
H	 21.752181427253 	  9.725790172637 	 17.685976228235 	
H	  7.899388011493 	  5.682273495215 	  2.356348327377 	
H	  7.330843881493 	  5.682276305215 	 12.486905047377 	
H	  7.899356911493 	 11.865835255215 	  2.356345497377 	
H	  7.330812781493 	 11.865838065215 	 12.486902217377 	
H	 22.580215311493 	  5.682282725215 	  2.384478257377 	
H	 22.011671181493 	  5.682285535215 	 12.515034977377 	
H	 22.580184211493 	 11.865844485215 	  2.384475427377 	
H	 22.011640081493 	 11.865847295215 	 12.515032147377 	
H	  6.259643562768 	  2.607457642051 	  2.881972807195 	
H	  5.691099432768 	  2.607460452051 	 13.012529527195 	
H	  6.259612462768 	  8.791019402051 	  2.881969977195 	
H	  5.691068332768 	  8.791022212051 	 13.012526697195 	
H	 20.940470862768 	  2.607466872051 	  2.910102737195 	
H	 20.371926732768 	  2.607469682051 	 13.040659457195 	
H	 20.940439762768 	  8.791028632051 	  2.910099907195 	
H	 20.371895632768 	  8.791031442051 	 13.040656627195 	
C	  2.028065261717 	  2.601034854982 	  6.586865678108 	
C	  1.459521131717 	  2.601037664982 	 16.717422398108 	
C	  2.028034161717 	  8.784596614982 	  6.586862848108 	
C	  1.459490031717 	  8.784599424982 	 16.717419568108 	
C	 16.708892561717 	  2.601044084982 	  6.614995608108 	
C	 16.140348431717 	  2.601046894982 	 16.745552328108 	
C	 16.708861461717 	  8.784605844982 	  6.614992778108 	
C	 16.140317331717 	  8.784608654982 	 16.745549498108 	
C	 11.610267220675 	  5.674490630014 	  8.992519623288 	
C	 11.041723090675 	  5.674493440014 	 19.123076343288 	
C	 11.610236120675 	 11.858052390014 	  8.992516793288 	
C	 11.041691990675 	 11.858055200014 	 19.123073513288 	
C	 26.291094520675 	  5.674499860014 	  9.020649553288 	
C	 25.722550390675 	  5.674502670014 	 19.151206273288 	
C	 26.291063420675 	 11.858061620014 	  9.020646723288 	
C	 25.722519290675 	 11.858064430014 	 19.151203443288 	
C	 11.871507015496 	  3.548639021311 	  3.822399606712 	
C	 11.302962885496 	  3.548641831311 	 13.952956326712 	
C	 11.871475915496 	  9.732200781311 	  3.822396776712 	
C	 11.302931785496 	  9.732203591311 	 13.952953496712 	
C	 26.552334315496 	  3.548648251311 	  3.850529536712 	
C	 25.983790185496 	  3.548651061311 	 13.981086256712 	
C	 26.552303215496 	  9.732210011311 	  3.850526706712 	
C	 25.983759085496 	  9.732212821311 	 13.981083426712 	
C	  2.289305524011 	  0.475183276321 	  1.416746118103 	
C	  1.720761394011 	  0.475186086321 	 11.547302838103 	
C	  2.289274424011 	  6.658745036321 	  1.416743288103 	
C	  1.720730294011 	  6.658747846321 	 11.547300008103 	
C	 16.970132824011 	  0.475192506321 	  1.444876048103 	
C	 16.401588694011 	  0.475195316321 	 11.575432768103 	
C	 16.970101724011 	  6.658754266321 	  1.444873218103 	
C	 16.401557594011 	  6.658757076321 	 11.575429938103 	
C	  2.243729485545 	  2.827392278038 	  5.357869412926 	
C	  1.675185355545 	  2.827395088038 	 15.488426132926 	
C	  2.243698385545 	  9.010954038038 	  5.357866582926 	
C	  1.675154255545 	  9.010956848038 	 15.488423302926 	
C	 16.924556785545 	  2.827401508038 	  5.385999342926 	
C	 16.356012655545 	  2.827404318038 	 15.516556062926 	
C	 16.924525685545 	  9.010963268038 	  5.385996512926 	
C	 16.355981555545 	  9.010966078038 	 15.516553232926 	
C	 11.390144035290 	 -0.260752394564 	 10.233642353836 	
C	 10.821599905290 	 -0.260749584564 	 20.364199073836 	
C	 11.390112935290 	  5.922809365436 	 10.233639523836 	
C	 10.821568805290 	  5.922812175436 	 20.364196243836 	
C	 26.070971335290 	 -0.260743164564 	 10.261772283836 	
C	 25.502427205290 	 -0.260740354564 	 20.392329003836 	
C	 26.070940235290 	  5.922818595436 	 10.261769453836 	
C	 25.502396105290 	  5.922821405436 	 20.392326173836 	
C	 11.655841920994 	  3.322281361153 	  5.051396728302 	
C	 11.087297790994 	  3.322284171153 	 15.181953448302 	
C	 11.655810820994 	  9.505843121153 	  5.051393898302 	
C	 11.087266690994 	  9.505845931153 	 15.181950618302 	
C	 26.336669220994 	  3.322290591153 	  5.079526658302 	
C	 25.768125090994 	  3.322293401153 	 15.210083378302 	
C	 26.336638120994 	  9.505852351153 	  5.079523828302 	
C	 25.768093990994 	  9.505855161153 	 15.210080548302 	
C	  2.509428558522 	  6.410426539858 	  0.175623294790 	
C	  1.940884428522 	  6.410429349858 	 10.306180014790 	
C	  2.509397458522 	 12.593988299858 	  0.175620464790 	
C	  1.940853328522 	 12.593991109858 	 10.306177184790 	
C	 17.190255858522 	  6.410435769858 	  0.203753224790 	
C	 16.621711728522 	  6.410438579858 	 10.334309944790 	
C	 17.190224758522 	 12.593997529858 	  0.203750394790 	
C	 16.621680628522 	 12.594000339858 	 10.334307114790 	
H	  2.845960219456 	  3.643922528098 	  5.223559412292 	
H	  2.277416089456 	  3.643925338098 	 15.354116132292 	
H	  2.845929119456 	  9.827484288098 	  5.223556582292 	
H	  2.277384989456 	  9.827487098098 	 15.354113302292 	
H	 17.526787519456 	  3.643931758098 	  5.251689342292 	
H	 16.958243389456 	  3.643934568098 	 15.382246062292 	
H	 17.526756419456 	  9.827493518098 	  5.251686512292 	
H	 16.958212289456 	  9.827496328098 	 15.382243232292 	
H	 10.794219484202 	  0.579874077336 	 10.355030934311 	
H	 10.225675354202 	  0.579876887336 	 20.485587654311 	
H	 10.794188384202 	  6.763435837336 	 10.355028104311 	
H	 10.225644254202 	  6.763438647336 	 20.485584824311 	
H	 25.475046784202 	  0.579883307336 	 10.383160864311 	
H	 24.906502654202 	  0.579886117336 	 20.513717584311 	
H	 25.475015684202 	  6.763445067336 	 10.383158034311 	
H	 24.906471554202 	  6.763447877336 	 20.513714754311 	
H	 11.053611902246 	  2.505750039662 	  5.185706229263 	
H	 10.485067772246 	  2.505752849662 	 15.316262949263 	
H	 11.053580802246 	  8.689311799662 	  5.185703399263 	
H	 10.485036672246 	  8.689314609662 	 15.316260119263 	
H	 25.734439202246 	  2.505759269662 	  5.213836159263 	
H	 25.165895072246 	  2.505762079662 	 15.344392879263 	
H	 25.734408102246 	  8.689321029662 	  5.213833329263 	
H	 25.165863972246 	  8.689323839662 	 15.344390049263 	
H	  3.105353067066 	  5.569800109806 	  0.054234442339 	
H	  2.536808937066 	  5.569802919806 	 10.184791162339 	
H	  3.105321967066 	 11.753361869806 	  0.054231612339 	
H	  2.536777837066 	 11.753364679806 	 10.184788332339 	
H	 17.786180367066 	  5.569809339806 	  0.082364372339 	
H	 17.217636237066 	  5.569812149806 	 10.212921092339 	
H	 17.786149267066 	 11.753371099806 	  0.082361542339 	
H	 17.217605137066 	 11.753373909806 	 10.212918262339 	
H	  1.391784083154 	  2.940472800642 	  4.629069403580 	
H	  0.823239953154 	  2.940475610642 	 14.759626123580 	
H	  1.391752983154 	  9.124034560642 	  4.629066573580 	
H	  0.823208853154 	  9.124037370642 	 14.759623293580 	
H	 16.072611383154 	  2.940482030642 	  4.657199333580 	
H	 15.504067253154 	  2.940484840642 	 14.787756053580 	
H	 16.072580283154 	  9.124043790642 	  4.657196503580 	
H	 15.504036153154 	  9.124046600642 	 14.787753223580 	
H	 12.758936675930 	 -0.135140842611 	  0.603339610013 	
H	 12.190392545930 	 -0.135138032611 	 10.733896330013 	
H	 12.758905575930 	  6.048420917389 	  0.603336780013 	
H	 12.190361445930 	  6.048423727389 	 10.733893500013 	
H	 27.439763975930 	 -0.135131612611 	  0.631469540013 	
H	 26.871219845930 	 -0.135128802611 	 10.762026260013 	
H	 27.439732875930 	  6.048430147389 	  0.631466710013 	
H	 26.871188745930 	  6.048432957389 	 10.762023430013 	
H	 12.507787649883 	  3.209201307035 	  5.780196451452 	
H	 11.939243519883 	  3.209204117035 	 15.910753171452 	
H	 12.507756549883 	  9.392763067035 	  5.780193621452 	
H	 11.939212419883 	  9.392765877035 	 15.910750341452 	
H	 27.188614949883 	  3.209210537035 	  5.808326381452 	
H	 26.620070819883 	  3.209213347035 	 15.938883101452 	
H	 27.188583849883 	  9.392772297035 	  5.808323551452 	
H	 26.620039719883 	  9.392775107035 	 15.938880271452 	
H	  1.140635855379 	  6.284815029369 	  9.805926132785 	
H	  0.572091725379 	  6.284817839369 	 19.936482852785 	
H	  1.140604755379 	 12.468376789369 	  9.805923302785 	
H	  0.572060625379 	 12.468379599369 	 19.936480022785 	
H	 15.821463155379 	  6.284824259369 	  9.834056062785 	
H	 15.252919025379 	  6.284827069369 	 19.964612782785 	
H	 15.821432055379 	 12.468386019369 	  9.834053232785 	
H	 15.252887925379 	 12.468388829369 	 19.964609952785 	
H	  2.862130687164 	  2.131902413192 	  4.926253734072 	
H	  2.293586557164 	  2.131905223192 	 15.056810454072 	
H	  2.862099587164 	  8.315464173192 	  4.926250904072 	
H	  2.293555457164 	  8.315466983192 	 15.056807624072 	
H	 17.542957987164 	  2.131911643192 	  4.954383664072 	
H	 16.974413857164 	  2.131914453192 	 15.084940384072 	
H	 17.542926887164 	  8.315473403192 	  4.954380834072 	
H	 16.974382757164 	  8.315476213192 	 15.084937554072 	
H	 11.310817381114 	  5.210042214507 	  0.310595546449 	
H	 10.742273251114 	  5.210045024507 	 10.441152266449 	
H	 11.310786281114 	 11.393603974507 	  0.310592716449 	
H	 10.742242151114 	 11.393606784507 	 10.441149436449 	
H	 25.991644681114 	  5.210051444507 	  0.338725476449 	
H	 25.423100551114 	  5.210054254507 	 10.469282196449 	
H	 25.991613581114 	 11.393613204507 	  0.338722646449 	
H	 25.423069451114 	 11.393616014507 	 10.469279366449 	
H	 11.037440399835 	  4.017771446164 	  5.483012100704 	
H	 10.468896269835 	  4.017774256164 	 15.613568820704 	
H	 11.037409299835 	 10.201333206164 	  5.483009270704 	
H	 10.468865169835 	 10.201336016164 	 15.613565990704 	
H	 25.718267699835 	  4.017780676164 	  5.511142030704 	
H	 25.149723569835 	  4.017783486164 	 15.641698750704 	
H	 25.718236599835 	 10.201342436164 	  5.511139200704 	
H	 25.149692469835 	 10.201345246164 	 15.641695920704 	
H	  2.588755252137 	  0.939632026854 	 10.098670280180 	
H	  2.020211122137 	  0.939634836854 	 20.229227000180 	
H	  2.588724152137 	  7.123193786854 	 10.098667450180 	
H	  2.020180022137 	  7.123196596854 	 20.229224170180 	
H	 17.269582552137 	  0.939641256854 	 10.126800210180 	
H	 16.701038422137 	  0.939644066854 	 20.257356930180 	
H	 17.269551452137 	  7.123203016854 	 10.126797380180 	
H	 16.701007322137 	  7.123205826854 	 20.257354100180 	
C	  1.229020107430 	  3.507730100865 	  6.939086323380 	
C	  0.660475977430 	  3.507732910865 	 17.069643043380 	
C	  1.228989007430 	  9.691291860865 	  6.939083493380 	
C	  0.660444877430 	  9.691294670865 	 17.069640213380 	
C	 15.909847407430 	  3.507739330865 	  6.967216253380 	
C	 15.341303277430 	  3.507742140865 	 17.097772973380 	
C	 15.909816307430 	  9.691301090865 	  6.967213423380 	
C	 15.341272177430 	  9.691303900865 	 17.097770143380 	
C	 12.416381766863 	  0.442663003545 	  8.635985650800 	
C	 11.847837636863 	  0.442665813545 	 18.766542370800 	
C	 12.416350666863 	  6.626224763545 	  8.635982820800 	
C	 11.847806536863 	  6.626227573545 	 18.766539540800 	
C	 27.097209066863 	  0.442672233545 	  8.664115580800 	
C	 26.528664936863 	  0.442675043545 	 18.794672300800 	
C	 27.097177966863 	  6.626233993545 	  8.664112750800 	
C	 26.528633836863 	  6.626236803545 	 18.794669470800 	
C	 12.670552809010 	  2.641943501255 	  3.470178736450 	
C	 12.102008679010 	  2.641946311255 	 13.600735456450 	
C	 12.670521709010 	  8.825505261255 	  3.470175906450 	
C	 12.101977579010 	  8.825508071255 	 13.600732626450 	
C	 27.351380109010 	  2.641952731255 	  3.498308666450 	
C	 26.782835979010 	  2.641955541255 	 13.628865386450 	
C	 27.351349009010 	  8.825514491255 	  3.498305836450 	
C	 26.782804879010 	  8.825517301255 	 13.628862556450 	
C	  1.483190963999 	  5.707010663893 	  1.773279887845 	
C	  0.914646833999 	  5.707013473893 	 11.903836607845 	
C	  1.483159863999 	 11.890572423893 	  1.773277057845 	
C	  0.914615733999 	 11.890575233893 	 11.903833777845 	
C	 16.164018263999 	  5.707019893893 	  1.801409817845 	
C	 15.595474133999 	  5.707022703893 	 11.931966537845 	
C	 16.163987163999 	 11.890581653893 	  1.801406987845 	
C	 15.595443033999 	 11.890584463893 	 11.931963707845 	
H	  1.649515902589 	  4.467107224331 	  6.959208754477 	
H	  1.080971772589 	  4.467110034331 	 17.089765474477 	
H	  1.649484802589 	 10.650668984331 	  6.959205924477 	
H	  1.080940672589 	 10.650671794331 	 17.089762644477 	
H	 16.330343202589 	  4.467116454331 	  6.987338684477 	
H	 15.761799072589 	  4.467119264331 	 17.117895404477 	
H	 16.330312102589 	 10.650678214331 	  6.987335854477 	
H	 15.761767972589 	 10.650681024331 	 17.117892574477 	
H	 11.987995150892 	  1.396012168991 	  8.622151456886 	
H	 11.419451020892 	  1.396014978991 	 18.752708176886 	
H	 11.987964050892 	  7.579573928991 	  8.622148626886 	
H	 11.419419920892 	  7.579576738991 	 18.752705346886 	
H	 26.668822450892 	  1.396021398991 	  8.650281386886 	
H	 26.100278320892 	  1.396024208991 	 18.780838106886 	
H	 26.668791350892 	  7.579583158991 	  8.650278556886 	
H	 26.100247220892 	  7.579585968991 	 18.780835276886 	
H	 12.250056878375 	  1.682565771650 	  3.450056089280 	
H	 11.681512748375 	  1.682568581650 	 13.580612809280 	
H	 12.250025778375 	  7.866127531650 	  3.450053259280 	
H	 11.681481648375 	  7.866130341650 	 13.580609979280 	
H	 26.930884178375 	  1.682575001650 	  3.478186019280 	
H	 26.362340048375 	  1.682577811650 	 13.608742739280 	
H	 26.930853078375 	  7.866136761650 	  3.478183189280 	
H	 26.362308948375 	  7.866139571650 	 13.608739909280 	
H	  1.911577661922 	  4.753661575768 	  1.787113752476 	
H	  1.343033531922 	  4.753664385768 	 11.917670472476 	
H	  1.911546561922 	 10.937223335768 	  1.787110922476 	
H	  1.343002431922 	 10.937226145768 	 11.917667642476 	
H	 16.592404961922 	  4.753670805768 	  1.815243682476 	
H	 16.023860831922 	  4.753673615768 	 11.945800402476 	
H	 16.592373861922 	 10.937232565768 	  1.815240852476 	
H	 16.023829731922 	 10.937235375768 	 11.945797572476 	
H	  0.956851128766 	  3.451848608782 	  7.961897625000 	
H	  0.388306998766 	  3.451851418782 	 18.092454345000 	
H	  0.956820028766 	  9.635410368782 	  7.961894795000 	
H	  0.388275898766 	  9.635413178782 	 18.092451515000 	
H	 15.637678428766 	  3.451857838782 	  7.990027555000 	
H	 15.069134298766 	  3.451860648782 	 18.120584275000 	
H	 15.637647328766 	  9.635419598782 	  7.990024725000 	
H	 15.069103198766 	  9.635422408782 	 18.120581445000 	
H	 12.683048100859 	  6.517091670143 	  7.621497621639 	
H	 12.114503970859 	  6.517094480143 	 17.752054341639 	
H	 12.683017000859 	 12.700653430143 	  7.621494791639 	
H	 12.114472870859 	 12.700656240143 	 17.752051511639 	
H	 27.363875400859 	  6.517100900143 	  7.649627551639 	
H	 26.795331270859 	  6.517103710143 	 17.780184271639 	
H	 27.363844300859 	 12.700662660143 	  7.649624721639 	
H	 26.795300170859 	 12.700665470143 	 17.780181441639 	
H	 12.942722425548 	  2.697825504044 	  2.447366964702 	
H	 12.374178295548 	  2.697828314044 	 12.577923684702 	
H	 12.942691325548 	  8.881387264044 	  2.447364134702 	
H	 12.374147195548 	  8.881390074044 	 12.577920854702 	
H	 27.623549725548 	  2.697834734044 	  2.475496894702 	
H	 27.055005595548 	  2.697837544044 	 12.606053614702 	
H	 27.623518625548 	  8.881396494044 	  2.475494064702 	
H	 27.054974495548 	  8.881399304044 	 12.606050784702 	
H	  1.216524806881 	 -0.367418197431 	  2.787768119182 	
H	  0.647980676881 	 -0.367415387431 	 12.918324839182 	
H	  1.216493706881 	  5.816143562569 	  2.787765289182 	
H	  0.647949576881 	  5.816146372569 	 12.918322009182 	
H	 15.897352106881 	 -0.367408967431 	  2.815898049182 	
H	 15.328807976881 	 -0.367406157431 	 12.946454769182 	
H	 15.897321006881 	  5.816152792569 	  2.815895219182 	
H	 15.328776876881 	  5.816155602569 	 12.946451939182 	
H	  0.284024220859 	  3.576154657778 	  6.334824506763 	
H	 -0.284519909141 	  3.576157467778 	 16.465381226763 	
H	  0.283993120859 	  9.759716417778 	  6.334821676763 	
H	 -0.284551009141 	  9.759719227778 	 16.465378396763 	
H	 14.964851520859 	  3.576163887778 	  6.362954436763 	
H	 14.396307390859 	  3.576166697778 	 16.493511156763 	
H	 14.964820420859 	  9.759725647778 	  6.362951606763 	
H	 14.396276290859 	  9.759728457778 	 16.493508326763 	
H	 13.355721968949 	  6.649485911616 	  9.245046723074 	
H	 12.787177838949 	  6.649488721616 	 19.375603443074 	
H	 13.355690868949 	 12.833047671616 	  9.245043893074 	
H	 12.787146738949 	 12.833050481616 	 19.375600613074 	
H	 28.036549268949 	  6.649495141616 	  9.273176653074 	
H	 27.468005138949 	  6.649497951616 	 19.403733373074 	
H	 28.036518168949 	 12.833056901616 	  9.273173823074 	
H	 27.467974038949 	 12.833059711616 	 19.403730543074 	
H	 13.615548407757 	  2.573519044706 	  4.074440770314 	
H	 13.047004277757 	  2.573521854706 	 14.204997490314 	
H	 13.615517307757 	  8.757080804706 	  4.074437940314 	
H	 13.046973177757 	  8.757083614706 	 14.204994660314 	
H	 28.296375707757 	  2.573528274706 	  4.102570700314 	
H	 27.727831577757 	  2.573531084706 	 14.233127420314 	
H	 28.296344607757 	  8.757090034706 	  4.102567870314 	
H	 27.727800477757 	  8.757092844706 	 14.233124590314 	
H	  0.543850633823 	 -0.499812274825 	  1.164219032171 	
H	 -0.024693496177 	 -0.499809464825 	 11.294775752171 	
H	  0.543819533823 	  5.683749485175 	  1.164216202171 	
H	 -0.024724596177 	  5.683752295175 	 11.294772922171 	
H	 15.224677933823 	 -0.499803044825 	  1.192348962171 	
H	 14.656133803823 	 -0.499800234825 	 11.322905682171 	
H	 15.224646833823 	  5.683758715175 	  1.192346132171 	
H	 14.656102703823 	  5.683761525175 	 11.322902852171 	
C	  1.341352783626 	  1.542811362952 	  6.606883246813 	
C	  0.772808653626 	  1.542814172952 	 16.737439966813 	
C	  1.341321683626 	  7.726373122952 	  6.606880416813 	
C	  0.772777553626 	  7.726375932952 	 16.737437136813 	
C	 16.022180083626 	  1.542820592952 	  6.635013176813 	
C	 15.453635953626 	  1.542823402952 	 16.765569896813 	
C	 16.022148983626 	  7.726382352952 	  6.635010346813 	
C	 15.453604853626 	  7.726385162952 	 16.765567066813 	
C	 12.298938095847 	  4.617175131061 	  8.973172661057 	
C	 11.730393965847 	  4.617177941061 	 19.103729381057 	
C	 12.298906995847 	 10.800736891061 	  8.973169831057 	
C	 11.730362865847 	 10.800739701061 	 19.103726551057 	
C	 26.979765395847 	  4.617184361061 	  9.001302591057 	
C	 26.411221265847 	  4.617187171061 	 19.131859311057 	
C	 26.979734295847 	 10.800746121061 	  9.001299761057 	
C	 26.411190165847 	 10.800748931061 	 19.131856481057 	
C	 12.558219464189 	  4.606863733078 	  3.802381914158 	
C	 11.989675334189 	  4.606866543078 	 13.932938634158 	
C	 12.558188364189 	 10.790425493078 	  3.802379084158 	
C	 11.989644234189 	 10.790428303078 	 13.932935804158 	
C	 27.239046764189 	  4.606872963078 	  3.830511844158 	
C	 26.670502634189 	  4.606875773078 	 13.961068564158 	
C	 27.239015664189 	 10.790434723078 	  3.830509014158 	
C	 26.670471534189 	 10.790437533078 	 13.961065734158 	
C	  1.600634436921 	  1.532498612171 	  1.436093372762 	
C	  1.032090306921 	  1.532501422171 	 11.566650092762 	
C	  1.600603336921 	  7.716060372171 	  1.436090542762 	
C	  1.032059206921 	  7.716063182171 	 11.566647262762 	
C	 16.281461736921 	  1.532507842171 	  1.464223302762 	
C	 15.712917606921 	  1.532510652171 	 11.594780022762 	
C	 16.281430636921 	  7.716069602171 	  1.464220472762 	
C	 15.712886506921 	  7.716072412171 	 11.594777192762 	
H	  0.353558792882 	  1.515405801422 	  6.066223750267 	
H	 -0.214985337118 	  1.515408611422 	 16.196780470267 	
H	  0.353527692882 	  7.698967561422 	  6.066220920267 	
H	 -0.215016437118 	  7.698970371422 	 16.196777640267 	
H	 15.034386092882 	  1.515415031422 	  6.094353680267 	
H	 14.465841962882 	  1.515417841422 	 16.224910400267 	
H	 15.034354992882 	  7.698976791422 	  6.094350850267 	
H	 14.465810862882 	  7.698979601422 	 16.224907570267 	
H	 13.286692540947 	  4.590090714637 	  9.513908343572 	
H	 12.718148410947 	  4.590093524637 	 19.644465063572 	
H	 13.286661440947 	 10.773652474637 	  9.513905513572 	
H	 12.718117310947 	 10.773655284637 	 19.644462233572 	
H	 27.967519840947 	  4.590099944637 	  9.542038273572 	
H	 27.398975710947 	  4.590102754637 	 19.672594993572 	
H	 27.967488740947 	 10.773661704637 	  9.542035443572 	
H	 27.398944610947 	 10.773664514637 	 19.672592163572 	
H	 13.546013371977 	  4.634268995248 	  4.343041482739 	
H	 12.977469241977 	  4.634271805248 	 14.473598202739 	
H	 13.545982271977 	 10.817830755248 	  4.343038652739 	
H	 12.977438141977 	 10.817833565248 	 14.473595372739 	
H	 28.226840671977 	  4.634278225248 	  4.371171412739 	
H	 27.658296541977 	  4.634281035248 	 14.501728132739 	
H	 28.226809571977 	 10.817839985248 	  4.371168582739 	
H	 27.658265441977 	 10.817842795248 	 14.501725302739 	
H	  0.612879965699 	  1.559582964820 	  0.895357747961 	
H	  0.044335835699 	  1.559585774820 	 11.025914467961 	
H	  0.612848865699 	  7.743144724820 	  0.895354917961 	
H	  0.044304735699 	  7.743147534820 	 11.025911637961 	
H	 15.293707265699 	  1.559592194820 	  0.923487677961 	
H	 14.725163135699 	  1.559595004820 	 11.054044397961 	
H	 15.293676165699 	  7.743153954820 	  0.923484847961 	
H	 14.725132035699 	  7.743156764820 	 11.054041567961 	
H	  1.169973750737 	  1.220516115410 	  7.576784678155 	
H	  0.601429620737 	  1.220518925410 	 17.707341398155 	
H	  1.169942650737 	  7.404077875410 	  7.576781848155 	
H	  0.601398520737 	  7.404080685410 	 17.707338568155 	
H	 15.850801050737 	  1.220525345410 	  7.604914608155 	
H	 15.282256920737 	  1.220528155410 	 17.735471328155 	
H	 15.850769950737 	  7.404087105410 	  7.604911778155 	
H	 15.282225820737 	  7.404089915410 	 17.735468498155 	
H	 12.470250867686 	  4.295208466878 	  8.003211572254 	
H	 11.901706737686 	  4.295211276878 	 18.133768292254 	
H	 12.470219767686 	 10.478770226878 	  8.003208742254 	
H	 11.901675637686 	 10.478773036878 	 18.133765462254 	
H	 27.151078167686 	  4.295217696878 	  8.031341502254 	
H	 26.582534037686 	  4.295220506878 	 18.161898222254 	
H	 27.151047067686 	 10.478779456878 	  8.031338672254 	
H	 26.582502937686 	 10.478782266878 	 18.161895392254 	
H	 12.729598640752 	  4.929158938561 	  2.832479888599 	
H	 12.161054510752 	  4.929161748561 	 12.963036608599 	
H	 12.729567540752 	 11.112720698561 	  2.832477058599 	
H	 12.161023410752 	 11.112723508561 	 12.963033778599 	
H	 27.410425940752 	  4.929168168561 	  2.860609818599 	
H	 26.841881810752 	  4.929170978561 	 12.991166538599 	
H	 27.410394840752 	 11.112729928561 	  2.860606988599 	
H	 26.841850710752 	 11.112732738561 	 12.991163708599 	
H	  1.429321690141 	  1.854465032872 	  2.406054461835 	
H	  0.860777560141 	  1.854467842872 	 12.536611181835 	
H	  1.429290590141 	  8.038026792872 	  2.406051631835 	
H	  0.860746460141 	  8.038029602872 	 12.536608351835 	
H	 16.110148990141 	  1.854474262872 	  2.434184391835 	
H	 15.541604860141 	  1.854477072872 	 12.564741111835 	
H	 16.110117890141 	  8.038036022872 	  2.434181561835 	
H	 15.541573760141 	  8.038038832872 	 12.564738281835 	
H	  1.851805235428 	  0.720207185046 	  6.264534699403 	
H	  1.283261105428 	  0.720209995046 	 16.395091419403 	
H	  1.851774135428 	  6.903768945046 	  6.264531869403 	
H	  1.283230005428 	  6.903771755046 	 16.395088589403 	
H	 16.532632535428 	  0.720216415046 	  6.292664629403 	
H	 15.964088405428 	  0.720219225046 	 16.423221349403 	
H	 16.532601435428 	  6.903778175046 	  6.292661799403 	
H	 15.964057305428 	  6.903780985046 	 16.423218519403 	
H	 11.788331232815 	  3.794756683113 	  9.315616829031 	
H	 11.219787102815 	  3.794759493113 	 19.446173549031 	
H	 11.788300132815 	  9.978318443113 	  9.315613999031 	
H	 11.219756002815 	  9.978321253113 	 19.446170719031 	
H	 26.469158532815 	  3.794765913113 	  9.343746759031 	
H	 25.900614402815 	  3.794768723113 	 19.474303479031 	
H	 26.469127432815 	  9.978327673113 	  9.343743929031 	
H	 25.900583302815 	  9.978330483113 	 19.474300649031 	
H	 12.047766439866 	  5.429467772602 	  4.144731293090 	
H	 11.479222309866 	  5.429470582602 	 14.275288013090 	
H	 12.047735339866 	 11.613029532602 	  4.144728463090 	
H	 11.479191209866 	 11.613032342602 	 14.275285183090 	
H	 26.728593739866 	  5.429477002602 	  4.172861223090 	
H	 26.160049609866 	  5.429479812602 	 14.303417943090 	
H	 26.728562639866 	 11.613038762602 	  4.172858393090 	
H	 26.160018509866 	 11.613041572602 	 14.303415113090 	
H	  2.111241234243 	  2.354917217011 	  1.093649554538 	
H	  1.542697104243 	  2.354920027011 	 11.224206274538 	
H	  2.111210134243 	  8.538478977011 	  1.093646724538 	
H	  1.542666004243 	  8.538481787011 	 11.224203444538 	
H	 16.792068534243 	  2.354926447011 	  1.121779484538 	
H	 16.223524404243 	  2.354929257011 	 11.252336204538 	
H	 16.792037434243 	  8.538488207011 	  1.121776654538 	
H	 16.223493304243 	  8.538491017011 	 11.252333374538 	
768 
Energy: -6.6330713368009995e+01 
S	  8.547004246735 	  1.472672365259 	  0.081944924543 	
S	  7.978460116735 	  1.472675175259 	 10.212501644543 	
S	  8.546973146735 	  7.656234125259 	  0.081942094543 	
S	  7.978429016735 	  7.656236935259 	 10.212498814543 	
S	 23.227831546735 	  1.472681595259 	  0.110074854543 	
S	 22.659287416735 	  1.472684405259 	 10.240631574543 	
S	 23.227800446735 	  7.656243355259 	  0.110072024543 	
S	 22.659256316735 	  7.656246165259 	 10.240628744543 	
S	  5.552104680233 	  4.543148118714 	  5.192872370887 	
S	  4.983560550233 	  4.543150928714 	 15.323429090887 	
S	  5.552073580233 	 10.726709878714 	  5.192869540887 	
S	  4.983529450233 	 10.726712688714 	 15.323426260887 	
S	 20.232931980233 	  4.543157348714 	  5.221002300887 	
S	 19.664387850233 	  4.543160158714 	 15.351559020887 	
S	 20.232900880233 	 10.726719108714 	  5.220999470887 	
S	 19.664356750233 	 10.726721918714 	 15.351556190887 	
S	  5.298928309047 	  4.668451196134 	 10.390519713676 	
S	  4.730384179047 	  4.668454006134 	 20.521076433676 	
S	  5.298897209047 	 10.852012956134 	 10.390516883676 	
S	  4.730353079047 	 10.852015766134 	 20.521073603676 	
S	 19.979755609047 	  4.668460426134 	 10.418649643676 	
S	 19.411211479047 	  4.668463236134 	 20.549206363676 	
S	 19.979724509047 	 10.852022186134 	 10.418646813676 	
S	 19.411180379047 	 10.852024996134 	 20.549203533676 	
S	  8.293828735031 	  1.597975792261 	  5.279592197338 	
S	  7.725284605031 	  1.597978602261 	 15.410148917338 	
S	  8.293797635031 	  7.781537552261 	  5.279589367338 	
S	  7.725253505031 	  7.781540362261 	 15.410146087338 	
S	 22.974656035031 	  1.597985022261 	  5.307722127338 	
S	 22.406111905031 	  1.597987832261 	 15.438278847338 	
S	 22.974624935031 	  7.781546782261 	  5.307719297338 	
S	 22.406080805031 	  7.781549592261 	 15.438276017338 	
C	  6.676267592139 	  2.499134053224 	 10.061705787352 	
C	  6.107723462139 	  2.499136863224 	 20.192262507352 	
C	  6.676236492139 	  8.682695813224 	 10.061702957352 	
C	  6.107692362139 	  8.682698623224 	 20.192259677352 	
C	 21.357094892139 	  2.499143283224 	 10.089835717352 	
C	 20.788550762139 	  2.499146093224 	 20.220392437352 	
C	 21.357063792139 	  8.682705043224 	 10.089832887352 	
C	 20.788519662139 	  8.682707853224 	 20.220389607352 	
C	  6.916267473710 	  5.568496976702 	  5.609894891406 	
C	  6.347723343710 	  5.568499786702 	 15.740451611406 	
C	  6.916236373710 	 11.752058736702 	  5.609892061406 	
C	  6.347692243710 	 11.752061546702 	 15.740448781406 	
C	 21.597094773710 	  5.568506206702 	  5.638024821406 	
C	 21.028550643710 	  5.568509016702 	 15.768581541406 	
C	 21.597063673710 	 11.752067966702 	  5.638021991406 	
C	 21.028519543710 	 11.752070776702 	 15.768578711406 	
C	  7.169664971087 	  3.641989475004 	  0.410758757150 	
C	  6.601120841087 	  3.641992285004 	 10.541315477150 	
C	  7.169633871087 	  9.825551235004 	  0.410755927150 	
C	  6.601089741087 	  9.825554045004 	 10.541312647150 	
C	 21.850492271087 	  3.641998705004 	  0.438888687150 	
C	 21.281948141087 	  3.642001515004 	 10.569445407150 	
C	 21.850461171087 	  9.825560465004 	  0.438885857150 	
C	 21.281917041087 	  9.825563275004 	 10.569442577150 	
C	  6.929665800240 	  0.572627026854 	  4.862569580364 	
C	  6.361121670240 	  0.572629836854 	 14.993126300364 	
C	  6.929634700240 	  6.756188786854 	  4.862566750364 	
C	  6.361090570240 	  6.756191596854 	 14.993123470364 	
C	 21.610493100240 	  0.572636256854 	  4.890699510364 	
C	 21.041948970240 	  0.572639066854 	 15.021256230364 	
C	 21.610462000240 	  6.756198016854 	  4.890696680364 	
C	 21.041917870240 	  6.756200826854 	 15.021253400364 	
C	  5.617878343569 	  2.361350363728 	  9.119730024159 	
C	  5.049334213569 	  2.361353173728 	 19.250286744159 	
C	  5.617847243569 	  8.544912123728 	  9.119727194159 	
C	  5.049303113569 	  8.544914933728 	 19.250283914159 	
C	 20.298705643569 	  2.361359593728 	  9.147859954159 	
C	 19.730161513569 	  2.361362403728 	 19.278416674159 	
C	 20.298674543569 	  8.544921353728 	  9.147857124159 	
C	 19.730130413569 	  8.544924163728 	 19.278413844159 	
C	  7.973157071983 	  5.430208021255 	  6.550484366383 	
C	  7.404612941983 	  5.430210831255 	 16.681041086383 	
C	  7.973125971983 	 11.613769781255 	  6.550481536383 	
C	  7.404581841983 	 11.613772591255 	 16.681038256383 	
C	 22.653984371983 	  5.430217251255 	  6.578614296383 	
C	 22.085440241983 	  5.430220061255 	 16.709171016383 	
C	 22.653953271983 	 11.613779011255 	  6.578611466383 	
C	 22.085409141983 	 11.613781821255 	 16.709168186383 	
C	  8.228054134569 	  3.779773224755 	  1.352734457972 	
C	  7.659510004569 	  3.779776034755 	 11.483291177972 	
C	  8.228023034569 	  9.963334984755 	  1.352731627972 	
C	  7.659478904569 	  9.963337794755 	 11.483288347972 	
C	 22.908881434569 	  3.779782454755 	  1.380864387972 	
C	 22.340337304569 	  3.779785264755 	 11.511421107972 	
C	 22.908850334569 	  9.963344214755 	  1.380861557972 	
C	 22.340306204569 	  9.963347024755 	 11.511418277972 	
C	  5.872776069496 	  0.710915978014 	  3.921980191496 	
C	  5.304231939496 	  0.710918788014 	 14.052536911496 	
C	  5.872744969496 	  6.894477738014 	  3.921977361496 	
C	  5.304200839496 	  6.894480548014 	 14.052534081496 	
C	 20.553603369496 	  0.710925208014 	  3.950110121496 	
C	 19.985059239496 	  0.710928018014 	 14.080666841496 	
C	 20.553572269496 	  6.894486968014 	  3.950107291496 	
C	 19.985028139496 	  6.894489778014 	 14.080664011496 	
C	  4.758253755367 	  3.480541890653 	  9.182137206194 	
C	  4.189709625367 	  3.480544700653 	 19.312693926194 	
C	  4.758222655367 	  9.664103650653 	  9.182134376194 	
C	  4.189678525367 	  9.664106460653 	 19.312691096194 	
C	 19.439081055367 	  3.480551120653 	  9.210267136194 	
C	 18.870536925367 	  3.480553930653 	 19.340823856194 	
C	 19.439049955367 	  9.664112880653 	  9.210264306194 	
C	 18.870505825367 	  9.664115690653 	 19.340821026194 	
C	  8.836196979406 	  0.411721637946 	  6.487740274181 	
C	  8.267652849406 	  0.411724447946 	 16.618296994181 	
C	  8.836165879406 	  6.595283397946 	  6.487737444181 	
C	  8.267621749406 	  6.595286207946 	 16.618294164181 	
C	 23.517024279406 	  0.411730867946 	  6.515870204181 	
C	 22.948480149406 	  0.411733677946 	 16.646426924181 	
C	 23.516993179406 	  6.595292627946 	  6.515867374181 	
C	 22.948449049406 	  6.595295437946 	 16.646424094181 	
C	  9.087678718602 	  2.660581704956 	  1.290327331800 	
C	  8.519134588602 	  2.660584514956 	 11.420884051800 	
C	  9.087647618602 	  8.844143464956 	  1.290324501800 	
C	  8.519103488602 	  8.844146274956 	 11.420881221800 	
C	 23.768506018602 	  2.660590934956 	  1.318457261800 	
C	 23.199961888602 	  2.660593744956 	 11.449013981800 	
C	 23.768474918602 	  8.844152694956 	  1.318454431800 	
C	 23.199930788602 	  8.844155504956 	 11.449011151800 	
C	  5.009736223941 	  5.729402328787 	  3.984724386884 	
C	  4.441192093941 	  5.729405138787 	 14.115281106884 	
C	  5.009705123941 	 11.912964088787 	  3.984721556884 	
C	  4.441160993941 	 11.912966898787 	 14.115278276884 	
C	 19.690563523941 	  5.729411558787 	  4.012854316884 	
C	 19.122019393941 	  5.729414368787 	 14.143411036884 	
C	 19.690532423941 	 11.912973318787 	  4.012851486884 	
C	 19.121988293941 	 11.912976128787 	 14.143408206884 	
C	  3.646425374621 	  3.567196454262 	  8.386782732115 	
C	  3.077881244621 	  3.567199264262 	 18.517339452115 	
C	  3.646394274621 	  9.750758214262 	  8.386779902115 	
C	  3.077850144621 	  9.750761024262 	 18.517336622115 	
C	 18.327252674621 	  3.567205684262 	  8.414912662115 	
C	 17.758708544621 	  3.567208494262 	 18.545469382115 	
C	 18.327221574621 	  9.750767444262 	  8.414909832115 	
C	 17.758677444621 	  9.750770254262 	 18.545466552115 	
C	  9.945610323463 	  0.497991829904 	  7.281445837108 	
C	  9.377066193463 	  0.497994639904 	 17.412002557108 	
C	  9.945579223463 	  6.681553589904 	  7.281443007108 	
C	  9.377035093463 	  6.681556399904 	 17.411999727108 	
C	 24.626437623463 	  0.498001059904 	  7.309575767108 	
C	 24.057893493463 	  0.498003869904 	 17.440132487108 	
C	 24.626406523463 	  6.681562819904 	  7.309572937108 	
C	 24.057862393463 	  6.681565629904 	 17.440129657108 	
C	 10.199507089896 	  2.573927249474 	  2.085681963676 	
C	  9.630962959896 	  2.573930059474 	 12.216238683676 	
C	 10.199475989896 	  8.757489009474 	  2.085679133676 	
C	  9.630931859896 	  8.757491819474 	 12.216235853676 	
C	 24.880334389896 	  2.573936479474 	  2.113811893676 	
C	 24.311790259896 	  2.573939289474 	 12.244368613676 	
C	 24.880303289896 	  8.757498239474 	  2.113809063676 	
C	 24.311759159896 	  8.757501049474 	 12.244365783676 	
C	  3.900322619183 	  5.643132167069 	  3.191019102562 	
C	  3.331778489183 	  5.643134977069 	 13.321575822562 	
C	  3.900291519183 	 11.826693927069 	  3.191016272562 	
C	  3.331747389183 	 11.826696737069 	 13.321572992562 	
C	 18.581149919183 	  5.643141397069 	  3.219149032562 	
C	 18.012605789183 	  5.643144207069 	 13.349705752562 	
C	 18.581118819183 	 11.826703157069 	  3.219146202562 	
C	 18.012574689183 	 11.826705967069 	 13.349702922562 	
H	  2.992285896985 	  4.484564283598 	  8.468173070580 	
H	  2.423741766985 	  4.484567093598 	 18.598729790580 	
H	  2.992254796985 	 10.668126043598 	  8.468170240580 	
H	  2.423710666985 	 10.668128853598 	 18.598726960580 	
H	 17.673113196985 	  4.484573513598 	  8.496303000580 	
H	 17.104569066985 	  4.484576323598 	 18.626859720580 	
H	 17.673082096985 	 10.668135273598 	  8.496300170580 	
H	 17.104537966985 	 10.668138083598 	 18.626856890580 	
H	 10.600498069547 	  1.414291981188 	  7.201721590194 	
H	 10.031953939547 	  1.414294791188 	 17.332278310194 	
H	 10.600466969547 	  7.597853741188 	  7.201718760194 	
H	 10.031922839547 	  7.597856551188 	 17.332275480194 	
H	 25.281325369547 	  1.414301211188 	  7.229851520194 	
H	 24.712781239547 	  1.414304021188 	 17.360408240194 	
H	 25.281294269547 	  7.597862971188 	  7.229848690194 	
H	 24.712750139547 	  7.597865781188 	 17.360405410194 	
H	 10.853646519646 	  1.656559381080 	  2.004291711140 	
H	 10.285102389646 	  1.656562191080 	 12.134848431140 	
H	 10.853615419646 	  7.840121141080 	  2.004288881140 	
H	 10.285071289646 	  7.840123951080 	 12.134845601140 	
H	 25.534473819646 	  1.656568611080 	  2.032421641140 	
H	 24.965929689646 	  1.656571421080 	 12.162978361140 	
H	 25.534442719646 	  7.840130371080 	  2.032418811140 	
H	 24.965898589646 	  7.840133181080 	 12.162975531140 	
H	  3.245435005484 	  4.726831934788 	  3.270743457025 	
H	  2.676890875484 	  4.726834744788 	 13.401300177025 	
H	  3.245403905484 	 10.910393694788 	  3.270740627025 	
H	  2.676859775484 	 10.910396504788 	 13.401297347025 	
H	 17.926262305484 	  4.726841164788 	  3.298873387025 	
H	 17.357718175484 	  4.726843974788 	 13.429430107025 	
H	 17.926231205484 	 10.910402924788 	  3.298870557025 	
H	 17.357687075484 	 10.910405734788 	 13.429427277025 	
C	  3.318256559194 	  2.567038953174 	  7.495689268948 	
C	  2.749712429194 	  2.567041763174 	 17.626245988948 	
C	  3.318225459194 	  8.750600713174 	  7.495686438948 	
C	  2.749681329194 	  8.750603523174 	 17.626243158948 	
C	 17.999083859194 	  2.567048183174 	  7.523819198948 	
C	 17.430539729194 	  2.567050993174 	 17.654375918948 	
C	 17.999052759194 	  8.750609943174 	  7.523816368948 	
C	 17.430508629194 	  8.750612753174 	 17.654373088948 	
C	 10.275028107223 	  5.636027793354 	  8.176180228135 	
C	  9.706483977223 	  5.636030603354 	 18.306736948135 	
C	 10.274997007223 	 11.819589553354 	  8.176177398135 	
C	  9.706452877223 	 11.819592363354 	 18.306734118135 	
C	 24.955855407223 	  5.636037023354 	  8.204310158135 	
C	 24.387311277223 	  5.636039833354 	 18.334866878135 	
C	 24.955824307222 	 11.819598783354 	  8.204307328135 	
C	 24.387280177223 	 11.819601593354 	 18.334864048135 	
C	 10.527675770823 	  3.574084804501 	  2.976775273786 	
C	  9.959131640823 	  3.574087614501 	 13.107331993786 	
C	 10.527644670823 	  9.757646564501 	  2.976772443786 	
C	  9.959100540823 	  9.757649374501 	 13.107329163786 	
C	 25.208503070823 	  3.574094034501 	  3.004905203786 	
C	 24.639958940823 	  3.574096844501 	 13.135461923786 	
C	 25.208471970823 	  9.757655794501 	  3.004902373786 	
C	 24.639927840823 	  9.757658604501 	 13.135459093786 	
C	  3.570904658704 	  0.505096217969 	  2.296284805613 	
C	  3.002360528704 	  0.505099027969 	 12.426841525613 	
C	  3.570873558704 	  6.688657977969 	  2.296281975613 	
C	  3.002329428704 	  6.688660787969 	 12.426838695613 	
C	 18.251731958704 	  0.505105447969 	  2.324414735613 	
C	 17.683187828704 	  0.505108257969 	 12.454971455613 	
C	 18.251700858704 	  6.688667207969 	  2.324411905613 	
C	 17.683156728704 	  6.688670017969 	 12.454968625613 	
C	  4.194757371242 	  1.483879741168 	  7.423462469924 	
C	  3.626213241242 	  1.483882551168 	 17.554019189924 	
C	  4.194726271242 	  7.667441501168 	  7.423459639924 	
C	  3.626182141242 	  7.667444311168 	 17.554016359924 	
C	 18.875584671242 	  1.483888971168 	  7.451592399924 	
C	 18.307040541242 	  1.483891781168 	 17.582149119924 	
C	 18.875553571242 	  7.667450731168 	  7.451589569924 	
C	 18.307009441242 	  7.667453541168 	 17.582146289924 	
C	  9.397978506378 	  4.554387020221 	  8.246623647073 	
C	  8.829434376378 	  4.554389830221 	 18.377180367073 	
C	  9.397947406378 	 10.737948780221 	  8.246620817073 	
C	  8.829403276378 	 10.737951590221 	 18.377177537073 	
C	 24.078805806378 	  4.554396250221 	  8.274753577073 	
C	 23.510261676378 	  4.554399060221 	 18.405310297073 	
C	 24.078774706378 	 10.737958010221 	  8.274750747073 	
C	 23.510230576378 	 10.737960820221 	 18.405307467073 	
C	  9.651174948819 	  4.657244010532 	  3.049002039024 	
C	  9.082630818819 	  4.657246820532 	 13.179558759024 	
C	  9.651143848819 	 10.840805770532 	  3.048999209024 	
C	  9.082599718819 	 10.840808580532 	 13.179555929024 	
C	 24.332002248819 	  4.657253240532 	  3.077131969024 	
C	 23.763458118819 	  4.657256050532 	 13.207688689024 	
C	 24.331971148819 	 10.840815000532 	  3.077129139024 	
C	 23.763427018819 	 10.840817810532 	 13.207685859024 	
C	  4.447954184527 	  1.586736950874 	  2.225841193565 	
C	  3.879410054527 	  1.586739760874 	 12.356397913565 	
C	  4.447923084527 	  7.770298710874 	  2.225838363565 	
C	  3.879378954527 	  7.770301520874 	 12.356395083565 	
C	 19.128781484527 	  1.586746180874 	  2.253971123565 	
C	 18.560237354527 	  1.586748990874 	 12.384527843565 	
C	 19.128750384527 	  7.770307940874 	  2.253968293565 	
C	 18.560206254527 	  7.770310750874 	 12.384525013565 	
H	  3.983458371882 	  0.656072471851 	  6.685719569113 	
H	  3.414914241882 	  0.656075281851 	 16.816276289113 	
H	  3.983427271882 	  6.839634231851 	  6.685716739113 	
H	  3.414883141882 	  6.839637041851 	 16.816273459113 	
H	 18.664285671882 	  0.656081701851 	  6.713849499113 	
H	 18.095741541882 	  0.656084511851 	 16.844406219113 	
H	 18.664254571882 	  6.839643461851 	  6.713846669113 	
H	 18.095710441882 	  6.839646271851 	 16.844403389113 	
H	  9.609279630339 	  3.726604064254 	  8.984317455552 	
H	  9.040735500339 	  3.726606874254 	 19.114874175552 	
H	  9.609248530339 	  9.910165824254 	  8.984314625552 	
H	  9.040704400339 	  9.910168634254 	 19.114871345552 	
H	 24.290106930339 	  3.726613294254 	  9.012447385552 	
H	 23.721562800339 	  3.726616104254 	 19.143004105552 	
H	 24.290075830339 	  9.910175054254 	  9.012444555552 	
H	 23.721531700339 	  9.910177864254 	 19.143001275552 	
H	  9.862474014853 	  5.485051355419 	  3.786744840406 	
H	  9.293929884853 	  5.485054165419 	 13.917301560406 	
H	  9.862442914853 	 11.668613115419 	  3.786742010406 	
H	  9.293898784853 	 11.668615925419 	 13.917298730406 	
H	 24.543301314853 	  5.485060585419 	  3.814874770406 	
H	 23.974757184853 	  5.485063395419 	 13.945431490406 	
H	 24.543270214853 	 11.668622345419 	  3.814871940406 	
H	 23.974726084853 	 11.668625155419 	 13.945428660406 	
H	  4.236652859692 	  2.414519978342 	  1.488147524967 	
H	  3.668108729692 	  2.414522788342 	 11.618704244967 	
H	  4.236621759692 	  8.598081738342 	  1.488144694967 	
H	  3.668077629692 	  8.598084548342 	 11.618701414967 	
H	 18.917480159692 	  2.414529208342 	  1.516277454967 	
H	 18.348936029692 	  2.414532018342 	 11.646834174967 	
H	 18.917449059692 	  8.598090968342 	  1.516274624967 	
H	 18.348904929692 	  8.598093778342 	 11.646831344967 	
C	  5.299080981035 	  1.376605226173 	  8.194003131610 	
C	  4.730536851035 	  1.376608036173 	 18.324559851610 	
C	  5.299049881035 	  7.560166986173 	  8.194000301610 	
C	  4.730505751035 	  7.560169796173 	 18.324557021610 	
C	 19.979908281035 	  1.376614456173 	  8.222133061610 	
C	 19.411364151035 	  1.376617266173 	 18.352689781610 	
C	 19.979877181035 	  7.560176216173 	  8.222130231610 	
C	 19.411333051035 	  7.560179026173 	 18.352686951610 	
C	  8.293625693994 	  4.447112340747 	  7.476065398324 	
C	  7.725081563994 	  4.447115150747 	 17.606622118324 	
C	  8.293594593994 	 10.630674100747 	  7.476062568324 	
C	  7.725050463994 	 10.630676910747 	 17.606619288324 	
C	 22.974452993994 	  4.447121570747 	  7.504195328324 	
C	 22.405908863994 	  4.447124380747 	 17.634752048324 	
C	 22.974421893994 	 10.630683330747 	  7.504192498324 	
C	 22.405877763994 	 10.630686140747 	 17.634749218324 	
C	  8.546851415542 	  4.764518450901 	  2.278461267041 	
C	  7.978307285542 	  4.764521260901 	 12.409017987041 	
C	  8.546820315542 	 10.948080210901 	  2.278458437041 	
C	  7.978276185542 	 10.948083020901 	 12.409015157041 	
C	 23.227678715542 	  4.764527680901 	  2.306591197041 	
C	 22.659134585542 	  4.764530490901 	 12.437147917041 	
C	 23.227647615542 	 10.948089440901 	  2.306588367041 	
C	 22.659103485542 	 10.948092250901 	 12.437145087041 	
C	  5.552307207472 	  1.694011665365 	  2.996399259608 	
C	  4.983763077472 	  1.694014475365 	 13.126955979608 	
C	  5.552276107472 	  7.877573425365 	  2.996396429608 	
C	  4.983731977472 	  7.877576235365 	 13.126953149608 	
C	 20.233134507472 	  1.694020895365 	  3.024529189608 	
C	 19.664590377472 	  1.694023705365 	 13.155085909608 	
C	 20.233103407472 	  7.877582655365 	  3.024526359608 	
C	 19.664559277472 	  7.877585465365 	 13.155083079608 	
H	  5.974475899109 	  0.476437224178 	  8.096643826340 	
H	  5.405931769109 	  0.476440034178 	 18.227200546340 	
H	  5.974444799109 	  6.659998984178 	  8.096640996340 	
H	  5.405900669109 	  6.660001794178 	 18.227197716340 	
H	 20.655303199109 	  0.476446454178 	  8.124773756340 	
H	 20.086759069109 	  0.476449264178 	 18.255330476340 	
H	 20.655272099109 	  6.660008214178 	  8.124770926340 	
H	 20.086727969109 	  6.660011024178 	 18.255327646340 	
H	  7.618246878231 	  3.546983578826 	  7.573418417069 	
H	  7.049702748231 	  3.546986388826 	 17.703975137069 	
H	  7.618215778231 	  9.730545338826 	  7.573415587069 	
H	  7.049671648231 	  9.730548148826 	 17.703972307069 	
H	 22.299074178231 	  3.546992808826 	  7.601548347069 	
H	 21.730530048231 	  3.546995618826 	 17.732105067069 	
H	 22.299043078231 	  9.730554568826 	  7.601545517069 	
H	 21.730498948231 	  9.730557378826 	 17.732102237069 	
H	  7.871456437182 	  5.664686422436 	  2.375820474526 	
H	  7.302912307182 	  5.664689232436 	 12.506377194526 	
H	  7.871425337182 	 11.848248182436 	  2.375817644526 	
H	  7.302881207182 	 11.848250992436 	 12.506374364526 	
H	 22.552283737182 	  5.664695652436 	  2.403950404526 	
H	 21.983739607182 	  5.664698462436 	 12.534507124526 	
H	 22.552252637182 	 11.848257412436 	  2.403947574526 	
H	 21.983708507182 	 11.848260222436 	 12.534504294526 	
H	  6.227686002818 	  2.594140434509 	  2.899046139728 	
H	  5.659141872818 	  2.594143244509 	 13.029602859728 	
H	  6.227654902818 	  8.777702194509 	  2.899043309728 	
H	  5.659110772818 	  8.777705004509 	 13.029600029728 	
H	 20.908513302818 	  2.594149664509 	  2.927176069728 	
H	 20.339969172818 	  2.594152474509 	 13.057732789728 	
H	 20.908482202818 	  8.777711424509 	  2.927173239728 	
H	 20.339938072818 	  8.777714234509 	 13.057729959728 	
C	  2.028743380803 	  2.647838535655 	  6.611734878686 	
C	  1.460199250803 	  2.647841345655 	 16.742291598686 	
C	  2.028712280803 	  8.831400295655 	  6.611732048686 	
C	  1.460168150803 	  8.831403105655 	 16.742288768686 	
C	 16.709570680803 	  2.647847765655 	  6.639864808686 	
C	 16.141026550803 	  2.647850575655 	 16.770421528686 	
C	 16.709539580803 	  8.831409525655 	  6.639861978686 	
C	 16.140995450803 	  8.831412335655 	 16.770418698686 	
C	 11.562215334761 	  5.717000909697 	  9.057809596462 	
C	 10.993671204761 	  5.717003719697 	 19.188366316462 	
C	 11.562184234761 	 11.900562669697 	  9.057806766462 	
C	 10.993640104761 	 11.900565479697 	 19.188363486462 	
C	 26.243042634761 	  5.717010139697 	  9.085939526462 	
C	 25.674498504761 	  5.717012949697 	 19.216496246462 	
C	 26.243011534761 	 11.900571899697 	  9.085936696462 	
C	 25.674467404761 	 11.900574709697 	 19.216493416462 	
C	 11.817188812934 	  3.493285458129 	  3.860729774203 	
C	 11.248644682934 	  3.493288268129 	 13.991286494203 	
C	 11.817157712934 	  9.676847218129 	  3.860726944203 	
C	 11.248613582934 	  9.676850028129 	 13.991283664203 	
C	 26.498016112934 	  3.493294688129 	  3.888859704203 	
C	 25.929471982934 	  3.493297498129 	 14.019416424203 	
C	 26.497985012934 	  9.676856448129 	  3.888856874203 	
C	 25.929440882934 	  9.676859258129 	 14.019413594203 	
C	  2.283717244118 	  0.424123040712 	  1.414655672897 	
C	  1.715173114118 	  0.424125850712 	 11.545212392897 	
C	  2.283686144118 	  6.607684800712 	  1.414652842897 	
C	  1.715142014118 	  6.607687610712 	 11.545209562897 	
C	 16.964544544118 	  0.424132270712 	  1.442785602897 	
C	 16.396000414118 	  0.424135080712 	 11.573342322897 	
C	 16.964513444118 	  6.607694030712 	  1.442782772897 	
C	 16.395969314118 	  6.607696840712 	 11.573339492897 	
C	  2.235162811607 	  2.749926370203 	  5.387976752607 	
C	  1.666618681607 	  2.749929180203 	 15.518533472607 	
C	  2.235131711607 	  8.933488130203 	  5.387973922607 	
C	  1.666587581607 	  8.933490940203 	 15.518530642607 	
C	 16.915990111607 	  2.749935600203 	  5.416106682607 	
C	 16.347445981607 	  2.749938410203 	 15.546663402607 	
C	 16.915959011607 	  8.933497360203 	  5.416103852607 	
C	 16.347414881607 	  8.933500170203 	 15.546660572607 	
C	 11.344246313731 	 -0.329821405037 	 10.291311889646 	
C	 10.775702183731 	 -0.329818595037 	 20.421868609646 	
C	 11.344215213731 	  5.853740354963 	 10.291309059646 	
C	 10.775671083731 	  5.853743164963 	 20.421865779646 	
C	 26.025073613731 	 -0.329812175037 	 10.319441819646 	
C	 25.456529483731 	 -0.329809365037 	 20.449998539646 	
C	 26.025042513731 	  5.853749584963 	 10.319438989646 	
C	 25.456498383731 	  5.853752394963 	 20.449995709646 	
C	 11.610768801518 	  3.391197151303 	  5.084488731636 	
C	 11.042224671518 	  3.391199961303 	 15.215045451636 	
C	 11.610737701518 	  9.574758911303 	  5.084485901636 	
C	 11.042193571518 	  9.574761721303 	 15.215042621636 	
C	 26.291596101518 	  3.391206381303 	  5.112618661636 	
C	 25.723051971518 	  3.391209191303 	 15.243175381636 	
C	 26.291565001518 	  9.574768141303 	  5.112615831636 	
C	 25.723020871518 	  9.574770951303 	 15.243172551636 	
C	  2.501686070709 	  6.470945516430 	  0.181153294064 	
C	  1.933141940709 	  6.470948326430 	 10.311710014064 	
C	  2.501654970709 	 12.654507276430 	  0.181150464064 	
C	  1.933110840709 	 12.654510086430 	 10.311707184064 	
C	 17.182513370709 	  6.470954746430 	  0.209283224064 	
C	 16.613969240709 	  6.470957556430 	 10.339839944064 	
C	 17.182482270709 	 12.654516506430 	  0.209280394064 	
C	 16.613938140709 	 12.654519316430 	 10.339837114064 	
H	  2.899087027140 	  3.482184404737 	  5.172164484340 	
H	  2.330542897140 	  3.482187214737 	 15.302721204340 	
H	  2.899055927140 	  9.665746164737 	  5.172161654340 	
H	  2.330511797140 	  9.665748974737 	 15.302718374340 	
H	 17.579914327140 	  3.482193634737 	  5.200294414340 	
H	 17.011370197140 	  3.482196444737 	 15.330851134340 	
H	 17.579883227140 	  9.665755394737 	  5.200291584340 	
H	 17.011339097140 	  9.665758204737 	 15.330848304340 	
H	 10.699666655922 	  0.416201362116 	 10.494918683306 	
H	 10.131122525922 	  0.416204172116 	 20.625475403306 	
H	 10.699635555922 	  6.599763122116 	 10.494915853306 	
H	 10.131091425922 	  6.599765932116 	 20.625472573306 	
H	 25.380493955922 	  0.416210592116 	 10.523048613306 	
H	 24.811949825922 	  0.416213402116 	 20.653605333306 	
H	 25.380462855922 	  6.599772352116 	 10.523045783306 	
H	 24.811918725922 	  6.599775162116 	 20.653602503306 	
H	 10.946844792280 	  2.658937595722 	  5.300300478874 	
H	 10.378300662280 	  2.658940405722 	 15.430857198874 	
H	 10.946813692280 	  8.842499355722 	  5.300297648874 	
H	 10.378269562280 	  8.842502165722 	 15.430854368874 	
H	 25.627672092280 	  2.658946825722 	  5.328430408874 	
H	 25.059127962280 	  2.658949635722 	 15.458987128874 	
H	 25.627640992280 	  8.842508585722 	  5.328427578874 	
H	 25.059096862280 	  8.842511395722 	 15.458984298874 	
H	  3.146265608491 	  5.724922890081 	 -0.022453778314 	
H	  2.577721478491 	  5.724925700081 	 10.108102941686 	
H	  3.146234508491 	 11.908484650081 	 -0.022456608314 	
H	  2.577690378491 	 11.908487460081 	 10.108100111686 	
H	 17.827092908491 	  5.724932120081 	  0.005676151686 	
H	 17.258548778491 	  5.724934930081 	 10.136232871686 	
H	 17.827061808491 	 11.908493880081 	  0.005673321686 	
H	 17.258517678491 	 11.908496690081 	 10.136230041686 	
H	  1.390780592405 	  2.867197754230 	  4.647167571735 	
H	  0.822236462405 	  2.867200564230 	 14.777724291735 	
H	  1.390749492405 	  9.050759514230 	  4.647164741735 	
H	  0.822205362405 	  9.050762324230 	 14.777721461735 	
H	 16.071607892405 	  2.867206984230 	  4.675297501735 	
H	 15.503063762405 	  2.867209794230 	 14.805854221735 	
H	 16.071576792405 	  9.050768744230 	  4.675294671735 	
H	 15.503032662405 	  9.050771554230 	 14.805851391735 	
H	 12.700551667630 	 -0.204178802291 	  0.622275694681 	
H	 12.132007537630 	 -0.204175992291 	 10.752832414681 	
H	 12.700520567630 	  5.979382957709 	  0.622272864681 	
H	 12.131976437630 	  5.979385767709 	 10.752829584681 	
H	 27.381378967630 	 -0.204169572291 	  0.650405624681 	
H	 26.812834837630 	 -0.204166762291 	 10.780962344681 	
H	 27.381347867630 	  5.979392187709 	  0.650402794681 	
H	 26.812803737630 	  5.979394997709 	 10.780959514681 	
H	 12.455150959626 	  3.273926328671 	  5.825297629412 	
H	 11.886606829626 	  3.273929138671 	 15.955854349412 	
H	 12.455119859626 	  9.457488088671 	  5.825294799412 	
H	 11.886575729626 	  9.457490898671 	 15.955851519412 	
H	 27.135978259626 	  3.273935558671 	  5.853427559412 	
H	 26.567434129626 	  3.273938368671 	 15.983984279412 	
H	 27.135947159626 	  9.457497318671 	  5.853424729412 	
H	 26.567403029626 	  9.457500128671 	 15.983981449412 	
H	  1.145380590099 	  6.345303025460 	  9.850189639772 	
H	  0.576836460099 	  6.345305835460 	 19.980746359772 	
H	  1.145349490099 	 12.528864785460 	  9.850186809772 	
H	  0.576805360099 	 12.528867595460 	 19.980743529772 	
H	 15.826207890099 	  6.345312255460 	  9.878319569772 	
H	 15.257663760099 	  6.345315065460 	 20.008876289772 	
H	 15.826176790099 	 12.528874015460 	  9.878316739772 	
H	 15.257632660099 	 12.528876825460 	 20.008873459772 	
H	  2.791484237227 	  1.987587542979 	  5.007860379762 	
H	  2.222940107227 	  1.987590352979 	 15.138417099762 	
H	  2.791453137227 	  8.171149302979 	  5.007857549762 	
H	  2.222909007227 	  8.171152112979 	 15.138414269762 	
H	 17.472311537227 	  1.987596772979 	  5.035990309762 	
H	 16.903767407227 	  1.987599582979 	 15.166547029762 	
H	 17.472280437227 	  8.171158532979 	  5.035987479762 	
H	 16.903736307227 	  8.171161342979 	 15.166544199762 	
H	 11.322340385654 	  5.063100145577 	  0.267891651960 	
H	 10.753796255654 	  5.063102955577 	 10.398448371960 	
H	 11.322309285654 	 11.246661905577 	  0.267888821960 	
H	 10.753765155654 	 11.246664715577 	 10.398445541960 	
H	 26.003167685654 	  5.063109375577 	  0.296021581960 	
H	 25.434623555654 	  5.063112185577 	 10.426578301960 	
H	 26.003136585654 	 11.246671135577 	  0.296018751960 	
H	 25.434592455654 	 11.246673945577 	 10.426575471960 	
H	 11.054446305677 	  4.153536533553 	  5.464605078759 	
H	 10.485902175677 	  4.153539343553 	 15.595161798759 	
H	 11.054415205677 	 10.337098293553 	  5.464602248759 	
H	 10.485871075677 	 10.337101103553 	 15.595158968759 	
H	 25.735273605677 	  4.153545763553 	  5.492735008759 	
H	 25.166729475677 	  4.153548573553 	 15.623291728759 	
H	 25.735242505677 	 10.337107523553 	  5.492732178759 	
H	 25.166698375677 	 10.337110333553 	 15.623288898759 	
H	  2.523592038463 	  1.078024152700 	 10.204573705046 	
H	  1.955047908463 	  1.078026962700 	 20.335130425046 	
H	  2.523560938463 	  7.261585912700 	 10.204570875046 	
H	  1.955016808463 	  7.261588722700 	 20.335127595046 	
H	 17.204419338463 	  1.078033382700 	 10.232703635046 	
H	 16.635875208463 	  1.078036192700 	 20.363260355046 	
H	 17.204388238463 	  7.261595142700 	 10.232700805046 	
H	 16.635844108463 	  7.261597952700 	 20.363257525046 	
C	  1.303612066079 	  3.619398465989 	  6.877052492615 	
C	  0.735067936079 	  3.619401275989 	 17.007609212615 	
C	  1.303580966079 	  9.802960225989 	  6.877049662615 	
C	  0.735036836079 	  9.802963035989 	 17.007606382615 	
C	 15.984439366079 	  3.619407695989 	  6.905182422615 	
C	 15.415895236079 	  3.619410505989 	 17.035739142615 	
C	 15.984408266079 	  9.802969455989 	  6.905179592615 	
C	 15.415864136079 	  9.802972265989 	 17.035736312615 	
C	 12.293788884802 	  0.560526127386 	  8.791029235350 	
C	 11.725244754802 	  0.560528937386 	 18.921585955350 	
C	 12.293757784802 	  6.744087887386 	  8.791026405350 	
C	 11.725213654802 	  6.744090697386 	 18.921583125350 	
C	 26.974616184802 	  0.560535357386 	  8.819159165350 	
C	 26.406072054802 	  0.560538167386 	 18.949715885350 	
C	 26.974585084802 	  6.744097117386 	  8.819156335350 	
C	 26.406040954802 	  6.744099927386 	 18.949713055350 	
C	 12.542320866651 	  2.521725174116 	  3.595411742927 	
C	 11.973776736651 	  2.521727984116 	 13.725968462927 	
C	 12.542289766651 	  8.705286934116 	  3.595408912927 	
C	 11.973745636651 	  8.705289744116 	 13.725965632927 	
C	 27.223148166651 	  2.521734404116 	  3.623541672927 	
C	 26.654604036651 	  2.521737214116 	 13.754098392927 	
C	 27.223117066651 	  8.705296164116 	  3.623538842927 	
C	 26.654572936651 	  8.705298974116 	 13.754095562927 	
C	  1.552143674399 	  5.580597622596 	  1.681435856695 	
C	  0.983599544399 	  5.580600432596 	 11.811992576695 	
C	  1.552112574399 	 11.764159382596 	  1.681433026695 	
C	  0.983568444399 	 11.764162192596 	 11.811989746695 	
C	 16.232970974399 	  5.580606852596 	  1.709565786695 	
C	 15.664426844399 	  5.580609662596 	 11.840122506695 	
C	 16.232939874399 	 11.764168612596 	  1.709562956695 	
C	 15.664395744399 	 11.764171422596 	 11.840119676695 	
H	  1.786775923826 	  4.535051106054 	  6.829955044795 	
H	  1.218231793826 	  4.535053916054 	 16.960511764795 	
H	  1.786744823826 	 10.718612866054 	  6.829952214795 	
H	  1.218200693826 	 10.718615676054 	 16.960508934795 	
H	 16.467603223826 	  4.535060336054 	  6.858084974795 	
H	 15.899059093826 	  4.535063146054 	 16.988641694795 	
H	 16.467572123826 	 10.718622096054 	  6.858082144795 	
H	 15.899027993826 	 10.718624906054 	 16.988638864795 	
H	 11.801691852928 	  1.470055308309 	  8.841468191308 	
H	 11.233147722928 	  1.470058118309 	 18.972024911308 	
H	 11.801660752928 	  7.653617068309 	  8.841465361308 	
H	 11.233116622928 	  7.653619878309 	 18.972022081308 	
H	 26.482519152928 	  1.470064538309 	  8.869598121308 	
H	 25.913975022928 	  1.470067348309 	 19.000154841308 	
H	 26.482488052928 	  7.653626298309 	  8.869595291308 	
H	 25.913943922928 	  7.653629108309 	 19.000152011308 	
H	 12.059156969515 	  1.606072007390 	  3.642508900916 	
H	 11.490612839515 	  1.606074817390 	 13.773065620916 	
H	 12.059125869515 	  7.789633767390 	  3.642506070916 	
H	 11.490581739515 	  7.789636577390 	 13.773062790916 	
H	 26.739984269515 	  1.606081237390 	  3.670638830916 	
H	 26.171440139515 	  1.606084047390 	 13.801195550916 	
H	 26.739953169515 	  7.789642997390 	  3.670636000916 	
H	 26.171409039515 	  7.789645807390 	 13.801192720916 	
H	  2.044240774968 	  4.671068511872 	  1.630996539876 	
H	  1.475696644968 	  4.671071321872 	 11.761553259876 	
H	  2.044209674968 	 10.854630271872 	  1.630993709876 	
H	  1.475665544968 	 10.854633081872 	 11.761550429876 	
H	 16.725068074968 	  4.671077741872 	  1.659126469876 	
H	 16.156523944968 	  4.671080551872 	 11.789683189876 	
H	 16.725036974968 	 10.854639501872 	  1.659123639876 	
H	 16.156492844968 	 10.854642311872 	 11.789680359876 	
H	  1.029641746587 	  3.672178242885 	  7.885213077627 	
H	  0.461097616587 	  3.672181052885 	 18.015769797627 	
H	  1.029610646587 	  9.855740002885 	  7.885210247627 	
H	  0.461066516587 	  9.855742812885 	 18.015766967627 	
H	 15.710469046587 	  3.672187472885 	  7.913343007627 	
H	 15.141924916587 	  3.672190282885 	 18.043899727627 	
H	 15.710437946587 	  9.855749232885 	  7.913340177627 	
H	 15.141893816587 	  9.855752042885 	 18.043896897627 	
H	 12.563868648358 	  6.729866234487 	  7.784156724465 	
H	 11.995324518358 	  6.729869044487 	 17.914713444465 	
H	 12.563837548358 	 12.913427994487 	  7.784153894465 	
H	 11.995293418358 	 12.913430804487 	 17.914710614465 	
H	 27.244695948358 	  6.729875464487 	  7.812286654465 	
H	 26.676151818358 	  6.729878274487 	 17.942843374465 	
H	 27.244664848358 	 12.913437224487 	  7.812283824465 	
H	 26.676120718358 	 12.913440034487 	 17.942840544465 	
H	 12.816291960789 	  2.468946204326 	  2.587250643943 	
H	 12.247747830789 	  2.468949014326 	 12.717807363943 	
H	 12.816260860789 	  8.652507964326 	  2.587247813943 	
H	 12.247716730789 	  8.652510774326 	 12.717804533943 	
H	 27.497119260789 	  2.468955434326 	  2.615380573943 	
H	 26.928575130789 	  2.468958244326 	 12.745937293943 	
H	 27.497088160789 	  8.652517194326 	  2.615377743943 	
H	 26.928544030789 	  8.652520004326 	 12.745934463943 	
H	  1.282064173517 	 -0.588742684473 	  2.688308561511 	
H	  0.713520043517 	 -0.588739874473 	 12.818865281511 	
H	  1.282033073517 	  5.594819075527 	  2.688305731511 	
H	  0.713488943517 	  5.594821885527 	 12.818862451511 	
H	 15.962891473517 	 -0.588733454473 	  2.716438491511 	
H	 15.394347343517 	 -0.588730644473 	 12.846995211511 	
H	 15.962860373517 	  5.594828305527 	  2.716435661511 	
H	 15.394316243517 	  5.594831115527 	 12.846992381511 	
H	  0.367050945234 	  3.705862682382 	  6.257908136605 	
H	 -0.201493184766 	  3.705865492382 	 16.388464856605 	
H	  0.367019845234 	  9.889424442382 	  6.257905306605 	
H	 -0.201524284766 	  9.889427252382 	 16.388462026605 	
H	 15.047878245234 	  3.705871912382 	  6.286038066605 	
H	 14.479334115234 	  3.705874722382 	 16.416594786605 	
H	 15.047847145234 	  9.889433672382 	  6.286035236605 	
H	 14.479303015234 	  9.889436482382 	 16.416591956605 	
H	 13.226450574492 	  6.774837522234 	  9.412565185981 	
H	 12.657906444492 	  6.774840332234 	 19.543121905981 	
H	 13.226419474492 	 12.958399282234 	  9.412562355981 	
H	 12.657875344492 	 12.958402092234 	 19.543119075981 	
H	 27.907277874492 	  6.774846752234 	  9.440695115981 	
H	 27.338733744492 	  6.774849562234 	 19.571251835981 	
H	 27.907246774492 	 12.958408512234 	  9.440692285981 	
H	 27.338702644492 	 12.958411322234 	 19.571249005981 	
H	 13.478881737466 	  2.435261183813 	  4.214556353172 	
H	 12.910337607466 	  2.435263993813 	 14.345113073172 	
H	 13.478850637466 	  8.618822943813 	  4.214553523172 	
H	 12.910306507466 	  8.618825753813 	 14.345110243172 	
H	 28.159709037466 	  2.435270413813 	  4.242686283172 	
H	 27.591164907466 	  2.435273223813 	 14.373243003172 	
H	 28.159677937466 	  8.618832173813 	  4.242683453172 	
H	 27.591133807466 	  8.618834983813 	 14.373240173172 	
H	  0.619481821379 	 -0.633713814306 	  1.059900173655 	
H	  0.050937691379 	 -0.633711004306 	 11.190456893655 	
H	  0.619450721379 	  5.549847945694 	  1.059897343655 	
H	  0.050906591379 	  5.549850755694 	 11.190454063655 	
H	 15.300309121379 	 -0.633704584306 	  1.088030103655 	
H	 14.731764991379 	 -0.633701774306 	 11.218586823655 	
H	 15.300278021379 	  5.549857175694 	  1.088027273655 	
H	 14.731733891379 	  5.549859985694 	 11.218583993655 	
C	  1.283062273504 	  1.661786015076 	  6.720122947205 	
C	  0.714518143504 	  1.661788825076 	 16.850679667205 	
C	  1.283031173504 	  7.845347775076 	  6.720120117205 	
C	  0.714487043504 	  7.845350585076 	 16.850676837205 	
C	 15.963889573504 	  1.661795245076 	  6.748252877205 	
C	 15.395345443504 	  1.661798055076 	 16.878809597205 	
C	 15.963858473504 	  7.845357005076 	  6.748250047205 	
C	 15.395314343504 	  7.845359815076 	 16.878806767205 	
C	 12.309878978026 	  4.731920865064 	  8.949846596551 	
C	 11.741334848026 	  4.731923675064 	 19.080403316551 	
C	 12.309847878026 	 10.915482625064 	  8.949843766551 	
C	 11.741303748026 	 10.915485435064 	 19.080400486551 	
C	 26.990706278026 	  4.731930095064 	  8.977976526551 	
C	 26.422162148026 	  4.731932905064 	 19.108533246551 	
C	 26.990675178026 	 10.915491855064 	  8.977973696551 	
C	 26.422131048026 	 10.915494665064 	 19.108530416551 	
C	 12.562870017314 	  4.479339321055 	  3.752341317048 	
C	 11.994325887314 	  4.479342131055 	 13.882898037048 	
C	 12.562838917314 	 10.662901081055 	  3.752338487048 	
C	 11.994294787314 	 10.662903891055 	 13.882895207048 	
C	 27.243697317314 	  4.479348551055 	  3.780471247048 	
C	 26.675153187314 	  4.479351361055 	 13.911027967048 	
C	 27.243666217314 	 10.662910311055 	  3.780468417048 	
C	 26.675122087314 	 10.662913121055 	 13.911025137048 	
C	  1.536053424358 	  1.409202876777 	  1.522618958744 	
C	  0.967509294358 	  1.409205686777 	 11.653175678744 	
C	  1.536022324358 	  7.592764636777 	  1.522616128744 	
C	  0.967478194358 	  7.592767446777 	 11.653172848744 	
C	 16.216880724358 	  1.409212106777 	  1.550748888744 	
C	 15.648336594358 	  1.409214916777 	 11.681305608744 	
C	 16.216849624358 	  7.592773866777 	  1.550746058744 	
C	 15.648305494358 	  7.592776676777 	 11.681302778744 	
H	  0.293198338379 	  1.636503976152 	  6.181512371020 	
H	 -0.275345791621 	  1.636506786152 	 16.312069091020 	
H	  0.293167238379 	  7.820065736152 	  6.181509541020 	
H	 -0.275376891621 	  7.820068546152 	 16.312066261020 	
H	 14.974025638379 	  1.636513206152 	  6.209642301020 	
H	 14.405481508379 	  1.636516016152 	 16.340199021020 	
H	 14.973994538379 	  7.820074966152 	  6.209639471020 	
H	 14.405450408379 	  7.820077776152 	 16.340196191020 	
H	 13.299690001924 	  4.706925203344 	  9.488450893586 	
H	 12.731145871924 	  4.706928013344 	 19.619007613586 	
H	 13.299658901924 	 10.890486963344 	  9.488448063586 	
H	 12.731114771924 	 10.890489773344 	 19.619004783586 	
H	 27.980517301924 	  4.706934433344 	  9.516580823586 	
H	 27.411973171924 	  4.706937243344 	 19.647137543586 	
H	 27.980486201924 	 10.890496193344 	  9.516577993586 	
H	 27.411942071924 	 10.890499003344 	 19.647134713586 	
H	 13.552733688016 	  4.504621119894 	  4.290952301569 	
H	 12.984189558016 	  4.504623929894 	 14.421509021569 	
H	 13.552702588016 	 10.688182879894 	  4.290949471569 	
H	 12.984158458016 	 10.688185689894 	 14.421506191569 	
H	 28.233560988016 	  4.504630349894 	  4.319082231569 	
H	 27.665016858016 	  4.504633159894 	 14.449638951569 	
H	 28.233529888016 	 10.688192109894 	  4.319079401569 	
H	 27.664985758016 	 10.688194919894 	 14.449636121569 	
H	  0.546242351405 	  1.434198479723 	  0.984014783674 	
H	 -0.022301778595 	  1.434201289723 	 11.114571503674 	
H	  0.546211251405 	  7.617760239723 	  0.984011953674 	
H	 -0.022332878595 	  7.617763049723 	 11.114568673674 	
H	 15.227069651405 	  1.434207709723 	  1.012144713674 	
H	 14.658525521405 	  1.434210519723 	 11.142701433674 	
H	 15.227038551405 	  7.617769469723 	  1.012141883674 	
H	 14.658494421405 	  7.617772279723 	 11.142698603674 	
H	  1.097175355857 	  1.438749076610 	  7.708711877075 	
H	  0.528631225857 	  1.438751886610 	 17.839268597075 	
H	  1.097144255857 	  7.622310836610 	  7.708709047075 	
H	  0.528600125857 	  7.622313646610 	 17.839265767075 	
H	 15.778002655857 	  1.438758306610 	  7.736841807075 	
H	 15.209458525857 	  1.438761116610 	 17.867398527075 	
H	 15.777971555857 	  7.622320066610 	  7.736838977075 	
H	 15.209427425857 	  7.622322876610 	 17.867395697075 	
H	 12.495628096081 	  4.509243185398 	  7.961162962751 	
H	 11.927083966081 	  4.509245995398 	 18.091719682751 	
H	 12.495596996081 	 10.692804945398 	  7.961160132751 	
H	 11.927052866081 	 10.692807755398 	 18.091716852751 	
H	 27.176455396081 	  4.509252415398 	  7.989292892751 	
H	 26.607911266081 	  4.509255225398 	 18.119849612751 	
H	 27.176424296081 	 10.692814175398 	  7.989290062751 	
H	 26.607880166081 	 10.692816985398 	 18.119846782751 	
H	 12.748756861828 	  4.702376339094 	  2.763752376910 	
H	 12.180212731828 	  4.702379149094 	 12.894309096910 	
H	 12.748725761828 	 10.885938099094 	  2.763749546910 	
H	 12.180181631828 	 10.885940909094 	 12.894306266910 	
H	 27.429584161828 	  4.702385569094 	  2.791882306910 	
H	 26.861040031828 	  4.702388379094 	 12.922439026910 	
H	 27.429553061828 	 10.885947329094 	  2.791879476910 	
H	 26.861008931828 	 10.885950139094 	 12.922436196910 	
H	  1.350304359047 	  1.631880317777 	  2.511302632251 	
H	  0.781760229047 	  1.631883127777 	 12.641859352251 	
H	  1.350273259047 	  7.815442077777 	  2.511299802251 	
H	  0.781729129047 	  7.815444887777 	 12.641856522251 	
H	 16.031131659047 	  1.631889547777 	  2.539432562251 	
H	 15.462587529047 	  1.631892357777 	 12.669989282251 	
H	 16.031100559047 	  7.815451307777 	  2.539429732251 	
H	 15.462556429047 	  7.815454117777 	 12.669986452251 	
H	  1.733155643198 	  0.785238215900 	  6.477509869613 	
H	  1.164611513198 	  0.785241025900 	 16.608066589613 	
H	  1.733124543198 	  6.968799975900 	  6.477507039613 	
H	  1.164580413198 	  6.968802785900 	 16.608063759613 	
H	 16.413982943198 	  0.785247445900 	  6.505639799613 	
H	 15.845438813198 	  0.785250255900 	 16.636196519613 	
H	 16.413951843198 	  6.968809205900 	  6.505636969613 	
H	 15.845407713198 	  6.968812015900 	 16.636193689613 	
H	 11.859579427418 	  3.855527513075 	  9.192460461703 	
H	 11.291035297418 	  3.855530323075 	 19.323017181703 	
H	 11.859548327418 	 10.039089273075 	  9.192457631703 	
H	 11.291004197418 	 10.039092083075 	 19.323014351703 	
H	 26.540406727418 	  3.855536743075 	  9.220590391703 	
H	 25.971862597418 	  3.855539553075 	 19.351147111703 	
H	 26.540375627418 	 10.039098503075 	  9.220587561703 	
H	 25.971831497418 	 10.039101313075 	 19.351144281703 	
H	 12.112775659918 	  5.355887234169 	  3.994955907783 	
H	 11.544231529918 	  5.355890044169 	 14.125512627783 	
H	 12.112744559918 	 11.539448994169 	  3.994953077783 	
H	 11.544200429918 	 11.539451804169 	 14.125509797783 	
H	 26.793602959918 	  5.355896464169 	  4.023085837783 	
H	 26.225058829918 	  5.355899274169 	 14.153642557783 	
H	 26.793571859918 	 11.539458224169 	  4.023083007783 	
H	 26.225027729918 	 11.539461034169 	 14.153639727783 	
H	  1.986352886590 	  2.285596359041 	  1.280005499416 	
H	  1.417808756590 	  2.285599169041 	 11.410562219416 	
H	  1.986321786590 	  8.469158119041 	  1.280002669416 	
H	  1.417777656590 	  8.469160929041 	 11.410559389416 	
H	 16.667180186590 	  2.285605589041 	  1.308135429416 	
H	 16.098636056590 	  2.285608399041 	 11.438692149416 	
H	 16.667149086590 	  8.469167349041 	  1.308132599416 	
H	 16.098604956590 	  8.469170159041 	 11.438689319416 	
768 
Energy: -6.6815006274070001e+01 
S	  8.500835317357 	  1.457640979393 	  0.091148619290 	
S	  7.932291187357 	  1.457643789393 	 10.221705339290 	
S	  8.500804217357 	  7.641202739393 	  0.091145789290 	
S	  7.932260087357 	  7.641205549393 	 10.221702509290 	
S	 23.181662617357 	  1.457650209393 	  0.119278549290 	
S	 22.613118487357 	  1.457653019393 	 10.249835269290 	
S	 23.181631517357 	  7.641211969393 	  0.119275719290 	
S	 22.613087387357 	  7.641214779393 	 10.249832439290 	
S	  5.538341820865 	  4.523842164188 	  5.220244632939 	
S	  4.969797690865 	  4.523844974188 	 15.350801352939 	
S	  5.538310720865 	 10.707403924188 	  5.220241802939 	
S	  4.969766590865 	 10.707406734188 	 15.350798522939 	
S	 20.219169120865 	  4.523851394188 	  5.248374562939 	
S	 19.650624990865 	  4.523854204188 	 15.378931282939 	
S	 20.219138020865 	 10.707413154188 	  5.248371732939 	
S	 19.650593890865 	 10.707415964188 	 15.378928452939 	
S	  5.291427301017 	  4.674927888808 	 10.444550596705 	
S	  4.722883171017 	  4.674930698808 	 20.575107316705 	
S	  5.291396201017 	 10.858489648808 	 10.444547766705 	
S	  4.722852071017 	 10.858492458808 	 20.575104486705 	
S	 19.972254601017 	  4.674937118808 	 10.472680526705 	
S	 19.403710471017 	  4.674939928808 	 20.603237246705 	
S	 19.972223501017 	 10.858498878808 	 10.472677696705 	
S	 19.403679371017 	 10.858501688808 	 20.603234416705 	
S	  8.253921774053 	  1.608726974794 	  5.315454437281 	
S	  7.685377644053 	  1.608729784794 	 15.446011157281 	
S	  8.253890674053 	  7.792288734794 	  5.315451607281 	
S	  7.685346544053 	  7.792291544794 	 15.446008327281 	
S	 22.934749074053 	  1.608736204794 	  5.343584367281 	
S	 22.366204944053 	  1.608739014794 	 15.474141087281 	
S	 22.934717974053 	  7.792297964794 	  5.343581537281 	
S	 22.366173844053 	  7.792300774794 	 15.474138257281 	
C	  6.653567181217 	  2.495894188013 	 10.118194823947 	
C	  6.085023051217 	  2.495896998013 	 20.248751543947 	
C	  6.653536081217 	  8.679455948013 	 10.118191993947 	
C	  6.084991951217 	  8.679458758013 	 20.248748713947 	
C	 21.334394481217 	  2.495903418013 	 10.146324753947 	
C	 20.765850351217 	  2.495906228013 	 20.276881473947 	
C	 21.334363381217 	  8.679465178013 	 10.146321923947 	
C	 20.765819251217 	  8.679467988013 	 20.276878643947 	
C	  6.891560725631 	  5.561026079596 	  5.643282976643 	
C	  6.323016595631 	  5.561028889596 	 15.773839696643 	
C	  6.891529625631 	 11.744587839596 	  5.643280146643 	
C	  6.322985495631 	 11.744590649596 	 15.773836866643 	
C	 21.572388025631 	  5.561035309596 	  5.671412906643 	
C	 21.003843895631 	  5.561038119596 	 15.801969626643 	
C	 21.572356925631 	 11.744597069596 	  5.671410076643 	
C	 21.003812795631 	 11.744599879596 	 15.801966796643 	
C	  7.138695444280 	  3.636674652614 	  0.417504278005 	
C	  6.570151314280 	  3.636677462614 	 10.548060998005 	
C	  7.138664344280 	  9.820236412614 	  0.417501448005 	
C	  6.570120214280 	  9.820239222614 	 10.548058168005 	
C	 21.819522744280 	  3.636683882614 	  0.445634208005 	
C	 21.250978614280 	  3.636686692614 	 10.576190928005 	
C	 21.819491644280 	  9.820245642614 	  0.445631378005 	
C	 21.250947514280 	  9.820248452614 	 10.576188098005 	
C	  6.900702728646 	  0.571543145970 	  4.892415977651 	
C	  6.332158598646 	  0.571545955970 	 15.022972697651 	
C	  6.900671628646 	  6.755104905970 	  4.892413147651 	
C	  6.332127498646 	  6.755107715970 	 15.022969867651 	
C	 21.581530028646 	  0.571552375970 	  4.920545907651 	
C	 21.012985898646 	  0.571555185970 	 15.051102627651 	
C	 21.581498928646 	  6.755114135970 	  4.920543077651 	
C	 21.012954798646 	  6.755116945970 	 15.051099797651 	
C	  5.600244679153 	  2.369191350695 	  9.168910047582 	
C	  5.031700549153 	  2.369194160695 	 19.299466767582 	
C	  5.600213579153 	  8.552753110695 	  9.168907217582 	
C	  5.031669449153 	  8.552755920695 	 19.299463937582 	
C	 20.281071979153 	  2.369200580695 	  9.197039977582 	
C	 19.712527849153 	  2.369203390695 	 19.327596697582 	
C	 20.281040879153 	  8.552762340695 	  9.197037147582 	
C	 19.712496749153 	  8.552765150695 	 19.327593867582 	
C	  7.943419816854 	  5.433778603695 	  6.591197074145 	
C	  7.374875686854 	  5.433781413695 	 16.721753794145 	
C	  7.943388716854 	 11.617340363695 	  6.591194244145 	
C	  7.374844586854 	 11.617343173695 	 16.721750964145 	
C	 22.624247116854 	  5.433787833695 	  6.619327004145 	
C	 22.055702986854 	  5.433790643695 	 16.749883724145 	
C	 22.624216016854 	 11.617349593695 	  6.619324174145 	
C	 22.055671886854 	 11.617352403695 	 16.749880894145 	
C	  8.192017875527 	  3.763377551278 	  1.366789002113 	
C	  7.623473745527 	  3.763380361278 	 11.497345722113 	
C	  8.191986775527 	  9.946939311278 	  1.366786172113 	
C	  7.623442645527 	  9.946942121278 	 11.497342892113 	
C	 22.872845175527 	  3.763386781278 	  1.394918932113 	
C	 22.304301045527 	  3.763389591278 	 11.525475652113 	
C	 22.872814075527 	  9.946948541278 	  1.394916102113 	
C	 22.304269945527 	  9.946951351278 	 11.525472822113 	
C	  5.848843478154 	  0.698790627871 	  3.944502005148 	
C	  5.280299348154 	  0.698793437871 	 14.075058725148 	
C	  5.848812378154 	  6.882352387871 	  3.944499175148 	
C	  5.280268248154 	  6.882355197871 	 14.075055895148 	
C	 20.529670778154 	  0.698799857871 	  3.972631935148 	
C	 19.961126648154 	  0.698802667871 	 14.103188655148 	
C	 20.529639678154 	  6.882361617871 	  3.972629105148 	
C	 19.961095548154 	  6.882364427871 	 14.103185825148 	
C	  4.749172912070 	  3.494960853301 	  9.229579041253 	
C	  4.180628782070 	  3.494963663301 	 19.360135761253 	
C	  4.749141812070 	  9.678522613301 	  9.229576211253 	
C	  4.180597682070 	  9.678525423301 	 19.360132931253 	
C	 19.430000212070 	  3.494970083301 	  9.257708971253 	
C	 18.861456082070 	  3.494972893301 	 19.388265691253 	
C	 19.429969112070 	  9.678531843301 	  9.257706141253 	
C	 18.861424982070 	  9.678534653301 	 19.388262861253 	
C	  8.797831324304 	  0.430409139783 	  6.530197852348 	
C	  8.229287194304 	  0.430411949783 	 16.660754572348 	
C	  8.797800224304 	  6.613970899783 	  6.530195022348 	
C	  8.229256094304 	  6.613973709783 	 16.660751742348 	
C	 23.478658624304 	  0.430418369783 	  6.558327782348 	
C	 22.910114494304 	  0.430421179783 	 16.688884502348 	
C	 23.478627524304 	  6.613980129783 	  6.558324952348 	
C	 22.910083394304 	  6.613982939783 	 16.688881672348 	
C	  9.043089638504 	  2.637608043050 	  1.306120054681 	
C	  8.474545508504 	  2.637610853050 	 11.436676774681 	
C	  9.043058538504 	  8.821169803050 	  1.306117224681 	
C	  8.474514408504 	  8.821172613050 	 11.436673944681 	
C	 23.723916938504 	  2.637617273050 	  1.334249984681 	
C	 23.155372808504 	  2.637620083050 	 11.464806704681 	
C	 23.723885838504 	  8.821179033050 	  1.334247154681 	
C	 23.155341708504 	  8.821181843050 	 11.464803874681 	
C	  4.994432044810 	  5.702160066329 	  4.005501350245 	
C	  4.425887914810 	  5.702162876329 	 14.136058070245 	
C	  4.994400944810 	 11.885721826329 	  4.005498520245 	
C	  4.425856814810 	 11.885724636329 	 14.136055240245 	
C	 19.675259344810 	  5.702169296329 	  4.033631280245 	
C	 19.106715214810 	  5.702172106329 	 14.164188000245 	
C	 19.675228244810 	 11.885731056329 	  4.033628450245 	
C	 19.106684114810 	 11.885733866329 	 14.164185170245 	
C	  3.644246296977 	  3.594472063120 	  8.426243529631 	
C	  3.075702166977 	  3.594474873120 	 18.556800249631 	
C	  3.644215196977 	  9.778033823120 	  8.426240699631 	
C	  3.075671066977 	  9.778036633120 	 18.556797419631 	
C	 18.325073596977 	  3.594481293120 	  8.454373459631 	
C	 17.756529466977 	  3.594484103120 	 18.584930179631 	
C	 18.325042496977 	  9.778043053120 	  8.454370629631 	
C	 17.756498366977 	  9.778045863120 	 18.584927349631 	
C	  9.900399175231 	  0.529488935675 	  7.331900701046 	
C	  9.331855045231 	  0.529491745675 	 17.462457421046 	
C	  9.900368075231 	  6.713050695675 	  7.331897871046 	
C	  9.331823945231 	  6.713053505675 	 17.462454591046 	
C	 24.581226475231 	  0.529498165675 	  7.360030631046 	
C	 24.012682345231 	  0.529500975675 	 17.490587351046 	
C	 24.581195375231 	  6.713059925675 	  7.360027801046 	
C	 24.012651245231 	  6.713062735675 	 17.490584521046 	
C	 10.148016241667 	  2.538096951589 	  2.109455734198 	
C	  9.579472111667 	  2.538099761589 	 12.240012454198 	
C	 10.147985141667 	  8.721658711589 	  2.109452904198 	
C	  9.579441011667 	  8.721661521589 	 12.240009624198 	
C	 24.828843541667 	  2.538106181589 	  2.137585664198 	
C	 24.260299411667 	  2.538108991589 	 12.268142384198 	
C	 24.828812441667 	  8.721667941589 	  2.137582834198 	
C	 24.260268311667 	  8.721670751589 	 12.268139554198 	
C	  3.891863878471 	  5.603080315555 	  3.203798837070 	
C	  3.323319748471 	  5.603083125555 	 13.334355557070 	
C	  3.891832778471 	 11.786642075555 	  3.203796007070 	
C	  3.323288648471 	 11.786644885555 	 13.334352727070 	
C	 18.572691178471 	  5.603089545555 	  3.231928767070 	
C	 18.004147048471 	  5.603092355555 	 13.362485487070 	
C	 18.572660078471 	 11.786651305555 	  3.231925937070 	
C	 18.004115948471 	 11.786654115555 	 13.362482657070 	
H	  2.997266782574 	  4.517006331808 	  8.506863591419 	
H	  2.428722652574 	  4.517009141808 	 18.637420311419 	
H	  2.997235682574 	 10.700568091808 	  8.506860761419 	
H	  2.428691552574 	 10.700570901808 	 18.637417481419 	
H	 17.678094082574 	  4.517015561808 	  8.534993521419 	
H	 17.109549952574 	  4.517018371808 	 18.665550241419 	
H	 17.678062982574 	 10.700577321808 	  8.534990691419 	
H	 17.109518852574 	 10.700580131808 	 18.665547411419 	
H	 10.548104662852 	  1.450991199575 	  7.252913150262 	
H	  9.979560532852 	  1.450994009575 	 17.383469870262 	
H	 10.548073562852 	  7.634552959575 	  7.252910320262 	
H	  9.979529432852 	  7.634555769575 	 17.383467040262 	
H	 25.228931962852 	  1.451000429575 	  7.281043080262 	
H	 24.660387832852 	  1.451003239575 	 17.411599800262 	
H	 25.228900862852 	  7.634562189575 	  7.281040250262 	
H	 24.660356732852 	  7.634564999575 	 17.411596970262 	
H	 10.794995697447 	  1.615562635148 	  2.028835796977 	
H	 10.226451567447 	  1.615565445148 	 12.159392516977 	
H	 10.794964597447 	  7.799124395148 	  2.028832966977 	
H	 10.226420467447 	  7.799127205148 	 12.159389686977 	
H	 25.475822997447 	  1.615571865148 	  2.056965726977 	
H	 24.907278867447 	  1.615574675148 	 12.187522446977 	
H	 25.475791897447 	  7.799133625148 	  2.056962896977 	
H	 24.907247767447 	  7.799136435148 	 12.187519616977 	
H	  3.244158523260 	  4.681577973537 	  3.282786515243 	
H	  2.675614393260 	  4.681580783537 	 13.413343235243 	
H	  3.244127423260 	 10.865139733537 	  3.282783685243 	
H	  2.675583293260 	 10.865142543537 	 13.413340405243 	
H	 17.924985823260 	  4.681587203537 	  3.310916445243 	
H	 17.356441693260 	  4.681590013537 	 13.441473165243 	
H	 17.924954723260 	 10.865148963537 	  3.310913615243 	
H	 17.356410593260 	 10.865151773537 	 13.441470335243 	
C	  3.315538550184 	  2.601926934878 	  7.527076609281 	
C	  2.746994420184 	  2.601929744878 	 17.657633329281 	
C	  3.315507450184 	  8.785488694878 	  7.527073779281 	
C	  2.746963320184 	  8.785491504878 	 17.657630499281 	
C	 17.996365850184 	  2.601936164878 	  7.555206539281 	
C	 17.427821720184 	  2.601938974878 	 17.685763259281 	
C	 17.996334750184 	  8.785497924878 	  7.555203709281 	
C	 17.427790620184 	  8.785500734878 	 17.685760429281 	
C	 10.230331113362 	  5.666687553555 	  8.234666744211 	
C	  9.661786983362 	  5.666690363555 	 18.365223464211 	
C	 10.230300013362 	 11.850249313555 	  8.234663914211 	
C	  9.661755883362 	 11.850252123555 	 18.365220634211 	
C	 24.911158413362 	  5.666696783555 	  8.262796674211 	
C	 24.342614283362 	  5.666699593555 	 18.393353394211 	
C	 24.911127313362 	 11.850258543555 	  8.262793844211 	
C	 24.342583183362 	 11.850261353555 	 18.393350564211 	
C	 10.476723858433 	  3.530642157641 	  3.008622472598 	
C	  9.908179728433 	  3.530644967641 	 13.139179192598 	
C	 10.476692758433 	  9.714203917641 	  3.008619642598 	
C	  9.908148628433 	  9.714206727641 	 13.139176362598 	
C	 25.157551158433 	  3.530651387641 	  3.036752402598 	
C	 24.589007028433 	  3.530654197641 	 13.167309122598 	
C	 25.157520058433 	  9.714213147641 	  3.036749572598 	
C	 24.588975928433 	  9.714215957641 	 13.167306292598 	
C	  3.561931699200 	  0.465881729824 	  2.301032926685 	
C	  2.993387569200 	  0.465884539824 	 12.431589646685 	
C	  3.561900599200 	  6.649443489824 	  2.301030096685 	
C	  2.993356469200 	  6.649446299824 	 12.431586816685 	
C	 18.242758999200 	  0.465890959824 	  2.329162856685 	
C	 17.674214869200 	  0.465893769824 	 12.459719576685 	
C	 18.242727899200 	  6.649452719824 	  2.329160026685 	
C	 17.674183769200 	  6.649455529824 	 12.459716746685 	
C	  4.182801199751 	  1.510969220137 	  7.457866830221 	
C	  3.614257069751 	  1.510972030137 	 17.588423550221 	
C	  4.182770099751 	  7.694530980137 	  7.457864000221 	
C	  3.614225969751 	  7.694533790137 	 17.588420720221 	
C	 18.863628499751 	  1.510978450137 	  7.485996760221 	
C	 18.295084369751 	  1.510981260137 	 17.616553480221 	
C	 18.863597399751 	  7.694540210137 	  7.485993930221 	
C	 18.295053269751 	  7.694543020137 	 17.616550650221 	
C	  9.362523730073 	  4.577203065686 	  8.302117934970 	
C	  8.793979600073 	  4.577205875686 	 18.432674654970 	
C	  9.362492630073 	 10.760764825686 	  8.302115104970 	
C	  8.793948500073 	 10.760767635686 	 18.432671824970 	
C	 24.043351030073 	  4.577212295686 	  8.330247864970 	
C	 23.474806900073 	  4.577215105686 	 18.460804584970 	
C	 24.043319930073 	 10.760774055686 	  8.330245034970 	
C	 23.474775800073 	 10.760776865686 	 18.460801754970 	
C	  9.609461224381 	  4.621599883968 	  3.077832186487 	
C	  9.040917094381 	  4.621602693968 	 13.208388906487 	
C	  9.609430124381 	 10.805161643968 	  3.077829356487 	
C	  9.040885994381 	 10.805164453968 	 13.208386076487 	
C	 24.290288524381 	  4.621609113968 	  3.105962116487 	
C	 23.721744394381 	  4.621611923968 	 13.236518836487 	
C	 24.290257424381 	 10.805170873968 	  3.105959286487 	
C	 23.721713294381 	 10.805173683968 	 13.236516006487 	
C	  4.429739023780 	  1.555366170771 	  2.233581504497 	
C	  3.861194893780 	  1.555368980771 	 12.364138224497 	
C	  4.429707923780 	  7.738927930771 	  2.233578674497 	
C	  3.861163793780 	  7.738930740771 	 12.364135394497 	
C	 19.110566323780 	  1.555375400771 	  2.261711434497 	
C	 18.542022193780 	  1.555378210771 	 12.392268154497 	
C	 19.110535223780 	  7.738937160771 	  2.261708604497 	
C	 18.541991093780 	  7.738939970771 	 12.392265324497 	
H	  3.970705650935 	  0.688873077662 	  6.714016266960 	
H	  3.402161520935 	  0.688875887662 	 16.844572986960 	
H	  3.970674550935 	  6.872434837662 	  6.714013436960 	
H	  3.402130420935 	  6.872437647662 	 16.844570156960 	
H	 18.651532950935 	  0.688882307662 	  6.742146196960 	
H	 18.082988820935 	  0.688885117662 	 16.872702916960 	
H	 18.651501850935 	  6.872444067662 	  6.742143366960 	
H	 18.082957720935 	  6.872446877662 	 16.872700086960 	
H	  9.574608751877 	  3.755121852031 	  9.045911266880 	
H	  9.006064621877 	  3.755124662031 	 19.176467986880 	
H	  9.574577651877 	  9.938683612031 	  9.045908436880 	
H	  9.006033521877 	  9.938686422031 	 19.176465156880 	
H	 24.255436051877 	  3.755131082031 	  9.074041196880 	
H	 23.686891921877 	  3.755133892031 	 19.204597916880 	
H	 24.255404951877 	  9.938692842031 	  9.074038366880 	
H	 23.686860821877 	  9.938695652031 	 19.204595086880 	
H	  9.821556856841 	  5.443696127243 	  3.821682617080 	
H	  9.253012726841 	  5.443698937243 	 13.952239337080 	
H	  9.821525756841 	 11.627257887243 	  3.821679787080 	
H	  9.252981626841 	 11.627260697243 	 13.952236507080 	
H	 24.502384156841 	  5.443705357243 	  3.849812547080 	
H	 23.933840026841 	  5.443708167243 	 13.980369267080 	
H	 24.502353056841 	 11.627267117243 	  3.849809717080 	
H	 23.933808926841 	 11.627269927243 	 13.980366437080 	
H	  4.217653758802 	  2.377447470171 	  1.489788339364 	
H	  3.649109628802 	  2.377450280171 	 11.620345059364 	
H	  4.217622658802 	  8.561009230171 	  1.489785509364 	
H	  3.649078528802 	  8.561012040171 	 11.620342229364 	
H	 18.898481058802 	  2.377456700171 	  1.517918269364 	
H	 18.329936928802 	  2.377459510171 	 11.648474989364 	
H	 18.898449958802 	  8.561018460171 	  1.517915439364 	
H	 18.329905828802 	  8.561021270171 	 11.648472159364 	
C	  5.279888541921 	  1.390632927054 	  8.236882600767 	
C	  4.711344411921 	  1.390635737054 	 18.367439320767 	
C	  5.279857441921 	  7.574194687054 	  8.236879770767 	
C	  4.711313311921 	  7.574197497054 	 18.367436490767 	
C	 19.960715841921 	  1.390642157054 	  8.265012530767 	
C	 19.392171711921 	  1.390644967054 	 18.395569250767 	
C	 19.960684741921 	  7.574203917054 	  8.265009700767 	
C	 19.392140611921 	  7.574206727054 	 18.395566420767 	
C	  8.265406664139 	  4.456866168923 	  7.523087021898 	
C	  7.696862534139 	  4.456868978923 	 17.653643741898 	
C	  8.265375564139 	 10.640427928923 	  7.523084191898 	
C	  7.696831434139 	 10.640430738923 	 17.653640911898 	
C	 22.946233964139 	  4.456875398923 	  7.551216951898 	
C	 22.377689834139 	  4.456878208923 	 17.681773671898 	
C	 22.946202864139 	 10.640437158923 	  7.551214121898 	
C	 22.377658734139 	 10.640439968923 	 17.681770841898 	
C	  8.512373946777 	  4.741936088693 	  2.298816326937 	
C	  7.943829816777 	  4.741938898693 	 12.429373046937 	
C	  8.512342846777 	 10.925497848693 	  2.298813496937 	
C	  7.943798716777 	 10.925500658693 	 12.429370216937 	
C	 23.193201246777 	  4.741945318693 	  2.326946256937 	
C	 22.624657116777 	  4.741948128693 	 12.457502976937 	
C	 23.193170146777 	 10.925507078693 	  2.326943426937 	
C	 22.624626016777 	 10.925509888693 	 12.457500146937 	
C	  5.526856337988 	  1.675703081346 	  3.012612176401 	
C	  4.958312207988 	  1.675705891346 	 13.143168896401 	
C	  5.526825237988 	  7.859264841346 	  3.012609346401 	
C	  4.958281107988 	  7.859267651346 	 13.143166066401 	
C	 20.207683637988 	  1.675712311346 	  3.040742106401 	
C	 19.639139507988 	  1.675715121346 	 13.171298826401 	
C	 20.207652537988 	  7.859274071346 	  3.040739276401 	
C	 19.639108407988 	  7.859276881346 	 13.171295996401 	
H	  5.948740508806 	  0.485498672756 	  8.140397208130 	
H	  5.380196378806 	  0.485501482756 	 18.270953928130 	
H	  5.948709408806 	  6.669060432756 	  8.140394378130 	
H	  5.380165278806 	  6.669063242756 	 18.270951098130 	
H	 20.629567808806 	  0.485507902756 	  8.168527138130 	
H	 20.061023678806 	  0.485510712756 	 18.299083858130 	
H	 20.629536708806 	  6.669069662756 	  8.168524308130 	
H	 20.060992578806 	  6.669072472756 	 18.299081028130 	
H	  7.596566062325 	  3.551773387875 	  7.619567469031 	
H	  7.028021932325 	  3.551776197875 	 17.750124189031 	
H	  7.596534962325 	  9.735335147875 	  7.619564639031 	
H	  7.027990832325 	  9.735337957875 	 17.750121359031 	
H	 22.277393362325 	  3.551782617875 	  7.647697399031 	
H	 21.708849232325 	  3.551785427875 	 17.778254119031 	
H	 22.277362262325 	  9.735344377875 	  7.647694569031 	
H	 21.708818132325 	  9.735347187875 	 17.778251289031 	
H	  7.843521932870 	  5.647070326826 	  2.395301582465 	
H	  7.274977802870 	  5.647073136826 	 12.525858302465 	
H	  7.843490832870 	 11.830632086826 	  2.395298752465 	
H	  7.274946702870 	 11.830634896826 	 12.525855472465 	
H	 22.524349232870 	  5.647079556826 	  2.423431512465 	
H	 21.955805102870 	  5.647082366826 	 12.553988232465 	
H	 22.524318132870 	 11.830641316826 	  2.423428682465 	
H	 21.955774002870 	 11.830644126826 	 12.553985402465 	
H	  6.195696922081 	  2.580795864951 	  2.916131607796 	
H	  5.627152792081 	  2.580798674951 	 13.046688327796 	
H	  6.195665822081 	  8.764357624951 	  2.916128777796 	
H	  5.627121692081 	  8.764360434951 	 13.046685497796 	
H	 20.876524222081 	  2.580805094951 	  2.944261537796 	
H	 20.307980092081 	  2.580807904951 	 13.074818257796 	
H	 20.876493122081 	  8.764366854951 	  2.944258707796 	
H	 20.307948992081 	  8.764369664951 	 13.074815427796 	
C	  2.030767932615 	  2.694626922489 	  6.637558866123 	
C	  1.462223802615 	  2.694629732489 	 16.768115586123 	
C	  2.030736832615 	  8.878188682489 	  6.637556036123 	
C	  1.462192702615 	  8.878191492489 	 16.768112756123 	
C	 16.711595232615 	  2.694636152489 	  6.665688796123 	
C	 16.143051102615 	  2.694638962489 	 16.796245516123 	
C	 16.711564132615 	  8.878197912489 	  6.665685966123 	
C	 16.143020002615 	  8.878200722489 	 16.796242686123 	
C	 11.512850655001 	  5.759369940871 	  9.122177208280 	
C	 10.944306525001 	  5.759372750871 	 19.252733928280 	
C	 11.512819555001 	 11.942931700871 	  9.122174378280 	
C	 10.944275425001 	 11.942934510871 	 19.252731098280 	
C	 26.193677955001 	  5.759379170871 	  9.150307138280 	
C	 25.625133825001 	  5.759381980871 	 19.280863858280 	
C	 26.193646855001 	 11.942940930871 	  9.150304308280 	
C	 25.625102725001 	 11.942943740871 	 19.280861028280 	
C	 11.761494323953 	  3.437942429221 	  3.898140337004 	
C	 11.192950193953 	  3.437945239221 	 14.028697057004 	
C	 11.761463223953 	  9.621504189221 	  3.898137507004 	
C	 11.192919093953 	  9.621506999221 	 14.028694227004 	
C	 26.442321623953 	  3.437951659221 	  3.926270267004 	
C	 25.873777493953 	  3.437954469221 	 14.056826987004 	
C	 26.442290523953 	  9.621513419221 	  3.926267437004 	
C	 25.873746393953 	  9.621516229221 	 14.056824157004 	
C	  2.279411900548 	  0.373199293011 	  1.413522767839 	
C	  1.710867770548 	  0.373202103011 	 11.544079487839 	
C	  2.279380800548 	  6.556761053011 	  1.413519937839 	
C	  1.710836670548 	  6.556763863011 	 11.544076657839 	
C	 16.960239200548 	  0.373208523011 	  1.441652697839 	
C	 16.391695070548 	  0.373211333011 	 11.572209417839 	
C	 16.960208100548 	  6.556770283011 	  1.441649867839 	
C	 16.391663970548 	  6.556773093011 	 11.572206587839 	
C	  2.231602129045 	  2.672664687956 	  5.409389035451 	
C	  1.663057999045 	  2.672667497956 	 15.539945755451 	
C	  2.231571029045 	  8.856226447956 	  5.409386205451 	
C	  1.663026899045 	  8.856229257956 	 15.539942925451 	
C	 16.912429429045 	  2.672673917956 	  5.437518965451 	
C	 16.343885299045 	  2.672676727956 	 15.568075685451 	
C	 16.912398329045 	  8.856235677956 	  5.437516135451 	
C	 16.343854199045 	  8.856238487956 	 15.568072855451 	
C	 11.301922923312 	 -0.406365219655 	 10.356926391078 	
C	 10.733378793312 	 -0.406362409655 	 20.487483111078 	
C	 11.301891823312 	  5.777196540345 	 10.356923561078 	
C	 10.733347693312 	  5.777199350345 	 20.487480281078 	
C	 25.982750223312 	 -0.406355989655 	 10.385056321078 	
C	 25.414206093312 	 -0.406353179655 	 20.515613041078 	
C	 25.982719123312 	  5.777205770345 	 10.385053491078 	
C	 25.414174993312 	  5.777208580345 	 20.515610211078 	
C	 11.560659461857 	  3.459904032173 	  5.126311018152 	
C	 10.992115331857 	  3.459906842173 	 15.256867738152 	
C	 11.560628361857 	  9.643465792173 	  5.126308188152 	
C	 10.992084231857 	  9.643468602173 	 15.256864908152 	
C	 26.241486761857 	  3.459913262173 	  5.154440948152 	
C	 25.672942631857 	  3.459916072173 	 15.284997668152 	
C	 26.241455661857 	  9.643475022173 	  5.154438118152 	
C	 25.672911531857 	  9.643477832173 	 15.284994838152 	
C	  2.490339379848 	  6.538934595559 	  0.178773505219 	
C	  1.921795249848 	  6.538937405559 	 10.309330225219 	
C	  2.490308279848 	 12.722496355559 	  0.178770675219 	
C	  1.921764149848 	 12.722499165559 	 10.309327395219 	
C	 17.171166679848 	  6.538943825559 	  0.206903435219 	
C	 16.602622549848 	  6.538946635559 	 10.337460155219 	
C	 17.171135579848 	 12.722505585559 	  0.206900605219 	
C	 16.602591449848 	 12.722508395559 	 10.337457325219 	
H	  2.950322647987 	  3.325437926500 	  5.124655998296 	
H	  2.381778517987 	  3.325440736500 	 15.255212718296 	
H	  2.950291547987 	  9.508999686500 	  5.124653168296 	
H	  2.381747417987 	  9.509002496500 	 15.255209888296 	
H	 17.631149947987 	  3.325447156500 	  5.152785928296 	
H	 17.062605817987 	  3.325449966500 	 15.283342648296 	
H	 17.631118847987 	  9.509008916500 	  5.152783098296 	
H	 17.062574717987 	  9.509011726500 	 15.283339818296 	
H	 10.601140647954 	  0.262991699764 	 10.632697149631 	
H	 10.032596517954 	  0.262994509764 	 20.763253869631 	
H	 10.601109547954 	  6.446553459764 	 10.632694319631 	
H	 10.032565417954 	  6.446556269764 	 20.763251039631 	
H	 25.281967947954 	  0.263000929764 	 10.660827079631 	
H	 24.713423817954 	  0.263003739764 	 20.791383799631 	
H	 25.281936847954 	  6.446562689764 	 10.660824249631 	
H	 24.713392717954 	  6.446565499764 	 20.791380969631 	
H	 10.841939145153 	  2.807129014836 	  5.411043498801 	
H	 10.273395015153 	  2.807131824836 	 15.541600218801 	
H	 10.841908045153 	  8.990690774836 	  5.411040668801 	
H	 10.273363915153 	  8.990693584836 	 15.541597388801 	
H	 25.522766445153 	  2.807138244836 	  5.439173428801 	
H	 24.954222315153 	  2.807141054836 	 15.569730148801 	
H	 25.522735345153 	  8.990700004836 	  5.439170598801 	
H	 24.954191215153 	  8.990702814836 	 15.569727318801 	
H	  3.191121503062 	  5.869577823530 	 -0.096997549290 	
H	  2.622577373062 	  5.869580633530 	 10.033559170710 	
H	  3.191090403062 	 12.053139583530 	 -0.097000379290 	
H	  2.622546273062 	 12.053142393530 	 10.033556340710 	
H	 17.871948803062 	  5.869587053530 	 -0.068867619290 	
H	 17.303404673062 	  5.869589863530 	 10.061689100710 	
H	 17.871917703062 	 12.053148813530 	 -0.068870449290 	
H	 17.303373573062 	 12.053151623530 	 10.061686270710 	
H	  1.390196005336 	  2.793861755847 	  4.665539315072 	
H	  0.821651875336 	  2.793864565847 	 14.796096035072 	
H	  1.390164905336 	  8.977423515847 	  4.665536485072 	
H	  0.821620775336 	  8.977426325847 	 14.796093205072 	
H	 16.071023305336 	  2.793870985847 	  4.693669245072 	
H	 15.502479175336 	  2.793873795847 	 14.824225965072 	
H	 16.070992205336 	  8.977432745847 	  4.693666415072 	
H	 15.502448075336 	  8.977435555847 	 14.824223135072 	
H	 12.641427037563 	 -0.273277815549 	  0.640594750672 	
H	 12.072882907563 	 -0.273275005549 	 10.771151470672 	
H	 12.641395937563 	  5.910283944451 	  0.640591920672 	
H	 12.072851807563 	  5.910286754451 	 10.771148640672 	
H	 27.322254337563 	 -0.273268585549 	  0.668724680672 	
H	 26.753710207563 	 -0.273265775549 	 10.799281400672 	
H	 27.322223237563 	  5.910293174451 	  0.668721850672 	
H	 26.753679107563 	  5.910295984451 	 10.799278570672 	
H	 12.402065541785 	  3.338707537770 	  5.870160440953 	
H	 11.833521411785 	  3.338710347770 	 16.000717160953 	
H	 12.402034441785 	  9.522269297770 	  5.870157610953 	
H	 11.833490311785 	  9.522272107770 	 16.000714330953 	
H	 27.082892841785 	  3.338716767770 	  5.898290370953 	
H	 26.514348711785 	  3.338719577770 	 16.028847090953 	
H	 27.082861741785 	  9.522278527770 	  5.898287540953 	
H	 26.514317611785 	  9.522281337770 	 16.028844260953 	
H	  1.150835089496 	  6.405847316447 	  9.895105353880 	
H	  0.582290959496 	  6.405850126447 	 20.025662073880 	
H	  1.150803989496 	 12.589409076447 	  9.895102523880 	
H	  0.582259859496 	 12.589411886447 	 20.025659243880 	
H	 15.831662389496 	  6.405856546447 	  9.923235283880 	
H	 15.263118259496 	  6.405859356447 	 20.053792003880 	
H	 15.831631289496 	 12.589418306447 	  9.923232453880 	
H	 15.263087159496 	 12.589421116447 	 20.053789173880 	
H	  2.718425570603 	  1.838388395619 	  5.091554551616 	
H	  2.149881440603 	  1.838391205619 	 15.222111271616 	
H	  2.718394470603 	  8.021950155619 	  5.091551721616 	
H	  2.149850340603 	  8.021952965619 	 15.222108441616 	
H	 17.399252870603 	  1.838397625619 	  5.119684481616 	
H	 16.830708740603 	  1.838400435619 	 15.250241201616 	
H	 17.399221770603 	  8.021959385619 	  5.119681651616 	
H	 16.830677640603 	  8.021962195619 	 15.250238371616 	
H	 11.333736971576 	  4.913745832927 	  0.222593205609 	
H	 10.765192841576 	  4.913748642927 	 10.353149925609 	
H	 11.333705871576 	 11.097307592927 	  0.222590375609 	
H	 10.765161741576 	 11.097310402927 	 10.353147095609 	
H	 26.014564271576 	  4.913755062927 	  0.250723135609 	
H	 25.446020141576 	  4.913757872927 	 10.381279855609 	
H	 26.014533171576 	 11.097316822927 	  0.250720305609 	
H	 25.445989041576 	 11.097319632927 	 10.381277025609 	
H	 11.073834778578 	  4.294180802935 	  5.444145584184 	
H	 10.505290648578 	  4.294183612935 	 15.574702304184 	
H	 11.073803678578 	 10.477742562935 	  5.444142754184 	
H	 10.505259548578 	 10.477745372935 	 15.574699474184 	
H	 25.754662078578 	  4.294190032935 	  5.472275514184 	
H	 25.186117948578 	  4.294192842935 	 15.602832234184 	
H	 25.754630978578 	 10.477751792935 	  5.472272684184 	
H	 25.186086848578 	 10.477754602935 	 15.602829404184 	
H	  2.458525367579 	  1.218823741100 	 10.313106873802 	
H	  1.889981237579 	  1.218826551100 	 20.443663593802 	
H	  2.458494267579 	  7.402385501100 	 10.313104043802 	
H	  1.889950137579 	  7.402388311100 	 20.443660763802 	
H	 17.139352667579 	  1.218832971100 	 10.341236803802 	
H	 16.570808537579 	  1.218835781100 	 20.471793523802 	
H	 17.139321567579 	  7.402394731100 	 10.341233973802 	
H	 16.570777437579 	  7.402397541100 	 20.471790693802 	
C	  1.375987933562 	  3.733946683366 	  6.814774557901 	
C	  0.807443803562 	  3.733949493366 	 16.945331277901 	
C	  1.375956833562 	  9.917508443366 	  6.814771727901 	
C	  0.807412703562 	  9.917511253366 	 16.945328447901 	
C	 16.056815233562 	  3.733955913366 	  6.842904487901 	
C	 15.488271103562 	  3.733958723366 	 16.973461207901 	
C	 16.056784133562 	  9.917517673366 	  6.842901657901 	
C	 15.488240003562 	  9.917520483366 	 16.973458377901 	
C	 12.172534789539 	  0.679269845948 	  8.945766701673 	
C	 11.603990659539 	  0.679272655948 	 19.076323421673 	
C	 12.172503689539 	  6.862831605948 	  8.945763871673 	
C	 11.603959559539 	  6.862834415948 	 19.076320591673 	
C	 26.853362089539 	  0.679279075948 	  8.973896631673 	
C	 26.284817959539 	  0.679281885948 	 19.104453351673 	
C	 26.853330989539 	  6.862840835948 	  8.973893801673 	
C	 26.284786859539 	  6.862843645948 	 19.104450521673 	
C	 12.416275178084 	  2.398622347018 	  3.720924077008 	
C	 11.847731048084 	  2.398625157018 	 13.851480797008 	
C	 12.416244078084 	  8.582184107018 	  3.720921247008 	
C	 11.847699948084 	  8.582186917018 	 13.851477967008 	
C	 27.097102478084 	  2.398631577018 	  3.749054007008 	
C	 26.528558348084 	  2.398634387018 	 13.879610727008 	
C	 27.097071378084 	  8.582193337018 	  3.749051177008 	
C	 26.528527248084 	  8.582196147018 	 13.879607897008 	
C	  1.619727747364 	  5.453299219594 	  1.589933112784 	
C	  1.051183617364 	  5.453302029594 	 11.720489832784 	
C	  1.619696647364 	 11.636860979594 	  1.589930282784 	
C	  1.051152517364 	 11.636863789594 	 11.720487002784 	
C	 16.300555047364 	  5.453308449594 	  1.618063042784 	
C	 15.732010917364 	  5.453311259594 	 11.748619762784 	
C	 16.300523947364 	 11.636870209594 	  1.618060212784 	
C	 15.731979817364 	 11.636873019594 	 11.748616932784 	
H	  1.926074015284 	  4.604518208016 	  6.697965298394 	
H	  1.357529885284 	  4.604521018016 	 16.828522018394 	
H	  1.926042915284 	 10.788079968016 	  6.697962468394 	
H	  1.357498785284 	 10.788082778016 	 16.828519188394 	
H	 16.606901315284 	  4.604527438016 	  6.726095228394 	
H	 16.038357185284 	  4.604530248016 	 16.856651948394 	
H	 16.606870215284 	 10.788089198016 	  6.726092398394 	
H	 16.038326085284 	 10.788092008016 	 16.856649118394 	
H	 11.614220362010 	  1.544121955042 	  9.063201515680 	
H	 11.045676232010 	  1.544124765042 	 19.193758235680 	
H	 11.614189262010 	  7.727683715042 	  9.063198685680 	
H	 11.045645132010 	  7.727686525042 	 19.193755405680 	
H	 26.295047662010 	  1.544131185042 	  9.091331445680 	
H	 25.726503532010 	  1.544133995042 	 19.221888165680 	
H	 26.295016562010 	  7.727692945042 	  9.091328615680 	
H	 25.726472432010 	  7.727695755042 	 19.221885335680 	
H	 11.866189124037 	  1.528050192830 	  3.837732888587 	
H	 11.297644994037 	  1.528053002830 	 13.968289608587 	
H	 11.866158024037 	  7.711611952830 	  3.837730058587 	
H	 11.297613894037 	  7.711614762830 	 13.968286778587 	
H	 26.547016424037 	  1.528059422830 	  3.865862818587 	
H	 25.978472294037 	  1.528062232830 	 13.996419538587 	
H	 26.546985324037 	  7.711621182830 	  3.865859988587 	
H	 25.978441194037 	  7.711623992830 	 13.996416708587 	
H	  2.178042219223 	  4.588447191879 	  1.472497914218 	
H	  1.609498089223 	  4.588450001879 	 11.603054634218 	
H	  2.178011119223 	 10.772008951879 	  1.472495084218 	
H	  1.609466989223 	 10.772011761879 	 11.603051804218 	
H	 16.858869519223 	  4.588456421879 	  1.500627844218 	
H	 16.290325389223 	  4.588459231879 	 11.631184564218 	
H	 16.858838419223 	 10.772018181879 	  1.500625014218 	
H	 16.290294289223 	 10.772020991879 	 11.631181734218 	
H	  1.100928075146 	  3.890081607483 	  7.811915242603 	
H	  0.532383945146 	  3.890084417483 	 17.942471962603 	
H	  1.100896975146 	 10.073643367483 	  7.811912412603 	
H	  0.532352845146 	 10.073646177483 	 17.942469132603 	
H	 15.781755375146 	  3.890090837483 	  7.840045172603 	
H	 15.213211245146 	  3.890093647483 	 17.970601892603 	
H	 15.781724275146 	 10.073652597483 	  7.840042342603 	
H	 15.213180145146 	 10.073655407483 	 17.970599062603 	
H	 12.445814605949 	  6.943409204571 	  7.944326305082 	
H	 11.877270475949 	  6.943412014571 	 18.074883025082 	
H	 12.445783505949 	 13.126970964571 	  7.944323475082 	
H	 11.877239375949 	 13.126973774571 	 18.074880195082 	
H	 27.126641905949 	  6.943418434571 	  7.972456235082 	
H	 26.558097775949 	  6.943421244571 	 18.103012955082 	
H	 27.126610805949 	 13.126980194571 	  7.972453405082 	
H	 26.558066675949 	 13.126983004571 	 18.103010125082 	
H	 12.691335924375 	  2.242488381585 	  2.723782795653 	
H	 12.122791794375 	  2.242491191585 	 12.854339515653 	
H	 12.691304824375 	  8.426050141585 	  2.723779965653 	
H	 12.122760694375 	  8.426052951585 	 12.854336685653 	
H	 27.372163224375 	  2.242497611585 	  2.751912725653 	
H	 26.803619094375 	  2.242500421585 	 12.882469445653 	
H	 27.372132124375 	  8.426059371585 	  2.751909895653 	
H	 26.803587994375 	  8.426062181585 	 12.882466615653 	
H	  1.346448270207 	 -0.810840338750 	  2.591373716139 	
H	  0.777904140207 	 -0.810837528750 	 12.721930436139 	
H	  1.346417170207 	  5.372721421250 	  2.591370886139 	
H	  0.777873040207 	  5.372724231250 	 12.721927606139 	
H	 16.027275570207 	 -0.810831108750 	  2.619503646139 	
H	 15.458731440207 	 -0.810828298750 	 12.750060366139 	
H	 16.027244470207 	  5.372730651250 	  2.619500816139 	
H	 15.458700340207 	  5.372733461250 	 12.750057536139 	
H	  0.450533973800 	  3.835838652144 	  6.181447987476 	
H	 -0.118010156200 	  3.835841462144 	 16.312004707476 	
H	  0.450502873800 	 10.019400412144 	  6.181445157476 	
H	 -0.118041256200 	 10.019403222144 	 16.312001877476 	
H	 15.131361273800 	  3.835847882144 	  6.209577917476 	
H	 14.562817143800 	  3.835850692144 	 16.340134637476 	
H	 15.131330173800 	 10.019409642144 	  6.209575087476 	
H	 14.562786043800 	 10.019412452144 	 16.340131807476 	
H	 13.096871908950 	  6.900613247893 	  9.579827391236 	
H	 12.528327778950 	  6.900616057893 	 19.710384111236 	
H	 13.096840808950 	 13.084175007893 	  9.579824561236 	
H	 12.528296678950 	 13.084177817893 	 19.710381281236 	
H	 27.777699208950 	  6.900622477893 	  9.607957321236 	
H	 27.209155078950 	  6.900625287893 	 19.738514041236 	
H	 27.777668108950 	 13.084184237893 	  9.607954491236 	
H	 27.209123978950 	 13.084187047893 	 19.738511211236 	
H	 13.341728894398 	  2.296730621048 	  4.354250887957 	
H	 12.773184764398 	  2.296733431048 	 14.484807607957 	
H	 13.341697794398 	  8.480292381048 	  4.354248057957 	
H	 12.773153664398 	  8.480295191048 	 14.484804777957 	
H	 28.022556194398 	  2.296739851048 	  4.382380817957 	
H	 27.454012064398 	  2.296742661048 	 14.512937537957 	
H	 28.022525094398 	  8.480301611048 	  4.382377987957 	
H	 27.453980964398 	  8.480304421048 	 14.512934707957 	
H	  0.695390422347 	 -0.768044227719 	  0.955872751610 	
H	  0.126846292347 	 -0.768041417719 	 11.086429471610 	
H	  0.695359322347 	  5.415517532281 	  0.955869921610 	
H	  0.126815192347 	  5.415520342281 	 11.086426641610 	
H	 15.376217722347 	 -0.768034997719 	  0.984002681610 	
H	 14.807673592347 	 -0.768032187719 	 11.114559401610 	
H	 15.376186622347 	  5.415526762281 	  0.983999851610 	
H	 14.807642492347 	  5.415529572281 	 11.114556571610 	
C	  1.222078849364 	  1.773766420930 	  6.837424390359 	
C	  0.653534719364 	  1.773769230930 	 16.967981110359 	
C	  1.222047749364 	  7.957328180930 	  6.837421560359 	
C	  0.653503619364 	  7.957330990930 	 16.967978280359 	
C	 15.902906149364 	  1.773775650930 	  6.865554320359 	
C	 15.334362019364 	  1.773778460930 	 16.996111040359 	
C	 15.902875049364 	  7.957337410930 	  6.865551490359 	
C	 15.334330919364 	  7.957340220930 	 16.996108210359 	
C	 12.323463588575 	  4.839661533280 	  8.922405474305 	
C	 11.754919458575 	  4.839664343280 	 19.052962194305 	
C	 12.323432488575 	 11.023223293280 	  8.922402644305 	
C	 11.754888358575 	 11.023226103280 	 19.052959364305 	
C	 27.004290888575 	  4.839670763280 	  8.950535404305 	
C	 26.435746758575 	  4.839673573280 	 19.081092124305 	
C	 27.004259788575 	 11.023232523280 	  8.950532574305 	
C	 26.435715658575 	 11.023235333280 	 19.081089294305 	
C	 12.570183440332 	  4.358804391960 	  3.698274516665 	
C	 12.001639310332 	  4.358807201960 	 13.828831236665 	
C	 12.570152340332 	 10.542366151960 	  3.698271686665 	
C	 12.001608210332 	 10.542368961960 	 13.828828406665 	
C	 27.251010740332 	  4.358813621960 	  3.726404446665 	
C	 26.682466610332 	  4.358816431960 	 13.856961166665 	
C	 27.250979640332 	 10.542375381960 	  3.726401616665 	
C	 26.682435510332 	 10.542378191960 	 13.856958336665 	
C	  1.468798818242 	  1.292907458051 	  1.613294814366 	
C	  0.900254688242 	  1.292910268051 	 11.743851534366 	
C	  1.468767718242 	  7.476469218051 	  1.613291984366 	
C	  0.900223588242 	  7.476472028051 	 11.743848704366 	
C	 16.149626118242 	  1.292916688051 	  1.641424744366 	
C	 15.581081988242 	  1.292919498051 	 11.771981464366 	
C	 16.149595018242 	  7.476478448051 	  1.641421914366 	
C	 15.581050888242 	  7.476481258051 	 11.771978634366 	
H	  0.232952637159 	  1.757505052167 	  6.297050076391 	
H	 -0.335591492841 	  1.757507862167 	 16.427606796391 	
H	  0.232921537159 	  7.941066812167 	  6.297047246391 	
H	 -0.335622592841 	  7.941069622167 	 16.427603966391 	
H	 14.913779937159 	  1.757514282167 	  6.325180006391 	
H	 14.345235807159 	  1.757517092167 	 16.455736726391 	
H	 14.913748837159 	  7.941076042167 	  6.325177176391 	
H	 14.345204707159 	  7.941078852167 	 16.455733896391 	
H	 13.312521811177 	  4.823680358674 	  9.462806053020 	
H	 12.743977681177 	  4.823683168674 	 19.593362773020 	
H	 13.312490711177 	 11.007242118674 	  9.462803223020 	
H	 12.743946581177 	 11.007244928674 	 19.593359943020 	
H	 27.993349111177 	  4.823689588674 	  9.490935983020 	
H	 27.424804981177 	  4.823692398674 	 19.621492703020 	
H	 27.993318011177 	 11.007251348674 	  9.490933153020 	
H	 27.424773881177 	 11.007254158674 	 19.621489873020 	
H	 13.559309399837 	  4.375065584205 	  4.238649219416 	
H	 12.990765269837 	  4.375068394205 	 14.369205939416 	
H	 13.559278299837 	 10.558627344205 	  4.238646389416 	
H	 12.990734169837 	 10.558630154205 	 14.369203109416 	
H	 28.240136699837 	  4.375074814205 	  4.266779149416 	
H	 27.671592569837 	  4.375077624205 	 14.397335869416 	
H	 28.240105599837 	 10.558636574205 	  4.266776319416 	
H	 27.671561469837 	 10.558639384205 	 14.397333039416 	
H	  0.479740530534 	  1.308888568853 	  1.072894388380 	
H	 -0.088803599466 	  1.308891378853 	 11.203451108380 	
H	  0.479709430534 	  7.492450328853 	  1.072891558380 	
H	 -0.088834699466 	  7.492453138853 	 11.203448278380 	
H	 15.160567830534 	  1.308897798853 	  1.101024318380 	
H	 14.592023700534 	  1.308900608853 	 11.231581038380 	
H	 15.160536730534 	  7.492459558853 	  1.101021488380 	
H	 14.591992600534 	  7.492462368853 	 11.231578208380 	
H	  1.023101464454 	  1.660889173569 	  7.841997819844 	
H	  0.454557334454 	  1.660891983569 	 17.972554539844 	
H	  1.023070364454 	  7.844450933569 	  7.841994989844 	
H	  0.454526234454 	  7.844453743569 	 17.972551709844 	
H	 15.703928764454 	  1.660898403569 	  7.870127749844 	
H	 15.135384634454 	  1.660901213569 	 18.000684469844 	
H	 15.703897664454 	  7.844460163569 	  7.870124919844 	
H	 15.135353534454 	  7.844462973569 	 18.000681639844 	
H	 12.522386310446 	  4.727097954779 	  7.917792386707 	
H	 11.953842180446 	  4.727100764779 	 18.048349106707 	
H	 12.522355210446 	 10.910659714779 	  7.917789556707 	
H	 11.953811080446 	 10.910662524779 	 18.048346276707 	
H	 27.203213610446 	  4.727107184779 	  7.945922316707 	
H	 26.634669480446 	  4.727109994779 	 18.076479036707 	
H	 27.203182510446 	 10.910668944779 	  7.945919486707 	
H	 26.634638380446 	 10.910671754779 	 18.076476206707 	
H	 12.769160744071 	  4.471681995699 	  2.693701080968 	
H	 12.200616614071 	  4.471684805699 	 12.824257800968 	
H	 12.769129644071 	 10.655243755699 	  2.693698250968 	
H	 12.200585514071 	 10.655246565699 	 12.824254970968 	
H	 27.449988044071 	  4.471691225699 	  2.721831010968 	
H	 26.881443914071 	  4.471694035699 	 12.852387730968 	
H	 27.449956944071 	 10.655252985699 	  2.721828180968 	
H	 26.881412814071 	 10.655255795699 	 12.852384900968 	
H	  1.269876187222 	  1.405470776381 	  2.617907920240 	
H	  0.701332057222 	  1.405473586381 	 12.748464640240 	
H	  1.269845087222 	  7.589032536381 	  2.617905090240 	
H	  0.701300957222 	  7.589035346381 	 12.748461810240 	
H	 15.950703487222 	  1.405480006381 	  2.646037850240 	
H	 15.382159357222 	  1.405482816381 	 12.776594570240 	
H	 15.950672387222 	  7.589041766381 	  2.646035020240 	
H	 15.382128257222 	  7.589044576381 	 12.776591740240 	
H	  1.617214173353 	  0.851406233240 	  6.685509053088 	
H	  1.048670043353 	  0.851409043240 	 16.816065773088 	
H	  1.617183073353 	  7.034967993240 	  6.685506223088 	
H	  1.048638943353 	  7.034970803240 	 16.816062943088 	
H	 16.298041473353 	  0.851415463240 	  6.713638983088 	
H	 15.729497343353 	  0.851418273240 	 16.844195703088 	
H	 16.298010373353 	  7.034977223240 	  6.713636153088 	
H	 15.729466243353 	  7.034980033240 	 16.844192873088 	
H	 11.928123441950 	  3.917434828787 	  9.074345270282 	
H	 11.359579311950 	  3.917437638787 	 19.204901990282 	
H	 11.928092341950 	 10.100996588787 	  9.074342440282 	
H	 11.359548211950 	 10.100999398787 	 19.204899160282 	
H	 26.608950741950 	  3.917444058787 	  9.102475200282 	
H	 26.040406611950 	  3.917446868787 	 19.233031920282 	
H	 26.608919641950 	 10.101005818787 	  9.102472370282 	
H	 26.040375511950 	 10.101008628787 	 19.233029090282 	
H	 12.175047051445 	  5.281164792214 	  3.850191546209 	
H	 11.606502921445 	  5.281167602214 	 13.980748266209 	
H	 12.175015951445 	 11.464726552214 	  3.850188716209 	
H	 11.606471821445 	 11.464729362214 	 13.980745436209 	
H	 26.855874351445 	  5.281174022214 	  3.878321476209 	
H	 26.287330221445 	  5.281176832214 	 14.008878196209 	
H	 26.855843251445 	 11.464735782214 	  3.878318646209 	
H	 26.287299121445 	 11.464738592214 	 14.008875366209 	
H	  1.864138865370 	  2.215134262309 	  1.461355442986 	
H	  1.295594735370 	  2.215137072309 	 11.591912162986 	
H	  1.864107765370 	  8.398696022309 	  1.461352612986 	
H	  1.295563635370 	  8.398698832309 	 11.591909332986 	
H	 16.544966165370 	  2.215143492309 	  1.489485372986 	
H	 15.976422035370 	  2.215146302309 	 11.620042092986 	
H	 16.544935065370 	  8.398705252309 	  1.489482542986 	
H	 15.976390935370 	  8.398708062309 	 11.620039262986 	
768 
Energy: -6.9574607488370006e+01 
S	  8.454686426623 	  1.442633490115 	  0.100293992419 	
S	  7.886142296623 	  1.442636300115 	 10.230850712419 	
S	  8.454655326623 	  7.626195250115 	  0.100291162419 	
S	  7.886111196623 	  7.626198060115 	 10.230847882419 	
S	 23.135513726623 	  1.442642720115 	  0.128423922419 	
S	 22.566969596623 	  1.442645530115 	 10.258980642419 	
S	 23.135482626623 	  7.626204480115 	  0.128421092419 	
S	 22.566938496623 	  7.626207290115 	 10.258977812419 	
S	  5.524658011208 	  4.504566536269 	  5.247615401787 	
S	  4.956113881208 	  4.504569346269 	 15.378172121787 	
S	  5.524626911208 	 10.688128296269 	  5.247612571787 	
S	  4.956082781208 	 10.688131106269 	 15.378169291787 	
S	 20.205485311208 	  4.504575766269 	  5.275745331787 	
S	 19.636941181208 	  4.504578576269 	 15.406302051787 	
S	 20.205454211208 	 10.688137526269 	  5.275742501787 	
S	 19.636910081208 	 10.688140336269 	 15.406299221787 	
S	  5.283996281260 	  4.681395034681 	 10.498533730532 	
S	  4.715452151260 	  4.681397844681 	 20.629090450532 	
S	  5.283965181260 	 10.864956794681 	 10.498530900532 	
S	  4.715421051260 	 10.864959604681 	 20.629087620532 	
S	 19.964823581260 	  4.681404264681 	 10.526663660532 	
S	 19.396279451260 	  4.681407074681 	 20.657220380532 	
S	 19.964792481260 	 10.864966024681 	 10.526660830532 	
S	 19.396248351260 	 10.864968834681 	 20.657217550532 	
S	  8.214025790115 	  1.619462180671 	  5.351212099729 	
S	  7.645481660115 	  1.619464990671 	 15.481768819729 	
S	  8.213994690115 	  7.803023940671 	  5.351209269729 	
S	  7.645450560115 	  7.803026750671 	 15.481765989729 	
S	 22.894853090115 	  1.619471410671 	  5.379342029729 	
S	 22.326308960115 	  1.619474220671 	 15.509898749729 	
S	 22.894821990115 	  7.803033170671 	  5.379339199729 	
S	 22.326277860115 	  7.803035980671 	 15.509895919729 	
C	  6.630910779625 	  2.492712823681 	 10.174617337419 	
C	  6.062366649625 	  2.492715633681 	 20.305174057419 	
C	  6.630879679625 	  8.676274583681 	 10.174614507419 	
C	  6.062335549625 	  8.676277393681 	 20.305171227419 	
C	 21.311738079625 	  2.492722053681 	 10.202747267419 	
C	 20.743193949625 	  2.492724863681 	 20.333303987419 	
C	 21.311706979625 	  8.676283813681 	 10.202744437419 	
C	 20.743162849625 	  8.676286623681 	 20.333301157419 	
C	  6.866895308186 	  5.553668832340 	  5.676526067507 	
C	  6.298351178186 	  5.553671642340 	 15.807082787507 	
C	  6.866864208186 	 11.737230592340 	  5.676523237507 	
C	  6.298320078186 	 11.737233402340 	 15.807079957507 	
C	 21.547722608186 	  5.553678062340 	  5.704655997507 	
C	 20.979178478186 	  5.553680872340 	 15.835212717507 	
C	 21.547691508186 	 11.737239822340 	  5.704653167507 	
C	 20.979147378186 	 11.737242632340 	 15.835209887507 	
C	  7.107771935073 	  3.631315679154 	  0.424210251179 	
C	  6.539227805073 	  3.631318489154 	 10.554766971179 	
C	  7.107740835073 	  9.814877439154 	  0.424207421179 	
C	  6.539196705073 	  9.814880249154 	 10.554764141179 	
C	 21.788599235073 	  3.631324909154 	  0.452340181179 	
C	 21.220055105073 	  3.631327719154 	 10.582896901179 	
C	 21.788568135073 	  9.814886669154 	  0.452337351179 	
C	 21.220024005073 	  9.814889479154 	 10.582894071179 	
C	  6.871788353105 	  0.570359965170 	  4.922301298601 	
C	  6.303244223105 	  0.570362775170 	 15.052858018601 	
C	  6.871757253105 	  6.753921725170 	  4.922298468601 	
C	  6.303213123105 	  6.753924535170 	 15.052855188601 	
C	 21.552615653105 	  0.570369195170 	  4.950431228601 	
C	 20.984071523105 	  0.570372005170 	 15.080987948601 	
C	 21.552584553105 	  6.753930955170 	  4.950428398601 	
C	 20.984040423105 	  6.753933765170 	 15.080985118601 	
C	  5.582639438209 	  2.377017956762 	  9.218005446569 	
C	  5.014095308209 	  2.377020766762 	 19.348562166569 	
C	  5.582608338209 	  8.560579716762 	  9.218002616569 	
C	  5.014064208209 	  8.560582526762 	 19.348559336569 	
C	 20.263466738209 	  2.377027186762 	  9.246135376569 	
C	 19.694922608209 	  2.377029996762 	 19.376692096569 	
C	 20.263435638209 	  8.560588946762 	  9.246132546569 	
C	 19.694891508209 	  8.560591756762 	 19.376689266569 	
C	  7.913812207517 	  5.437424446106 	  6.631835545631 	
C	  7.345268077517 	  5.437427256106 	 16.762392265631 	
C	  7.913781107517 	 11.620986206106 	  6.631832715631 	
C	  7.345236977517 	 11.620989016106 	 16.762389435631 	
C	 22.594639507517 	  5.437433676106 	  6.659965475631 	
C	 22.026095377517 	  5.437436486106 	 16.790522195631 	
C	 22.594608407517 	 11.620995436106 	  6.659962645631 	
C	 22.026064277517 	 11.620998246106 	 16.790519365631 	
C	  8.156043219921 	  3.747010608505 	  1.380822099923 	
C	  7.587499089921 	  3.747013418505 	 11.511378819923 	
C	  8.156012119921 	  9.930572368505 	  1.380819269923 	
C	  7.587467989921 	  9.930575178505 	 11.511375989923 	
C	 22.836870519921 	  3.747019838505 	  1.408952029923 	
C	 22.268326389921 	  3.747022648505 	 11.539508749923 	
C	 22.836839419921 	  9.930581598505 	  1.408949199923 	
C	 22.268295289921 	  9.930584408505 	 11.539505919923 	
C	  5.824871267830 	  0.686604367674 	  3.966991984390 	
C	  5.256327137830 	  0.686607177674 	 14.097548704390 	
C	  5.824840167830 	  6.870166127674 	  3.966989154390 	
C	  5.256296037830 	  6.870168937674 	 14.097545874390 	
C	 20.505698567830 	  0.686613597674 	  3.995121914390 	
C	 19.937154437830 	  0.686616407674 	 14.125678634390 	
C	 20.505667467830 	  6.870175357674 	  3.995119084390 	
C	 19.937123337830 	  6.870178167674 	 14.125675804390 	
C	  4.740116797938 	  3.509358196328 	  9.276950331159 	
C	  4.171572667938 	  3.509361006328 	 19.407507051159 	
C	  4.740085697938 	  9.692919956328 	  9.276947501159 	
C	  4.171541567938 	  9.692922766328 	 19.407504221159 	
C	 19.420944097938 	  3.509367426328 	  9.305080261159 	
C	 18.852399967938 	  3.509370236328 	 19.435636981159 	
C	 19.420912997938 	  9.692929186328 	  9.305077431159 	
C	 18.852368867938 	  9.692931996328 	 19.435634151159 	
C	  8.759440113178 	  0.448983584114 	  6.572583903315 	
C	  8.190895983178 	  0.448986394114 	 16.703140623315 	
C	  8.759409013178 	  6.632545344114 	  6.572581073315 	
C	  8.190864883178 	  6.632548154114 	 16.703137793315 	
C	 23.440267413178 	  0.448992814114 	  6.600713833315 	
C	 22.871723283178 	  0.448995624114 	 16.731270553315 	
C	 23.440236313178 	  6.632554574114 	  6.600711003315 	
C	 22.871692183178 	  6.632557384114 	 16.731267723315 	
C	  8.998565856138 	  2.614670350568 	  1.321877251917 	
C	  8.430021726138 	  2.614673160568 	 11.452433971917 	
C	  8.998534756138 	  8.798232110568 	  1.321874421917 	
C	  8.429990626138 	  8.798234920568 	 11.452431141917 	
C	 23.679393156138 	  2.614679580568 	  1.350007181917 	
C	 23.110849026138 	  2.614682390568 	 11.480563901917 	
C	 23.679362056138 	  8.798241340568 	  1.350004351917 	
C	 23.110817926138 	  8.798244150568 	 11.480561071917 	
C	  4.979243448353 	  5.675045211298 	  4.026243769967 	
C	  4.410699318353 	  5.675048021298 	 14.156800489967 	
C	  4.979212348353 	 11.858606971298 	  4.026240939967 	
C	  4.410668218353 	 11.858609781298 	 14.156797659967 	
C	 19.660070748353 	  5.675054441298 	  4.054373699967 	
C	 19.091526618353 	  5.675057251298 	 14.184930419967 	
C	 19.660039648353 	 11.858616201298 	  4.054370869967 	
C	 19.091495518353 	 11.858619011298 	 14.184927589967 	
C	  3.642073129645 	  3.621718613243 	  8.465650572439 	
C	  3.073528999645 	  3.621721423243 	 18.596207292439 	
C	  3.642042029645 	  9.805280373243 	  8.465647742439 	
C	  3.073497899645 	  9.805283183243 	 18.596204462439 	
C	 18.322900429645 	  3.621727843243 	  8.493780502439 	
C	 17.754356299645 	  3.621730653243 	 18.624337222439 	
C	 18.322869329645 	  9.805289603243 	  8.493777672439 	
C	 17.754325199645 	  9.805292413243 	 18.624334392439 	
C	  9.855296105100 	  0.560893563801 	  7.382346837225 	
C	  9.286751975100 	  0.560896373801 	 17.512903557225 	
C	  9.855265005100 	  6.744455323801 	  7.382344007225 	
C	  9.286720875100 	  6.744458133801 	 17.512900727225 	
C	 24.536123405100 	  0.560902793801 	  7.410476767225 	
C	 23.967579275100 	  0.560905603801 	 17.541033487225 	
C	 24.536092305100 	  6.744464553801 	  7.410473937225 	
C	 23.967548175100 	  6.744467363801 	 17.541030657225 	
C	 10.096609510189 	  2.502310062308 	  2.133177188727 	
C	  9.528065380189 	  2.502312872308 	 12.263733908727 	
C	 10.096578410189 	  8.685871822308 	  2.133174358727 	
C	  9.528034280189 	  8.685874632308 	 12.263731078727 	
C	 24.777436810189 	  2.502319292308 	  2.161307118727 	
C	 24.208892680189 	  2.502322102308 	 12.291863838727 	
C	 24.777405710189 	  8.685881052308 	  2.161304288727 	
C	 24.208861580189 	  8.685883862308 	 12.291861008727 	
C	  3.883387086506 	  5.563135291573 	  3.216481228487 	
C	  3.314842956506 	  5.563138101573 	 13.347037948487 	
C	  3.883355986506 	 11.746697051573 	  3.216478398487 	
C	  3.314811856506 	 11.746699861573 	 13.347035118487 	
C	 18.564214386506 	  5.563144521573 	  3.244611158487 	
C	 17.995670256506 	  5.563147331573 	 13.375167878487 	
C	 18.564183286506 	 11.746706281573 	  3.244608328487 	
C	 17.995639156506 	 11.746709091573 	 13.375165048487 	
H	  3.002244115461 	  4.549293934372 	  8.545331341313 	
H	  2.433699985461 	  4.549296744372 	 18.675888061313 	
H	  3.002213015461 	 10.732855694372 	  8.545328511313 	
H	  2.433668885461 	 10.732858504372 	 18.675885231313 	
H	 17.683071415461 	  4.549303164372 	  8.573461271313 	
H	 17.114527285461 	  4.549305974372 	 18.704017991313 	
H	 17.683040315461 	 10.732864924372 	  8.573458441313 	
H	 17.114496185461 	 10.732867734372 	 18.704015161313 	
H	 10.495803551786 	  1.487507651836 	  7.304185811833 	
H	  9.927259421786 	  1.487510461836 	 17.434742531833 	
H	 10.495772451786 	  7.671069411836 	  7.304182981833 	
H	  9.927228321786 	  7.671072221836 	 17.434739701833 	
H	 25.176630851786 	  1.487516881836 	  7.332315741833 	
H	 24.608086721786 	  1.487519691836 	 17.462872461833 	
H	 25.176599751786 	  7.671078641836 	  7.332312911833 	
H	 24.608055621786 	  7.671081451836 	 17.462869631833 	
H	 10.736438454595 	  1.574734685360 	  2.053496582620 	
H	 10.167894324595 	  1.574737495360 	 12.184053302620 	
H	 10.736407354595 	  7.758296445360 	  2.053493752620 	
H	 10.167863224595 	  7.758299255360 	 12.184050472620 	
H	 25.417265754595 	  1.574743915360 	  2.081626512620 	
H	 24.848721624595 	  1.574746725360 	 12.212183232620 	
H	 25.417234654595 	  7.758305675360 	  2.081623682620 	
H	 24.848690524595 	  7.758308485360 	 12.212180402620 	
H	  3.242879772187 	  4.636521128151 	  3.294642401110 	
H	  2.674335642187 	  4.636523938151 	 13.425199121110 	
H	  3.242848672187 	 10.820082888151 	  3.294639571110 	
H	  2.674304542187 	 10.820085698151 	 13.425196291110 	
H	 17.923707072187 	  4.636530358151 	  3.322772331110 	
H	 17.355162942187 	  4.636533168151 	 13.453329051110 	
H	 17.923675972187 	 10.820092118151 	  3.322769501110 	
H	 17.355131842187 	 10.820094928151 	 13.453326221110 	
C	  3.312899520997 	  2.636752550625 	  7.558453961776 	
C	  2.744355390997 	  2.636755360625 	 17.689010681776 	
C	  3.312868420997 	  8.820314310625 	  7.558451131776 	
C	  2.744324290997 	  8.820317120625 	 17.689007851776 	
C	 17.993726820997 	  2.636761780625 	  7.586583891776 	
C	 17.425182690997 	  2.636764590625 	 17.717140611776 	
C	 17.993695720997 	  8.820323540625 	  7.586581061776 	
C	 17.425151590997 	  8.820326350625 	 17.717137781776 	
C	 10.185615809627 	  5.697364164826 	  8.292930506957 	
C	  9.617071679627 	  5.697366974826 	 18.423487226957 	
C	 10.185584709627 	 11.880925924826 	  8.292927676957 	
C	  9.617040579627 	 11.880928734826 	 18.423484396957 	
C	 24.866443109627 	  5.697373394826 	  8.321060436957 	
C	 24.297898979627 	  5.697376204826 	 18.451617156957 	
C	 24.866412009627 	 11.880935154826 	  8.321057606957 	
C	 24.297867879627 	 11.880937964826 	 18.451614326957 	
C	 10.425782993654 	  3.487276226311 	  3.040373588650 	
C	  9.857238863654 	  3.487279036311 	 13.170930308650 	
C	 10.425751893654 	  9.670837986311 	  3.040370758650 	
C	  9.857207763654 	  9.670840796311 	 13.170927478650 	
C	 25.106610293654 	  3.487285456311 	  3.068503518650 	
C	 24.538066163654 	  3.487288266311 	 13.199060238650 	
C	 25.106579193654 	  9.670847216311 	  3.068500688650 	
C	 24.538035063654 	  9.670850026311 	 13.199057408650 	
C	  3.553067076555 	  0.426664740371 	  2.305897730110 	
C	  2.984522946555 	  0.426667550371 	 12.436454450110 	
C	  3.553035976555 	  6.610226500371 	  2.305894900110 	
C	  2.984491846555 	  6.610229310371 	 12.436451620110 	
C	 18.233894376555 	  0.426673970371 	  2.334027660110 	
C	 17.665350246555 	  0.426676780371 	 12.464584380110 	
C	 18.233863276555 	  6.610235730371 	  2.334024830110 	
C	 17.665319146555 	  6.610238540371 	 12.464581550110 	
C	  4.170853179505 	  1.537967158906 	  7.492168512285 	
C	  3.602309049505 	  1.537969968906 	 17.622725232285 	
C	  4.170822079505 	  7.721528918906 	  7.492165682285 	
C	  3.602277949505 	  7.721531728906 	 17.622722402285 	
C	 18.851680479505 	  1.537976388906 	  7.520298442285 	
C	 18.283136349505 	  1.537979198906 	 17.650855162285 	
C	 18.851649379505 	  7.721538148906 	  7.520295612285 	
C	 18.283105249505 	  7.721540958906 	 17.650852332285 	
C	  9.327140784984 	  4.599935762782 	  8.357563808207 	
C	  8.758596654984 	  4.599938572782 	 18.488120528207 	
C	  9.327109684984 	 10.783497522782 	  8.357560978207 	
C	  8.758565554984 	 10.783500332782 	 18.488117698207 	
C	 24.007968084984 	  4.599944992782 	  8.385693738207 	
C	 23.439423954984 	  4.599947802782 	 18.516250458207 	
C	 24.007936984984 	 10.783506752782 	  8.385690908207 	
C	 23.439392854984 	 10.783509562782 	 18.516247628207 	
C	  9.567829375457 	  4.586061647239 	  3.106658941218 	
C	  8.999285245457 	  4.586064457239 	 13.237215661218 	
C	  9.567798275457 	 10.769623407239 	  3.106656111218 	
C	  8.999254145457 	 10.769626217239 	 13.237212831218 	
C	 24.248656675457 	  4.586070877239 	  3.134788871218 	
C	 23.680112545457 	  4.586073687239 	 13.265345591218 	
C	 24.248625575457 	 10.769632637239 	  3.134786041218 	
C	 23.680081445457 	 10.769635447239 	 13.265342761218 	
C	  4.411542058838 	  1.524093088844 	  2.241264159430 	
C	  3.842997928838 	  1.524095898844 	 12.371820879430 	
C	  4.411510958838 	  7.707654848844 	  2.241261329430 	
C	  3.842966828838 	  7.707657658844 	 12.371818049430 	
C	 19.092369358838 	  1.524102318844 	  2.269394089430 	
C	 18.523825228838 	  1.524105128844 	 12.399950809430 	
C	 19.092338258838 	  7.707664078844 	  2.269391259430 	
C	 18.523794128838 	  7.707666888844 	 12.399947979430 	
H	  3.957978902540 	  0.721444109413 	  6.742278717353 	
H	  3.389434772540 	  0.721446919413 	 16.872835437353 	
H	  3.957947802540 	  6.905005869413 	  6.742275887353 	
H	  3.389403672540 	  6.905008679413 	 16.872832607353 	
H	 18.638806202540 	  0.721453339413 	  6.770408647353 	
H	 18.070262072540 	  0.721456149413 	 16.900965367353 	
H	 18.638775102540 	  6.905015099413 	  6.770405817353 	
H	 18.070230972540 	  6.905017909413 	 16.900962537353 	
H	  9.540001305694 	  3.783416466359 	  9.107388462752 	
H	  8.971457175694 	  3.783419276359 	 19.237945182752 	
H	  9.539970205694 	  9.966978226359 	  9.107385632752 	
H	  8.971426075694 	  9.966981036359 	 19.237942352752 	
H	 24.220828605694 	  3.783425696359 	  9.135518392752 	
H	 23.652284475694 	  3.783428506359 	 19.266075112752 	
H	 24.220797505694 	  9.966987456359 	  9.135515562752 	
H	 23.652253375694 	  9.966990266359 	 19.266072282752 	
H	  9.780703752853 	  5.402584822909 	  3.856548570977 	
H	  9.212159622853 	  5.402587632909 	 13.987105290977 	
H	  9.780672652853 	 11.586146582909 	  3.856545740977 	
H	  9.212128522853 	 11.586149392909 	 13.987102460977 	
H	 24.461531052853 	  5.402594052909 	  3.884678500977 	
H	 23.892986922853 	  5.402596862909 	 14.015235220977 	
H	 24.461499952853 	 11.586155812909 	  3.884675670977 	
H	 23.892955822853 	 11.586158622909 	 14.015232390977 	
H	  4.198681252418 	  2.340612485408 	  1.491439698182 	
H	  3.630137122418 	  2.340615295408 	 11.621996418182 	
H	  4.198650152418 	  8.524174245408 	  1.491436868182 	
H	  3.630106022418 	  8.524177055408 	 11.621993588182 	
H	 18.879508552418 	  2.340621715408 	  1.519569628182 	
H	 18.310964422418 	  2.340624525408 	 11.650126348182 	
H	 18.879477452418 	  8.524183475408 	  1.519566798182 	
H	 18.310933322418 	  8.524186285408 	 11.650123518182 	
C	  5.260756777684 	  1.404612256853 	  8.279695929464 	
C	  4.692212647684 	  1.404615066853 	 18.410252649464 	
C	  5.260725677684 	  7.588174016853 	  8.279693099464 	
C	  4.692181547684 	  7.588176826853 	 18.410249819464 	
C	 19.941584077684 	  1.404621486853 	  8.307825859464 	
C	 19.373039947684 	  1.404624296853 	 18.438382579464 	
C	 19.941552977684 	  7.588183246853 	  8.307823029464 	
C	 19.373008847684 	  7.588186056853 	 18.438379749464 	
C	  8.237208073379 	  4.466580316673 	  7.570023731882 	
C	  7.668663943379 	  4.466583126673 	 17.700580451882 	
C	  8.237176973379 	 10.650142076673 	  7.570020901882 	
C	  7.668632843379 	 10.650144886673 	 17.700577621882 	
C	 22.918035373379 	  4.466589546673 	  7.598153661882 	
C	 22.349491243379 	  4.466592356673 	 17.728710381882 	
C	 22.918004273379 	 10.650151306673 	  7.598150831882 	
C	 22.349460143379 	 10.650154116673 	 17.728707551882 	
C	  8.477925829938 	  4.719416447389 	  2.319131456568 	
C	  7.909381699938 	  4.719419257389 	 12.449688176568 	
C	  8.477894729938 	 10.902978207389 	  2.319128626568 	
C	  7.909350599938 	 10.902981017389 	 12.449685346568 	
C	 23.158753129938 	  4.719425677389 	  2.347261386568 	
C	 22.590208999938 	  4.719428487389 	 12.477818106568 	
C	 23.158722029938 	 10.902987437389 	  2.347258556568 	
C	 22.590177899938 	 10.902990247389 	 12.477815276568 	
C	  5.501475056161 	  1.657448527588 	  3.028803935937 	
C	  4.932930926161 	  1.657451337588 	 13.159360655937 	
C	  5.501443956161 	  7.841010287588 	  3.028801105937 	
C	  4.932899826161 	  7.841013097588 	 13.159357825937 	
C	 20.182302356161 	  1.657457757588 	  3.056933865937 	
C	 19.613758226161 	  1.657460567588 	 13.187490585937 	
C	 20.182271256161 	  7.841019517588 	  3.056931035937 	
C	 19.613727126161 	  7.841022327588 	 13.187487755937 	
H	  5.923035771656 	  0.494564111657 	  8.184078987386 	
H	  5.354491641656 	  0.494566921657 	 18.314635707386 	
H	  5.923004671656 	  6.678125871657 	  8.184076157386 	
H	  5.354460541656 	  6.678128681657 	 18.314632877386 	
H	 20.603863071656 	  0.494573341657 	  8.212208917386 	
H	 20.035318941656 	  0.494576151657 	 18.342765637386 	
H	 20.603831971656 	  6.678135101657 	  8.212206087386 	
H	 20.035287841656 	  6.678137911657 	 18.342762807386 	
H	  7.574935263633 	  3.556575132483 	  7.665636573308 	
H	  7.006391133633 	  3.556577942483 	 17.796193293307 	
H	  7.574904163633 	  9.740136892483 	  7.665633743308 	
H	  7.006360033633 	  9.740139702483 	 17.796190463308 	
H	 22.255762563633 	  3.556584362483 	  7.693766503308 	
H	 21.687218433633 	  3.556587172483 	 17.824323223308 	
H	 22.255731463633 	  9.740146122483 	  7.693763673308 	
H	 21.687187333633 	  9.740148932483 	 17.824320393308 	
H	  7.815646802367 	  5.629464590502 	  2.414748222248 	
H	  7.247102672367 	  5.629467400502 	 12.545304942248 	
H	  7.815615702367 	 11.813026350502 	  2.414745392248 	
H	  7.247071572367 	 11.813029160502 	 12.545302112248 	
H	 22.496474102367 	  5.629473820502 	  2.442878152248 	
H	 21.927929972367 	  5.629476630502 	 12.573434872248 	
H	 22.496443002367 	 11.813035580502 	  2.442875322248 	
H	 21.927898872367 	 11.813038390502 	 12.573432042248 	
H	  6.163747850986 	  2.567453709777 	  2.933190952817 	
H	  5.595203720986 	  2.567456519777 	 13.063747672817 	
H	  6.163716750986 	  8.751015469777 	  2.933188122817 	
H	  5.595172620986 	  8.751018279777 	 13.063744842817 	
H	 20.844575150986 	  2.567462939777 	  2.961320882817 	
H	 20.276031020986 	  2.567465749777 	 13.091877602817 	
H	 20.844544050986 	  8.751024699777 	  2.961318052817 	
H	 20.275999920986 	  8.751027509777 	 13.091874772817 	
C	  2.034149454328 	  2.741280447190 	  6.664255121467 	
C	  1.465605324328 	  2.741283257190 	 16.794811841467 	
C	  2.034118354328 	  8.924842207190 	  6.664252291467 	
C	  1.465574224328 	  8.924845017190 	 16.794809011467 	
C	 16.714976754328 	  2.741289677190 	  6.692385051467 	
C	 16.146432624328 	  2.741292487190 	 16.822941771467 	
C	 16.714945654328 	  8.924851437190 	  6.692382221467 	
C	 16.146401524328 	  8.924854247190 	 16.822938941467 	
C	 11.462250673032 	  5.801492047881 	  9.185381184184 	
C	 10.893706543032 	  5.801494857881 	 19.315937904184 	
C	 11.462219573032 	 11.985053807881 	  9.185378354184 	
C	 10.893675443032 	 11.985056617881 	 19.315935074184 	
C	 26.143077973032 	  5.801501277881 	  9.213511114184 	
C	 25.574533843032 	  5.801504087881 	 19.344067834184 	
C	 26.143046873032 	 11.985063037881 	  9.213508284184 	
C	 25.574502743032 	 11.985065847881 	 19.344065004184 	
C	 11.704532896478 	  3.382748612085 	  3.934572564315 	
C	 11.135988766478 	  3.382751422085 	 14.065129284315 	
C	 11.704501796478 	  9.566310372085 	  3.934569734315 	
C	 11.135957666478 	  9.566313182085 	 14.065126454315 	
C	 26.385360196478 	  3.382757842085 	  3.962702494315 	
C	 25.816816066478 	  3.382760652085 	 14.093259214315 	
C	 26.385329096478 	  9.566319602085 	  3.962699664315 	
C	 25.816784966478 	  9.566322412085 	 14.093256384315 	
C	  2.276431886881 	  0.322536817688 	  1.413447427001 	
C	  1.707887756881 	  0.322539627688 	 11.544004147001 	
C	  2.276400786881 	  6.506098577688 	  1.413444597001 	
C	  1.707856656881 	  6.506101387688 	 11.544001317001 	
C	 16.957259186881 	  0.322546047688 	  1.441577357001 	
C	 16.388715056881 	  0.322548857688 	 11.572134077001 	
C	 16.957228086881 	  6.506107807688 	  1.441574527001 	
C	 16.388683956881 	  6.506110617688 	 11.572131247001 	
C	  2.231940837288 	  2.592993458891 	  5.422488009376 	
C	  1.663396707288 	  2.592996268891 	 15.553044729376 	
C	  2.231909737288 	  8.776555218891 	  5.422485179376 	
C	  1.663365607288 	  8.776558028891 	 15.553041899376 	
C	 16.912768137288 	  2.593002688891 	  5.450617939376 	
C	 16.344224007288 	  2.593005498891 	 15.581174659376 	
C	 16.912737037288 	  8.776564448891 	  5.450615109376 	
C	 16.344192907288 	  8.776567258891 	 15.581171829376 	
C	 11.265829258670 	 -0.486391814727 	 10.429311722054 	
C	 10.697285128670 	 -0.486389004727 	 20.559868442054 	
C	 11.265798158670 	  5.697169945273 	 10.429308892054 	
C	 10.697254028670 	  5.697172755273 	 20.559865612054 	
C	 25.946656558670 	 -0.486382584727 	 10.457441652054 	
C	 25.378112428670 	 -0.486379774727 	 20.587998372054 	
C	 25.946625458670 	  5.697179175273 	 10.457438822054 	
C	 25.378081328670 	  5.697181985273 	 20.587995542054 	
C	 11.506740407635 	  3.531034979621 	  5.176340578129 	
C	 10.938196277635 	  3.531037789621 	 15.306897298129 	
C	 11.506709307635 	  9.714596739621 	  5.176337748129 	
C	 10.938165177635 	  9.714599549621 	 15.306894468129 	
C	 26.187567707635 	  3.531044209621 	  5.204470508129 	
C	 25.619023577635 	  3.531047019621 	 15.335027228129 	
C	 26.187536607635 	  9.714605969621 	  5.204467678129 	
C	 25.618992477635 	  9.714608779621 	 15.335024398129 	
C	  2.472852979962 	  6.610420879943 	  0.169516820572 	
C	  1.904308849962 	  6.610423689943 	 10.300073540572 	
C	  2.472821879962 	 12.793982639943 	  0.169513990572 	
C	  1.904277749962 	 12.793985449943 	 10.300070710572 	
C	 17.153680279962 	  6.610430109943 	  0.197646750572 	
C	 16.585136149962 	  6.610432919943 	 10.328203470572 	
C	 17.153649179962 	 12.793991869943 	  0.197643920572 	
C	 16.585105049962 	 12.793994679943 	 10.328200640572 	
H	  3.001156232003 	  3.175040003562 	  5.079699284029 	
H	  2.432612102003 	  3.175042813562 	 15.210256004029 	
H	  3.001125132003 	  9.358601763562 	  5.079696454029 	
H	  2.432581002003 	  9.358604573562 	 15.210253174029 	
H	 17.681983532003 	  3.175049233562 	  5.107829214029 	
H	 17.113439402003 	  3.175052043562 	 15.238385934029 	
H	 17.681952432003 	  9.358610993562 	  5.107826384029 	
H	 17.113408302003 	  9.358613803562 	 15.238383104029 	
H	 10.497028354472 	  0.120799113741 	 10.770440517462 	
H	  9.928484224472 	  0.120801923741 	 20.900997237462 	
H	 10.496997254472 	  6.304360873741 	 10.770437687462 	
H	  9.928453124472 	  6.304363683741 	 20.900994407462 	
H	 25.177855654472 	  0.120808343741 	 10.798570447462 	
H	 24.609311524472 	  0.120811153741 	 20.929127167462 	
H	 25.177824554472 	  6.304370103741 	 10.798567617462 	
H	 24.609280424472 	  6.304372913741 	 20.929124337462 	
H	 10.737525767344 	  2.948986453937 	  5.519128631408 	
H	 10.168981637344 	  2.948989263937 	 15.649685351408 	
H	 10.737494667344 	  9.132548213937 	  5.519125801408 	
H	 10.168950537344 	  9.132551023937 	 15.649682521408 	
H	 25.418353067344 	  2.948995683937 	  5.547258561408 	
H	 24.849808937344 	  2.948998493937 	 15.677815281408 	
H	 25.418321967344 	  9.132557443937 	  5.547255731408 	
H	 24.849777837344 	  9.132560253937 	 15.677812451408 	
H	  3.241653745716 	  6.003230014340 	 -0.171612314025 	
H	  2.673109615716 	  6.003232824340 	  9.958944405975 	
H	  3.241622645716 	 12.186791774340 	 -0.171615144025 	
H	  2.673078515716 	 12.186794584340 	  9.958941575975 	
H	 17.922481045716 	  6.003239244340 	 -0.143482384025 	
H	 17.353936915716 	  6.003242054340 	  9.987074335975 	
H	 17.922449945716 	 12.186801004340 	 -0.143485214025 	
H	 17.353905815716 	 12.186803814340 	  9.987071505975 	
H	  1.389952468228 	  2.720522332636 	  4.684172732103 	
H	  0.821408338228 	  2.720525142636 	 14.814729452103 	
H	  1.389921368228 	  8.904084092636 	  4.684169902103 	
H	  0.821377238228 	  8.904086902636 	 14.814726622103 	
H	 16.070779768228 	  2.720531562636 	  4.712302662103 	
H	 15.502235638228 	  2.720534372636 	 14.842859382103 	
H	 16.070748668228 	  8.904093322636 	  4.712299832103 	
H	 15.502204538228 	  8.904096132636 	 14.842856552103 	
H	 12.581242748805 	 -0.342469042385 	  0.657803684102 	
H	 12.012698618805 	 -0.342466232385 	 10.788360404102 	
H	 12.581211648805 	  5.841092717615 	  0.657800854102 	
H	 12.012667518805 	  5.841095527615 	 10.788357574102 	
H	 27.262070048805 	 -0.342459812385 	  0.685933614102 	
H	 26.693525918805 	 -0.342457002385 	 10.816490334102 	
H	 27.262038948805 	  5.841101947615 	  0.685930784102 	
H	 26.693494818805 	  5.841104757615 	 10.816487504102 	
H	 12.348729134310 	  3.403506516445 	  5.914655537930 	
H	 11.780185004310 	  3.403509326445 	 16.045212257930 	
H	 12.348698034310 	  9.587068276445 	  5.914652707930 	
H	 11.780153904310 	  9.587071086445 	 16.045209427930 	
H	 27.029556434310 	  3.403515746445 	  5.942785467930 	
H	 26.461012304310 	  3.403518556445 	 16.073342187930 	
H	 27.029525334310 	  9.587077506445 	  5.942782637930 	
H	 26.460981204310 	  9.587080316445 	 16.073339357930 	
H	  1.157439274111 	  6.466498171075 	  9.941025117334 	
H	  0.588895144111 	  6.466500981075 	 20.071581837334 	
H	  1.157408174111 	 12.650059931075 	  9.941022287334 	
H	  0.588864044111 	 12.650062741075 	 20.071579007334 	
H	 15.838266574111 	  6.466507401075 	  9.969155047334 	
H	 15.269722444111 	  6.466510211075 	 20.099711767334 	
H	 15.838235474111 	 12.650069161075 	  9.969152217334 	
H	 15.269691344111 	 12.650071971075 	 20.099708937334 	
H	  2.642365654897 	  1.685572297703 	  5.178270495522 	
H	  2.073821524897 	  1.685575107703 	 15.308827215522 	
H	  2.642334554897 	  7.869134057703 	  5.178267665522 	
H	  2.073790424897 	  7.869136867703 	 15.308824385522 	
H	 17.323192954897 	  1.685581527703 	  5.206400425522 	
H	 16.754648824897 	  1.685584337703 	 15.336957145522 	
H	 17.323161854897 	  7.869143287703 	  5.206397595522 	
H	 16.754617724897 	  7.869146097703 	 15.336954315522 	
H	 11.345020780868 	  4.757550067916 	  0.173941052179 	
H	 10.776476650868 	  4.757552877916 	 10.304497772179 	
H	 11.344989680868 	 10.941111827916 	  0.173938222179 	
H	 10.776445550868 	 10.941114637916 	 10.304494942179 	
H	 26.025848080868 	  4.757559297916 	  0.202070982179 	
H	 25.457303950868 	  4.757562107916 	 10.332627702179 	
H	 26.025816980868 	 10.941121057916 	  0.202068152179 	
H	 25.457272850868 	 10.941123867916 	 10.332624872179 	
H	 11.096314643962 	  4.438455979557 	  5.420558211546 	
H	 10.527770513962 	  4.438458789557 	 15.551114931546 	
H	 11.096283543962 	 10.622017739557 	  5.420555381546 	
H	 10.527739413962 	 10.622020549557 	 15.551112101546 	
H	 25.777141943962 	  4.438465209557 	  5.448688141546 	
H	 25.208597813962 	  4.438468019557 	 15.579244861546 	
H	 25.777110843962 	 10.622026969557 	  5.448685311546 	
H	 25.208566713962 	 10.622029779557 	 15.579242031546 	
H	  2.393661475659 	  1.366479073617 	 10.424887696947 	
H	  1.825117345659 	  1.366481883617 	 20.555444416947 	
H	  2.393630375659 	  7.550040833617 	 10.424884866947 	
H	  1.825086245659 	  7.550043643617 	 20.555441586947 	
H	 17.074488775659 	  1.366488303617 	 10.453017626947 	
H	 16.505944645659 	  1.366491113617 	 20.583574346947 	
H	 17.074457675659 	  7.550050063617 	 10.453014796947 	
H	 16.505913545659 	  7.550052873617 	 20.583571516947 	
C	  1.446659857489 	  3.851406806968 	  6.751568729678 	
C	  0.878115727489 	  3.851409616968 	 16.882125449678 	
C	  1.446628757489 	 10.034968566968 	  6.751565899678 	
C	  0.878084627489 	 10.034971376968 	 16.882122619678 	
C	 16.127487157489 	  3.851416036968 	  6.779698659678 	
C	 15.558943027489 	  3.851418846968 	 16.910255379678 	
C	 16.127456057489 	 10.034977796968 	  6.779695829678 	
C	 15.558911927489 	 10.034980606968 	 16.910252549678 	
C	 12.052056563506 	  0.797808865459 	  9.102799549261 	
C	 11.483512433506 	  0.797811675459 	 19.233356269261 	
C	 12.052025463506 	  6.981370625459 	  9.102796719261 	
C	 11.483481333506 	  6.981373435459 	 19.233353439261 	
C	 26.732883863506 	  0.797818095459 	  9.130929479261 	
C	 26.164339733506 	  0.797820905459 	 19.261486199261 	
C	 26.732852763506 	  6.981379855459 	  9.130926649261 	
C	 26.164308633506 	  6.981382665459 	 19.261483369261 	
C	 12.292023500110 	  2.272622069054 	  3.847258251420 	
C	 11.723479370110 	  2.272624879054 	 13.977814971420 	
C	 12.291992400110 	  8.456183829054 	  3.847255421420 	
C	 11.723448270110 	  8.456186639054 	 13.977812141420 	
C	 26.972850800110 	  2.272631299054 	  3.875388181420 	
C	 26.404306670110 	  2.272634109054 	 14.005944901420 	
C	 26.972819700110 	  8.456193059054 	  3.875385351420 	
C	 26.404275570110 	  8.456195869054 	 14.005942071420 	
C	  1.686625977795 	  5.326219866854 	  1.496028916432 	
C	  1.118081847795 	  5.326222676854 	 11.626585636432 	
C	  1.686594877795 	 11.509781626854 	  1.496026086432 	
C	  1.118050747795 	 11.509784436854 	 11.626582806432 	
C	 16.367453277795 	  5.326229096854 	  1.524158846432 	
C	 15.798909147795 	  5.326231906854 	 11.654715566432 	
C	 16.367422177795 	 11.509790856854 	  1.524156016432 	
C	 15.798878047795 	 11.509793666854 	 11.654712736432 	
H	  2.067539988022 	  4.674221511408 	  6.563381973281 	
H	  1.498995858022 	  4.674224321408 	 16.693938693281 	
H	  2.067508888022 	 10.857783271408 	  6.563379143281 	
H	  1.498964758022 	 10.857786081408 	 16.693935863281 	
H	 16.748367288022 	  4.674230741408 	  6.591511903281 	
H	 16.179823158022 	  4.674233551408 	 16.722068623281 	
H	 16.748336188022 	 10.857792501408 	  6.591509073281 	
H	 16.179792058022 	 10.857795311408 	 16.722065793281 	
H	 11.425611285107 	  1.617391449810 	  9.287398817220 	
H	 10.857067155107 	  1.617394259810 	 19.417955537220 	
H	 11.425580185107 	  7.800953209810 	  9.287395987220 	
H	 10.857036055107 	  7.800956019810 	 19.417952707220 	
H	 26.106438585107 	  1.617400679810 	  9.315528747220 	
H	 25.537894455107 	  1.617403489810 	 19.446085467220 	
H	 26.106407485107 	  7.800962439810 	  9.315525917220 	
H	 25.537863355107 	  7.800965249810 	 19.446082637220 	
H	 11.671143403660 	  1.449806456938 	  4.035444363240 	
H	 11.102599273660 	  1.449809266938 	 14.166001083240 	
H	 11.671112303660 	  7.633368216938 	  4.035441533240 	
H	 11.102568173660 	  7.633371026938 	 14.165998253240 	
H	 26.351970703660 	  1.449815686938 	  4.063574293240 	
H	 25.783426573660 	  1.449818496938 	 14.194131013240 	
H	 26.351939603660 	  7.633377446938 	  4.063571463240 	
H	 25.783395473660 	  7.633380256938 	 14.194128183240 	
H	  2.313071273378 	  4.506637376496 	  1.311429239729 	
H	  1.744527143378 	  4.506640186496 	 11.441985959729 	
H	  2.313040173378 	 10.690199136496 	  1.311426409729 	
H	  1.744496043378 	 10.690201946496 	 11.441983129729 	
H	 16.993898573378 	  4.506646606496 	  1.339559169729 	
H	 16.425354443378 	  4.506649416496 	 11.470115889729 	
H	 16.993867473378 	 10.690208366496 	  1.339556339729 	
H	 16.425323343378 	 10.690211176496 	 11.470113059729 	
H	  1.170201274198 	  4.106306572431 	  7.742605006230 	
H	  0.601657144198 	  4.106309382431 	 17.873161726230 	
H	  1.170170174198 	 10.289868332431 	  7.742602176230 	
H	  0.601626044198 	 10.289871142431 	 17.873158896230 	
H	 15.851028574198 	  4.106315802431 	  7.770734936230 	
H	 15.282484444198 	  4.106318612431 	 17.901291656230 	
H	 15.850997474198 	 10.289877562431 	  7.770732106230 	
H	 15.282453344198 	 10.289880372431 	 17.901288826230 	
H	 12.330371648302 	  7.159129108691 	  8.099051097682 	
H	 11.761827518302 	  7.159131918691 	 18.229607817682 	
H	 12.330340548302 	 13.342690868691 	  8.099048267682 	
H	 11.761796418302 	 13.342693678691 	 18.229604987682 	
H	 27.011198948302 	  7.159138338691 	  8.127181027682 	
H	 26.442654818302 	  7.159141148691 	 18.257737747682 	
H	 27.011167848302 	 13.342700098691 	  8.127178197682 	
H	 26.442623718302 	 13.342702908691 	 18.257734917682 	
H	 12.568483033157 	  2.017723281331 	  2.856221291208 	
H	 11.999938903157 	  2.017726091331 	 12.986778011208 	
H	 12.568451933157 	  8.201285041331 	  2.856218461208 	
H	 11.999907803157 	  8.201287851331 	 12.986775181208 	
H	 27.249310333157 	  2.017732511331 	  2.884351221208 	
H	 26.680766203157 	  2.017735321331 	 13.014907941208 	
H	 27.249279233157 	  8.201294271331 	  2.884348391208 	
H	 26.680735103157 	  8.201297081331 	 13.014905111208 	
H	  1.408311312206 	 -1.035100581542 	  2.499777587455 	
H	  0.839767182206 	 -1.035097771542 	 12.630334307455 	
H	  1.408280212206 	  5.148461178458 	  2.499774757455 	
H	  0.839736082206 	  5.148463988458 	 12.630331477455 	
H	 16.089138612206 	 -1.035091351542 	  2.527907517455 	
H	 15.520594482206 	 -1.035088541542 	 12.658464237455 	
H	 16.089107512206 	  5.148470408458 	  2.527904687455 	
H	 15.520563382206 	  5.148473218458 	 12.658461407455 	
H	  0.534309062668 	  3.965800826763 	  6.105597188942 	
H	 -0.034235067332 	  3.965803636763 	 16.236153908942 	
H	  0.534277962668 	 10.149362586763 	  6.105594358942 	
H	 -0.034266167332 	 10.149365396763 	 16.236151078942 	
H	 15.215136362668 	  3.965810056763 	  6.133727118942 	
H	 14.646592232668 	  3.965812866763 	 16.264283838942 	
H	 15.215105262668 	 10.149371816763 	  6.133724288942 	
H	 14.646561132668 	 10.149374626763 	 16.264281008942 	
H	 12.966727529824 	  7.026547745052 	  9.746110439298 	
H	 12.398183399824 	  7.026550555052 	 19.876667159298 	
H	 12.966696429824 	 13.210109505052 	  9.746107609298 	
H	 12.398152299824 	 13.210112315052 	 19.876664329298 	
H	 27.647554829824 	  7.026556975052 	  9.774240369298 	
H	 27.079010699824 	  7.026559785052 	 19.904797089298 	
H	 27.647523729824 	 13.210118735052 	  9.774237539298 	
H	 27.078979599824 	 13.210121545052 	 19.904794259298 	
H	 13.204374007660 	  2.158228206289 	  4.493229995338 	
H	 12.635829877660 	  2.158231016289 	 14.623786715338 	
H	 13.204342907660 	  8.341789966289 	  4.493227165338 	
H	 12.635798777660 	  8.341792776289 	 14.623783885338 	
H	 27.885201307660 	  2.158237436289 	  4.521359925338 	
H	 27.316657177660 	  2.158240246289 	 14.651916645338 	
H	 27.885170207660 	  8.341799196289 	  4.521357095338 	
H	 27.316626077660 	  8.341802006289 	 14.651913815338 	
H	  0.771954765331 	 -0.902519062404 	  0.852718415973 	
H	  0.203410635331 	 -0.902516252404 	 10.983275135973 	
H	  0.771923665331 	  5.281042697596 	  0.852715585973 	
H	  0.203379535331 	  5.281045507596 	 10.983272305973 	
H	 15.452782065331 	 -0.902509832404 	  0.880848345973 	
H	 14.884237935331 	 -0.902507022404 	 11.011405065973 	
H	 15.452750965331 	  5.281051927596 	  0.880845515973 	
H	 14.884206835331 	  5.281054737596 	 11.011402235973 	
C	  1.157266537831 	  1.880512328833 	  6.960172936973 	
C	  0.588722407831 	  1.880515138833 	 17.090729656973 	
C	  1.157235437831 	  8.064074088833 	  6.960170106973 	
C	  0.588691307831 	  8.064076898833 	 17.090726826973 	
C	 15.838093837831 	  1.880521558833 	  6.988302866973 	
C	 15.269549707831 	  1.880524368833 	 17.118859586973 	
C	 15.838062737831 	  8.064083318833 	  6.988300036973 	
C	 15.269518607831 	  8.064086128833 	 17.118856756973 	
C	 12.340927213386 	  4.942202187586 	  8.889303942859 	
C	 11.772383083386 	  4.942204997586 	 19.019860662859 	
C	 12.340896113386 	 11.125763947586 	  8.889301112859 	
C	 11.772351983386 	 11.125766757586 	 19.019857832859 	
C	 27.021754513386 	  4.942211417586 	  8.917433872859 	
C	 26.453210383386 	  4.942214227586 	 19.047990592859 	
C	 27.021723413386 	 11.125773177586 	  8.917431042859 	
C	 26.453179283386 	 11.125775987586 	 19.047987762859 	
C	 12.581415614623 	  4.243518416642 	  3.638654875719 	
C	 12.012871484623 	  4.243521226642 	 13.769211595719 	
C	 12.581384514623 	 10.427080176642 	  3.638652045719 	
C	 12.012840384623 	 10.427082986642 	 13.769208765719 	
C	 27.262242914623 	  4.243527646642 	  3.666784805719 	
C	 26.693698784623 	  4.243530456642 	 13.797341525719 	
C	 27.262211814623 	 10.427089406642 	  3.666781975719 	
C	 26.693667684623 	 10.427092216642 	 13.797338695719 	
C	  1.397755220233 	  1.181826412001 	  1.709525045183 	
C	  0.829211090233 	  1.181829222001 	 11.840081765183 	
C	  1.397724120233 	  7.365388172001 	  1.709522215183 	
C	  0.829179990233 	  7.365390982001 	 11.840078935183 	
C	 16.078582520233 	  1.181835642001 	  1.737654975183 	
C	 15.510038390233 	  1.181838452001 	 11.868211695183 	
C	 16.078551420233 	  7.365397402001 	  1.737652145183 	
C	 15.510007290233 	  7.365400212001 	 11.868208865183 	
H	  0.172907526351 	  1.878194951625 	  6.412607905973 	
H	 -0.395636603649 	  1.878197761625 	 16.543164625973 	
H	  0.172876426351 	  8.061756711625 	  6.412605075973 	
H	 -0.395667703649 	  8.061759521625 	 16.543161795973 	
H	 14.853734826351 	  1.878204181625 	  6.440737835973 	
H	 14.285190696351 	  1.878206991625 	 16.571294555973 	
H	 14.853703726351 	  8.061765941625 	  6.440735005973 	
H	 14.285159596351 	  8.061768751625 	 16.571291725973 	
H	 13.325211720872 	  4.940138223387 	  9.437006055405 	
H	 12.756667590872 	  4.940141033387 	 19.567562775405 	
H	 13.325180620872 	 11.123699983387 	  9.437003225405 	
H	 12.756636490872 	 11.123702793387 	 19.567559945405 	
H	 28.006039020872 	  4.940147453387 	  9.465135985405 	
H	 27.437494890872 	  4.940150263387 	 19.595692705405 	
H	 28.006007920872 	 11.123709213387 	  9.465133155405 	
H	 27.437463790872 	 11.123712023387 	 19.595689875405 	
H	 13.565774553456 	  4.245835574812 	  4.186219946326 	
H	 12.997230423456 	  4.245838384812 	 14.316776666326 	
H	 13.565743453456 	 10.429397334812 	  4.186217116326 	
H	 12.997199323456 	 10.429400144812 	 14.316773836326 	
H	 28.246601853456 	  4.245844804812 	  4.214349876326 	
H	 27.678057723456 	  4.245847614812 	 14.344906596326 	
H	 28.246570753456 	 10.429406564812 	  4.214347046326 	
H	 27.678026623456 	 10.429409374812 	 14.344903766326 	
H	  0.413470635006 	  1.183890298581 	  1.161823078157 	
H	 -0.155073494994 	  1.183893108581 	 11.292379798157 	
H	  0.413439535006 	  7.367452058581 	  1.161820248157 	
H	 -0.155104594994 	  7.367454868581 	 11.292376968157 	
H	 15.094297935006 	  1.183899528581 	  1.189953008157 	
H	 14.525753805006 	  1.183902338581 	 11.320509728157 	
H	 15.094266835006 	  7.367461288581 	  1.189950178157 	
H	 14.525722705006 	  7.367464098581 	 11.320506898157 	
H	  0.948614333077 	  1.886810739934 	  7.975115765942 	
H	  0.380070203077 	  1.886813549934 	 18.105672485942 	
H	  0.948583233077 	  8.070372499934 	  7.975112935942 	
H	  0.380039103077 	  8.070375309934 	 18.105669655942 	
H	 15.629441633077 	  1.886819969934 	  8.003245695942 	
H	 15.060897503077 	  1.886822779934 	 18.133802415942 	
H	 15.629410533077 	  8.070381729934 	  8.003242865942 	
H	 15.060866403077 	  8.070384539934 	 18.133799585942 	
H	 12.549521427326 	  4.948749483823 	  7.874387185508 	
H	 11.980977297326 	  4.948752293823 	 18.004943905508 	
H	 12.549490327326 	 11.132311243823 	  7.874384355508 	
H	 11.980946197326 	 11.132314053823 	 18.004941075508 	
H	 27.230348727326 	  4.948758713823 	  7.902517115508 	
H	 26.661804597326 	  4.948761523823 	 18.033073835508 	
H	 27.230317627326 	 11.132320473823 	  7.902514285508 	
H	 26.661773497326 	 11.132323283823 	 18.033071005508 	
H	 12.790067941094 	  4.237220605509 	  2.623711453751 	
H	 12.221523811094 	  4.237223415509 	 12.754268173751 	
H	 12.790036841094 	 10.420782365509 	  2.623708623751 	
H	 12.221492711094 	 10.420785175509 	 12.754265343751 	
H	 27.470895241094 	  4.237229835509 	  2.651841383751 	
H	 26.902351111094 	  4.237232645509 	 12.782398103751 	
H	 27.470864141094 	 10.420791595509 	  2.651838553751 	
H	 26.902320011094 	 10.420794405509 	 12.782395273751 	
H	  1.189161147329 	  1.175278818052 	  2.724441726036 	
H	  0.620617017329 	  1.175281628052 	 12.854998446036 	
H	  1.189130047329 	  7.358840578052 	  2.724438896036 	
H	  0.620585917329 	  7.358843388052 	 12.854995616036 	
H	 15.869988447329 	  1.175288048052 	  2.752571656036 	
H	 15.301444317329 	  1.175290858052 	 12.883128376036 	
H	 15.869957347329 	  7.358849808052 	  2.752568826036 	
H	 15.301413217329 	  7.358852618052 	 12.883125546036 	
H	  1.504212197257 	  0.916621636233 	  6.888259451511 	
H	  0.935668067257 	  0.916624446233 	 17.018816171511 	
H	  1.504181097257 	  7.100183396233 	  6.888256621511 	
H	  0.935636967257 	  7.100186206233 	 17.018813341511 	
H	 16.185039497257 	  0.916630866233 	  6.916389381511 	
H	 15.616495367257 	  0.916633676233 	 17.046946101511 	
H	 16.185008397257 	  7.100192626233 	  6.916386551511 	
H	 15.616464267257 	  7.100195436233 	 17.046943271511 	
H	 11.993845285244 	  3.978402922786 	  8.961332445551 	
H	 11.425301155244 	  3.978405732786 	 19.091889165551 	
H	 11.993814185244 	 10.161964682786 	  8.961329615551 	
H	 11.425270055244 	 10.161967492786 	 19.091886335551 	
H	 26.674672585245 	  3.978412152786 	  8.989462375551 	
H	 26.106128455245 	  3.978414962786 	 19.120019095551 	
H	 26.674641485244 	 10.161973912786 	  8.989459545551 	
H	 26.106097355245 	 10.161976722786 	 19.120016265551 	
H	 12.234469078643 	  5.207409124982 	  3.710569826339 	
H	 11.665924948643 	  5.207411934982 	 13.841126546339 	
H	 12.234437978643 	 11.390970884982 	  3.710566996339 	
H	 11.665893848643 	 11.390973694982 	 13.841123716339 	
H	 26.915296378643 	  5.207418354982 	  3.738699756339 	
H	 26.346752248643 	  5.207421164982 	 13.869256476339 	
H	 26.915265278643 	 11.390980114982 	  3.738696926339 	
H	 26.346721148643 	 11.390982924982 	 13.869253646339 	
H	  1.744837040580 	  2.145625735439 	  1.637496950076 	
H	  1.176292910580 	  2.145628545439 	 11.768053670076 	
H	  1.744805940580 	  8.329187495439 	  1.637494120076 	
H	  1.176261810580 	  8.329190305439 	 11.768050840076 	
H	 16.425664340580 	  2.145634965439 	  1.665626880076 	
H	 15.857120210580 	  2.145637775439 	 11.796183600076 	
H	 16.425633240580 	  8.329196725439 	  1.665624050076 	
H	 15.857089110580 	  8.329199535439 	 11.796180770076 	
768 
Energy: -7.5640501202470006e+01 
S	  8.408728909365 	  1.427666878666 	  0.109526931657 	
S	  7.840184779365 	  1.427669688666 	 10.240083651657 	
S	  8.408697809365 	  7.611228638666 	  0.109524101657 	
S	  7.840153679365 	  7.611231448666 	 10.240080821657 	
S	 23.089556209365 	  1.427676108666 	  0.137656861657 	
S	 22.521012079365 	  1.427678918666 	 10.268213581657 	
S	 23.089525109365 	  7.611237868666 	  0.137654031657 	
S	 22.520980979365 	  7.611240678666 	 10.268210751657 	
S	  5.510883663083 	  4.485333127271 	  5.274836247624 	
S	  4.942339533083 	  4.485335937271 	 15.405392967624 	
S	  5.510852563083 	 10.668894887271 	  5.274833417624 	
S	  4.942308433083 	 10.668897697271 	 15.405390137624 	
S	 20.191710963083 	  4.485342357271 	  5.302966177624 	
S	 19.623166833083 	  4.485345167271 	 15.433522897624 	
S	 20.191679863083 	 10.668904117271 	  5.302963347624 	
S	 19.623135733083 	 10.668906927271 	 15.433520067624 	
S	  5.276471399762 	  4.687836845575 	 10.552314408694 	
S	  4.707927269762 	  4.687839655575 	 20.682871128694 	
S	  5.276440299762 	 10.871398605575 	 10.552311578694 	
S	  4.707896169762 	 10.871401415575 	 20.682868298694 	
S	 19.957298699762 	  4.687846075575 	 10.580444338694 	
S	 19.388754569762 	  4.687848885575 	 20.711001058694 	
S	 19.957267599762 	 10.871407835575 	 10.580441508694 	
S	 19.388723469762 	 10.871410645575 	 20.710998228694 	
S	  8.174317856070 	  1.630170710607 	  5.387004795764 	
S	  7.605773726070 	  1.630173520607 	 15.517561515764 	
S	  8.174286756070 	  7.813732470607 	  5.387001965764 	
S	  7.605742626070 	  7.813735280607 	 15.517558685764 	
S	 22.855145156070 	  1.630179940607 	  5.415134725764 	
S	 22.286601026070 	  1.630182750607 	 15.545691445764 	
S	 22.855114056070 	  7.813741700607 	  5.415131895764 	
S	 22.286569926070 	  7.813744510607 	 15.545688615764 	
C	  6.608313561641 	  2.489624920338 	 10.230967996782 	
C	  6.039769431641 	  2.489627730338 	 20.361524716782 	
C	  6.608282461641 	  8.673186680338 	 10.230965166782 	
C	  6.039738331641 	  8.673189490338 	 20.361521886782 	
C	 21.289140861641 	  2.489634150338 	 10.259097926782 	
C	 20.720596731641 	  2.489636960338 	 20.389654646782 	
C	 21.289109761641 	  8.673195910338 	 10.259095096782 	
C	 20.720565631641 	  8.673198720338 	 20.389651816782 	
C	  6.842267005242 	  5.546345029564 	  5.709687670634 	
C	  6.273722875242 	  5.546347839564 	 15.840244390634 	
C	  6.842235905242 	 11.729906789564 	  5.709684840634 	
C	  6.273691775242 	 11.729909599564 	 15.840241560634 	
C	 21.523094305242 	  5.546354259564 	  5.737817600634 	
C	 20.954550175242 	  5.546357069564 	 15.868374320634 	
C	 21.523063205242 	 11.729916019564 	  5.737814770634 	
C	 20.954519075242 	 11.729918829564 	 15.868371490634 	
C	  7.076886754028 	  3.625878787554 	  0.430873188916 	
C	  6.508342624028 	  3.625881597554 	 10.561429908916 	
C	  7.076855654028 	  9.809440547554 	  0.430870358916 	
C	  6.508311524028 	  9.809443357554 	 10.561427078916 	
C	 21.757714054028 	  3.625888017554 	  0.459003118916 	
C	 21.189169924028 	  3.625890827554 	 10.589559838916 	
C	 21.757682954028 	  9.809449777554 	  0.459000288916 	
C	 21.189138824028 	  9.809452587554 	 10.589557008916 	
C	  6.842934374574 	  0.569158882880 	  4.952153217852 	
C	  6.274390244574 	  0.569161692880 	 15.082709937852 	
C	  6.842903274574 	  6.752720642880 	  4.952150387852 	
C	  6.274359144574 	  6.752723452880 	 15.082707107852 	
C	 21.523761674574 	  0.569168112880 	  4.980283147852 	
C	 20.955217544574 	  0.569170922880 	 15.110839867852 	
C	 21.523730574574 	  6.752729872880 	  4.980280317852 	
C	 20.955186444574 	  6.752732682880 	 15.110837037852 	
C	  5.565066179937 	  2.384830486691 	  9.267009854881 	
C	  4.996522049937 	  2.384833296691 	 19.397566574881 	
C	  5.565035079937 	  8.568392246691 	  9.267007024881 	
C	  4.996490949937 	  8.568395056691 	 19.397563744881 	
C	 20.245893479937 	  2.384839716691 	  9.295139784881 	
C	 19.677349349937 	  2.384842526691 	 19.425696504881 	
C	 20.245862379937 	  8.568401476691 	  9.295136954881 	
C	 19.677318249937 	  8.568404286691 	 19.425693674881 	
C	  7.884276779699 	  5.441083890944 	  6.672402997595 	
C	  7.315732649699 	  5.441086700944 	 16.802959717595 	
C	  7.884245679699 	 11.624645650944 	  6.672400167595 	
C	  7.315701549699 	 11.624648460944 	 16.802956887595 	
C	 22.565104079699 	  5.441093120944 	  6.700532927595 	
C	 21.996559949699 	  5.441095930944 	 16.831089647595 	
C	 22.565072979699 	 11.624654880944 	  6.700530097595 	
C	 21.996528849699 	 11.624657690944 	 16.831086817595 	
C	  8.120134093405 	  3.730673284732 	  1.394831298907 	
C	  7.551589963405 	  3.730676094732 	 11.525388018907 	
C	  8.120102993405 	  9.914235044732 	  1.394828468907 	
C	  7.551558863405 	  9.914237854732 	 11.525385188907 	
C	 22.800961393405 	  3.730682514732 	  1.422961228907 	
C	 22.232417263405 	  3.730685324732 	 11.553517948907 	
C	 22.800930293405 	  9.914244274732 	  1.422958398907 	
C	 22.232386163405 	  9.914247084732 	 11.553515118907 	
C	  5.800924387628 	  0.674420048018 	  3.989438093742 	
C	  5.232380257628 	  0.674422858018 	 14.119994813742 	
C	  5.800893287628 	  6.857981808018 	  3.989435263742 	
C	  5.232349157628 	  6.857984618018 	 14.119991983742 	
C	 20.481751687628 	  0.674429278018 	  4.017568023742 	
C	 19.913207557628 	  0.674432088018 	 14.148124743742 	
C	 20.481720587628 	  6.857991038018 	  4.017565193742 	
C	 19.913176457628 	  6.857993848018 	 14.148121913742 	
C	  4.731087837959 	  3.523733491101 	  9.324245261307 	
C	  4.162543707959 	  3.523736301101 	 19.454801981307 	
C	  4.731056737959 	  9.707295251101 	  9.324242431307 	
C	  4.162512607959 	  9.707298061101 	 19.454799151307 	
C	 19.411915137959 	  3.523742721101 	  9.352375191307 	
C	 18.843371007959 	  3.523745531101 	 19.482931911307 	
C	 19.411884037959 	  9.707304481101 	  9.352372361307 	
C	 18.843339907959 	  9.707307291101 	 19.482929081307 	
C	  8.721091226997 	  0.467506099449 	  6.614883175124 	
C	  8.152547096997 	  0.467508909449 	 16.745439895124 	
C	  8.721060126997 	  6.651067859449 	  6.614880345124 	
C	  8.152515996997 	  6.651070669449 	 16.745437065124 	
C	 23.401918526997 	  0.467515329449 	  6.643013105124 	
C	 22.833374396997 	  0.467518139449 	 16.773569825124 	
C	 23.401887426997 	  6.651077089449 	  6.643010275124 	
C	 22.833343296997 	  6.651079899449 	 16.773566995124 	
C	  8.954112431361 	  2.591770249182 	  1.337595919374 	
C	  8.385568301361 	  2.591773059182 	 11.468152639374 	
C	  8.954081331361 	  8.775332009182 	  1.337593089374 	
C	  8.385537201361 	  8.775334819182 	 11.468149809374 	
C	 23.634939731361 	  2.591779479182 	  1.365725849374 	
C	 23.066395601361 	  2.591782289182 	 11.496282569374 	
C	 23.634908631361 	  8.775341239182 	  1.365723019374 	
C	 23.066364501361 	  8.775344049182 	 11.496279739374 	
C	  4.964110038437 	  5.647997828234 	  4.046958079285 	
C	  4.395565908437 	  5.648000638234 	 14.177514799285 	
C	  4.964078938437 	 11.831559588234 	  4.046955249285 	
C	  4.395534808437 	 11.831562398234 	 14.177511969285 	
C	 19.644937338437 	  5.648007058234 	  4.075088009285 	
C	 19.076393208437 	  5.648009868234 	 14.205644729285 	
C	 19.644906238437 	 11.831568818234 	  4.075085179285 	
C	 19.076362108437 	 11.831571628234 	 14.205641899285 	
C	  3.639883007945 	  3.648953031860 	  8.504999635595 	
C	  3.071338877945 	  3.648955841860 	 18.635556355595 	
C	  3.639851907945 	  9.832514791860 	  8.504996805595 	
C	  3.071307777945 	  9.832517601860 	 18.635553525595 	
C	 18.320710307945 	  3.648962261860 	  8.533129565595 	
C	 17.752166177945 	  3.648965071860 	 18.663686285595 	
C	 18.320679207945 	  9.832524021860 	  8.533126735595 	
C	 17.752135077945 	  9.832526831860 	 18.663683455595 	
C	  9.810309337006 	  0.592280375057 	  7.432704344901 	
C	  9.241765207006 	  0.592283185057 	 17.563261064901 	
C	  9.810278237006 	  6.775842135057 	  7.432701514901 	
C	  9.241734107006 	  6.775844945057 	 17.563258234901 	
C	 24.491136637006 	  0.592289605057 	  7.460834274901 	
C	 23.922592507006 	  0.592292415057 	 17.591390994901 	
C	 24.491105537006 	  6.775851365057 	  7.460831444901 	
C	 23.922561407006 	  6.775854175057 	 17.591388164901 	
C	 10.045317245037 	  2.466550847310 	  2.156841733449 	
C	  9.476773115037 	  2.466553657310 	 12.287398453449 	
C	 10.045286145037 	  8.650112607310 	  2.156838903449 	
C	  9.476742015037 	  8.650115417310 	 12.287395623449 	
C	 24.726144545037 	  2.466560077310 	  2.184971663449 	
C	 24.157600415037 	  2.466562887310 	 12.315528383449 	
C	 24.726113445037 	  8.650121837310 	  2.184968833449 	
C	 24.157569315037 	  8.650124647310 	 12.315525553449 	
C	  3.874891504261 	  5.523223627447 	  3.229137358814 	
C	  3.306347374261 	  5.523226437447 	 13.359694078814 	
C	  3.874860404261 	 11.706785387447 	  3.229134528814 	
C	  3.306316274261 	 11.706788197447 	 13.359691248814 	
C	 18.555718804261 	  5.523232857447 	  3.257267288814 	
C	 17.987174674261 	  5.523235667447 	 13.387824008814 	
C	 18.555687704261 	 11.706794617447 	  3.257264458814 	
C	 17.987143574261 	 11.706797427447 	 13.387821178814 	
H	  3.007300669676 	  4.581620399347 	  8.583859937287 	
H	  2.438756539676 	  4.581623209347 	 18.714416657287 	
H	  3.007269569676 	 10.765182159347 	  8.583857107287 	
H	  2.438725439676 	 10.765184969347 	 18.714413827287 	
H	 17.688127969676 	  4.581629629347 	  8.611989867287 	
H	 17.119583839676 	  4.581632439347 	 18.742546587287 	
H	 17.688096869676 	 10.765191389347 	  8.611987037287 	
H	 17.119552739676 	 10.765194199347 	 18.742543757287 	
H	 10.443515330393 	  1.524040143841 	  7.355252264977 	
H	  9.874971200393 	  1.524042953841 	 17.485808984977 	
H	 10.443484230393 	  7.707601903841 	  7.355249434977 	
H	  9.874940100393 	  7.707604713841 	 17.485806154977 	
H	 25.124342630393 	  1.524049373841 	  7.383382194977 	
H	 24.555798500393 	  1.524052183841 	 17.513938914977 	
H	 25.124311530393 	  7.707611133841 	  7.383379364977 	
H	 24.555767400393 	  7.707613943841 	 17.513936084977 	
H	 10.677899503048 	  1.533883416431 	  2.077981632437 	
H	 10.109355373048 	  1.533886226431 	 12.208538352437 	
H	 10.677868403048 	  7.717445176431 	  2.077978802437 	
H	 10.109324273048 	  7.717447986431 	 12.208535522437 	
H	 25.358726803048 	  1.533892646431 	  2.106111562437 	
H	 24.790182673048 	  1.533895456431 	 12.236668282437 	
H	 25.358695703048 	  7.717454406431 	  2.106108732437 	
H	 24.790151573048 	  7.717457216431 	 12.236665452437 	
H	  3.241685643325 	  4.591463786090 	  3.306589605832 	
H	  2.673141513325 	  4.591466596090 	 13.437146325832 	
H	  3.241654543325 	 10.775025546090 	  3.306586775832 	
H	  2.673110413325 	 10.775028356090 	 13.437143495832 	
H	 17.922512943325 	  4.591473016090 	  3.334719535832 	
H	 17.353968813325 	  4.591475826090 	 13.465276255832 	
H	 17.922481843325 	 10.775034776090 	  3.334716705832 	
H	 17.353937713325 	 10.775037586090 	 13.465273425832 	
C	  3.310323323387 	  2.671508503905 	  7.589811052919 	
C	  2.741779193387 	  2.671511313905 	 17.720367772919 	
C	  3.310292223387 	  8.855070263905 	  7.589808222919 	
C	  2.741748093387 	  8.855073073905 	 17.720364942919 	
C	 17.991150623387 	  2.671517733905 	  7.617940982919 	
C	 17.422606493387 	  2.671520543905 	 17.748497702919 	
C	 17.991119523387 	  8.855079493905 	  7.617938152919 	
C	 17.422575393387 	  8.855082303905 	 17.748494872919 	
C	 10.140920982592 	  5.727989697656 	  8.351034009075 	
C	  9.572376852592 	  5.727992507656 	 18.481590729075 	
C	 10.140889882592 	 11.911551457656 	  8.351031179075 	
C	  9.572345752592 	 11.911554267656 	 18.481587899075 	
C	 24.821748282592 	  5.727998927656 	  8.379163939075 	
C	 24.253204152592 	  5.728001737656 	 18.509720659075 	
C	 24.821717182592 	 11.911560687656 	  8.379161109075 	
C	 24.253173052592 	 11.911563497656 	 18.509717829075 	
C	 10.374876809425 	  3.443995500137 	  3.072030076778 	
C	  9.806332679425 	  3.443998310137 	 13.202586796778 	
C	 10.374845709425 	  9.627557260137 	  3.072027246778 	
C	  9.806301579425 	  9.627560070137 	 13.202583966778 	
C	 25.055704109425 	  3.444004730137 	  3.100160006778 	
C	 24.487159979425 	  3.444007540137 	 13.230716726778 	
C	 25.055673009425 	  9.627566490137 	  3.100157176778 	
C	 24.487128879425 	  9.627569300137 	 13.230713896778 	
C	  3.544279489053 	  0.387514372199 	  2.310807904420 	
C	  2.975735359053 	  0.387517182199 	 12.441364624420 	
C	  3.544248389053 	  6.571076132199 	  2.310805074420 	
C	  2.975704259053 	  6.571078942199 	 12.441361794420 	
C	 18.225106789053 	  0.387523602199 	  2.338937834420 	
C	 17.656562659053 	  0.387526412199 	 12.469494554420 	
C	 18.225075689053 	  6.571085362199 	  2.338935004420 	
C	 17.656531559053 	  6.571088172199 	 12.469491724420 	
C	  4.158964591025 	  1.564868076917 	  7.526434532021 	
C	  3.590420461025 	  1.564870886917 	 17.656991252021 	
C	  4.158933491025 	  7.748429836917 	  7.526431702021 	
C	  3.590389361025 	  7.748432646917 	 17.656988422021 	
C	 18.839791891025 	  1.564877306917 	  7.554564462021 	
C	 18.271247761025 	  1.564880116917 	 17.685121182021 	
C	 18.839760791025 	  7.748439066917 	  7.554561632021 	
C	 18.271216661025 	  7.748441876917 	 17.685118352021 	
C	  9.291801028939 	  4.622584618786 	  8.412902198576 	
C	  8.723256898939 	  4.622587428786 	 18.543458918576 	
C	  9.291769928939 	 10.806146378786 	  8.412899368576 	
C	  8.723225798939 	 10.806149188786 	 18.543456088576 	
C	 23.972628328939 	  4.622593848786 	  8.441032128576 	
C	 23.404084198939 	  4.622596658786 	 18.571588848576 	
C	 23.972597228939 	 10.806155608786 	  8.441029298576 	
C	 23.404053098939 	 10.806158418786 	 18.571586018576 	
C	  9.526235606378 	  4.550635973905 	  3.135406468547 	
C	  8.957691476378 	  4.550638783905 	 13.265963188547 	
C	  9.526204506378 	 10.734197733905 	  3.135403638547 	
C	  8.957660376378 	 10.734200543905 	 13.265960358547 	
C	 24.207062906378 	  4.550645203905 	  3.163536398547 	
C	 23.638518776378 	  4.550648013905 	 13.294093118547 	
C	 24.207031806378 	 10.734206963905 	  3.163533568547 	
C	 23.638487676378 	 10.734209773905 	 13.294090288547 	
C	  4.393399416767 	  1.492919390830 	  2.248939407873 	
C	  3.824855286767 	  1.492922200830 	 12.379496127873 	
C	  4.393368316767 	  7.676481150830 	  2.248936577873 	
C	  3.824824186767 	  7.676483960830 	 12.379493297873 	
C	 19.074226716767 	  1.492928620830 	  2.277069337873 	
C	 18.505682586767 	  1.492931430830 	 12.407626057873 	
C	 19.074195616767 	  7.676490380830 	  2.277066507873 	
C	 18.505651486767 	  7.676493190830 	 12.407623227873 	
H	  3.945157188735 	  0.754086238384 	  6.770451243208 	
H	  3.376613058735 	  0.754089048384 	 16.901007963208 	
H	  3.945126088735 	  6.937647998384 	  6.770448413208 	
H	  3.376581958735 	  6.937650808384 	 16.901005133208 	
H	 18.625984488735 	  0.754095468384 	  6.798581173208 	
H	 18.057440358735 	  0.754098278384 	 16.929137893208 	
H	 18.625953388735 	  6.937657228384 	  6.798578343208 	
H	 18.057409258735 	  6.937660038384 	 16.929135063208 	
H	  9.505538630082 	  3.811720483874 	  9.168733479861 	
H	  8.936994500082 	  3.811723293874 	 19.299290199861 	
H	  9.505507530082 	  9.995282243874 	  9.168730649861 	
H	  8.936963400082 	  9.995285053874 	 19.299287369861 	
H	 24.186365930082 	  3.811729713874 	  9.196863409861 	
H	 23.617821800082 	  3.811732523874 	 19.327420129861 	
H	 24.186334830082 	  9.995291473874 	  9.196860579861 	
H	 23.617790700082 	  9.995294283874 	 19.327417299861 	
H	  9.740043126081 	  5.361417964207 	  3.891389560450 	
H	  9.171498996081 	  5.361420774207 	 14.021946280450 	
H	  9.740012026081 	 11.544979724207 	  3.891386730450 	
H	  9.171467896081 	 11.544982534207 	 14.021943450450 	
H	 24.420870426081 	  5.361427194207 	  3.919519490450 	
H	 23.852326296081 	  5.361430004207 	 14.050076210450 	
H	 24.420839326081 	 11.544988954207 	  3.919516660450 	
H	 23.852295196081 	 11.544991764207 	 14.050073380450 	
H	  4.179661487311 	  2.303783640473 	  1.493108346080 	
H	  3.611117357311 	  2.303786450473 	 11.623665066080 	
H	  4.179630387311 	  8.487345400473 	  1.493105516080 	
H	  3.611086257311 	  8.487348210473 	 11.623662236080 	
H	 18.860488787311 	  2.303792870473 	  1.521238276080 	
H	 18.291944657311 	  2.303795680473 	 11.651794996080 	
H	 18.860457687311 	  8.487354630473 	  1.521235446080 	
H	 18.291913557311 	  8.487357440473 	 11.651792166080 	
C	  5.241690926330 	  1.418541302831 	  8.322436246501 	
C	  4.673146796330 	  1.418544112831 	 18.452992966501 	
C	  5.241659826330 	  7.602103062831 	  8.322433416501 	
C	  4.673115696330 	  7.602105872831 	 18.452990136501 	
C	 19.922518226330 	  1.418550532831 	  8.350566176501 	
C	 19.353974096330 	  1.418553342831 	 18.481122896501 	
C	 19.922487126330 	  7.602112292831 	  8.350563346501 	
C	 19.353942996330 	  7.602115102831 	 18.481120066501 	
C	  8.209030112738 	  4.476251219441 	  7.616870880483 	
C	  7.640485982738 	  4.476254029441 	 17.747427600483 	
C	  8.208999012738 	 10.659812979441 	  7.616868050483 	
C	  7.640454882738 	 10.659815789441 	 17.747424770483 	
C	 22.889857412738 	  4.476260449441 	  7.645000810483 	
C	 22.321313282738 	  4.476263259441 	 17.775557530483 	
C	 22.889826312738 	 10.659822209441 	  7.644997980483 	
C	 22.321282182738 	 10.659825019441 	 17.775554700483 	
C	  8.443509311872 	  4.696962632750 	  2.339404708407 	
C	  7.874965181872 	  4.696965442750 	 12.469961428407 	
C	  8.443478211872 	 10.880524392750 	  2.339401878407 	
C	  7.874934081872 	 10.880527202750 	 12.469958598407 	
C	 23.124336611872 	  4.696971862750 	  2.367534638407 	
C	 22.555792481872 	  4.696974672750 	 12.498091358407 	
C	 23.124305511872 	 10.880533622750 	  2.367531808407 	
C	 22.555761381872 	 10.880536432750 	 12.498088528407 	
C	  5.476170655800 	  1.639252761690 	  3.044970367271 	
C	  4.907626525800 	  1.639255571690 	 13.175527087271 	
C	  5.476139555800 	  7.822814521690 	  3.044967537271 	
C	  4.907595425800 	  7.822817331690 	 13.175524257271 	
C	 20.156997955800 	  1.639261991690 	  3.073100297271 	
C	 19.588453825800 	  1.639264801690 	 13.203657017271 	
C	 20.156966855800 	  7.822823751690 	  3.073097467271 	
C	 19.588422725800 	  7.822826561690 	 13.203654187271 	
H	  5.897363350557 	  0.503633183116 	  8.227684070608 	
H	  5.328819220557 	  0.503635993116 	 18.358240790608 	
H	  5.897332250557 	  6.687194943116 	  8.227681240608 	
H	  5.328788120557 	  6.687197753116 	 18.358237960608 	
H	 20.578190650557 	  0.503642413116 	  8.255814000608 	
H	 20.009646520557 	  0.503645223116 	 18.386370720608 	
H	 20.578159550557 	  6.687204173116 	  8.255811170608 	
H	 20.009615420557 	  6.687206983116 	 18.386367890608 	
H	  7.553358779721 	  3.561388776489 	  7.711619047463 	
H	  6.984814649721 	  3.561391586489 	 17.842175767463 	
H	  7.553327679721 	  9.744950536489 	  7.711616217463 	
H	  6.984783549721 	  9.744953346489 	 17.842172937463 	
H	 22.234186079721 	  3.561398006489 	  7.739748977463 	
H	 21.665641949721 	  3.561400816489 	 17.870305697463 	
H	 22.234154979721 	  9.744959766489 	  7.739746147463 	
H	 21.665610849721 	  9.744962576489 	 17.870302867463 	
H	  7.787836867607 	  5.611870764277 	  2.434156668646 	
H	  7.219292737607 	  5.611873574277 	 12.564713388646 	
H	  7.787805767607 	 11.795432524277 	  2.434153838646 	
H	  7.219261637607 	 11.795435334277 	 12.564710558646 	
H	 22.468664167607 	  5.611879994277 	  2.462286598646 	
H	 21.900120037607 	  5.611882804277 	 12.592843318646 	
H	 22.468633067607 	 11.795441754277 	  2.462283768646 	
H	 21.900088937607 	 11.795444564277 	 12.592840488646 	
H	  6.131841976817 	  2.554115198208 	  2.950222038493 	
H	  5.563297846817 	  2.554118008208 	 13.080778758493 	
H	  6.131810876817 	  8.737676958208 	  2.950219208493 	
H	  5.563266746817 	  8.737679768208 	 13.080775928493 	
H	 20.812669276817 	  2.554124428208 	  2.978351968493 	
H	 20.244125146817 	  2.554127238208 	 13.108908688493 	
H	 20.812638176817 	  8.737686188208 	  2.978349138493 	
H	 20.244094046817 	  8.737688998208 	 13.108905858493 	
C	  2.038999717481 	  2.787674989526 	  6.691803640006 	
C	  1.470455587481 	  2.787677799526 	 16.822360360006 	
C	  2.038968617481 	  8.971236749526 	  6.691800810006 	
C	  1.470424487481 	  8.971239559526 	 16.822357530006 	
C	 16.719827017481 	  2.787684219526 	  6.719933570006 	
C	 16.151282887481 	  2.787687029526 	 16.850490290006 	
C	 16.719795917481 	  8.971245979526 	  6.719930740006 	
C	 16.151251787481 	  8.971248789526 	 16.850487460006 	
C	 11.410424495321 	  5.843401104357 	  9.247509755878 	
C	 10.841880365321 	  5.843403914357 	 19.378066475878 	
C	 11.410393395321 	 12.026962864357 	  9.247506925878 	
C	 10.841849265321 	 12.026965674357 	 19.378063645878 	
C	 26.091251795321 	  5.843410334357 	  9.275639685878 	
C	 25.522707665321 	  5.843413144357 	 19.406196405878 	
C	 26.091220695321 	 12.026972094357 	  9.275636855878 	
C	 25.522676565321 	 12.026974904357 	 19.406193575878 	
C	 11.646200242876 	  3.327829321845 	  3.970037641466 	
C	 11.077656112876 	  3.327832131845 	 14.100594361466 	
C	 11.646169142876 	  9.511391081845 	  3.970034811466 	
C	 11.077625012876 	  9.511393891845 	 14.100591531466 	
C	 26.327027542876 	  3.327838551845 	  3.998167571466 	
C	 25.758483412876 	  3.327841361845 	 14.128724291466 	
C	 26.326996442876 	  9.511400311845 	  3.998164741466 	
C	 25.758452312876 	  9.511403121845 	 14.128721461466 	
C	  2.274775581619 	  0.272102935143 	  1.414332599228 	
C	  1.706231451619 	  0.272105745143 	 11.544889319228 	
C	  2.274744481619 	  6.455664695143 	  1.414329769228 	
C	  1.706200351619 	  6.455667505143 	 11.544886489228 	
C	 16.955602881619 	  0.272112165143 	  1.442462529228 	
C	 16.387058751619 	  0.272114975143 	 11.573019249228 	
C	 16.955571781619 	  6.455673925143 	  1.442459699228 	
C	 16.387027651619 	  6.455676735143 	 11.573016419228 	
C	  2.235906976096 	  2.510693363001 	  5.431218236171 	
C	  1.667362846096 	  2.510696173001 	 15.561774956171 	
C	  2.235875876096 	  8.694255123001 	  5.431215406171 	
C	  1.667331746096 	  8.694257933001 	 15.561772126171 	
C	 16.916734276096 	  2.510702593001 	  5.459348166171 	
C	 16.348190146096 	  2.510705403001 	 15.589904886171 	
C	 16.916703176096 	  8.694264353001 	  5.459345336171 	
C	 16.348159046096 	  8.694267163001 	 15.589902056171 	
C	 11.211667010896 	 -0.552979570562 	 10.512156315618 	
C	 10.643122880896 	 -0.552976760562 	 20.642713035618 	
C	 11.211635910896 	  5.630582189438 	 10.512153485618 	
C	 10.643091780896 	  5.630584999438 	 20.642710205618 	
C	 25.892494310896 	 -0.552970340562 	 10.540286245618 	
C	 25.323950180896 	 -0.552967530562 	 20.670842965618 	
C	 25.892463210896 	  5.630591419438 	 10.540283415618 	
C	 25.323919080896 	  5.630594229438 	 20.670840135618 	
C	 11.449292127408 	  3.604809953913 	  5.230623691396 	
C	 10.880747997408 	  3.604812763913 	 15.361180411396 	
C	 11.449261027408 	  9.788371713913 	  5.230620861396 	
C	 10.880716897408 	  9.788374523913 	 15.361177581396 	
C	 26.130119427408 	  3.604819183913 	  5.258753621396 	
C	 25.561575297408 	  3.604821993913 	 15.389310341396 	
C	 26.130088327408 	  9.788380943913 	  5.258750791396 	
C	 25.561544197408 	  9.788383753913 	 15.389307511396 	
C	  2.473532705769 	  6.668483811385 	  0.149685966902 	
C	  1.904988575769 	  6.668486621385 	 10.280242686902 	
C	  2.473501605769 	 12.852045571385 	  0.149683136902 	
C	  1.904957475769 	 12.852048381385 	 10.280239856902 	
C	 17.154360005769 	  6.668493041385 	  0.177815896902 	
C	 16.585815875769 	  6.668495851385 	 10.308372616902 	
C	 17.154328905769 	 12.852054801385 	  0.177813066902 	
C	 16.585784775769 	 12.852057611385 	 10.308369786902 	
H	  3.051468561091 	  3.027670754145 	  5.035087995730 	
H	  2.482924431091 	  3.027673564145 	 15.165644715730 	
H	  3.051437461091 	  9.211232514145 	  5.035085165730 	
H	  2.482893331091 	  9.211235324145 	 15.165641885730 	
H	 17.732295861091 	  3.027679984145 	  5.063217925730 	
H	 17.163751731091 	  3.027682794145 	 15.193774645730 	
H	 17.732264761091 	  9.211241744145 	  5.063215095730 	
H	 17.163720631091 	  9.211244554145 	 15.193771815730 	
H	 10.407476820420 	 -0.031515339821 	 10.901009905054 	
H	  9.838932690420 	 -0.031512529821 	 21.031566625054 	
H	 10.407445720420 	  6.152046420179 	 10.901007075054 	
H	  9.838901590420 	  6.152049230179 	 21.031563795054 	
H	 25.088304120420 	 -0.031506109821 	 10.929139835054 	
H	 24.519759990420 	 -0.031503299821 	 21.059696555054 	
H	 25.088273020420 	  6.152055650179 	 10.929137005054 	
H	 24.519728890420 	  6.152058460179 	 21.059693725054 	
H	 10.633730829263 	  3.087830559224 	  5.626753585615 	
H	 10.065186699263 	  3.087833369224 	 15.757310305615 	
H	 10.633699729263 	  9.271392319224 	  5.626750755615 	
H	 10.065155599263 	  9.271395129224 	 15.757307475615 	
H	 25.314558129263 	  3.087839789224 	  5.654883515615 	
H	 24.746013999263 	  3.087842599224 	 15.785440235615 	
H	 25.314527029263 	  9.271401549224 	  5.654880685615 	
H	 24.745982899263 	  9.271404359224 	 15.785437405615 	
H	  3.277722691212 	  6.147019650048 	 -0.239167959410 	
H	  2.709178561212 	  6.147022460048 	  9.891388760590 	
H	  3.277691591212 	 12.330581410048 	 -0.239170789410 	
H	  2.709147461212 	 12.330584220048 	  9.891385930590 	
H	 17.958549991212 	  6.147028880048 	 -0.211038029410 	
H	 17.390005861212 	  6.147031690048 	  9.919518690590 	
H	 17.958518891212 	 12.330590640048 	 -0.211040859410 	
H	 17.389974761212 	 12.330593450048 	  9.919515860590 	
H	  1.389728912285 	  2.647347940906 	  4.702391723143 	
H	  0.821184782285 	  2.647350750906 	 14.832948443143 	
H	  1.389697812285 	  8.830909700906 	  4.702388893143 	
H	  0.821153682285 	  8.830912510906 	 14.832945613143 	
H	 16.070556212285 	  2.647357170906 	  4.730521653143 	
H	 15.502012082285 	  2.647359980906 	 14.861078373143 	
H	 16.070525112285 	  8.830918930906 	  4.730518823143 	
H	 15.501980982285 	  8.830921740906 	 14.861075543143 	
H	 12.522934445759 	 -0.411198215126 	  0.676789609335 	
H	 11.954390315759 	 -0.411195405126 	 10.807346329335 	
H	 12.522903345759 	  5.772363544874 	  0.676786779335 	
H	 11.954359215759 	  5.772366354874 	 10.807343499335 	
H	 27.203761745759 	 -0.411188985126 	  0.704919539335 	
H	 26.635217615759 	 -0.411186175126 	 10.835476259335 	
H	 27.203730645759 	  5.772372774874 	  0.704916709335 	
H	 26.635186515759 	  5.772375584874 	 10.835473429335 	
H	 12.295470215143 	  3.468156013094 	  5.959450133477 	
H	 11.726926085143 	  3.468158823094 	 16.090006853477 	
H	 12.295439115143 	  9.651717773094 	  5.959447303477 	
H	 11.726894985143 	  9.651720583094 	 16.090004023477 	
H	 26.976297515143 	  3.468165243094 	  5.987580063477 	
H	 26.407753385143 	  3.468168053094 	 16.118136783477 	
H	 26.976266415143 	  9.651727003094 	  5.987577233477 	
H	 26.407722285143 	  9.651729813094 	 16.118133953477 	
H	  1.162264985188 	  6.526702514883 	  9.985053000074 	
H	  0.593720855188 	  6.526705324883 	 20.115609720074 	
H	  1.162233885188 	 12.710264274883 	  9.985050170074 	
H	  0.593689755188 	 12.710267084883 	 20.115606890074 	
H	 15.843092285188 	  6.526711744883 	 10.013182930074 	
H	 15.274548155188 	  6.526714554883 	 20.143739650074 	
H	 15.843061185188 	 12.710273504883 	 10.013180100074 	
H	 15.274517055188 	 12.710276314883 	 20.143736820074 	
H	  2.564071048514 	  1.532059460970 	  5.266928561346 	
H	  1.995526918514 	  1.532062270970 	 15.397485281346 	
H	  2.564039948514 	  7.715621220970 	  5.266925731346 	
H	  1.995495818514 	  7.715624030970 	 15.397482451346 	
H	 17.244898348514 	  1.532068690970 	  5.295058491346 	
H	 16.676354218514 	  1.532071500970 	 15.425615211346 	
H	 17.244867248514 	  7.715630450970 	  5.295055661346 	
H	 16.676323118514 	  7.715633260970 	 15.425612381346 	
H	 11.357629697441 	  4.597564734628 	  0.121973636292 	
H	 10.789085567441 	  4.597567544628 	 10.252530356292 	
H	 11.357598597441 	 10.781126494628 	  0.121970806292 	
H	 10.789054467441 	 10.781129304628 	 10.252527526292 	
H	 26.038456997441 	  4.597573964628 	  0.150103566292 	
H	 25.469912867441 	  4.597576774628 	 10.280660286292 	
H	 26.038425897441 	 10.781135724628 	  0.150100736292 	
H	 25.469881767441 	 10.781138534628 	 10.280657456292 	
H	 11.121126393424 	  4.583444008650 	  5.394914023207 	
H	 10.552582263424 	  4.583446818650 	 15.525470743207 	
H	 11.121095293424 	 10.767005768650 	  5.394911193207 	
H	 10.552551163424 	 10.767008578650 	 15.525467913207 	
H	 25.801953693424 	  4.583453238650 	  5.423043953207 	
H	 25.233409563424 	  4.583456048650 	 15.553600673207 	
H	 25.801922593424 	 10.767014998650 	  5.423041123207 	
H	 25.233378463424 	 10.767017808650 	 15.553597843207 	
H	  2.327570006529 	  1.517939539321 	 10.539868879738 	
H	  1.759025876529 	  1.517942349321 	 20.670425599738 	
H	  2.327538906529 	  7.701501299321 	 10.539866049738 	
H	  1.758994776529 	  7.701504109321 	 20.670422769738 	
H	 17.008397306529 	  1.517948769321 	 10.567998809738 	
H	 16.439853176529 	  1.517951579321 	 20.698555529738 	
H	 17.008366206529 	  7.701510529321 	 10.567995979738 	
H	 16.439822076529 	  7.701513339321 	 20.698552699738 	
C	  1.514276033721 	  3.969384857319 	  6.687569613452 	
C	  0.945731903721 	  3.969387667319 	 16.818126333452 	
C	  1.514244933721 	 10.152946617319 	  6.687566783452 	
C	  0.945700803721 	 10.152949427319 	 16.818123503452 	
C	 16.195103333721 	  3.969394087319 	  6.715699543452 	
C	 15.626559203721 	  3.969396897319 	 16.846256263452 	
C	 16.195072233721 	 10.152955847319 	  6.715696713452 	
C	 15.626528103721 	 10.152958657319 	 16.846253433452 	
C	 11.934274595599 	  0.914956468688 	  9.261255370427 	
C	 11.365730465599 	  0.914959278688 	 19.391812090427 	
C	 11.934243495599 	  7.098518228688 	  9.261252540427 	
C	 11.365699365599 	  7.098521038688 	 19.391809260427 	
C	 26.615101895599 	  0.914965698688 	  9.289385300427 	
C	 26.046557765599 	  0.914968508688 	 19.419942020427 	
C	 26.615070795599 	  7.098527458688 	  9.289382470427 	
C	 26.046526665599 	  7.098530268688 	 19.419939190427 	
C	 12.170925051651 	  2.146119316075 	  3.974270742399 	
C	 11.602380921651 	  2.146122126075 	 14.104827462399 	
C	 12.170893951651 	  8.329681076075 	  3.974267912399 	
C	 11.602349821651 	  8.329683886075 	 14.104824632399 	
C	 26.851752351651 	  2.146128546075 	  4.002400672399 	
C	 26.283208221651 	  2.146131356075 	 14.132957392399 	
C	 26.851721251651 	  8.329690306075 	  4.002397842399 	
C	 26.283177121651 	  8.329693116075 	 14.132954562399 	
C	  1.750925453485 	  5.200547468178 	  1.400586885778 	
C	  1.182381323485 	  5.200550278178 	 11.531143605778 	
C	  1.750894353485 	 11.384109228178 	  1.400584055778 	
C	  1.182350223485 	 11.384112038178 	 11.531140775778 	
C	 16.431752753485 	  5.200556698178 	  1.428716815778 	
C	 15.863208623485 	  5.200559508178 	 11.559273535778 	
C	 16.431721653485 	 11.384118458178 	  1.428713985778 	
C	 15.863177523485 	 11.384121268178 	 11.559270705778 	
H	  2.211409321491 	  4.744678946804 	  6.427081861241 	
H	  1.642865191491 	  4.744681756804 	 16.557638581241 	
H	  2.211378221491 	 10.928240706804 	  6.427079031241 	
H	  1.642834091491 	 10.928243516804 	 16.557635751241 	
H	 16.892236621491 	  4.744688176804 	  6.455211791241 	
H	 16.323692491491 	  4.744690986804 	 16.585768511241 	
H	 16.892205521491 	 10.928249936804 	  6.455208961241 	
H	 16.323661391491 	 10.928252746804 	 16.585765681241 	
H	 11.235721456485 	  1.690359395520 	  9.513186512400 	
H	 10.667177326485 	  1.690362205520 	 19.643743232400 	
H	 11.235690356485 	  7.873921155520 	  9.513183682400 	
H	 10.667146226485 	  7.873923965520 	 19.643740402400 	
H	 25.916548756485 	  1.690368625520 	  9.541316442400 	
H	 25.348004626485 	  1.690371435520 	 19.671873162400 	
H	 25.916517656485 	  7.873930385520 	  9.541313612400 	
H	 25.347973526485 	  7.873933195520 	 19.671870332400 	
H	 11.473791907871 	  1.370824201340 	  4.234757702254 	
H	 10.905247777871 	  1.370827011340 	 14.365314422254 	
H	 11.473760807871 	  7.554385961340 	  4.234754872254 	
H	 10.905216677871 	  7.554388771340 	 14.365311592254 	
H	 26.154619207871 	  1.370833431340 	  4.262887632254 	
H	 25.586075077871 	  1.370836241340 	 14.393444352254 	
H	 26.154588107871 	  7.554395191340 	  4.262884802254 	
H	 25.586043977871 	  7.554398001340 	 14.393441522254 	
H	  2.449478587760 	  4.425144651981 	  1.148655284586 	
H	  1.880934457760 	  4.425147461981 	 11.279212004586 	
H	  2.449447487760 	 10.608706411981 	  1.148652454586 	
H	  1.880903357760 	 10.608709221981 	 11.279209174586 	
H	 17.130305887760 	  4.425153881981 	  1.176785214586 	
H	 16.561761757760 	  4.425156691981 	 11.307341934586 	
H	 17.130274787760 	 10.608715641981 	  1.176782384586 	
H	 16.561730657760 	 10.608718451981 	 11.307339104586 	
H	  1.237918607488 	  4.322944662785 	  7.675148680946 	
H	  0.669374477488 	  4.322947472785 	 17.805705400946 	
H	  1.237887507488 	 10.506506422785 	  7.675145850946 	
H	  0.669343377488 	 10.506509232785 	 17.805702570946 	
H	 15.918745907488 	  4.322953892785 	  7.703278610946 	
H	 15.350201777488 	  4.322956702785 	 17.833835330946 	
H	 15.918714807488 	 10.506515652785 	  7.703275780946 	
H	 15.350170677488 	 10.506518462785 	 17.833832500946 	
H	 12.216644196112 	  7.377716269205 	  8.251386337939 	
H	 11.648100066112 	  7.377719079205 	 18.381943057939 	
H	 12.216613096112 	 13.561278029205 	  8.251383507939 	
H	 11.648068966112 	 13.561280839205 	 18.381940227939 	
H	 26.897471496112 	  7.377725499205 	  8.279516267939 	
H	 26.328927366112 	  7.377728309205 	 18.410072987939 	
H	 26.897440396112 	 13.561287259205 	  8.279513437939 	
H	 26.328896266112 	 13.561290069205 	 18.410070157939 	
H	 12.447283476781 	  1.792560629700 	  2.986691101902 	
H	 11.878739346781 	  1.792563439700 	 13.117247821902 	
H	 12.447252376781 	  7.976122389700 	  2.986688271902 	
H	 11.878708246781 	  7.976125199700 	 13.117244991902 	
H	 27.128110776781 	  1.792569859700 	  3.014821031902 	
H	 26.559566646781 	  1.792572669700 	 13.145377751902 	
H	 27.128079676781 	  7.976131619700 	  3.014818201902 	
H	 26.559535546781 	  7.976134429700 	 13.145374921902 	
H	  1.468556372757 	 -1.262212531787 	  2.410456090436 	
H	  0.900012242757 	 -1.262209721787 	 12.541012810436 	
H	  1.468525272757 	  4.921349228213 	  2.410453260436 	
H	  0.899981142757 	  4.921352038213 	 12.541009980436 	
H	 16.149383672757 	 -1.262203301787 	  2.438586020436 	
H	 15.580839542757 	 -1.262200491787 	 12.569142740436 	
H	 16.149352572757 	  4.921358458213 	  2.438583190436 	
H	 15.580808442757 	  4.921361268213 	 12.569139910436 	
H	  0.619121653576 	  4.095641738807 	  6.030842690630 	
H	  0.050577523576 	  4.095644548807 	 16.161399410630 	
H	  0.619090553576 	 10.279203498807 	  6.030839860630 	
H	  0.050546423576 	 10.279206308807 	 16.161396580630 	
H	 15.299948953576 	  4.095650968807 	  6.058972620630 	
H	 14.731404823576 	  4.095653778807 	 16.189529340630 	
H	 15.299917853576 	 10.279212728807 	  6.058969790630 	
H	 14.731373723576 	 10.279215538807 	 16.189526510630 	
H	 12.834753859698 	  7.152387370892 	  9.910657002033 	
H	 12.266209729698 	  7.152390180892 	 20.041213722033 	
H	 12.834722759698 	 13.335949130892 	  9.910654172033 	
H	 12.266178629698 	 13.335951940892 	 20.041210892033 	
H	 27.515581159698 	  7.152396600892 	  9.938786932033 	
H	 26.947037029698 	  7.152399410892 	 20.069343652033 	
H	 27.515550059698 	 13.335958360892 	  9.938784102033 	
H	 26.947005929698 	 13.335961170892 	 20.069340822033 	
H	 13.066079128058 	  2.019862598845 	  4.630997910343 	
H	 12.497534998058 	  2.019865408845 	 14.761554630343 	
H	 13.066048028058 	  8.203424358845 	  4.630995080343 	
H	 12.497503898058 	  8.203427168845 	 14.761551800343 	
H	 27.746906428058 	  2.019871828845 	  4.659127840343 	
H	 27.178362298058 	  2.019874638845 	 14.789684560343 	
H	 27.746875328058 	  8.203433588845 	  4.659125010343 	
H	 27.178331198058 	  8.203436398845 	 14.789681730343 	
H	  0.850445911977 	 -1.036883482425 	  0.751185674519 	
H	  0.281901781977 	 -1.036880672425 	 10.881742394519 	
H	  0.850414811977 	  5.146678277575 	  0.751182844519 	
H	  0.281870681977 	  5.146681087575 	 10.881739564519 	
H	 15.531273211977 	 -1.036874252425 	  0.779315604519 	
H	 14.962729081977 	 -1.036871442425 	 10.909872324519 	
H	 15.531242111977 	  5.146687507575 	  0.779312774519 	
H	 14.962697981977 	  5.146690317575 	 10.909869494519 	
C	  1.091117020659 	  1.984873431325 	  7.078545989065 	
C	  0.522572890659 	  1.984876241325 	 17.209102709065 	
C	  1.091085920659 	  8.168435191325 	  7.078543159065 	
C	  0.522541790659 	  8.168438001325 	 17.209099879065 	
C	 15.771944320659 	  1.984882661325 	  7.106675919065 	
C	 15.203400190659 	  1.984885471325 	 17.237232639065 	
C	 15.771913220659 	  8.168444421325 	  7.106673089065 	
C	 15.203369090659 	  8.168447231325 	 17.237229809065 	
C	 12.359748448060 	  5.042495168046 	  8.860629389442 	
C	 11.791204318060 	  5.042497978046 	 18.991186109442 	
C	 12.359717348060 	 11.226056928046 	  8.860626559442 	
C	 11.791173218060 	 11.226059738046 	 18.991183279442 	
C	 27.040575748060 	  5.042504398046 	  8.888759319442 	
C	 26.472031618060 	  5.042507208046 	 19.019316039442 	
C	 27.040544648060 	 11.226066158046 	  8.888756489442 	
C	 26.472000518060 	 11.226068968046 	 19.019313209442 	
C	 12.594082648618 	  4.130632516671 	  3.583295687179 	
C	 12.025538518618 	  4.130635326671 	 13.713852407179 	
C	 12.594051548618 	 10.314194276671 	  3.583292857179 	
C	 12.025507418618 	 10.314197086671 	 13.713849577179 	
C	 27.274909948618 	  4.130641746671 	  3.611425617179 	
C	 26.706365818618 	  4.130644556671 	 13.741982337179 	
C	 27.274878848618 	 10.314203506671 	  3.611422787179 	
C	 26.706334718618 	 10.314206316671 	 13.741979507179 	
C	  1.325451523677 	  1.073008572720 	  1.801213401922 	
C	  0.756907393677 	  1.073011382720 	 11.931770121922 	
C	  1.325420423677 	  7.256570332720 	  1.801210571922 	
C	  0.756876293677 	  7.256573142720 	 11.931767291922 	
C	 16.006278823677 	  1.073017802720 	  1.829343331922 	
C	 15.437734693677 	  1.073020612720 	 11.959900051922 	
C	 16.006247723677 	  7.256579562720 	  1.829340501922 	
C	 15.437703593677 	  7.256582372720 	 11.959897221922 	
H	  0.113490886640 	  1.998601572942 	  6.528420026530 	
H	 -0.455053243360 	  1.998604382942 	 16.658976746530 	
H	  0.113459786640 	  8.182163332942 	  6.528417196530 	
H	 -0.455084343360 	  8.182166142942 	 16.658973916530 	
H	 14.794318186640 	  1.998610802942 	  6.556549956530 	
H	 14.225774056640 	  1.998613612942 	 16.687106676530 	
H	 14.794287086640 	  8.182172562942 	  6.556547126530 	
H	 14.225742956640 	  8.182175372942 	 16.687103846530 	
H	 13.337356138468 	  5.056316447697 	  9.410807247252 	
H	 12.768812008468 	  5.056319257697 	 19.541363967252 	
H	 13.337325038468 	 11.239878207697 	  9.410804417252 	
H	 12.768780908468 	 11.239881017697 	 19.541361137252 	
H	 28.018183438468 	  5.056325677697 	  9.438937177252 	
H	 27.449639308468 	  5.056328487697 	 19.569493897252 	
H	 28.018152338468 	 11.239887437697 	  9.438934347252 	
H	 27.449608208468 	 11.239890247697 	 19.569491067252 	
H	 13.571708720299 	  4.116904385814 	  4.133421477428 	
H	 13.003164590299 	  4.116907195814 	 14.263978197428 	
H	 13.571677620299 	 10.300466145814 	  4.133418647428 	
H	 13.003133490299 	 10.300468955814 	 14.263975367428 	
H	 28.252536020299 	  4.116913615814 	  4.161551407428 	
H	 27.683991890299 	  4.116916425814 	 14.292108127428 	
H	 28.252504920299 	 10.300475375814 	  4.161548577428 	
H	 27.683960790299 	 10.300478185814 	 14.292105297428 	
H	  0.347843740472 	  1.059187211798 	  1.251035686739 	
H	 -0.220700389528 	  1.059190021798 	 11.381592406739 	
H	  0.347812640472 	  7.242748971798 	  1.251032856739 	
H	 -0.220731489528 	  7.242751781798 	 11.381589576739 	
H	 15.028671040472 	  1.059196441798 	  1.279165616739 	
H	 14.460126910472 	  1.059199251798 	 11.409722336739 	
H	 15.028639940472 	  7.242758201798 	  1.279162786739 	
H	 14.460095810472 	  7.242761011798 	 11.409719506739 	
H	  0.872842239218 	  2.115167891145 	  8.115018940199 	
H	  0.304298109218 	  2.115170701145 	 18.245575660199 	
H	  0.872811139218 	  8.298729651145 	  8.115016110199 	
H	  0.304267009218 	  8.298732461145 	 18.245572830199 	
H	 15.553669539218 	  2.115177121145 	  8.143148870199 	
H	 14.985125409218 	  2.115179931145 	 18.273705590199 	
H	 15.553638439218 	  8.298738881145 	  8.143146040199 	
H	 14.985094309218 	  8.298741691145 	 18.273702760199 	
H	 12.578036404402 	  5.172865058220 	  7.824176900331 	
H	 12.009492274402 	  5.172867868220 	 17.954733620331 	
H	 12.578005304402 	 11.356426818220 	  7.824174070331 	
H	 12.009461174402 	 11.356429628220 	 17.954730790331 	
H	 27.258863704402 	  5.172874288220 	  7.852306830331 	
H	 26.690319574402 	  5.172877098220 	 17.982863550331 	
H	 27.258832604402 	 11.356436048220 	  7.852304000331 	
H	 26.690288474402 	 11.356438858220 	 17.982860720331 	
H	 12.812357587887 	  4.000339174474 	  2.546821891346 	
H	 12.243813457887 	  4.000341984474 	 12.677378611346 	
H	 12.812326487887 	 10.183900934474 	  2.546819061346 	
H	 12.243782357887 	 10.183903744474 	 12.677375781346 	
H	 27.493184887887 	  4.000348404474 	  2.574951821346 	
H	 26.924640757887 	  4.000351214474 	 12.705508541346 	
H	 27.493153787887 	 10.183910164474 	  2.574948991346 	
H	 26.924609657887 	 10.183912974474 	 12.705505711346 	
H	  1.107163759642 	  0.942638354494 	  2.837665735569 	
H	  0.538619629642 	  0.942641164494 	 12.968222455569 	
H	  1.107132659642 	  7.126200114494 	  2.837662905569 	
H	  0.538588529642 	  7.126202924494 	 12.968219625569 	
H	 15.787991059642 	  0.942647584494 	  2.865795665569 	
H	 15.219446929642 	  0.942650394494 	 12.996352385569 	
H	 15.787959959642 	  7.126209344494 	  2.865792835569 	
H	 15.219415829642 	  7.126212154494 	 12.996349555569 	
H	  1.392220089413 	  0.979712604974 	  7.088880823693 	
H	  0.823675959413 	  0.979715414974 	 17.219437543693 	
H	  1.392188989413 	  7.163274364974 	  7.088877993693 	
H	  0.823644859413 	  7.163277174974 	 17.219434713693 	
H	 16.073047389413 	  0.979721834974 	  7.117010753693 	
H	 15.504503259413 	  0.979724644974 	 17.247567473693 	
H	 16.073016289413 	  7.163283594974 	  7.117007923693 	
H	 15.504472159413 	  7.163286404974 	 17.247564643693 	
H	 12.058578940392 	  4.037384686337 	  8.850318566274 	
H	 11.490034810392 	  4.037387496337 	 18.980875286274 	
H	 12.058547840392 	 10.220946446337 	  8.850315736274 	
H	 11.490003710392 	 10.220949256337 	 18.980872456274 	
H	 26.739406240392 	  4.037393916337 	  8.878448496274 	
H	 26.170862110392 	  4.037396726337 	 19.009005216274 	
H	 26.739375140392 	 10.220955676337 	  8.878445666274 	
H	 26.170831010392 	 10.220958486337 	 19.009002386274 	
H	 12.292978650544 	  5.135793700427 	  3.572962237361 	
H	 11.724434520544 	  5.135796510427 	 13.703518957361 	
H	 12.292947550544 	 11.319355460427 	  3.572959407361 	
H	 11.724403420544 	 11.319358270427 	 13.703516127361 	
H	 26.973805950544 	  5.135802930427 	  3.601092167361 	
H	 26.405261820544 	  5.135805740427 	 13.731648887361 	
H	 26.973774850544 	 11.319364690427 	  3.601089337361 	
H	 26.405230720544 	 11.319367500427 	 13.731646057361 	
H	  1.626620918578 	  2.078119094913 	  1.811524621492 	
H	  1.058076788578 	  2.078121904913 	 11.942081341492 	
H	  1.626589818578 	  8.261680854913 	  1.811521791492 	
H	  1.058045688578 	  8.261683664913 	 11.942078511492 	
H	 16.307448218578 	  2.078128324913 	  1.839654551492 	
H	 15.738904088578 	  2.078131134913 	 11.970211271492 	
H	 16.307417118578 	  8.261690084913 	  1.839651721492 	
H	 15.738872988578 	  8.261692894913 	 11.970208441492 	
768 
Energy: -7.8767207124270001e+01 
S	  8.362881839729 	  1.412759032076 	  0.118679029817 	
S	  7.794337709729 	  1.412761842076 	 10.249235749817 	
S	  8.362850739729 	  7.596320792076 	  0.118676199817 	
S	  7.794306609729 	  7.596323602076 	 10.249232919817 	
S	 23.043709139729 	  1.412768262076 	  0.146808959817 	
S	 22.475165009729 	  1.412771072076 	 10.277365679817 	
S	 23.043678039729 	  7.596330022076 	  0.146806129817 	
S	 22.475133909729 	  7.596332832076 	 10.277362849817 	
S	  5.497231938431 	  4.466179098590 	  5.302001892061 	
S	  4.928687808431 	  4.466181908590 	 15.432558612061 	
S	  5.497200838431 	 10.649740858590 	  5.301999062061 	
S	  4.928656708431 	 10.649743668590 	 15.432555782061 	
S	 20.178059238431 	  4.466188328590 	  5.330131822061 	
S	 19.609515108431 	  4.466191138590 	 15.460688542061 	
S	 20.178028138431 	 10.649750088590 	  5.330128992061 	
S	 19.609484008431 	 10.649752898590 	 15.460685712061 	
S	  5.269047714554 	  4.694253626498 	 10.605926566455 	
S	  4.700503584554 	  4.694256436498 	 20.736483286455 	
S	  5.269016614554 	 10.877815386498 	 10.605923736455 	
S	  4.700472484554 	 10.877818196498 	 20.736480456455 	
S	 19.949875014554 	  4.694262856498 	 10.634056496455 	
S	 19.381330884554 	  4.694265666498 	 20.764613216455 	
S	 19.949843914554 	 10.877824616498 	 10.634053666455 	
S	 19.381299784554 	 10.877827426498 	 20.764610386455 	
S	  8.134698941991 	  1.640833595393 	  5.422603332002 	
S	  7.566154811991 	  1.640836405393 	 15.553160052002 	
S	  8.134667841991 	  7.824395355393 	  5.422600502002 	
S	  7.566123711991 	  7.824398165393 	 15.553157222002 	
S	 22.815526241991 	  1.640842825393 	  5.450733262002 	
S	 22.246982111991 	  1.640845635393 	 15.581289982002 	
S	 22.815495141991 	  7.824404585393 	  5.450730432002 	
S	 22.246951011991 	  7.824407395393 	 15.581287152002 	
C	  6.585836342756 	  2.486699115463 	 10.287137687262 	
C	  6.017292212756 	  2.486701925463 	 20.417694407262 	
C	  6.585805242756 	  8.670260875463 	 10.287134857262 	
C	  6.017261112756 	  8.670263685463 	 20.417691577262 	
C	 21.266663642756 	  2.486708345463 	 10.315267617262 	
C	 20.698119512756 	  2.486711155463 	 20.445824337262 	
C	 21.266632542756 	  8.670270105463 	 10.315264787262 	
C	 20.698088412756 	  8.670272915463 	 20.445821507262 	
C	  6.817738486898 	  5.539302548713 	  5.742499902716 	
C	  6.249194356898 	  5.539305358713 	 15.873056622716 	
C	  6.817707386898 	 11.722864308713 	  5.742497072716 	
C	  6.249163256898 	 11.722867118713 	 15.873053792716 	
C	 21.498565786898 	  5.539311778713 	  5.770629832716 	
C	 20.930021656898 	  5.539314588713 	 15.901186552716 	
C	 21.498534686898 	 11.722873538713 	  5.770627002716 	
C	 20.929990556898 	 11.722876348713 	 15.901183722716 	
C	  7.046093217830 	  3.620313532362 	  0.437467734129 	
C	  6.477549087830 	  3.620316342362 	 10.568024454129 	
C	  7.046062117830 	  9.803875292362 	  0.437464904129 	
C	  6.477517987830 	  9.803878102362 	 10.568021624129 	
C	 21.726920517830 	  3.620322762362 	  0.465597664129 	
C	 21.158376387830 	  3.620325572362 	 10.596154384129 	
C	 21.726889417830 	  9.803884522362 	  0.465594834129 	
C	 21.158345287830 	  9.803887332362 	 10.596151554129 	
C	  6.814192254870 	  0.567710213873 	  4.982105147002 	
C	  6.245648124870 	  0.567713023873 	 15.112661867002 	
C	  6.814161154870 	  6.751271973873 	  4.982102317002 	
C	  6.245617024870 	  6.751274783873 	 15.112659037002 	
C	 21.495019554870 	  0.567719443873 	  5.010235077002 	
C	 20.926475424870 	  0.567722253873 	 15.140791797002 	
C	 21.494988454870 	  6.751281203873 	  5.010232247002 	
C	 20.926444324870 	  6.751284013873 	 15.140788967002 	
C	  5.547563273134 	  2.392612770519 	  9.315819438467 	
C	  4.979019143134 	  2.392615580519 	 19.446376158467 	
C	  5.547532173134 	  8.576174530519 	  9.315816608467 	
C	  4.978988043134 	  8.576177340519 	 19.446373328467 	
C	 20.228390573134 	  2.392622000519 	  9.343949368467 	
C	 19.659846443134 	  2.392624810519 	 19.474506088467 	
C	 20.228359473134 	  8.576183760519 	  9.343946538467 	
C	 19.659815343134 	  8.576186570519 	 19.474503258467 	
C	  7.855052760968 	  5.444940278544 	  6.712796561668 	
C	  7.286508630968 	  5.444943088544 	 16.843353281668 	
C	  7.855021660968 	 11.628502038544 	  6.712793731668 	
C	  7.286477530968 	 11.628504848544 	 16.843350451668 	
C	 22.535880060968 	  5.444949508544 	  6.740926491668 	
C	 21.967335930968 	  5.444952318544 	 16.871483211668 	
C	 22.535848960968 	 11.628511268544 	  6.740923661668 	
C	 21.967304830968 	 11.628514078544 	 16.871480381668 	
C	  8.084366259308 	  3.714399941936 	  1.408785961225 	
C	  7.515822129308 	  3.714402751936 	 11.539342681225 	
C	  8.084335159308 	  9.897961701936 	  1.408783131225 	
C	  7.515791029308 	  9.897964511936 	 11.539339851225 	
C	 22.765193559308 	  3.714409171936 	  1.436915891225 	
C	 22.196649429308 	  3.714411981936 	 11.567472611225 	
C	 22.765162459308 	  9.897970931936 	  1.436913061225 	
C	 22.196618329308 	  9.897973741936 	 11.567469781225 	
C	  5.776877741934 	  0.662072520729 	  4.011808729816 	
C	  5.208333611934 	  0.662075330729 	 14.142365449816 	
C	  5.776846641934 	  6.845634280729 	  4.011805899816 	
C	  5.208302511934 	  6.845637090729 	 14.142362619816 	
C	 20.457705041934 	  0.662081750729 	  4.039938659816 	
C	 19.889160911934 	  0.662084560729 	 14.170495379816 	
C	 20.457673941934 	  6.845643510729 	  4.039935829816 	
C	 19.889129811934 	  6.845646320729 	 14.170492549816 	
C	  4.722105044246 	  3.538053312536 	  9.371362124034 	
C	  4.153560914246 	  3.538056122536 	 19.501918844034 	
C	  4.722073944246 	  9.721615072536 	  9.371359294034 	
C	  4.153529814246 	  9.721617882536 	 19.501916014034 	
C	 19.402932344246 	  3.538062542536 	  9.399492054034 	
C	 18.834388214246 	  3.538065352536 	 19.530048774034 	
C	 19.402901244246 	  9.721624302536 	  9.399489224034 	
C	 18.834357114246 	  9.721627112536 	 19.530045944034 	
C	  8.682687539589 	  0.485740778059 	  6.657023587975 	
C	  8.114143409589 	  0.485743588059 	 16.787580307975 	
C	  8.682656439589 	  6.669302538059 	  6.657020757975 	
C	  8.114112309589 	  6.669305348059 	 16.787577477975 	
C	 23.363514839589 	  0.485750008059 	  6.685153517975 	
C	 22.794970709589 	  0.485752818059 	 16.815710237975 	
C	 23.363483739589 	  6.669311768059 	  6.685150687975 	
C	 22.794939609589 	  6.669314578059 	 16.815707407975 	
C	  8.909824484192 	  2.568959356035 	  1.353243292847 	
C	  8.341280354192 	  2.568962166035 	 11.483800012847 	
C	  8.909793384192 	  8.752521116035 	  1.353240462847 	
C	  8.341249254192 	  8.752523926035 	 11.483797182847 	
C	 23.590651784192 	  2.568968586035 	  1.381373222847 	
C	 23.022107654192 	  2.568971396035 	 11.511929942847 	
C	 23.590620684192 	  8.752530346035 	  1.381370392847 	
C	 23.022076554192 	  8.752533156035 	 11.511927112847 	
C	  4.949243073195 	  5.621272017091 	  4.067581886114 	
C	  4.380698943195 	  5.621274827091 	 14.198138606114 	
C	  4.949211973195 	 11.804833777091 	  4.067579056114 	
C	  4.380667843195 	 11.804836587091 	 14.198135776114 	
C	 19.630070373195 	  5.621281247091 	  4.095711816114 	
C	 19.061526243195 	  5.621284057091 	 14.226268536114 	
C	 19.630039273195 	 11.804843007091 	  4.095708986114 	
C	 19.061495143195 	 11.804845817091 	 14.226265706114 	
C	  3.637683554442 	  3.676106308633 	  8.544203741385 	
C	  3.069139424442 	  3.676109118633 	 18.674760461385 	
C	  3.637652454442 	  9.859668068633 	  8.544200911385 	
C	  3.069108324442 	  9.859670878633 	 18.674757631385 	
C	 18.318510854442 	  3.676115538633 	  8.572333671385 	
C	 17.749966724442 	  3.676118348633 	 18.702890391385 	
C	 18.318479754442 	  9.859677298633 	  8.572330841385 	
C	 17.749935624442 	  9.859680108633 	 18.702887561385 	
C	  9.765593191797 	  0.623417864398 	  7.483073157865 	
C	  9.197049061797 	  0.623420674398 	 17.613629877865 	
C	  9.765562091797 	  6.806979624398 	  7.483070327865 	
C	  9.197017961797 	  6.806982434398 	 17.613627047865 	
C	 24.446420491797 	  0.623427094398 	  7.511203087865 	
C	 23.877876361797 	  0.623429904398 	 17.641759807865 	
C	 24.446389391797 	  6.806988854398 	  7.511200257865 	
C	 23.877845261797 	  6.806991664398 	 17.641756977865 	
C	  9.994245955753 	  2.430906508882 	  2.180401874154 	
C	  9.425701825753 	  2.430909318882 	 12.310958594154 	
C	  9.994214855753 	  8.614468268882 	  2.180399044154 	
C	  9.425670725753 	  8.614471078882 	 12.310955764154 	
C	 24.675073255753 	  2.430915738882 	  2.208531804154 	
C	 24.106529125753 	  2.430918548882 	 12.339088524154 	
C	 24.675042155753 	  8.614477498882 	  2.208528974154 	
C	 24.106498025753 	  8.614480308882 	 12.339085694154 	
C	  3.866336942834 	  5.483595020385 	  3.241532822357 	
C	  3.297792812834 	  5.483597830385 	 13.372089542357 	
C	  3.866305842834 	 11.667156780385 	  3.241529992357 	
C	  3.297761712834 	 11.667159590385 	 13.372086712357 	
C	 18.547164242834 	  5.483604250385 	  3.269662752357 	
C	 17.978620112834 	  5.483607060385 	 13.400219472357 	
C	 18.547133142834 	 11.667166010385 	  3.269659922357 	
C	 17.978589012834 	 11.667168820385 	 13.400216642357 	
H	  3.012378230366 	  4.613824606461 	  8.622179874482 	
H	  2.443834100366 	  4.613827416461 	 18.752736594482 	
H	  3.012347130366 	 10.797386366461 	  8.622177044482 	
H	  2.443803000366 	 10.797389176461 	 18.752733764482 	
H	 17.693205530366 	  4.613833836461 	  8.650309804482 	
H	 17.124661400366 	  4.613836646461 	 18.780866524482 	
H	 17.693174430366 	 10.797395596461 	  8.650306974482 	
H	 17.124630300366 	 10.797398406461 	 18.780863694482 	
H	 10.391386734662 	  1.560412591172 	  7.406197201345 	
H	  9.822842604662 	  1.560415401172 	 17.536753921345 	
H	 10.391355634662 	  7.743974351172 	  7.406194371345 	
H	  9.822811504662 	  7.743977161172 	 17.536751091345 	
H	 25.072214034662 	  1.560421821172 	  7.434327131345 	
H	 24.503669904662 	  1.560424631172 	 17.564883851345 	
H	 25.072182934662 	  7.743983581172 	  7.434324301345 	
H	 24.503638804662 	  7.743986391172 	 17.564881021345 	
H	 10.619551190179 	  1.493188140520 	  2.102425980098 	
H	 10.051007060179 	  1.493190950520 	 12.232982700098 	
H	 10.619520090179 	  7.676749900520 	  2.102423150098 	
H	 10.050975960179 	  7.676752710520 	 12.232979870098 	
H	 25.300378490179 	  1.493197370520 	  2.130555910098 	
H	 24.731834360179 	  1.493200180520 	 12.261112630098 	
H	 25.300347390179 	  7.676759130520 	  2.130553080098 	
H	 24.731803260179 	  7.676761940520 	 12.261109800098 	
H	  3.240543532451 	  4.546600223782 	  3.318408965826 	
H	  2.671999402451 	  4.546603033782 	 13.448965685826 	
H	  3.240512432451 	 10.730161983782 	  3.318406135826 	
H	  2.671968302451 	 10.730164793782 	 13.448962855826 	
H	 17.921370832451 	  4.546609453782 	  3.346538895826 	
H	 17.352826702451 	  4.546612263782 	 13.477095615826 	
H	 17.921339732451 	 10.730171213782 	  3.346536065826 	
H	 17.352795602451 	 10.730174023782 	 13.477092785826 	
C	  3.307793777250 	  2.706117428438 	  7.621063844040 	
C	  2.739249647250 	  2.706120238438 	 17.751620564040 	
C	  3.307762677250 	  8.889679188438 	  7.621061014040 	
C	  2.739218547250 	  8.889681998438 	 17.751617734040 	
C	 17.988621077250 	  2.706126658438 	  7.649193774040 	
C	 17.420076947250 	  2.706129468438 	 17.779750494040 	
C	 17.988589977250 	  8.889688418438 	  7.649190944040 	
C	 17.420045847250 	  8.889691228438 	 17.779747664040 	
C	 10.096301074064 	  5.758662603617 	  8.408659638827 	
C	  9.527756944064 	  5.758665413617 	 18.539216358827 	
C	 10.096269974064 	 11.942224363617 	  8.408656808827 	
C	  9.527725844064 	 11.942227173617 	 18.539213528827 	
C	 24.777128374064 	  5.758671833617 	  8.436789568827 	
C	 24.208584244064 	  5.758674643617 	 18.567346288827 	
C	 24.777097274064 	 11.942233593617 	  8.436786738827 	
C	 24.208553144064 	 11.942236403617 	 18.567343458827 	
C	 10.324135617600 	  3.400895537366 	  3.103541503584 	
C	  9.755591487600 	  3.400898347366 	 13.234098223584 	
C	 10.324104517600 	  9.584457297366 	  3.103538673584 	
C	  9.755560387600 	  9.584460107366 	 13.234095393584 	
C	 25.004962917600 	  3.400904767366 	  3.131671433584 	
C	 24.436418787600 	  3.400907577366 	 13.262228153584 	
C	 25.004931817600 	  9.584466527366 	  3.131668603584 	
C	 24.436387687600 	  9.584469337366 	 13.262225323584 	
C	  3.535628627187 	  0.348350365851 	  2.315946589289 	
C	  2.967084497187 	  0.348353175851 	 12.446503309289 	
C	  3.535597527187 	  6.531912125851 	  2.315943759289 	
C	  2.967053397187 	  6.531914935851 	 12.446500479289 	
C	 18.216455927187 	  0.348359595851 	  2.344076519289 	
C	 17.647911797187 	  0.348362405851 	 12.474633239289 	
C	 18.216424827187 	  6.531921355851 	  2.344073689289 	
C	 17.647880697187 	  6.531924165851 	 12.474630409289 	
C	  4.146951751668 	  1.591725031983 	  7.560361383864 	
C	  3.578407621668 	  1.591727841983 	 17.690918103864 	
C	  4.146920651668 	  7.775286791983 	  7.560358553864 	
C	  3.578376521668 	  7.775289601983 	 17.690915273864 	
C	 18.827779051668 	  1.591734261983 	  7.588491313864 	
C	 18.259234921668 	  1.591737071983 	 17.719048033864 	
C	 18.827747951668 	  7.775296021983 	  7.588488483864 	
C	 18.259203821668 	  7.775298831983 	 17.719045203864 	
C	  9.256741705391 	  4.645198255637 	  8.468183786573 	
C	  8.688197575391 	  4.645201065637 	 18.598740506573 	
C	  9.256710605391 	 10.828760015637 	  8.468180956573 	
C	  8.688166475391 	 10.828762825637 	 18.598737676573 	
C	 23.937569005391 	  4.645207485637 	  8.496313716573 	
C	 23.369024875391 	  4.645210295637 	 18.626870436573 	
C	 23.937537905391 	 10.828769245637 	  8.496310886573 	
C	 23.368993775391 	 10.828772055637 	 18.626867606573 	
C	  9.484977731676 	  4.515287998128 	  3.164243802342 	
C	  8.916433601676 	  4.515290808128 	 13.294800522342 	
C	  9.484946631676 	 10.698849758128 	  3.164240972342 	
C	  8.916402501676 	 10.698852568128 	 13.294797692342 	
C	 24.165805031676 	  4.515297228128 	  3.192373732342 	
C	 23.597260901676 	  4.515300038128 	 13.322930452342 	
C	 24.165773931676 	 10.698858988128 	  3.192370902342 	
C	 23.597229801676 	 10.698861798128 	 13.322927622342 	
C	  4.375187986133 	  1.461814646916 	  2.256422097385 	
C	  3.806643856133 	  1.461817456916 	 12.386978817385 	
C	  4.375156886133 	  7.645376406916 	  2.256419267385 	
C	  3.806612756133 	  7.645379216916 	 12.386975987385 	
C	 19.056015286133 	  1.461823876916 	  2.284552027385 	
C	 18.487471156133 	  1.461826686916 	 12.415108747385 	
C	 19.055984186133 	  7.645385636916 	  2.284549197385 	
C	 18.487440056133 	  7.645388446916 	 12.415105917385 	
H	  3.932326410994 	  0.786619725495 	  6.798474226768 	
H	  3.363782280994 	  0.786622535495 	 16.929030946768 	
H	  3.932295310994 	  6.970181485495 	  6.798471396768 	
H	  3.363751180994 	  6.970184295495 	 16.929028116768 	
H	 18.613153710994 	  0.786628955495 	  6.826604156768 	
H	 18.044609580994 	  0.786631765495 	 16.957160876768 	
H	 18.613122610994 	  6.970190715495 	  6.826601326768 	
H	 18.044578480994 	  6.970193525495 	 16.957158046768 	
H	  9.471358008319 	  3.840098556058 	  9.230019248317 	
H	  8.902813878319 	  3.840101366058 	 19.360575968317 	
H	  9.471326908319 	 10.023660316058 	  9.230016418317 	
H	  8.902782778319 	 10.023663126058 	 19.360573138317 	
H	 24.152185308319 	  3.840107786058 	  9.258149178317 	
H	 23.583641178319 	  3.840110596058 	 19.388705898317 	
H	 24.152154208319 	 10.023669546058 	  9.258146348317 	
H	 23.583610078319 	 10.023672356058 	 19.388703068317 	
H	  9.699603207168 	  5.320393482284 	  3.926130731476 	
H	  9.131059077168 	  5.320396292284 	 14.056687451476 	
H	  9.699572107168 	 11.503955242284 	  3.926127901476 	
H	  9.131027977168 	 11.503958052284 	 14.056684621476 	
H	 24.380430507168 	  5.320402712284 	  3.954260661476 	
H	 23.811886377168 	  5.320405522284 	 14.084817381476 	
H	 24.380399407168 	 11.503964472284 	  3.954257831476 	
H	 23.811855277168 	 11.503967282284 	 14.084814551476 	
H	  4.160571312353 	  2.266914476003 	  1.494586880961 	
H	  3.592027182353 	  2.266917286003 	 11.625143600961 	
H	  4.160540212353 	  8.450476236003 	  1.494584050961 	
H	  3.591996082353 	  8.450479046003 	 11.625140770961 	
H	 18.841398612353 	  2.266923706003 	  1.522716810961 	
H	 18.272854482353 	  2.266926516003 	 11.653273530961 	
H	 18.841367512353 	  8.450485466003 	  1.522713980961 	
H	 18.272823382353 	  8.450488276003 	 11.653270700961 	
C	  5.222730958437 	  1.432390863018 	  8.365015819515 	
C	  4.654186828437 	  1.432393673018 	 18.495572539515 	
C	  5.222699858437 	  7.615952623018 	  8.365012989515 	
C	  4.654155728437 	  7.615955433018 	 18.495569709515 	
C	 19.903558258437 	  1.432400093018 	  8.393145749515 	
C	 19.335014128437 	  1.432402903018 	 18.523702469515 	
C	 19.903527158437 	  7.615961853018 	  8.393142919515 	
C	 19.334983028437 	  7.615964663018 	 18.523699639515 	
C	  8.180936852236 	  4.485865939224 	  7.663521868591 	
C	  7.612392722236 	  4.485868749224 	 17.794078588591 	
C	  8.180905752236 	 10.669427699224 	  7.663519038591 	
C	  7.612361622236 	 10.669430509224 	 17.794075758591 	
C	 22.861764152236 	  4.485875169224 	  7.691651798591 	
C	 22.293220022236 	  4.485877979224 	 17.822208518591 	
C	 22.861733052236 	 10.669436929224 	  7.691648968591 	
C	 22.293188922236 	 10.669439739224 	 17.822205688591 	
C	  8.409198554094 	  4.674622038734 	  2.359589343005 	
C	  7.840654424094 	  4.674624848734 	 12.490146063005 	
C	  8.409167454094 	 10.858183798734 	  2.359586513005 	
C	  7.840623324094 	 10.858186608734 	 12.490143233005 	
C	 23.090025854094 	  4.674631268734 	  2.387719273005 	
C	 22.521481724094 	  4.674634078734 	 12.518275993005 	
C	 23.089994754094 	 10.858193028734 	  2.387716443005 	
C	 22.521450624094 	 10.858195838734 	 12.518273163005 	
C	  5.450993198980 	  1.621146913823 	  3.061083597678 	
C	  4.882449068980 	  1.621149723823 	 13.191640317678 	
C	  5.450962098980 	  7.804708673823 	  3.061080767678 	
C	  4.882417968980 	  7.804711483823 	 13.191637487678 	
C	 20.131820498980 	  1.621156143823 	  3.089213527678 	
C	 19.563276368980 	  1.621158953823 	 13.219770247678 	
C	 20.131789398980 	  7.804717903823 	  3.089210697678 	
C	 19.563245268980 	  7.804720713823 	 13.219767417678 	
H	  5.871780982888 	  0.512685673345 	  8.271117639290 	
H	  5.303236852888 	  0.512688483345 	 18.401674359290 	
H	  5.871749882888 	  6.696247433345 	  8.271114809290 	
H	  5.303205752888 	  6.696250243345 	 18.401671529290 	
H	 20.552608282888 	  0.512694903345 	  8.299247569290 	
H	 19.984064152888 	  0.512697713345 	 18.429804289290 	
H	 20.552577182888 	  6.696256663345 	  8.299244739290 	
H	 19.984033052888 	  6.696259473345 	 18.429801459290 	
H	  7.531881139893 	  3.566203792710 	  7.757416914065 	
H	  6.963337009893 	  3.566206602710 	 17.887973634065 	
H	  7.531850039893 	  9.749765552710 	  7.757414084065 	
H	  6.963305909893 	  9.749768362710 	 17.887970804065 	
H	 22.212708439893 	  3.566213022710 	  7.785546844065 	
H	 21.644164309893 	  3.566215832710 	 17.916103564065 	
H	 22.212677339893 	  9.749774782710 	  7.785544014065 	
H	 21.644133209893 	  9.749777592710 	 17.916100734065 	
H	  7.760148523281 	  5.594327253868 	  2.453487268450 	
H	  7.191604393281 	  5.594330063868 	 12.584043988450 	
H	  7.760117423281 	 11.777889013868 	  2.453484438450 	
H	  7.191573293281 	 11.777891823868 	 12.584041158450 	
H	 22.440975823281 	  5.594336483868 	  2.481617198450 	
H	 21.872431693281 	  5.594339293868 	 12.612173918450 	
H	 22.440944723281 	 11.777898243868 	  2.481614368450 	
H	 21.872400593281 	 11.777901053868 	 12.612171088450 	
H	  6.100048902339 	  2.540809049610 	  2.967188370473 	
H	  5.531504772339 	  2.540811859610 	 13.097745090473 	
H	  6.100017802339 	  8.724370809610 	  2.967185540473 	
H	  5.531473672339 	  8.724373619610 	 13.097742260473 	
H	 20.780876202339 	  2.540818279610 	  2.995318300473 	
H	 20.212332072339 	  2.540821089610 	 13.125875020473 	
H	 20.780845102339 	  8.724380039610 	  2.995315470473 	
H	 20.212300972339 	  8.724382849610 	 13.125872190473 	
C	  2.045287308585 	  2.833579610134 	  6.720109285190 	
C	  1.476743178585 	  2.833582420134 	 16.850666005190 	
C	  2.045256208585 	  9.017141370134 	  6.720106455190 	
C	  1.476712078585 	  9.017144180134 	 16.850663175190 	
C	 16.726114608585 	  2.833588840134 	  6.748239215190 	
C	 16.157570478585 	  2.833591650134 	 16.878795935190 	
C	 16.726083508585 	  9.017150600134 	  6.748236385190 	
C	 16.157539378585 	  9.017153410134 	 16.878793105190 	
C	 11.357591143215 	  5.885426522873 	  9.308607646386 	
C	 10.789047013215 	  5.885429332873 	 19.439164366386 	
C	 11.357560043215 	 12.068988282873 	  9.308604816386 	
C	 10.789015913215 	 12.068991092873 	 19.439161536386 	
C	 26.038418443215 	  5.885435752873 	  9.336737576386 	
C	 25.469874313215 	  5.885438562873 	 19.467294296386 	
C	 26.038387343215 	 12.068997512873 	  9.336734746386 	
C	 25.469843213215 	 12.069000322873 	 19.467291466386 	
C	 11.586641915465 	  3.273433685344 	  4.004496233463 	
C	 11.018097785465 	  3.273436495344 	 14.135052953463 	
C	 11.586610815465 	  9.456995445344 	  4.004493403463 	
C	 11.018066685465 	  9.456998255344 	 14.135050123463 	
C	 26.267469215465 	  3.273442915344 	  4.032626163463 	
C	 25.698925085465 	  3.273445725344 	 14.163182883463 	
C	 26.267438115465 	  9.457004675344 	  4.032623333463 	
C	 25.698893985465 	  9.457007485344 	 14.163180053463 	
C	  2.274338095876 	  0.221586424906 	  1.415999089083 	
C	  1.705793965876 	  0.221589234906 	 11.546555809083 	
C	  2.274306995876 	  6.405148184906 	  1.415996259083 	
C	  1.705762865876 	  6.405150994906 	 11.546552979083 	
C	 16.955165395876 	  0.221595654906 	  1.444129019083 	
C	 16.386621265876 	  0.221598464906 	 11.574685739083 	
C	 16.955134295876 	  6.405157414906 	  1.444126189083 	
C	 16.386590165876 	  6.405160224906 	 11.574682909083 	
C	  2.229517486801 	  2.430158556727 	  5.443448913484 	
C	  1.660973356801 	  2.430161366727 	 15.574005633484 	
C	  2.229486386801 	  8.613720316727 	  5.443446083484 	
C	  1.660942256801 	  8.613723126727 	 15.574002803484 	
C	 16.910344786801 	  2.430167786727 	  5.471578843484 	
C	 16.341800656801 	  2.430170596727 	 15.602135563484 	
C	 16.910313686801 	  8.613729546727 	  5.471576013484 	
C	 16.341769556801 	  8.613732356727 	 15.602132733484 	
C	 11.166289915010 	 -0.653244978029 	 10.588059553530 	
C	 10.597745785010 	 -0.653242168029 	 20.718616273530 	
C	 11.166258815010 	  5.530316781971 	 10.588056723530 	
C	 10.597714685010 	  5.530319591971 	 20.718613443530 	
C	 25.847117215010 	 -0.653235748029 	 10.616189483530 	
C	 25.278573085010 	 -0.653232938029 	 20.746746203530 	
C	 25.847086115010 	  5.530326011971 	 10.616186653530 	
C	 25.278541985010 	  5.530328821971 	 20.746743373530 	
C	 11.402410728704 	  3.676853585149 	  5.281157229525 	
C	 10.833866598704 	  3.676856395149 	 15.411713949525 	
C	 11.402379628704 	  9.860415345149 	  5.281154399525 	
C	 10.833835498704 	  9.860418155149 	 15.411711119525 	
C	 26.083238028704 	  3.676862815149 	  5.309287159525 	
C	 25.514693898704 	  3.676865625149 	 15.439843879525 	
C	 26.083206928704 	  9.860424575149 	  5.309284329525 	
C	 25.514662798704 	  9.860427385149 	 15.439841049525 	
C	  2.465638896382 	  6.760258111937 	  0.136547134251 	
C	  1.897094766382 	  6.760260921937 	 10.267103854251 	
C	  2.465607796382 	 12.943819871937 	  0.136544304251 	
C	  1.897063666382 	 12.943822681937 	 10.267101024251 	
C	 17.146466196382 	  6.760267341937 	  0.164677064251 	
C	 16.577922066382 	  6.760270151937 	 10.295233784251 	
C	 17.146435096382 	 12.943829101937 	  0.164674234251 	
C	 16.577890966382 	 12.943831911937 	 10.295230954251 	
H	  3.108280528519 	  2.882372889747 	  4.985522683602 	
H	  2.539736398519 	  2.882375699747 	 15.116079403602 	
H	  3.108249428519 	  9.065934649747 	  4.985519853602 	
H	  2.539705298519 	  9.065937459747 	 15.116076573602 	
H	 17.789107828519 	  2.882382119747 	  5.013652613602 	
H	 17.220563698519 	  2.882384929747 	 15.144209333602 	
H	 17.789076728519 	  9.065943879747 	  5.013649783602 	
H	 17.220532598519 	  9.065946689747 	 15.144206503602 	
H	 10.299370110778 	 -0.172259966281 	 11.041250340622 	
H	  9.730825980778 	 -0.172257156281 	 21.171807060622 	
H	 10.299339010778 	  6.011301793719 	 11.041247510622 	
H	  9.730794880778 	  6.011304603719 	 21.171804230622 	
H	 24.980197410778 	 -0.172250736281 	 11.069380270622 	
H	 24.411653280778 	 -0.172247926281 	 21.199936990622 	
H	 24.980166310778 	  6.011311023719 	 11.069377440622 	
H	 24.411622180778 	  6.011313833719 	 21.199934160622 	
H	 10.523648166546 	  3.224637161268 	  5.739083049373 	
H	  9.955104036546 	  3.224639971268 	 15.869639769373 	
H	 10.523617066546 	  9.408198921268 	  5.739080219373 	
H	  9.955072936546 	  9.408201731268 	 15.869636939373 	
H	 25.204475466546 	  3.224646391268 	  5.767212979373 	
H	 24.635931336546 	  3.224649201268 	 15.897769699373 	
H	 25.204444366546 	  9.408208151268 	  5.767210149373 	
H	 24.635900236546 	  9.408210961268 	 15.897766869373 	
H	  3.332558474202 	  6.279273175766 	 -0.316644030638 	
H	  2.764014344202 	  6.279275985766 	  9.813912689362 	
H	  3.332527374202 	 12.462834935766 	 -0.316646860638 	
H	  2.763983244202 	 12.462837745766 	  9.813909859362 	
H	 18.013385774202 	  6.279282405766 	 -0.288514100638 	
H	 17.444841644202 	  6.279285215766 	  9.842042619362 	
H	 18.013354674202 	 12.462844165766 	 -0.288516930638 	
H	 17.444810544202 	 12.462846975766 	  9.842039789362 	
H	  1.391652354388 	  2.574036036411 	  4.722328190496 	
H	  0.823108224388 	  2.574038846411 	 14.852884910496 	
H	  1.391621254388 	  8.757597796411 	  4.722325360496 	
H	  0.823077124388 	  8.757600606411 	 14.852882080496 	
H	 16.072479654388 	  2.574045266411 	  4.750458120496 	
H	 15.503935524388 	  2.574048076411 	 14.881014840496 	
H	 16.072448554388 	  8.757607026411 	  4.750455290496 	
H	 15.503904424388 	  8.757609836411 	 14.881012010496 	
H	 12.466001912130 	 -0.479503900608 	  0.696710924407 	
H	 11.897457782130 	 -0.479501090608 	 10.827267644407 	
H	 12.465970812130 	  5.704057859392 	  0.696708094407 	
H	 11.897426682130 	  5.704060669392 	 10.827264814407 	
H	 27.146829212130 	 -0.479494670608 	  0.724840854407 	
H	 26.578285082130 	 -0.479491860608 	 10.855397574407 	
H	 27.146798112130 	  5.704067089392 	  0.724838024407 	
H	 26.578253982130 	  5.704069899392 	 10.855394744407 	
H	 12.240275929574 	  3.532976757674 	  6.002277878186 	
H	 11.671731799574 	  3.532979567674 	 16.132834598186 	
H	 12.240244829574 	  9.716538517674 	  6.002275048186 	
H	 11.671700699574 	  9.716541327674 	 16.132831768186 	
H	 26.921103229574 	  3.532985987674 	  6.030407808186 	
H	 26.352559099574 	  3.532988797674 	 16.160964528186 	
H	 26.921072129574 	  9.716547747674 	  6.030404978186 	
H	 26.352527999574 	  9.716550557674 	 16.160961698186 	
H	  1.165926570168 	  6.586517106203 	 10.027896130330 	
H	  0.597382440168 	  6.586519916203 	 20.158452850330 	
H	  1.165895470168 	 12.770078866203 	 10.027893300330 	
H	  0.597351340168 	 12.770081676203 	 20.158450020330 	
H	 15.846753870168 	  6.586526336203 	 10.056026060330 	
H	 15.278209740168 	  6.586529146203 	 20.186582780330 	
H	 15.846722770168 	 12.770088096203 	 10.056023230330 	
H	 15.278178640168 	 12.770090906203 	 20.186579950330 	
H	  2.487770002856 	  1.375017402615 	  5.354110804727 	
H	  1.919225872856 	  1.375020212615 	 15.484667524727 	
H	  2.487738902856 	  7.558579162615 	  5.354107974727 	
H	  1.919194772856 	  7.558581972615 	 15.484664694727 	
H	 17.168597302856 	  1.375026632615 	  5.382240734727 	
H	 16.600053172856 	  1.375029442615 	 15.512797454727 	
H	 17.168566202856 	  7.558588392615 	  5.382237904727 	
H	 16.600022072856 	  7.558591202615 	 15.512794624727 	
H	 11.378933508232 	  4.459345652704 	  0.066653032266 	
H	 10.810389378232 	  4.459348462704 	 10.197209752266 	
H	 11.378902408232 	 10.642907412704 	  0.066650202266 	
H	 10.810358278232 	 10.642910222704 	 10.197206922266 	
H	 26.059760808232 	  4.459354882704 	  0.094782962266 	
H	 25.491216678232 	  4.459357692704 	 10.225339682266 	
H	 26.059729708232 	 10.642916642704 	  0.094780132266 	
H	 25.491185578232 	 10.642919452704 	 10.225336852266 	
H	 11.144156359495 	  4.731994628360 	  5.370496222473 	
H	 10.575612229495 	  4.731997438360 	 15.501052942473 	
H	 11.144125259495 	 10.915556388360 	  5.370493392473 	
H	 10.575581129495 	 10.915559198360 	 15.501050112473 	
H	 25.824983659495 	  4.732003858360 	  5.398626152473 	
H	 25.256439529495 	  4.732006668360 	 15.529182872473 	
H	 25.824952559495 	 10.915565618360 	  5.398623322473 	
H	 25.256408429495 	 10.915568428360 	 15.529180042473 	
H	  2.252995298817 	  1.647667524236 	 10.657953877740 	
H	  1.684451168817 	  1.647670334236 	 20.788510597740 	
H	  2.252964198817 	  7.831229284236 	 10.657951047740 	
H	  1.684420068817 	  7.831232094236 	 20.788507767740 	
H	 16.933822598817 	  1.647676754236 	 10.686083807740 	
H	 16.365278468817 	  1.647679564236 	 20.816640527740 	
H	 16.933791498817 	  7.831238514236 	 10.686080977740 	
H	 16.365247368817 	  7.831241324236 	 20.816637697740 	
C	  1.582548859111 	  4.094615246526 	  6.626593391057 	
C	  1.014004729111 	  4.094618056526 	 16.757150111057 	
C	  1.582517759111 	 10.278177006526 	  6.626590561057 	
C	  1.013973629111 	 10.278179816526 	 16.757147281057 	
C	 16.263376159111 	  4.094624476526 	  6.654723321057 	
C	 15.694832029111 	  4.094627286526 	 16.785280041057 	
C	 16.263345059111 	 10.278186236526 	  6.654720491057 	
C	 15.694800929111 	 10.278189046526 	 16.785277211057 	
C	 11.817839327813 	  1.040416804566 	  9.411676044836 	
C	 11.249295197813 	  1.040419614566 	 19.542232764836 	
C	 11.817808227813 	  7.223978564566 	  9.411673214836 	
C	 11.249264097813 	  7.223981374566 	 19.542229934836 	
C	 26.498666627813 	  1.040426034566 	  9.439805974836 	
C	 25.930122497813 	  1.040428844566 	 19.570362694836 	
C	 26.498635527813 	  7.223987794566 	  9.439803144836 	
C	 25.930091397813 	  7.223990604566 	 19.570359864836 	
C	 12.049381545800 	  2.012397888906 	  4.098010966629 	
C	 11.480837415800 	  2.012400698906 	 14.228567686629 	
C	 12.049350445800 	  8.195959648906 	  4.098008136629 	
C	 11.480806315800 	  8.195962458906 	 14.228564856629 	
C	 26.730208845800 	  2.012407118906 	  4.126140896629 	
C	 26.161664715800 	  2.012409928906 	 14.256697616629 	
C	 26.730177745800 	  8.195968878906 	  4.126138066629 	
C	 26.161633615800 	  8.195971688906 	 14.256694786629 	
C	  1.814089886292 	  5.066596061363 	  1.312930639176 	
C	  1.245545756292 	  5.066598871363 	 11.443487359176 	
C	  1.814058786292 	 11.250157821363 	  1.312927809176 	
C	  1.245514656292 	 11.250160631363 	 11.443484529176 	
C	 16.494917186292 	  5.066605291363 	  1.341060569176 	
C	 15.926373056292 	  5.066608101363 	 11.471617289176 	
C	 16.494886086292 	 11.250167051363 	  1.341057739176 	
C	 15.926341956292 	 11.250169861363 	 11.471614459176 	
H	  2.350294380645 	  4.810380345758 	  6.293452784801 	
H	  1.781750250645 	  4.810383155758 	 16.424009504801 	
H	  2.350263280645 	 10.993942105758 	  6.293449954801 	
H	  1.781719150645 	 10.993944915758 	 16.424006674801 	
H	 17.031121680645 	  4.810389575758 	  6.321582714801 	
H	 16.462577550645 	  4.810392385758 	 16.452139434801 	
H	 17.031090580645 	 10.993951335758 	  6.321579884801 	
H	 16.462546450645 	 10.993954145758 	 16.452136604801 	
H	 11.051468921190 	  1.758392996317 	  9.735682544701 	
H	 10.482924791190 	  1.758395806317 	 19.866239264701 	
H	 11.051437821190 	  7.941954756317 	  9.735679714701 	
H	 10.482893691190 	  7.941957566317 	 19.866236434701 	
H	 25.732296221190 	  1.758402226317 	  9.763812474701 	
H	 25.163752091190 	  1.758405036317 	 19.894369194701 	
H	 25.732265121190 	  7.941963986317 	  9.763809644701 	
H	 25.163720991190 	  7.941966796317 	 19.894366364701 	
H	 11.281636374855 	  1.296631767338 	  4.431150638189 	
H	 10.713092244855 	  1.296634577338 	 14.561707358189 	
H	 11.281605274855 	  7.480193527338 	  4.431147808189 	
H	 10.713061144855 	  7.480196337338 	 14.561704528189 	
H	 25.962463674855 	  1.296640997338 	  4.459280568189 	
H	 25.393919544855 	  1.296643807338 	 14.589837288189 	
H	 25.962432574855 	  7.480202757338 	  4.459277738189 	
H	 25.393888444855 	  7.480205567338 	 14.589834458189 	
H	  2.580460245432 	  4.348620009475 	  0.988923639060 	
H	  2.011916115432 	  4.348622819475 	 11.119480359060 	
H	  2.580429145432 	 10.532181769475 	  0.988920809060 	
H	  2.011885015432 	 10.532184579475 	 11.119477529060 	
H	 17.261287545432 	  4.348629239475 	  1.017053569060 	
H	 16.692743415432 	  4.348632049475 	 11.147610289060 	
H	 17.261256445432 	 10.532190999475 	  1.017050739060 	
H	 16.692712315432 	 10.532193809475 	 11.147607459060 	
H	  1.306997700829 	  4.537603247605 	  7.600777292162 	
H	  0.738453570829 	  4.537606057605 	 17.731334012162 	
H	  1.306966600829 	 10.721165007605 	  7.600774462162 	
H	  0.738422470829 	 10.721167817605 	 17.731331182162 	
H	 15.987825000829 	  4.537612477605 	  7.628907222162 	
H	 15.419280870829 	  4.537615287605 	 17.759463942162 	
H	 15.987793900829 	 10.721174237605 	  7.628904392162 	
H	 15.419249770829 	 10.721177047605 	 17.759461112162 	
H	 12.100220053919 	  7.592893273610 	  8.415760876400 	
H	 11.531675923919 	  7.592896083610 	 18.546317596400 	
H	 12.100188953919 	 13.776455033610 	  8.415758046400 	
H	 11.531644823919 	 13.776457843610 	 18.546314766400 	
H	 26.781047353919 	  7.592902503610 	  8.443890806400 	
H	 26.212503223919 	  7.592905313610 	 18.574447526400 	
H	 26.781016253919 	 13.776464263610 	  8.443887976400 	
H	 26.212472123919 	 13.776467073610 	 18.574444696400 	
H	 12.324933792203 	  1.569411249622 	  3.123826617229 	
H	 11.756389662203 	  1.569414059622 	 13.254383337229 	
H	 12.324902692203 	  7.752973009622 	  3.123823787229 	
H	 11.756358562203 	  7.752975819622 	 13.254380507229 	
H	 27.005761092203 	  1.569420479622 	  3.151956547229 	
H	 26.437216962203 	  1.569423289622 	 13.282513267229 	
H	 27.005729992203 	  7.752982239622 	  3.151953717229 	
H	 26.437185862203 	  7.752985049622 	 13.282510437229 	
H	  1.531709763253 	 -1.485880582047 	  2.308845928590 	
H	  0.963165633253 	 -1.485877772047 	 12.439402648590 	
H	  1.531678663253 	  4.697681177953 	  2.308843098590 	
H	  0.963134533253 	  4.697683987953 	 12.439399818590 	
H	 16.212537063253 	 -1.485871352047 	  2.336975858590 	
H	 15.643992933253 	 -1.485868542047 	 12.467532578590 	
H	 16.212505963253 	  4.697690407953 	  2.336973028590 	
H	 15.643961833253 	  4.697693217953 	 12.467529748590 	
H	  0.705412447225 	  4.224691756369 	  5.957733288250 	
H	  0.136868317225 	  4.224694566369 	 16.088290008250 	
H	  0.705381347225 	 10.408253516369 	  5.957730458250 	
H	  0.136837217225 	 10.408256326369 	 16.088287178250 	
H	 15.386239747225 	  4.224700986369 	  5.985863218250 	
H	 14.817695617225 	  4.224703796369 	 16.116419938250 	
H	 15.386208647225 	 10.408262746369 	  5.985860388250 	
H	 14.817664517225 	 10.408265556369 	 16.116417108250 	
H	 12.700679158140 	  7.277614024819 	 10.072506611455 	
H	 12.132135028140 	  7.277616834819 	 20.203063331455 	
H	 12.700648058140 	 13.461175784819 	 10.072503781455 	
H	 12.132103928140 	 13.461178594819 	 20.203060501455 	
H	 27.381506458140 	  7.277623254819 	 10.100636541455 	
H	 26.812962328140 	  7.277626064819 	 20.231193261455 	
H	 27.381475358140 	 13.461185014819 	 10.100633711455 	
H	 26.812931228140 	 13.461187824819 	 20.231190431455 	
H	 12.926517705871 	  1.882321618714 	  4.766871379226 	
H	 12.357973575871 	  1.882324428714 	 14.897428099226 	
H	 12.926486605871 	  8.065883378714 	  4.766868549226 	
H	 12.357942475871 	  8.065886188714 	 14.897425269226 	
H	 27.607345005871 	  1.882330848714 	  4.795001309226 	
H	 27.038800875871 	  1.882333658714 	 14.925558029226 	
H	 27.607313905871 	  8.065892608714 	  4.794998479226 	
H	 27.038769775871 	  8.065895418714 	 14.925555199226 	
H	  0.931249733314 	 -1.170601195571 	  0.652100521351 	
H	  0.362705603314 	 -1.170598385571 	 10.782657241351 	
H	  0.931218633314 	  5.012960564429 	  0.652097691351 	
H	  0.362674503314 	  5.012963374429 	 10.782654411351 	
H	 15.612077033314 	 -1.170591965571 	  0.680230451351 	
H	 15.043532903314 	 -1.170589155571 	 10.810787171351 	
H	 15.612045933314 	  5.012969794429 	  0.680227621351 	
H	 15.043501803314 	  5.012972604429 	 10.810784341351 	
C	  1.020794268228 	  2.094001207348 	  7.199906436207 	
C	  0.452250138228 	  2.094004017348 	 17.330463156207 	
C	  1.020763168228 	  8.277562967348 	  7.199903606207 	
C	  0.452219038228 	  8.277565777348 	 17.330460326207 	
C	 15.701621568228 	  2.094010437348 	  7.228036366207 	
C	 15.133077438228 	  2.094013247348 	 17.358593086207 	
C	 15.701590468228 	  8.277572197348 	  7.228033536207 	
C	 15.133046338228 	  8.277575007348 	 17.358590256207 	
C	 12.382976099604 	  5.147440993336 	  8.828555458960 	
C	 11.814431969604 	  5.147443803336 	 18.959112178960 	
C	 12.382944999604 	 11.331002753336 	  8.828552628960 	
C	 11.814400869604 	 11.331005563336 	 18.959109348960 	
C	 27.063803399604 	  5.147450223336 	  8.856685388960 	
C	 26.495259269604 	  5.147453033336 	 18.987242108960 	
C	 27.063772299604 	 11.331011983336 	  8.856682558960 	
C	 26.495228169604 	 11.331014793336 	 18.987239278960 	
C	 12.611134542561 	  4.013013913076 	  3.524699455629 	
C	 12.042590412561 	  4.013016723076 	 13.655256175629 	
C	 12.611103442561 	 10.196575673076 	  3.524696625629 	
C	 12.042559312561 	 10.196578483076 	 13.655253345629 	
C	 27.291961842561 	  4.013023143076 	  3.552829385629 	
C	 26.723417712561 	  4.013025953076 	 13.683386105629 	
C	 27.291930742561 	 10.196584903076 	  3.552826555629 	
C	 26.723386612561 	 10.196587713076 	 13.683383275629 	
C	  1.248953064881 	  0.959571625139 	  1.896051714936 	
C	  0.680408934881 	  0.959574435139 	 12.026608434936 	
C	  1.248921964881 	  7.143133385139 	  1.896048884936 	
C	  0.680377834881 	  7.143136195139 	 12.026605604936 	
C	 15.929780364881 	  0.959580855139 	  1.924181644936 	
C	 15.361236234881 	  0.959583665139 	 12.054738364936 	
C	 15.929749264881 	  7.143142615139 	  1.924178814936 	
C	 15.361205134881 	  7.143145425139 	 12.054735534936 	
H	  0.056644757223 	  2.118502419331 	  6.645277899442 	
H	 -0.511899372777 	  2.118505229331 	 16.775834619442 	
H	  0.056613657223 	  8.302064179331 	  6.645275069442 	
H	 -0.511930472777 	  8.302066989331 	 16.775831789442 	
H	 14.737472057223 	  2.118511649331 	  6.673407829442 	
H	 14.168927927223 	  2.118514459331 	 16.803964549442 	
H	 14.737440957223 	  8.302073409331 	  6.673404999442 	
H	 14.168896827223 	  8.302076219331 	 16.803961719442 	
H	 13.347117261157 	  5.171995384575 	  9.383220928207 	
H	 12.778573131157 	  5.171998194575 	 19.513777648207 	
H	 13.347086161157 	 11.355557144575 	  9.383218098207 	
H	 12.778542031157 	 11.355559954575 	 19.513774818207 	
H	 28.027944561157 	  5.172004614575 	  9.411350858207 	
H	 27.459400431157 	  5.172007424575 	 19.541907578207 	
H	 28.027913461157 	 11.355566374575 	  9.411348028207 	
H	 27.459369331157 	 11.355569184575 	 19.541904748207 	
H	 13.575284028138 	  3.988512705481 	  4.079327899753 	
H	 13.006739898138 	  3.988515515481 	 14.209884619753 	
H	 13.575252928138 	 10.172074465481 	  4.079325069753 	
H	 13.006708798138 	 10.172077275481 	 14.209881789753 	
H	 28.256111328138 	  3.988521935481 	  4.107457829753 	
H	 27.687567198138 	  3.988524745481 	 14.238014549753 	
H	 28.256080228138 	 10.172083695481 	  4.107454999753 	
H	 27.687536098138 	 10.172086505481 	 14.238011719753 	
H	  0.284811787324 	  0.935017147932 	  1.341386444650 	
H	 -0.283732342676 	  0.935019957932 	 11.471943164650 	
H	  0.284780687324 	  7.118578907932 	  1.341383614650 	
H	 -0.283763442676 	  7.118581717932 	 11.471940334650 	
H	 14.965639087324 	  0.935026377932 	  1.369516374650 	
H	 14.397094957324 	  0.935029187932 	 11.500073094650 	
H	 14.965607987324 	  7.118588137932 	  1.369513544650 	
H	 14.397063857324 	  7.118590947932 	 11.500070264650 	
H	  0.798539462369 	  2.341711281736 	  8.248078170000 	
H	  0.229995332369 	  2.341714091736 	 18.378634890000 	
H	  0.798508362369 	  8.525273041736 	  8.248075340000 	
H	  0.229964232369 	  8.525275851736 	 18.378632060000 	
H	 15.479366762369 	  2.341720511736 	  8.276208100000 	
H	 14.910822632369 	  2.341723321736 	 18.406764820000 	
H	 15.479335662369 	  8.525282271736 	  8.276205270000 	
H	 14.910791532369 	  8.525285081736 	 18.406761990000 	
H	 12.605229667647 	  5.395210343188 	  7.780408665967 	
H	 12.036685537647 	  5.395213153188 	 17.910965385967 	
H	 12.605198567647 	 11.578772103188 	  7.780405835967 	
H	 12.036654437647 	 11.578774913188 	 17.910962555967 	
H	 27.286056967647 	  5.395219573188 	  7.808538595967 	
H	 26.717512837647 	  5.395222383188 	 17.939095315967 	
H	 27.286025867647 	 11.578781333188 	  7.808535765967 	
H	 26.717481737647 	 11.578784143188 	 17.939092485967 	
H	 12.833389509344 	  3.765305264848 	  2.476527166861 	
H	 12.264845379344 	  3.765308074848 	 12.607083886861 	
H	 12.833358409344 	  9.948867024848 	  2.476524336861 	
H	 12.264814279344 	  9.948869834848 	 12.607081056861 	
H	 27.514216809344 	  3.765314494848 	  2.504657096861 	
H	 26.945672679344 	  3.765317304848 	 12.635213816861 	
H	 27.514185709344 	  9.948876254848 	  2.504654266861 	
H	 26.945641579344 	  9.948879064848 	 12.635210986861 	
H	  1.026699718670 	  0.711801908335 	  2.944198387869 	
H	  0.458155588670 	  0.711804718335 	 13.074755107869 	
H	  1.026668618670 	  6.895363668335 	  2.944195557869 	
H	  0.458124488670 	  6.895366478335 	 13.074752277869 	
H	 15.707527018670 	  0.711811138335 	  2.972328317869 	
H	 15.138982888670 	  0.711813948335 	 13.102885037869 	
H	 15.707495918670 	  6.895372898335 	  2.972325487869 	
H	 15.138951788670 	  6.895375708335 	 13.102882207869 	
H	  1.280046416571 	  1.038188100831 	  7.291222016911 	
H	  0.711502286571 	  1.038190910831 	 17.421778736911 	
H	  1.280015316571 	  7.221749860831 	  7.291219186911 	
H	  0.711471186571 	  7.221752670831 	 17.421775906911 	
H	 15.960873716571 	  1.038197330831 	  7.319351946911 	
H	 15.392329586571 	  1.038200140831 	 17.449908666911 	
H	 15.960842616571 	  7.221759090831 	  7.319349116911 	
H	 15.392298486571 	  7.221761900831 	 17.449905836911 	
H	 12.123693511058 	  4.091643435595 	  8.737190211254 	
H	 11.555149381058 	  4.091646245595 	 18.867746931254 	
H	 12.123662411058 	 10.275205195595 	  8.737187381254 	
H	 11.555118281058 	 10.275208005595 	 18.867744101254 	
H	 26.804520811058 	  4.091652665595 	  8.765320141254 	
H	 26.235976681058 	  4.091655475595 	 18.895876861254 	
H	 26.804489711058 	 10.275214425595 	  8.765317311254 	
H	 26.235945581058 	 10.275217235595 	 18.895874031254 	
H	 12.351881487758 	  5.068827221478 	  3.433385496692 	
H	 11.783337357758 	  5.068830031478 	 13.563942216692 	
H	 12.351850387758 	 11.252388981478 	  3.433382666692 	
H	 11.783306257758 	 11.252391791478 	 13.563939386692 	
H	 27.032708787758 	  5.068836451478 	  3.461515426692 	
H	 26.464164657758 	  5.068839261478 	 13.592072146692 	
H	 27.032677687758 	 11.252398211478 	  3.461512596692 	
H	 26.464133557758 	 11.252401021478 	 13.592069316692 	
H	  1.508235523876 	  2.015369208658 	  1.987417409408 	
H	  0.939691393876 	  2.015372018658 	 12.117974129408 	
H	  1.508204423876 	  8.198930968658 	  1.987414579408 	
H	  0.939660293876 	  8.198933778658 	 12.117971299408 	
H	 16.189062823876 	  2.015378438658 	  2.015547339408 	
H	 15.620518693876 	  2.015381248658 	 12.146104059408 	
H	 16.189031723876 	  8.198940198658 	  2.015544509408 	
H	 15.620487593876 	  8.198943008658 	 12.146101229408 	
768 
Energy: -7.7444894669609994e+01 
S	  8.316963987357 	  1.397797646509 	  0.127844199966 	
S	  7.748419857357 	  1.397800456509 	 10.258400919966 	
S	  8.316932887357 	  7.581359406509 	  0.127841369966 	
S	  7.748388757357 	  7.581362216509 	 10.258398089966 	
S	 22.997791287357 	  1.397806876509 	  0.155974129966 	
S	 22.429247157357 	  1.397809686509 	 10.286530849966 	
S	 22.997760187357 	  7.581368636509 	  0.155971299966 	
S	 22.429216057357 	  7.581371446509 	 10.286528019966 	
S	  5.483554866049 	  4.446980107950 	  5.329218883214 	
S	  4.915010736049 	  4.446982917950 	 15.459775603214 	
S	  5.483523766049 	 10.630541867950 	  5.329216053214 	
S	  4.914979636049 	 10.630544677950 	 15.459772773214 	
S	 20.164382166049 	  4.446989337950 	  5.357348813214 	
S	 19.595838036049 	  4.446992147950 	 15.487905533214 	
S	 20.164351066049 	 10.630551097950 	  5.357345983214 	
S	 19.595806936049 	 10.630553907950 	 15.487902703214 	
S	  5.261605752974 	  4.700709750883 	 10.659630582714 	
S	  4.693061622974 	  4.700712560883 	 20.790187302714 	
S	  5.261574652974 	 10.884271510883 	 10.659627752714 	
S	  4.693030522974 	 10.884274320883 	 20.790184472714 	
S	 19.942433052974 	  4.700718980883 	 10.687760512714 	
S	 19.373888922974 	  4.700721790883 	 20.818317232714 	
S	 19.942401952974 	 10.884280740883 	 10.687757682714 	
S	 19.373857822974 	 10.884283550883 	 20.818314402714 	
S	  8.095016316726 	  1.651527246457 	  5.458255451883 	
S	  7.526472186726 	  1.651530056457 	 15.588812171883 	
S	  8.094985216726 	  7.835089006457 	  5.458252621883 	
S	  7.526441086726 	  7.835091816457 	 15.588809341883 	
S	 22.775843616726 	  1.651536476457 	  5.486385381883 	
S	 22.207299486726 	  1.651539286457 	 15.616942101883 	
S	 22.775812516726 	  7.835098236457 	  5.486382551883 	
S	 22.207268386726 	  7.835101046457 	 15.616939271883 	
C	  6.563388713067 	  2.483788380279 	 10.343398951164 	
C	  5.994844583067 	  2.483791190279 	 20.473955671164 	
C	  6.563357613067 	  8.667350140279 	 10.343396121164 	
C	  5.994813483067 	  8.667352950279 	 20.473952841164 	
C	 21.244216013067 	  2.483797610279 	 10.371528881164 	
C	 20.675671883067 	  2.483800420279 	 20.502085601164 	
C	 21.244184913067 	  8.667359370279 	 10.371526051164 	
C	 20.675640783067 	  8.667362180279 	 20.502082771164 	
C	  6.793131313011 	  5.532629617099 	  5.774992193182 	
C	  6.224587183011 	  5.532632427099 	 15.905548913182 	
C	  6.793100213011 	 11.716191377099 	  5.774989363182 	
C	  6.224556083011 	 11.716194187099 	 15.905546083182 	
C	 21.473958613011 	  5.532638847099 	  5.803122123182 	
C	 20.905414483011 	  5.532641657099 	 15.933678843182 	
C	 21.473927513011 	 11.716200607099 	  5.803119293182 	
C	 20.905383383011 	 11.716203417099 	 15.933676013182 	
C	  7.015181033373 	  3.614719011970 	  0.444075636375 	
C	  6.446636903373 	  3.614721821970 	 10.574632356375 	
C	  7.015149933373 	  9.798280771970 	  0.444072806375 	
C	  6.446605803373 	  9.798283581970 	 10.574629526375 	
C	 21.696008333373 	  3.614728241970 	  0.472205566375 	
C	 21.127464203373 	  3.614731051970 	 10.602762286375 	
C	 21.695977233373 	  9.798290001970 	  0.472202736375 	
C	 21.127433103373 	  9.798292811970 	 10.602759456375 	
C	  6.785439731809 	  0.565877799955 	  5.012481948045 	
C	  6.216895601809 	  0.565880609955 	 15.143038668045 	
C	  6.785408631809 	  6.749439559955 	  5.012479118045 	
C	  6.216864501809 	  6.749442369955 	 15.143035838045 	
C	 21.466267031809 	  0.565887029955 	  5.040611878045 	
C	 20.897722901809 	  0.565889839955 	 15.171168598045 	
C	 21.466235931809 	  6.749448789955 	  5.040609048045 	
C	 20.897691801809 	  6.749451599955 	 15.171165768045 	
C	  5.530038521159 	  2.400399337866 	  9.364712332216 	
C	  4.961494391159 	  2.400402147866 	 19.495269052216 	
C	  5.530007421159 	  8.583961097866 	  9.364709502216 	
C	  4.961463291159 	  8.583963907866 	 19.495266222216 	
C	 20.210865821159 	  2.400408567866 	  9.392842262216 	
C	 19.642321691159 	  2.400411377866 	 19.523398982216 	
C	 20.210834721159 	  8.583970327866 	  9.392839432216 	
C	 19.642290591159 	  8.583973137866 	 19.523396152216 	
C	  7.826112797870 	  5.449189575709 	  6.753230241508 	
C	  7.257568667870 	  5.449192385709 	 16.883786961508 	
C	  7.826081697870 	 11.632751335709 	  6.753227411508 	
C	  7.257537567870 	 11.632754145709 	 16.883784131508 	
C	 22.506940097870 	  5.449198805709 	  6.781360171508 	
C	 21.938395967870 	  5.449201615709 	 16.911916891508 	
C	 22.506908997870 	 11.632760565709 	  6.781357341508 	
C	 21.938364867870 	 11.632763375709 	 16.911914061508 	
C	  8.048531211339 	  3.698108120091 	  1.422762243907 	
C	  7.479987081339 	  3.698110930091 	 11.553318963907 	
C	  8.048500111339 	  9.881669880091 	  1.422759413907 	
C	  7.479955981339 	  9.881672690091 	 11.553316133907 	
C	 22.729358511339 	  3.698117350091 	  1.450892173907 	
C	 22.160814381339 	  3.698120160091 	 11.581448893907 	
C	 22.729327411339 	  9.881679110091 	  1.450889343907 	
C	 22.160783281339 	  9.881681920091 	 11.581446063907 	
C	  5.752457981694 	  0.649317888143 	  4.034244180652 	
C	  5.183913851694 	  0.649320698143 	 14.164800900652 	
C	  5.752426881694 	  6.832879648143 	  4.034241350652 	
C	  5.183882751694 	  6.832882458143 	 14.164798070652 	
C	 20.433285281694 	  0.649327118143 	  4.062374110652 	
C	 19.864741151694 	  0.649329928143 	 14.192930830652 	
C	 20.433254181694 	  6.832888878143 	  4.062371280652 	
C	 19.864710051694 	  6.832891688143 	 14.192928000652 	
C	  4.713132322698 	  3.552434627926 	  9.418605246132 	
C	  4.144588192698 	  3.552437437926 	 19.549161966132 	
C	  4.713101222698 	  9.735996387926 	  9.418602416132 	
C	  4.144557092698 	  9.735999197926 	 19.549159136132 	
C	 19.393959622698 	  3.552443857926 	  9.446735176132 	
C	 18.825415492698 	  3.552446667926 	 19.577291896132 	
C	 19.393928522698 	  9.736005617926 	  9.446732346132 	
C	 18.825384392698 	  9.736008427926 	 19.577289066132 	
C	  8.643849421087 	  0.503641948315 	  6.699215188287 	
C	  8.075305291087 	  0.503644758315 	 16.829771908287 	
C	  8.643818321087 	  6.687203708315 	  6.699212358287 	
C	  8.075274191087 	  6.687206518315 	 16.829769078287 	
C	 23.324676721087 	  0.503651178315 	  6.727345118287 	
C	 22.756132591087 	  0.503653988315 	 16.857901838287 	
C	 23.324645621087 	  6.687212938315 	  6.727342288287 	
C	 22.756101491087 	  6.687215748315 	 16.857899008287 	
C	  8.865437405821 	  2.546072773394 	  1.368869337421 	
C	  8.296893275821 	  2.546075583394 	 11.499426057421 	
C	  8.865406305821 	  8.729634533394 	  1.368866507421 	
C	  8.296862175821 	  8.729637343394 	 11.499423227421 	
C	 23.546264705821 	  2.546082003394 	  1.396999267421 	
C	 22.977720575821 	  2.546084813394 	 11.527555987421 	
C	 23.546233605821 	  8.729643763394 	  1.396996437421 	
C	 22.977689475821 	  8.729646573394 	 11.527553157421 	
C	  4.934721480094 	  5.594865518746 	  4.088259435701 	
C	  4.366177350094 	  5.594868328746 	 14.218816155701 	
C	  4.934690380094 	 11.778427278746 	  4.088256605701 	
C	  4.366146250094 	 11.778430088746 	 14.218813325701 	
C	 19.615548780094 	  5.594874748746 	  4.116389365701 	
C	 19.047004650094 	  5.594877558746 	 14.246946085701 	
C	 19.615517680094 	 11.778436508746 	  4.116386535701 	
C	 19.046973550094 	 11.778439318746 	 14.246943255701 	
C	  3.635385584564 	  3.703442917410 	  8.583490570463 	
C	  3.066841454564 	  3.703445727410 	 18.714047290463 	
C	  3.635354484564 	  9.887004677410 	  8.583487740463 	
C	  3.066810354564 	  9.887007487410 	 18.714044460463 	
C	 18.316212884564 	  3.703452147410 	  8.611620500463 	
C	 17.747668754564 	  3.703454957410 	 18.742177220463 	
C	 18.316181784564 	  9.887013907410 	  8.611617670463 	
C	 17.747637654564 	  9.887016717410 	 18.742174390463 	
C	  9.721017768809 	  0.654477902201 	  7.533887057362 	
C	  9.152473638809 	  0.654480712201 	 17.664443777362 	
C	  9.720986668809 	  6.838039662201 	  7.533884227362 	
C	  9.152442538809 	  6.838042472201 	 17.664440947362 	
C	 24.401845068809 	  0.654487132201 	  7.562016987362 	
C	 23.833300938809 	  0.654489942201 	 17.692573707362 	
C	 24.401813968809 	  6.838048892201 	  7.562014157362 	
C	 23.833269838809 	  6.838051702201 	 17.692570877362 	
C	  9.943184124036 	  2.395064642510 	  2.203984222080 	
C	  9.374639994036 	  2.395067452510 	 12.334540942080 	
C	  9.943153024036 	  8.578626402510 	  2.203981392080 	
C	  9.374608894036 	  8.578629212510 	 12.334538112080 	
C	 24.624011424036 	  2.395073872510 	  2.232114152080 	
C	 24.055467294036 	  2.395076682510 	 12.362670872080 	
C	 24.623980324036 	  8.578635632510 	  2.232111322080 	
C	 24.055436194036 	  8.578638442510 	 12.362668042080 	
C	  3.857552600028 	  5.444029669328 	  3.253588130076 	
C	  3.289008470028 	  5.444032479328 	 13.384144850076 	
C	  3.857521500028 	 11.627591429328 	  3.253585300076 	
C	  3.288977370028 	 11.627594239328 	 13.384142020076 	
C	 18.538379900028 	  5.444038899328 	  3.281718060076 	
C	 17.969835770028 	  5.444041709328 	 13.412274780076 	
C	 18.538348800028 	 11.627600659328 	  3.281715230076 	
C	 17.969804670028 	 11.627603469328 	 13.412271950076 	
H	  3.017599696884 	  4.645993114508 	  8.660725118865 	
H	  2.449055566884 	  4.645995924508 	 18.791281838865 	
H	  3.017568596884 	 10.829554874508 	  8.660722288865 	
H	  2.449024466884 	 10.829557684508 	 18.791279008865 	
H	 17.698426996884 	  4.646002344508 	  8.688855048865 	
H	 17.129882866884 	  4.646005154508 	 18.819411768865 	
H	 17.698395896884 	 10.829564104508 	  8.688852218865 	
H	 17.129851766884 	 10.829566914508 	 18.819408938865 	
H	 10.339014762261 	  1.596741546784 	  7.457076366438 	
H	  9.770470632261 	  1.596744356784 	 17.587633086438 	
H	 10.338983662261 	  7.780303306784 	  7.457073536438 	
H	  9.770439532261 	  7.780306116784 	 17.587630256438 	
H	 25.019842062261 	  1.596750776784 	  7.485206296438 	
H	 24.451297932261 	  1.596753586784 	 17.615763016438 	
H	 25.019810962261 	  7.780312536784 	  7.485203466438 	
H	 24.451266832261 	  7.780315346784 	 17.615760186438 	
H	 10.560969913133 	  1.452514368104 	  2.126749952051 	
H	  9.992425783133 	  1.452517178104 	 12.257306672051 	
H	 10.560938813133 	  7.636076128104 	  2.126747122051 	
H	  9.992394683133 	  7.636078938104 	 12.257303842051 	
H	 25.241797213133 	  1.452523598104 	  2.154879882051 	
H	 24.673253083133 	  1.452526408104 	 12.285436602051 	
H	 25.241766113133 	  7.636085358104 	  2.154877052051 	
H	 24.673221983133 	  7.636088168104 	 12.285433772051 	
H	  3.239555738931 	  4.501765957723 	  3.330399028424 	
H	  2.671011608931 	  4.501768767723 	 13.460955748424 	
H	  3.239524638931 	 10.685327717723 	  3.330396198424 	
H	  2.670980508931 	 10.685330527723 	 13.460952918424 	
H	 17.920383038931 	  4.501775187723 	  3.358528958424 	
H	 17.351838908931 	  4.501777997723 	 13.489085678424 	
H	 17.920351938931 	 10.685336947723 	  3.358526128424 	
H	 17.351807808931 	 10.685339757723 	 13.489082848424 	
C	  3.305258169835 	  2.740781199800 	  7.652360902985 	
C	  2.736714039835 	  2.740784009800 	 17.782917622985 	
C	  3.305227069835 	  8.924342959800 	  7.652358072985 	
C	  2.736682939835 	  8.924345769800 	 17.782914792985 	
C	 17.986085469835 	  2.740790429800 	  7.680490832985 	
C	 17.417541339835 	  2.740793239800 	 17.811047552985 	
C	 17.986054369835 	  8.924352189800 	  7.680488002985 	
C	 17.417510239835 	  8.924354999800 	 17.811044722985 	
C	 10.051480638048 	  5.789666843309 	  8.465999133313 	
C	  9.482936508048 	  5.789669653309 	 18.596555853313 	
C	 10.051449538048 	 11.973228603309 	  8.465996303313 	
C	  9.482905408048 	 11.973231413309 	 18.596553023313 	
C	 24.732307938048 	  5.789676073309 	  8.494129063313 	
C	 24.163763808048 	  5.789678883309 	 18.624685783313 	
C	 24.732276838048 	 11.973237833309 	  8.494126233313 	
C	 24.163732708048 	 11.973240643309 	 18.624682953313 	
C	 10.273311427867 	  3.357726532148 	  3.135113592861 	
C	  9.704767297867 	  3.357729342148 	 13.265670312861 	
C	 10.273280327867 	  9.541288292148 	  3.135110762861 	
C	  9.704736197867 	  9.541291102148 	 13.265667482861 	
C	 24.954138727867 	  3.357735762148 	  3.163243522861 	
C	 24.385594597867 	  3.357738572148 	 13.293800242861 	
C	 24.954107627867 	  9.541297522148 	  3.163240692861 	
C	 24.385563497867 	  9.541300332148 	 13.293797412861 	
C	  3.527089233936 	  0.308840830103 	  2.321476339881 	
C	  2.958545103936 	  0.308843640103 	 12.452033059881 	
C	  3.527058133936 	  6.492402590103 	  2.321473509881 	
C	  2.958514003936 	  6.492405400103 	 12.452030229881 	
C	 18.207916533936 	  0.308850060103 	  2.349606269881 	
C	 17.639372403936 	  0.308852870103 	 12.480162989881 	
C	 18.207885433936 	  6.492411820103 	  2.349603439881 	
C	 17.639341303936 	  6.492414630103 	 12.480160159881 	
C	  4.135093102456 	  1.618454400588 	  7.594331859832 	
C	  3.566548972456 	  1.618457210588 	 17.724888579832 	
C	  4.135062002456 	  7.802016160588 	  7.594329029832 	
C	  3.566517872456 	  7.802018970588 	 17.724885749832 	
C	 18.815920402456 	  1.618463630588 	  7.622461789832 	
C	 18.247376272456 	  1.618466440588 	 17.753018509832 	
C	 18.815889302456 	  7.802025390588 	  7.622458959832 	
C	 18.247345172456 	  7.802028200588 	 17.753015679832 	
C	  9.221469315222 	  4.667697359825 	  8.523579670845 	
C	  8.652925185222 	  4.667700169825 	 18.654136390845 	
C	  9.221438215222 	 10.851259119825 	  8.523576840845 	
C	  8.652894085222 	 10.851261929825 	 18.654133560845 	
C	 23.902296615222 	  4.667706589825 	  8.551709600845 	
C	 23.333752485222 	  4.667709399825 	 18.682266320845 	
C	 23.902265515222 	 10.851268349825 	  8.551706770845 	
C	 23.333721385222 	 10.851271159825 	 18.682263490845 	
C	  9.443476607560 	  4.480053413437 	  3.193142442108 	
C	  8.874932477560 	  4.480056223437 	 13.323699162108 	
C	  9.443445507560 	 10.663615173437 	  3.193139612108 	
C	  8.874901377560 	 10.663617983437 	 13.323696332108 	
C	 24.124303907560 	  4.480062643437 	  3.221272372108 	
C	 23.555759777560 	  4.480065453437 	 13.351829092108 	
C	 24.124272807560 	 10.663624403437 	  3.221269542108 	
C	 23.555728677560 	 10.663627213437 	 13.351826262108 	
C	  4.357100562970 	  1.430810240133 	  2.263895421289 	
C	  3.788556432970 	  1.430813050133 	 12.394452141289 	
C	  4.357069462970 	  7.614372000133 	  2.263892591289 	
C	  3.788525332970 	  7.614374810133 	 12.394449311289 	
C	 19.037927862970 	  1.430819470133 	  2.292025351289 	
C	 18.469383732970 	  1.430822280133 	 12.422582071289 	
C	 19.037896762970 	  7.614381230133 	  2.292022521289 	
C	 18.469352632970 	  7.614384040133 	 12.422579241289 	
H	  3.919503098351 	  0.819187911306 	  6.826671490803 	
H	  3.350958968351 	  0.819190721306 	 16.957228210803 	
H	  3.919471998351 	  7.002749671306 	  6.826668660803 	
H	  3.350927868351 	  7.002752481306 	 16.957225380803 	
H	 18.600330398351 	  0.819197141306 	  6.854801420803 	
H	 18.031786268351 	  0.819199951306 	 16.985358140803 	
H	 18.600299298351 	  7.002758901306 	  6.854798590803 	
H	 18.031755168351 	  7.002761711306 	 16.985355310803 	
H	  9.437072046849 	  3.868434092824 	  9.291227643438 	
H	  8.868527916849 	  3.868436902824 	 19.421784363438 	
H	  9.437040946849 	 10.051995852824 	  9.291224813438 	
H	  8.868496816849 	 10.051998662824 	 19.421781533438 	
H	 24.117899346849 	  3.868443322824 	  9.319357573438 	
H	 23.549355216849 	  3.868446132824 	 19.449914293438 	
H	 24.117868246849 	 10.052005082824 	  9.319354743438 	
H	 23.549324116849 	 10.052007892824 	 19.449911463438 	
H	  9.659066764942 	  5.279320106128 	  3.960802553041 	
H	  9.090522634942 	  5.279322916128 	 14.091359273041 	
H	  9.659035664942 	 11.462881866128 	  3.960799723041 	
H	  9.090491534942 	 11.462884676128 	 14.091356443041 	
H	 24.339894064942 	  5.279329336128 	  3.988932483041 	
H	 23.771349934942 	  5.279332146128 	 14.119489203041 	
H	 24.339862964942 	 11.462891096128 	  3.988929653041 	
H	 23.771318834942 	 11.462893906128 	 14.119486373041 	
H	  4.141497418123 	  2.230073651402 	  1.496247719842 	
H	  3.572953288123 	  2.230076461402 	 11.626804439842 	
H	  4.141466318123 	  8.413635411402 	  1.496244889842 	
H	  3.572922188123 	  8.413638221402 	 11.626801609842 	
H	 18.822324718123 	  2.230082881402 	  1.524377649842 	
H	 18.253780588123 	  2.230085691402 	 11.654934369842 	
H	 18.822293618123 	  8.413644641402 	  1.524374819842 	
H	 18.253749488123 	  8.413647451402 	 11.654931539842 	
C	  5.203846925995 	  1.446122036675 	  8.407665346135 	
C	  4.635302795995 	  1.446124846675 	 18.538222066135 	
C	  5.203815825995 	  7.629683796675 	  8.407662516135 	
C	  4.635271695995 	  7.629686606675 	 18.538219236135 	
C	 19.884674225995 	  1.446131266675 	  8.435795276135 	
C	 19.316130095995 	  1.446134076675 	 18.566351996135 	
C	 19.884643125995 	  7.629693026675 	  8.435792446135 	
C	 19.316098995995 	  7.629695836675 	 18.566349166135 	
C	  8.152695017657 	  4.495369685801 	  7.710245771114 	
C	  7.584150887657 	  4.495372495801 	 17.840802491114 	
C	  8.152663917657 	 10.678931445801 	  7.710242941114 	
C	  7.584119787657 	 10.678934255801 	 17.840799661114 	
C	 22.833522317657 	  4.495378915801 	  7.738375701114 	
C	 22.264978187657 	  4.495381725801 	 17.868932421114 	
C	 22.833491217657 	 10.678940675801 	  7.738372871114 	
C	 22.264947087657 	 10.678943485801 	 17.868929591114 	
C	  8.374722801789 	  4.652385635842 	  2.379808954394 	
C	  7.806178671789 	  4.652388445842 	 12.510365674394 	
C	  8.374691701789 	 10.835947395842 	  2.379806124394 	
C	  7.806147571789 	 10.835950205842 	 12.510362844394 	
C	 23.055550101789 	  4.652394865842 	  2.407938884394 	
C	 22.487005971789 	  4.652397675842 	 12.538495604394 	
C	 23.055519001789 	 10.835956625842 	  2.407936054394 	
C	 22.486974871789 	 10.835959435842 	 12.538492774394 	
C	  5.425875257101 	  1.603137843390 	  3.077228843983 	
C	  4.857331127101 	  1.603140653390 	 13.207785563983 	
C	  5.425844157101 	  7.786699603390 	  3.077226013983 	
C	  4.857300027101 	  7.786702413390 	 13.207782733983 	
C	 20.106702557101 	  1.603147073390 	  3.105358773983 	
C	 19.538158427101 	  1.603149883390 	 13.235915493983 	
C	 20.106671457101 	  7.786708833390 	  3.105355943983 	
C	 19.538127327101 	  7.786711643390 	 13.235912663983 	
H	  5.846114423546 	  0.521820353540 	  8.314630260309 	
H	  5.277570293546 	  0.521823163540 	 18.445186980309 	
H	  5.846083323546 	  6.705382113540 	  8.314627430309 	
H	  5.277539193546 	  6.705384923540 	 18.445184150309 	
H	 20.526941723546 	  0.521829583540 	  8.342760190309 	
H	 19.958397593546 	  0.521832393540 	 18.473316910309 	
H	 20.526910623546 	  6.705391343540 	  8.342757360309 	
H	 19.958366493546 	  6.705394153540 	 18.473314080309 	
H	  7.510411352731 	  3.571094565267 	  7.803282536713 	
H	  6.941867222731 	  3.571097375267 	 17.933839256713 	
H	  7.510380252731 	  9.754656325267 	  7.803279706713 	
H	  6.941836122731 	  9.754659135267 	 17.933836426713 	
H	 22.191238652731 	  3.571103795267 	  7.831412466713 	
H	 21.622694522731 	  3.571106605267 	 17.961969186713 	
H	 22.191207552731 	  9.754665555267 	  7.831409636713 	
H	 21.622663422731 	  9.754668365267 	 17.961966356713 	
H	  7.732455311703 	  5.576687357944 	  2.472843746288 	
H	  7.163911181703 	  5.576690167944 	 12.603400466288 	
H	  7.732424211703 	 11.760249117944 	  2.472840916288 	
H	  7.163880081703 	 11.760251927944 	 12.603397636288 	
H	 22.413282611703 	  5.576696587944 	  2.500973676288 	
H	 21.844738481703 	  5.576699397944 	 12.631530396288 	
H	 22.413251511703 	 11.760258347944 	  2.500970846288 	
H	 21.844707381703 	 11.760261157944 	 12.631527566288 	
H	  6.068158916210 	  2.527412949116 	  2.984191876814 	
H	  5.499614786210 	  2.527415759116 	 13.114748596814 	
H	  6.068127816210 	  8.710974709116 	  2.984189046814 	
H	  5.499583686210 	  8.710977519116 	 13.114745766814 	
H	 20.748986216210 	  2.527422179116 	  3.012321806814 	
H	 20.180442086210 	  2.527424989116 	 13.142878526814 	
H	 20.748955116210 	  8.710983939116 	  3.012318976814 	
H	 20.180410986210 	  8.710986749116 	 13.142875696814 	
C	  2.052169392441 	  2.879377576864 	  6.748910060833 	
C	  1.483625262441 	  2.879380386864 	 16.879466780833 	
C	  2.052138292441 	  9.062939336864 	  6.748907230833 	
C	  1.483594162441 	  9.062942146864 	 16.879463950833 	
C	 16.732996692441 	  2.879386806864 	  6.777039990833 	
C	 16.164452562441 	  2.879389616864 	 16.907596710833 	
C	 16.732965592441 	  9.062948566864 	  6.777037160833 	
C	 16.164421462441 	  9.062951376864 	 16.907593880833 	
C	 11.304184488903 	  5.927998509258 	  9.369114449573 	
C	 10.735640358903 	  5.928001319258 	 19.499671169573 	
C	 11.304153388903 	 12.111560269258 	  9.369111619573 	
C	 10.735609258903 	 12.111563079258 	 19.499668339573 	
C	 25.985011788903 	  5.928007739258 	  9.397244379573 	
C	 25.416467658903 	  5.928010549258 	 19.527801099573 	
C	 25.984980688903 	 12.111569499258 	  9.397241549573 	
C	 25.416436558903 	 12.111572309258 	 19.527798269573 	
C	 11.526400043888 	  3.219130505145 	  4.038564629197 	
C	 10.957855913888 	  3.219133315145 	 14.169121349197 	
C	 11.526368943888 	  9.402692265145 	  4.038561799197 	
C	 10.957824813888 	  9.402695075145 	 14.169118519197 	
C	 26.207227343888 	  3.219139735145 	  4.066694559197 	
C	 25.638683213888 	  3.219142545145 	 14.197251279197 	
C	 26.207196243888 	  9.402701495145 	  4.066691729197 	
C	 25.638652113888 	  9.402704305145 	 14.197248449197 	
C	  2.274384854039 	  0.170509151080 	  1.418361595973 	
C	  1.705840724039 	  0.170511961080 	 11.548918315973 	
C	  2.274353754039 	  6.354070911080 	  1.418358765973 	
C	  1.705809624039 	  6.354073721080 	 11.548915485973 	
C	 16.955212154039 	  0.170518381080 	  1.446491525973 	
C	 16.386668024039 	  0.170521191080 	 11.577048245973 	
C	 16.955181054039 	  6.354080141080 	  1.446488695973 	
C	 16.386636924039 	  6.354082951080 	 11.577045415973 	
C	  2.238569132500 	  2.337868865063 	  5.447157474822 	
C	  1.670025002500 	  2.337871675063 	 15.577714194822 	
C	  2.238538032500 	  8.521430625063 	  5.447154644822 	
C	  1.669993902500 	  8.521433435063 	 15.577711364822 	
C	 16.919396432500 	  2.337878095063 	  5.475287404822 	
C	 16.350852302500 	  2.337880905063 	 15.605844124822 	
C	 16.919365332500 	  8.521439855063 	  5.475284574822 	
C	 16.350821202500 	  8.521442665063 	 15.605841294822 	
C	 11.113600027939 	 -0.723348169846 	 10.668543909744 	
C	 10.545055897939 	 -0.723345359846 	 20.799100629744 	
C	 11.113568927939 	  5.460213590154 	 10.668541079744 	
C	 10.545024797939 	  5.460216400154 	 20.799097799744 	
C	 25.794427327939 	 -0.723338939846 	 10.696673839744 	
C	 25.225883197939 	 -0.723336129846 	 20.827230559744 	
C	 25.794396227939 	  5.460222820154 	 10.696671009744 	
C	 25.225852097939 	  5.460225630154 	 20.827227729744 	
C	 11.339999098354 	  3.760637892646 	  5.340317829263 	
C	 10.771454968354 	  3.760640702646 	 15.470874549263 	
C	 11.339967998354 	  9.944199652646 	  5.340314999263 	
C	 10.771423868354 	  9.944202462646 	 15.470871719263 	
C	 26.020826398354 	  3.760647122646 	  5.368447759263 	
C	 25.452282268354 	  3.760649932646 	 15.499004479263 	
C	 26.020795298354 	  9.944208882646 	  5.368444929263 	
C	 25.452251168354 	  9.944211692646 	 15.499001649263 	
C	  2.464968803803 	  6.821856025211 	  0.118932104622 	
C	  1.896424673803 	  6.821858835211 	 10.249488824622 	
C	  2.464937703803 	 13.005417785211 	  0.118929274622 	
C	  1.896393573803 	 13.005420595211 	 10.249485994622 	
C	 17.145796103803 	  6.821865255211 	  0.147062034622 	
C	 16.577251973803 	  6.821868065211 	 10.277618754622 	
C	 17.145765003803 	 13.005427015211 	  0.147059204622 	
C	 16.577220873803 	 13.005429825211 	 10.277615924622 	
H	  3.149166092141 	  2.724822317800 	  4.942775161357 	
H	  2.580621962141 	  2.724825127800 	 15.073331881357 	
H	  3.149134992141 	  8.908384077800 	  4.942772331357 	
H	  2.580590862141 	  8.908386887800 	 15.073329051357 	
H	 17.829993392141 	  2.724831547800 	  4.970905091357 	
H	 17.261449262141 	  2.724834357800 	 15.101461811357 	
H	 17.829962292141 	  8.908393307800 	  4.970902261357 	
H	 17.261418162141 	  8.908396117800 	 15.101458981357 	
H	 10.208235769764 	 -0.324631290330 	 11.174706814848 	
H	  9.639691639764 	 -0.324628480330 	 21.305263534848 	
H	 10.208204669764 	  5.858930469670 	 11.174703984848 	
H	  9.639660539764 	  5.858933279670 	 21.305260704848 	
H	 24.889063069764 	 -0.324622060330 	 11.202836744848 	
H	 24.320518939764 	 -0.324619250330 	 21.333393464848 	
H	 24.889031969764 	  5.858939699670 	 11.202833914848 	
H	 24.320487839764 	  5.858942509670 	 21.333390634848 	
H	 10.429402797339 	  3.373682204363 	  5.844699647123 	
H	  9.860858667339 	  3.373685014363 	 15.975256367123 	
H	 10.429371697339 	  9.557243964363 	  5.844696817123 	
H	  9.860827567339 	  9.557246774363 	 15.975253537123 	
H	 25.110230097339 	  3.373691434363 	  5.872829577123 	
H	 24.541685967339 	  3.373694244363 	 16.003386297123 	
H	 25.110198997339 	  9.557253194363 	  5.872826747123 	
H	 24.541654867339 	  9.557256004363 	 16.003383467123 	
H	  3.370332847275 	  6.423139199044 	 -0.387231210069 	
H	  2.801788717275 	  6.423142009044 	  9.743325509931 	
H	  3.370301747275 	 12.606700959044 	 -0.387234040069 	
H	  2.801757617275 	 12.606703769044 	  9.743322679931 	
H	 18.051160147275 	  6.423148429044 	 -0.359101280069 	
H	 17.482616017275 	  6.423151239044 	  9.771455439931 	
H	 18.051129047275 	 12.606710189044 	 -0.359104110069 	
H	 17.482584917275 	 12.606712999044 	  9.771452609931 	
H	  1.395950187764 	  2.500094560894 	  4.744231571466 	
H	  0.827406057764 	  2.500097370894 	 14.874788291466 	
H	  1.395919087764 	  8.683656320894 	  4.744228741466 	
H	  0.827374957764 	  8.683659130894 	 14.874785461466 	
H	 16.076777487764 	  2.500103790894 	  4.772361501466 	
H	 15.508233357764 	  2.500106600894 	 14.902918221466 	
H	 16.076746387764 	  8.683665550894 	  4.772358671466 	
H	 15.508202257764 	  8.683668360894 	 14.902915391466 	
H	 12.406785235153 	 -0.548517931252 	  0.714672725610 	
H	 11.838241105153 	 -0.548515121252 	 10.845229445610 	
H	 12.406754135153 	  5.635043828748 	  0.714669895610 	
H	 11.838210005153 	  5.635046638748 	 10.845226615610 	
H	 27.087612535153 	 -0.548508701252 	  0.742802655610 	
H	 26.519068405153 	 -0.548505891252 	 10.873359375610 	
H	 27.087581435153 	  5.635053058748 	  0.742799825610 	
H	 26.519037305153 	  5.635055868748 	 10.873356545610 	
H	 12.182618229543 	  3.598412868438 	  6.043243670522 	
H	 11.614074099543 	  3.598415678438 	 16.173800390522 	
H	 12.182587129543 	  9.781974628438 	  6.043240840522 	
H	 11.614042999543 	  9.781977438438 	 16.173797560522 	
H	 26.863445529543 	  3.598422098438 	  6.071373600522 	
H	 26.294901399543 	  3.598424908438 	 16.201930320522 	
H	 26.863414429543 	  9.781983858438 	  6.071370770522 	
H	 26.294870299543 	  9.781986668438 	 16.201927490522 	
H	  1.171783242581 	  6.647025847630 	 10.072803706722 	
H	  0.603239112581 	  6.647028657630 	 20.203360426722 	
H	  1.171752142581 	 12.830587607630 	 10.072800876722 	
H	  0.603208012581 	 12.830590417630 	 20.203357596722 	
H	 15.852610542581 	  6.647035077630 	 10.100933636722 	
H	 15.284066412581 	  6.647037887630 	 20.231490356722 	
H	 15.852579442581 	 12.830596837630 	 10.100930806722 	
H	 15.284035312581 	 12.830599647630 	 20.231487526722 	
H	  2.409316800317 	  1.240516413551 	  5.440216820741 	
H	  1.840772670317 	  1.240519223551 	 15.570773540741 	
H	  2.409285700317 	  7.424078173551 	  5.440213990741 	
H	  1.840741570317 	  7.424080983551 	 15.570770710741 	
H	 17.090144100317 	  1.240525643551 	  5.468346750741 	
H	 16.521599970317 	  1.240528453551 	 15.598903470741 	
H	 17.090113000317 	  7.424087403551 	  5.468343920741 	
H	 16.521568870317 	  7.424090213551 	 15.598900640741 	
H	 11.392703350812 	  4.301227256244 	  0.017197967416 	
H	 10.824159220812 	  4.301230066244 	 10.147754687416 	
H	 11.392672250812 	 10.484789016244 	  0.017195137416 	
H	 10.824128120812 	 10.484791826244 	 10.147751857416 	
H	 26.073530650812 	  4.301236486244 	  0.045327897416 	
H	 25.504986520812 	  4.301239296244 	 10.175884617416 	
H	 26.073499550812 	 10.484798246244 	  0.045325067416 	
H	 25.504955420812 	 10.484801056244 	 10.175881787416 	
H	 11.169249470451 	  4.857990067537 	  5.347259538257 	
H	 10.600705340451 	  4.857992877537 	 15.477816258257 	
H	 11.169218370451 	 11.041551827537 	  5.347256708257 	
H	 10.600674240451 	 11.041554637537 	 15.477813428257 	
H	 25.850076770451 	  4.857999297537 	  5.375389468257 	
H	 25.281532640451 	  4.858002107537 	 15.505946188257 	
H	 25.850045670451 	 11.041561057537 	  5.375386638257 	
H	 25.281501540451 	 11.041563867537 	 15.505943358257 	
H	  2.185865492165 	  1.797280607836 	 10.770278275373 	
H	  1.617321362165 	  1.797283417836 	 20.900834995373 	
H	  2.185834392165 	  7.980842367836 	 10.770275445373 	
H	  1.617290262165 	  7.980845177836 	 20.900832165373 	
H	 16.866692792165 	  1.797289837836 	 10.798408205373 	
H	 16.298148662165 	  1.797292647836 	 20.928964925373 	
H	 16.866661692165 	  7.980851597836 	 10.798405375373 	
H	 16.298117562165 	  7.980854407836 	 20.928962095373 	
C	  1.658467737240 	  4.234345845346 	  6.568367812500 	
C	  1.089923607240 	  4.234348655346 	 16.698924532500 	
C	  1.658436637240 	 10.417907605346 	  6.568364982500 	
C	  1.089892507240 	 10.417910415346 	 16.698921702500 	
C	 16.339295037240 	  4.234355075346 	  6.596497742500 	
C	 15.770750907240 	  4.234357885346 	 16.727054462500 	
C	 16.339263937240 	 10.417916835346 	  6.596494912500 	
C	 15.770719807240 	 10.417919645346 	 16.727051632500 	
C	 11.696645028473 	  1.183961132170 	  9.553187518537 	
C	 11.128100898473 	  1.183963942170 	 19.683744238537 	
C	 11.696613928473 	  7.367522892170 	  9.553184688537 	
C	 11.128069798473 	  7.367525702170 	 19.683741408537 	
C	 26.377472328473 	  1.183970362170 	  9.581317448537 	
C	 25.808928198473 	  1.183973172170 	 19.711874168537 	
C	 26.377441228473 	  7.367532122170 	  9.581314618537 	
C	 25.808897098473 	  7.367534932170 	 19.711871338537 	
C	 11.920102989810 	  1.864162160437 	  4.219105505856 	
C	 11.351558859810 	  1.864164970437 	 14.349662225856 	
C	 11.920071889810 	  8.047723920437 	  4.219102675856 	
C	 11.351527759810 	  8.047726730437 	 14.349659395856 	
C	 26.600930289810 	  1.864171390437 	  4.247235435856 	
C	 26.032386159810 	  1.864174200437 	 14.377792155856 	
C	 26.600899189810 	  8.047733150437 	  4.247232605856 	
C	 26.032355059810 	  8.047735960437 	 14.377789325856 	
C	  1.881924311851 	  4.914546472099 	  1.234288500524 	
C	  1.313380181851 	  4.914549282099 	 11.364845220524 	
C	  1.881893211851 	 11.098108232099 	  1.234285670524 	
C	  1.313349081851 	 11.098111042099 	 11.364842390524 	
C	 16.562751611851 	  4.914555702099 	  1.262418430524 	
C	 15.994207481851 	  4.914558512099 	 11.392975150524 	
C	 16.562720511851 	 11.098117462099 	  1.262415600524 	
C	 15.994176381851 	 11.098120272099 	 11.392972320524 	
H	  2.477729402913 	  4.868470021119 	  6.166252521580 	
H	  1.909185272913 	  4.868472831119 	 16.296809241580 	
H	  2.477698302913 	 11.052031781119 	  6.166249691580 	
H	  1.909154172913 	 11.052034591119 	 16.296806411580 	
H	 17.158556702913 	  4.868479251119 	  6.194382451580 	
H	 16.590012572913 	  4.868482061119 	 16.324939171580 	
H	 17.158525602913 	 11.052041011119 	  6.194379621580 	
H	 16.589981472913 	 11.052043821119 	 16.324936341580 	
H	 10.878280138445 	  1.819544872439 	  9.951790415286 	
H	 10.309736008445 	  1.819547682439 	 20.082347135286 	
H	 10.878249038445 	  8.003106632439 	  9.951787585286 	
H	 10.309704908445 	  8.003109442439 	 20.082344305286 	
H	 25.559107438445 	  1.819554102439 	  9.979920345286 	
H	 24.990563308445 	  1.819556912439 	 20.110477065286 	
H	 25.559076338445 	  8.003115862439 	  9.979917515286 	
H	 24.990532208445 	  8.003118672439 	 20.110474235286 	
H	 11.100841720233 	  1.230036802002 	  4.621219757377 	
H	 10.532297590233 	  1.230039612002 	 14.751776477377 	
H	 11.100810620233 	  7.413598562002 	  4.621216927377 	
H	 10.532266490233 	  7.413601372002 	 14.751773647377 	
H	 25.781669020233 	  1.230046032002 	  4.649349687377 	
H	 25.213124890233 	  1.230048842002 	 14.779906407377 	
H	 25.781637920233 	  7.413607792002 	  4.649346857377 	
H	 25.213093790233 	  7.413610602002 	 14.779903577377 	
H	  2.700289089852 	  4.278962893761 	  0.835685095070 	
H	  2.131744959852 	  4.278965703761 	 10.966241815070 	
H	  2.700257989852 	 10.462524653761 	  0.835682265070 	
H	  2.131713859852 	 10.462527463761 	 10.966238985070 	
H	 17.381116389852 	  4.278972123761 	  0.863815025070 	
H	 16.812572259852 	  4.278974933761 	 10.994371745070 	
H	 17.381085289852 	 10.462533883761 	  0.863812195070 	
H	 16.812541159852 	 10.462536693761 	 10.994368915070 	
H	  1.379812622185 	  4.747381319342 	  7.514729816482 	
H	  0.811268492185 	  4.747384129342 	 17.645286536482 	
H	  1.379781522185 	 10.930943079342 	  7.514726986482 	
H	  0.811237392185 	 10.930945889342 	 17.645283706482 	
H	 16.060639922185 	  4.747390549342 	  7.542859746482 	
H	 15.492095792185 	  4.747393359342 	 17.673416466482 	
H	 16.060608822185 	 10.930952309342 	  7.542856916482 	
H	 15.492064692185 	 10.930955119342 	 17.673413636482 	
H	 11.978092724213 	  7.798236564080 	  8.598744225919 	
H	 11.409548594213 	  7.798239374080 	 18.729300945919 	
H	 11.978061624213 	 13.981798324080 	  8.598741395919 	
H	 11.409517494213 	 13.981801134080 	 18.729298115919 	
H	 26.658920024213 	  7.798245794080 	  8.626874155919 	
H	 26.090375894213 	  7.798248604080 	 18.757430875919 	
H	 26.658888924213 	 13.981807554080 	  8.626871325919 	
H	 26.090344794213 	 13.981810364080 	 18.757428045919 	
H	 12.198759245942 	  1.351128150774 	  3.272743035261 	
H	 11.630215115942 	  1.351130960774 	 13.403299755261 	
H	 12.198728145942 	  7.534689910774 	  3.272740205261 	
H	 11.630184015942 	  7.534692720774 	 13.403296925261 	
H	 26.879586545942 	  1.351137380774 	  3.300872965261 	
H	 26.311042415942 	  1.351140190774 	 13.431429685261 	
H	 26.879555445942 	  7.534699140774 	  3.300870135261 	
H	 26.311011315942 	  7.534701950774 	 13.431426855261 	
H	  1.600477263609 	 -1.699729115254 	  2.188731904723 	
H	  1.031933133609 	 -1.699726305254 	 12.319288624723 	
H	  1.600446163609 	  4.483832644746 	  2.188729074723 	
H	  1.031902033609 	  4.483835454746 	 12.319285794723 	
H	 16.281304563609 	 -1.699719885254 	  2.216861834723 	
H	 15.712760433609 	 -1.699717075254 	 12.347418554723 	
H	 16.281273463609 	  4.483841874746 	  2.216859004723 	
H	 15.712729333609 	  4.483844684746 	 12.347415724723 	
H	  0.792749188183 	  4.353886198820 	  5.885375715687 	
H	  0.224205058183 	  4.353889008820 	 16.015932435687 	
H	  0.792718088183 	 10.537447958820 	  5.885372885687 	
H	  0.224173958183 	 10.537450768820 	 16.015929605687 	
H	 15.473576488183 	  4.353895428820 	  5.913505645687 	
H	 14.905032358183 	  4.353898238820 	 16.044062365687 	
H	 15.473545388183 	 10.537457188820 	  5.913502815687 	
H	 14.905001258183 	 10.537459998820 	 16.044059535687 	
H	 12.564632612622 	  7.402971058605 	 10.233152030222 	
H	 11.996088482622 	  7.402973868605 	 20.363708750222 	
H	 12.564601512622 	 13.586532818605 	 10.233149200222 	
H	 11.996057382622 	 13.586535628605 	 20.363705920222 	
H	 27.245459912622 	  7.402980288605 	 10.261281960222 	
H	 26.676915782622 	  7.402983098605 	 20.391838680222 	
H	 27.245428812622 	 13.586542048605 	 10.261279130222 	
H	 26.676884682622 	 13.586544858605 	 20.391835850222 	
H	 12.785821293383 	  1.744622015179 	  4.902097958733 	
H	 12.217277163383 	  1.744624825179 	 15.032654678733 	
H	 12.785790193383 	  7.928183775179 	  4.902095128733 	
H	 12.217246063383 	  7.928186585179 	 15.032651848733 	
H	 27.466648593383 	  1.744631245179 	  4.930227888733 	
H	 26.898104463383 	  1.744634055179 	 15.060784608733 	
H	 27.466617493383 	  7.928193005179 	  4.930225058733 	
H	 26.898073363383 	  7.928195815179 	 15.060781778733 	
H	  1.013936338520 	 -1.304463484346 	  0.554324486785 	
H	  0.445392208520 	 -1.304460674346 	 10.684881206785 	
H	  1.013905238520 	  4.879098275654 	  0.554321656785 	
H	  0.445361108520 	  4.879101085654 	 10.684878376785 	
H	 15.694763638520 	 -1.304454254346 	  0.582454416785 	
H	 15.126219508520 	 -1.304451444346 	 10.713011136785 	
H	 15.694732538520 	  4.879107505654 	  0.582451586785 	
H	 15.126188408520 	  4.879110315654 	 10.713008306785 	
C	  0.949043567098 	  2.193737747521 	  7.338201010225 	
C	  0.380499437098 	  2.193740557521 	 17.468757730225 	
C	  0.949012467098 	  8.377299507521 	  7.338198180225 	
C	  0.380468337098 	  8.377302317521 	 17.468754900225 	
C	 15.629870867098 	  2.193746977521 	  7.366330940225 	
C	 15.061326737098 	  2.193749787521 	 17.496887660225 	
C	 15.629839767098 	  8.377308737521 	  7.366328110225 	
C	 15.061295637098 	  8.377311547521 	 17.496884830225 	
C	 12.407563491611 	  5.242977885289 	  8.779679972825 	
C	 11.839019361611 	  5.242980695289 	 18.910236692825 	
C	 12.407532391611 	 11.426539645289 	  8.779677142825 	
C	 11.838988261611 	 11.426542455289 	 18.910233862825 	
C	 27.088390791611 	  5.242987115289 	  8.807809902825 	
C	 26.519846661611 	  5.242989925289 	 18.938366622825 	
C	 27.088359691611 	 11.426548875289 	  8.807807072825 	
C	 26.519815561611 	 11.426551685289 	 18.938363792825 	
C	 12.629525296604 	  3.904772369945 	  3.449274147544 	
C	 12.060981166604 	  3.904775179945 	 13.579830867544 	
C	 12.629494196604 	 10.088334129945 	  3.449271317544 	
C	 12.060950066604 	 10.088336939945 	 13.579828037544 	
C	 27.310352596604 	  3.904781599945 	  3.477404077544 	
C	 26.741808466604 	  3.904784409945 	 13.607960797544 	
C	 27.310321496604 	 10.088343359945 	  3.477401247544 	
C	 26.741777366604 	 10.088346169945 	 13.607957967544 	
C	  1.171005809063 	  0.855529431011 	  2.007796528946 	
C	  0.602461679063 	  0.855532241011 	 12.138353248946 	
C	  1.170974709063 	  7.039091191011 	  2.007793698946 	
C	  0.602430579063 	  7.039094001011 	 12.138350418946 	
C	 15.851833109063 	  0.855538661011 	  2.035926458946 	
C	 15.283288979063 	  0.855541471011 	 12.166483178946 	
C	 15.851802009063 	  7.039100421011 	  2.035923628946 	
C	 15.283257879063 	  7.039103231011 	 12.166480348946 	
H	  0.001765889281 	  2.238593264254 	  6.763672207012 	
H	 -0.566778240719 	  2.238596074254 	 16.894228927012 	
H	  0.001734789281 	  8.422155024254 	  6.763669377012 	
H	 -0.566809340719 	  8.422157834254 	 16.894226097012 	
H	 14.682593189281 	  2.238602494254 	  6.791802137012 	
H	 14.114049059281 	  2.238605304254 	 16.922358857012 	
H	 14.682562089281 	  8.422164254254 	  6.791799307012 	
H	 14.114017959281 	  8.422167064254 	 16.922356027012 	
H	 13.354834772993 	  5.287838411805 	  9.354238657422 	
H	 12.786290642993 	  5.287841221805 	 19.484795377422 	
H	 13.354803672993 	 11.471400171805 	  9.354235827422 	
H	 12.786259542993 	 11.471402981805 	 19.484792547422 	
H	 28.035662072993 	  5.287847641805 	  9.382368587422 	
H	 27.467117942993 	  5.287850451805 	 19.512925307422 	
H	 28.035630972993 	 11.471409401805 	  9.382365757422 	
H	 27.467086842993 	 11.471412211805 	 19.512922477422 	
H	 13.576803048575 	  3.859916831132 	  4.023802838232 	
H	 13.008258918575 	  3.859919641132 	 14.154359558232 	
H	 13.576771948575 	 10.043478591132 	  4.023800008232 	
H	 13.008227818575 	 10.043481401132 	 14.154356728232 	
H	 28.257630348575 	  3.859926061132 	  4.051932768232 	
H	 27.689086218575 	  3.859928871132 	 14.182489488232 	
H	 28.257599248575 	 10.043487821132 	  4.051929938232 	
H	 27.689055118575 	 10.043490631132 	 14.182486658232 	
H	  0.223734389722 	  0.810668798539 	  1.433238086301 	
H	 -0.344809740278 	  0.810671608539 	 11.563794806301 	
H	  0.223703289722 	  6.994230558539 	  1.433235256301 	
H	 -0.344840840278 	  6.994233368539 	 11.563791976301 	
H	 14.904561689722 	  0.810678028539 	  1.461368016301 	
H	 14.336017559722 	  0.810680838539 	 11.591924736301 	
H	 14.904530589722 	  6.994239788539 	  1.461365186301 	
H	 14.335986459722 	  6.994242598539 	 11.591921906301 	
H	  0.728075697803 	  2.560289411006 	  8.363493957638 	
H	  0.159531567803 	  2.560292221006 	 18.494050677638 	
H	  0.728044597803 	  8.743851171006 	  8.363491127638 	
H	  0.159500467803 	  8.743853981006 	 18.494047847638 	
H	 15.408902997803 	  2.560298641006 	  8.391623887638 	
H	 14.840358867803 	  2.560301451006 	 18.522180607638 	
H	 15.408871897803 	  8.743860401006 	  8.391621057638 	
H	 14.840327767803 	  8.743863211006 	 18.522177777638 	
H	 12.628555816269 	  5.609554391012 	  7.754401456426 	
H	 12.060011686269 	  5.609557201012 	 17.884958176426 	
H	 12.628524716269 	 11.793116151012 	  7.754398626426 	
H	 12.059980586269 	 11.793118961012 	 17.884955346426 	
H	 27.309383116269 	  5.609563621012 	  7.782531386426 	
H	 26.740838986269 	  5.609566431012 	 17.913088106426 	
H	 27.309352016269 	 11.793125381012 	  7.782528556426 	
H	 26.740807886269 	 11.793128191012 	 17.913085276426 	
H	 12.850493391527 	  3.538222336092 	  2.423980646828 	
H	 12.281949261527 	  3.538225146092 	 12.554537366828 	
H	 12.850462291527 	  9.721784096092 	  2.423977816828 	
H	 12.281918161527 	  9.721786906092 	 12.554534536828 	
H	 27.531320691527 	  3.538231566092 	  2.452110576828 	
H	 26.962776561527 	  3.538234376092 	 12.582667296828 	
H	 27.531289591527 	  9.721793326092 	  2.452107746828 	
H	 26.962745461527 	  9.721796136092 	 12.582664466828 	
H	  0.950013730639 	  0.488952512015 	  3.033074938859 	
H	  0.381469600639 	  0.488955322015 	 13.163631658859 	
H	  0.949982630639 	  6.672514272015 	  3.033072108859 	
H	  0.381438500639 	  6.672517082015 	 13.163628828859 	
H	 15.630841030639 	  0.488961742015 	  3.061204868859 	
H	 15.062296900639 	  0.488964552015 	 13.191761588859 	
H	 15.630809930639 	  6.672523502015 	  3.061202038859 	
H	 15.062265800639 	  6.672526312015 	 13.191758758859 	
H	  1.161777846140 	  1.115112405469 	  7.495066825397 	
H	  0.593233716140 	  1.115115215469 	 17.625623545397 	
H	  1.161746746140 	  7.298674165469 	  7.495063995397 	
H	  0.593202616140 	  7.298676975469 	 17.625620715397 	
H	 15.842605146140 	  1.115121635469 	  7.523196755397 	
H	 15.274061016140 	  1.115124445469 	 17.653753475397 	
H	 15.842574046140 	  7.298683395469 	  7.523193925397 	
H	 15.274029916140 	  7.298686205469 	 17.653750645397 	
H	 12.194816319582 	  4.164365851518 	  8.622797876967 	
H	 11.626272189582 	  4.164368661518 	 18.753354596967 	
H	 12.194785219582 	 10.347927611518 	  8.622795046967 	
H	 11.626241089582 	 10.347930421518 	 18.753351766967 	
H	 26.875643619582 	  4.164375081518 	  8.650927806967 	
H	 26.307099489582 	  4.164377891518 	 18.781484526967 	
H	 26.875612519582 	 10.347936841518 	  8.650924976967 	
H	 26.307068389582 	 10.347939651518 	 18.781481696967 	
H	 12.416790121133 	  4.983397811254 	  3.292410104602 	
H	 11.848245991133 	  4.983400621254 	 13.422966824602 	
H	 12.416759021133 	 11.166959571254 	  3.292407274602 	
H	 11.848214891133 	 11.166962381254 	 13.422963994602 	
H	 27.097617421133 	  4.983407041254 	  3.320540034602 	
H	 26.529073291133 	  4.983409851254 	 13.451096754602 	
H	 27.097586321133 	 11.166968801254 	  3.320537204602 	
H	 26.529042191133 	 11.166971611254 	 13.451093924602 	
H	  1.383752828643 	  1.934141435176 	  2.164679099520 	
H	  0.815208698643 	  1.934144245176 	 12.295235819520 	
H	  1.383721728643 	  8.117703195176 	  2.164676269520 	
H	  0.815177598643 	  8.117706005176 	 12.295232989520 	
H	 16.064580128643 	  1.934150665176 	  2.192809029520 	
H	 15.496035998643 	  1.934153475176 	 12.323365749520 	
H	 16.064549028643 	  8.117712425176 	  2.192806199520 	
H	 15.496004898643 	  8.117715235176 	 12.323362919520 	
768 
Energy: -7.3846297469649997e+01 
S	  8.274226964800 	  1.377175302200 	  0.134797036600 	
S	  7.705682834800 	  1.377178112200 	 10.265353756600 	
S	  8.274195864800 	  7.560737062200 	  0.134794206600 	
S	  7.705651734800 	  7.560739872200 	 10.265350926600 	
S	 22.955054264800 	  1.377184532200 	  0.162926966600 	
S	 22.386510134800 	  1.377187342200 	 10.293483686600 	
S	 22.955023164800 	  7.560746292200 	  0.162924136600 	
S	 22.386479034800 	  7.560749102200 	 10.293480856600 	
S	  5.468105551400 	  4.422280389300 	  5.357839294400 	
S	  4.899561421400 	  4.422283199300 	 15.488396014400 	
S	  5.468074451400 	 10.605842149300 	  5.357836464400 	
S	  4.899530321400 	 10.605844959300 	 15.488393184400 	
S	 20.148932851400 	  4.422289619300 	  5.385969224400 	
S	 19.580388721400 	  4.422292429300 	 15.516525944400 	
S	 20.148901751400 	 10.605851379300 	  5.385966394400 	
S	 19.580357621400 	 10.605854189300 	 15.516523114400 	
S	  5.252181867800 	  4.713017932400 	 10.714134363300 	
S	  4.683637737800 	  4.713020742400 	 20.844691083300 	
S	  5.252150767800 	 10.896579692400 	 10.714131533300 	
S	  4.683606637800 	 10.896582502400 	 20.844688253300 	
S	 19.933009167800 	  4.713027162400 	 10.742264293300 	
S	 19.364465037800 	  4.713029972400 	 20.872821013300 	
S	 19.932978067800 	 10.896588922400 	 10.742261463300 	
S	 19.364433937800 	 10.896591732400 	 20.872818183300 	
S	  8.058304838100 	  1.667912723500 	  5.491091585000 	
S	  7.489760708100 	  1.667915533500 	 15.621648305000 	
S	  8.058273738100 	  7.851474483500 	  5.491088755000 	
S	  7.489729608100 	  7.851477293500 	 15.621645475000 	
S	 22.739132138100 	  1.667921953500 	  5.519221515000 	
S	 22.170588008100 	  1.667924763500 	 15.649778235000 	
S	 22.739101038100 	  7.851483713500 	  5.519218685000 	
S	 22.170556908100 	  7.851486523500 	 15.649775405000 	
C	  6.549448319000 	  2.468400911100 	 10.397561804200 	
C	  5.980904189000 	  2.468403721100 	 20.528118524200 	
C	  6.549417219000 	  8.651962671100 	 10.397558974200 	
C	  5.980873089000 	  8.651965481100 	 20.528115694200 	
C	 21.230275619000 	  2.468410141100 	 10.425691734200 	
C	 20.661731489000 	  2.468412951100 	 20.556248454200 	
C	 21.230244519000 	  8.651971901100 	 10.425688904200 	
C	 20.661700389000 	  8.651974711100 	 20.556245624200 	
C	  6.761044788800 	  5.513514746100 	  5.807719306500 	
C	  6.192500658800 	  5.513517556100 	 15.938276026500 	
C	  6.761013688800 	 11.697076506100 	  5.807716476500 	
C	  6.192469558800 	 11.697079316100 	 15.938273196500 	
C	 21.441872088800 	  5.513523976100 	  5.835849236500 	
C	 20.873327958800 	  5.513526786100 	 15.966405956500 	
C	 21.441840988800 	 11.697085736100 	  5.835846406500 	
C	 20.873296858800 	 11.697088546100 	 15.966403126500 	
C	  6.976960522100 	  3.621792323500 	  0.451369381500 	
C	  6.408416392100 	  3.621795133500 	 10.581926101500 	
C	  6.976929422100 	  9.805354083500 	  0.451366551500 	
C	  6.408385292100 	  9.805356893500 	 10.581923271500 	
C	 21.657787822100 	  3.621801553500 	  0.479499311500 	
C	 21.089243692100 	  3.621804363500 	 10.610056031500 	
C	 21.657756722100 	  9.805363313500 	  0.479496481500 	
C	 21.089212592100 	  9.805366123500 	 10.610053201500 	
C	  6.765365469800 	  0.576678427600 	  5.041211357200 	
C	  6.196821339800 	  0.576681237600 	 15.171768077200 	
C	  6.765334369800 	  6.760240187600 	  5.041208527200 	
C	  6.196790239800 	  6.760242997600 	 15.171765247200 	
C	 21.446192769800 	  0.576687657600 	  5.069341287200 	
C	 20.877648639800 	  0.576690467600 	 15.199898007200 	
C	 21.446161669800 	  6.760249417600 	  5.069338457200 	
C	 20.877617539800 	  6.760252227600 	 15.199895177200 	
C	  5.514830661500 	  2.406236873400 	  9.413614614800 	
C	  4.946286531500 	  2.406239683400 	 19.544171334800 	
C	  5.514799561500 	  8.589798633400 	  9.413611784800 	
C	  4.946255431500 	  8.589801443400 	 19.544168504800 	
C	 20.195657961500 	  2.406246103400 	  9.441744544800 	
C	 19.627113831500 	  2.406248913400 	 19.572301264800 	
C	 20.195626861500 	  8.589807863400 	  9.441741714800 	
C	 19.627082731500 	  8.589810673400 	 19.572298434800 	
C	  7.795666071200 	  5.451341527800 	  6.791658665300 	
C	  7.227121941200 	  5.451344337800 	 16.922215385300 	
C	  7.795634971200 	 11.634903287800 	  6.791655835300 	
C	  7.227090841200 	 11.634906097800 	 16.922212555300 	
C	 22.476493371200 	  5.451350757800 	  6.819788595300 	
C	 21.907949241200 	  5.451353567800 	 16.950345315300 	
C	 22.476462271200 	 11.634912517800 	  6.819785765300 	
C	 21.907918141200 	 11.634915327800 	 16.950342485300 	
C	  8.011578179700 	  3.683956422100 	  1.435316571000 	
C	  7.443034049700 	  3.683959232100 	 11.565873291000 	
C	  8.011547079700 	  9.867518182100 	  1.435313741000 	
C	  7.443002949700 	  9.867520992100 	 11.565870461000 	
C	 22.692405479700 	  3.683965652100 	  1.463446501000 	
C	 22.123861349700 	  3.683968462100 	 11.594003221000 	
C	 22.692374379700 	  9.867527412100 	  1.463443671000 	
C	 22.123830249700 	  9.867530222100 	 11.594000391000 	
C	  5.730743895300 	  0.638851706800 	  4.057272317100 	
C	  5.162199765300 	  0.638854516800 	 14.187829037100 	
C	  5.730712795300 	  6.822413466800 	  4.057269487100 	
C	  5.162168665300 	  6.822416276800 	 14.187826207100 	
C	 20.411571195300 	  0.638860936800 	  4.085402247100 	
C	 19.843027065300 	  0.638863746800 	 14.215958967100 	
C	 20.411540095300 	  6.822422696800 	  4.085399417100 	
C	 19.842995965300 	  6.822425506800 	 14.215956137100 	
C	  4.708186547100 	  3.575057243500 	  9.473887592500 	
C	  4.139642417100 	  3.575060053500 	 19.604444312500 	
C	  4.708155447100 	  9.758619003500 	  9.473884762500 	
C	  4.139611317100 	  9.758621813500 	 19.604441482500 	
C	 19.389013847100 	  3.575066473500 	  9.502017522500 	
C	 18.820469717100 	  3.575069283500 	 19.632574242500 	
C	 19.388982747100 	  9.758628233500 	  9.502014692500 	
C	 18.820438617100 	  9.758631043500 	 19.632571412500 	
C	  8.602283030900 	  0.529944629900 	  6.731329322300 	
C	  8.033738900900 	  0.529947439900 	 16.861886042300 	
C	  8.602251930900 	  6.713506389900 	  6.731326492300 	
C	  8.033707800900 	  6.713509199900 	 16.861883212300 	
C	 23.283110330900 	  0.529953859900 	  6.759459252300 	
C	 22.714566200900 	  0.529956669900 	 16.890015972300 	
C	 23.283079230900 	  6.713515619900 	  6.759456422300 	
C	 22.714535100900 	  6.713518429900 	 16.890013142300 	
C	  8.818222294000 	  2.515135991100 	  1.375043593200 	
C	  8.249678164000 	  2.515138801100 	 11.505600313200 	
C	  8.818191194000 	  8.698697751100 	  1.375040763200 	
C	  8.249647064000 	  8.698700561100 	 11.505597483200 	
C	 23.499049594000 	  2.515145221100 	  1.403173523200 	
C	 22.930505464000 	  2.515148031100 	 11.533730243200 	
C	 23.499018494000 	  8.698706981100 	  1.403170693200 	
C	 22.930474364000 	  8.698709791100 	 11.533727413200 	
C	  4.924127066500 	  5.560248604700 	  4.117601875700 	
C	  4.355582936500 	  5.560251414700 	 14.248158595700 	
C	  4.924095966500 	 11.743810364700 	  4.117599045700 	
C	  4.355551836500 	 11.743813174700 	 14.248155765700 	
C	 19.604954366500 	  5.560257834700 	  4.145731805700 	
C	 19.036410236500 	  5.560260644700 	 14.276288525700 	
C	 19.604923266500 	 11.743819594700 	  4.145728975700 	
C	 19.036379136500 	 11.743822404700 	 14.276285695700 	
C	  3.616380389000 	  3.755832070100 	  8.624223372800 	
C	  3.047836259000 	  3.755834880100 	 18.754780092800 	
C	  3.616349289000 	  9.939393830100 	  8.624220542800 	
C	  3.047805159000 	  9.939396640100 	 18.754777262800 	
C	 18.297207689000 	  3.755841300100 	  8.652353302800 	
C	 17.728663559000 	  3.755844110100 	 18.782910022800 	
C	 18.297176589000 	  9.939403060100 	  8.652350472800 	
C	 17.728632459000 	  9.939405870100 	 18.782907192800 	
C	  9.694110263800 	  0.710702205100 	  7.580976645800 	
C	  9.125566133800 	  0.710705015100 	 17.711533365800 	
C	  9.694079163800 	  6.894263965100 	  7.580973815800 	
C	  9.125535033800 	  6.894266775100 	 17.711530535800 	
C	 24.374937563800 	  0.710711435100 	  7.609106575800 	
C	 23.806393433800 	  0.710714245100 	 17.739663295800 	
C	 24.374906463800 	  6.894273195100 	  7.609103745800 	
C	 23.806362333800 	  6.894276005100 	 17.739660465800 	
C	  9.910028443500 	  2.334361286300 	  2.224708027200 	
C	  9.341484313500 	  2.334364096300 	 12.355264747200 	
C	  9.909997343500 	  8.517923046300 	  2.224705197200 	
C	  9.341453213500 	  8.517925856300 	 12.355261917200 	
C	 24.590855743500 	  2.334370516300 	  2.252837957200 	
C	 24.022311613500 	  2.334373326300 	 12.383394677200 	
C	 24.590824643500 	  8.517932276300 	  2.252835127200 	
C	 24.022280513500 	  8.517935086300 	 12.383391847200 	
C	  3.832299249400 	  5.379491151300 	  3.267955189500 	
C	  3.263755119400 	  5.379493961300 	 13.398511909500 	
C	  3.832268149400 	 11.563052911300 	  3.267952359500 	
C	  3.263724019400 	 11.563055721300 	 13.398509079500 	
C	 18.513126549400 	  5.379500381300 	  3.296085119500 	
C	 17.944582419400 	  5.379503191300 	 13.426641839500 	
C	 18.513095449400 	 11.563062141300 	  3.296082289500 	
C	 17.944551319400 	 11.563064951300 	 13.426639009500 	
H	  3.030192363400 	  4.667840350300 	  8.698825072800 	
H	  2.461648233400 	  4.667843160300 	 18.829381792800 	
H	  3.030161263400 	 10.851402110300 	  8.698822242800 	
H	  2.461617133400 	 10.851404920300 	 18.829378962800 	
H	 17.711019663400 	  4.667849580300 	  8.726955002800 	
H	 17.142475533400 	  4.667852390300 	 18.857511722800 	
H	 17.710988563400 	 10.851411340300 	  8.726952172800 	
H	 17.142444433400 	 10.851414150300 	 18.857508892800 	
H	 10.280332020700 	  1.622693456600 	  7.506360722100 	
H	  9.711787890700 	  1.622696266600 	 17.636917442100 	
H	 10.280300920700 	  7.806255216600 	  7.506357892100 	
H	  9.711756790700 	  7.806258026600 	 17.636914612100 	
H	 24.961159320700 	  1.622702686600 	  7.534490652100 	
H	 24.392615190700 	  1.622705496600 	 17.665047372100 	
H	 24.961128220700 	  7.806264446600 	  7.534487822100 	
H	 24.392584090700 	  7.806267256600 	 17.665044542100 	
H	 10.496216316600 	  1.422353006100 	  2.150106647200 	
H	  9.927672186600 	  1.422355816100 	 12.280663367200 	
H	 10.496185216600 	  7.605914766100 	  2.150103817200 	
H	  9.927641086600 	  7.605917576100 	 12.280660537200 	
H	 25.177043616600 	  1.422362236100 	  2.178236577200 	
H	 24.608499486600 	  1.422365046100 	 12.308793297200 	
H	 25.177012516600 	  7.605923996100 	  2.178233747200 	
H	 24.608468386600 	  7.605926806100 	 12.308790467200 	
H	  3.246077623500 	  4.467499838900 	  3.342571328800 	
H	  2.677533493500 	  4.467502648900 	 13.473128048800 	
H	  3.246046523500 	 10.651061598900 	  3.342568498800 	
H	  2.677502393500 	 10.651064408900 	 13.473125218800 	
H	 17.926904923500 	  4.467509068900 	  3.370701258800 	
H	 17.358360793500 	  4.467511878900 	 13.501257978800 	
H	 17.926873823500 	 10.651070828900 	  3.370698428800 	
H	 17.358329693500 	 10.651073638900 	 13.501255148800 	
C	  3.297673659000 	  2.774949442900 	  7.678024848600 	
C	  2.729129529000 	  2.774952252900 	 17.808581568600 	
C	  3.297642559000 	  8.958511202900 	  7.678022018600 	
C	  2.729098429000 	  8.958514012900 	 17.808578738600 	
C	 17.978500959000 	  2.774958672900 	  7.706154778600 	
C	 17.409956829000 	  2.774961482900 	 17.836711498600 	
C	 17.978469859000 	  8.958520432900 	  7.706151948600 	
C	 17.409925729000 	  8.958523242900 	 17.836708668600 	
C	 10.012846383800 	  5.820031992100 	  8.527231920200 	
C	  9.444302253800 	  5.820034802100 	 18.657788640200 	
C	 10.012815283800 	 12.003593752100 	  8.527229090200 	
C	  9.444271153800 	 12.003596562100 	 18.657785810200 	
C	 24.693673683800 	  5.820041222100 	  8.555361850200 	
C	 24.125129553800 	  5.820044032100 	 18.685918570200 	
C	 24.693642583800 	 12.003602982100 	  8.555359020200 	
C	 24.125098453800 	 12.003605792100 	 18.685915740200 	
C	 10.228735046900 	  3.315244157100 	  3.170906228600 	
C	  9.660190916900 	  3.315246967100 	 13.301462948600 	
C	 10.228703946900 	  9.498805917100 	  3.170903398600 	
C	  9.660159816900 	  9.498808727100 	 13.301460118600 	
C	 24.909562346900 	  3.315253387100 	  3.199036158600 	
C	 24.341018216900 	  3.315256197100 	 13.329592878600 	
C	 24.909531246900 	  9.498815147100 	  3.199033328600 	
C	 24.340987116900 	  9.498817957100 	 13.329590048600 	
C	  3.513562558100 	  0.270161486100 	  2.321700231000 	
C	  2.945018428100 	  0.270164296100 	 12.452256951000 	
C	  3.513531458100 	  6.453723246100 	  2.321697401000 	
C	  2.944987328100 	  6.453726056100 	 12.452254121000 	
C	 18.194389858100 	  0.270170716100 	  2.349830161000 	
C	 17.625845728100 	  0.270173526100 	 12.480386881000 	
C	 18.194358758100 	  6.453732476100 	  2.349827331000 	
C	 17.625814628100 	  6.453735286100 	 12.480384051000 	
C	  4.115613367000 	  1.624442344200 	  7.606279463600 	
C	  3.547069237000 	  1.624445154200 	 17.736836183600 	
C	  4.115582267000 	  7.808004104200 	  7.606276633600 	
C	  3.547038137000 	  7.808006914200 	 17.736833353600 	
C	 18.796440667000 	  1.624451574200 	  7.634409393600 	
C	 18.227896537000 	  1.624454384200 	 17.764966113600 	
C	 18.796409567000 	  7.808013334200 	  7.634406563600 	
C	 18.227865437000 	  7.808016144200 	 17.764963283600 	
C	  9.194872439700 	  4.669544365100 	  8.598991286000 	
C	  8.626328309700 	  4.669547175100 	 18.729548006000 	
C	  9.194841339700 	 10.853106125100 	  8.598988456000 	
C	  8.626297209700 	 10.853108935100 	 18.729545176000 	
C	 23.875699739700 	  4.669553595100 	  8.627121216000 	
C	 23.307155609700 	  4.669556405100 	 18.757677936000 	
C	 23.875668639700 	 10.853115355100 	  8.627118386000 	
C	 23.307124509700 	 10.853118165100 	 18.757675106000 	
C	  9.410795487100 	  4.465751377700 	  3.242651400700 	
C	  8.842251357100 	  4.465754187700 	 13.373208120700 	
C	  9.410764387100 	 10.649313137700 	  3.242648570700 	
C	  8.842220257100 	 10.649315947700 	 13.373205290700 	
C	 24.091622787100 	  4.465760607700 	  3.270781330700 	
C	 23.523078657100 	  4.465763417700 	 13.401338050700 	
C	 24.091591687100 	 10.649322367700 	  3.270778500700 	
C	 23.523047557100 	 10.649325177700 	 13.401335220700 	
C	  4.331536519400 	  1.420649052200 	  2.249940436700 	
C	  3.762992389400 	  1.420651862200 	 12.380497156700 	
C	  4.331505419400 	  7.604210812200 	  2.249937606700 	
C	  3.762961289400 	  7.604213622200 	 12.380494326700 	
C	 19.012363819400 	  1.420658282200 	  2.278070366700 	
C	 18.443819689400 	  1.420661092200 	 12.408627086700 	
C	 19.012332719400 	  7.604220042200 	  2.278067536700 	
C	 18.443788589400 	  7.604222852200 	 12.408624256700 	
H	  3.910307630800 	  0.858337997200 	  6.862660610300 	
H	  3.341763500800 	  0.858340807200 	 16.993217330300 	
H	  3.910276530800 	  7.041899757200 	  6.862657780300 	
H	  3.341732400800 	  7.041902567200 	 16.993214500300 	
H	 18.591134930800 	  0.858347227200 	  6.890790540300 	
H	 18.022590800800 	  0.858350037200 	 17.021347260300 	
H	 18.591103830800 	  7.041908987200 	  6.890787710300 	
H	 18.022559700800 	  7.041911797200 	 17.021344430300 	
H	  9.400179503700 	  3.903433024400 	  9.342599275100 	
H	  8.831635373700 	  3.903435834400 	 19.473155995100 	
H	  9.400148403700 	 10.086994784400 	  9.342596445100 	
H	  8.831604273700 	 10.086997594400 	 19.473153165100 	
H	 24.081006803700 	  3.903442254400 	  9.370729205100 	
H	 23.512462673700 	  3.903445064400 	 19.501285925100 	
H	 24.080975703700 	 10.087004014400 	  9.370726375100 	
H	 23.512431573700 	 10.087006824400 	 19.501283095100 	
H	  9.616101375900 	  5.231855907300 	  3.986269934100 	
H	  9.047557245900 	  5.231858717300 	 14.116826654100 	
H	  9.616070275900 	 11.415417667300 	  3.986267104100 	
H	  9.047526145900 	 11.415420477300 	 14.116823824100 	
H	 24.296928675900 	  5.231865137300 	  4.014399864100 	
H	 23.728384545900 	  5.231867947300 	 14.144956584100 	
H	 24.296897575900 	 11.415426897300 	  4.014397034100 	
H	 23.728353445900 	 11.415429707300 	 14.144953754100 	
H	  4.126229023800 	  2.186760514700 	  1.506332765000 	
H	  3.557684893800 	  2.186763324700 	 11.636889485000 	
H	  4.126197923800 	  8.370322274700 	  1.506329935000 	
H	  3.557653793800 	  8.370325084700 	 11.636886655000 	
H	 18.807056323800 	  2.186769744700 	  1.534462695000 	
H	 18.238512193800 	  2.186772554700 	 11.665019415000 	
H	 18.807025223800 	  8.370331504700 	  1.534459865000 	
H	 18.238481093800 	  8.370334314700 	 11.665016585000 	
C	  5.203863858000 	  1.434679543400 	  8.448323302000 	
C	  4.635319728000 	  1.434682353400 	 18.578880022000 	
C	  5.203832758000 	  7.618241303400 	  8.448320472000 	
C	  4.635288628000 	  7.618244113400 	 18.578877192000 	
C	 19.884691158000 	  1.434688773400 	  8.476453232000 	
C	 19.316147028000 	  1.434691583400 	 18.607009952000 	
C	 19.884660058000 	  7.618250533400 	  8.476450402000 	
C	 19.316115928000 	  7.618253343400 	 18.607007122000 	
C	  8.106607985800 	  4.479790023800 	  7.756956459800 	
C	  7.538063855800 	  4.479792833800 	 17.887513179800 	
C	  8.106576885800 	 10.663351783800 	  7.756953629800 	
C	  7.538032755800 	 10.663354593800 	 17.887510349800 	
C	 22.787435285800 	  4.479799253800 	  7.785086389800 	
C	 22.218891155800 	  4.479802063800 	 17.915643109800 	
C	 22.787404185800 	 10.663361013800 	  7.785083559800 	
C	 22.218860055800 	 10.663363823800 	 17.915640279800 	
C	  8.322544996100 	  4.655513995700 	  2.400607562400 	
C	  7.754000866100 	  4.655516805700 	 12.531164282400 	
C	  8.322513896100 	 10.839075755700 	  2.400604732400 	
C	  7.753969766100 	 10.839078565700 	 12.531161452400 	
C	 23.003372296100 	  4.655523225700 	  2.428737492400 	
C	 22.434828166100 	  4.655526035700 	 12.559294212400 	
C	 23.003341196100 	 10.839084985700 	  2.428734662400 	
C	 22.434797066100 	 10.839087795700 	 12.559291382400 	
C	  5.419801413700 	  1.610403271700 	  3.091974731400 	
C	  4.851257283700 	  1.610406081700 	 13.222531451400 	
C	  5.419770313700 	  7.793965031700 	  3.091971901400 	
C	  4.851226183700 	  7.793967841700 	 13.222528621400 	
C	 20.100628713700 	  1.610412501700 	  3.120104661400 	
C	 19.532084583700 	  1.610415311700 	 13.250661381400 	
C	 20.100597613700 	  7.793974261700 	  3.120101831400 	
C	 19.532053483700 	  7.793977071700 	 13.250658551400 	
H	  5.815280580100 	  0.539366990000 	  8.358446190600 	
H	  5.246736450100 	  0.539369800000 	 18.489002910600 	
H	  5.815249480100 	  6.722928750000 	  8.358443360600 	
H	  5.246705350100 	  6.722931560000 	 18.489000080600 	
H	 20.496107880100 	  0.539376220000 	  8.386576120600 	
H	 19.927563750100 	  0.539379030000 	 18.517132840600 	
H	 20.496076780100 	  6.722937980000 	  8.386573290600 	
H	 19.927532650100 	  6.722940790000 	 18.517130010600 	
H	  7.495164244800 	  3.584488939300 	  7.846838885500 	
H	  6.926620114800 	  3.584491749300 	 17.977395605500 	
H	  7.495133144800 	  9.768050699300 	  7.846836055500 	
H	  6.926589014800 	  9.768053509300 	 17.977392775500 	
H	 22.175991544800 	  3.584498169300 	  7.874968815500 	
H	 21.607447414800 	  3.584500979300 	 18.005525535500 	
H	 22.175960444800 	  9.768059929300 	  7.874965985500 	
H	 21.607416314800 	  9.768062739300 	 18.005522705500 	
H	  7.711128287000 	  5.550826610000 	  2.490484352400 	
H	  7.142584157000 	  5.550829420000 	 12.621041072400 	
H	  7.711097187000 	 11.734388370000 	  2.490481522400 	
H	  7.142553057000 	 11.734391180000 	 12.621038242400 	
H	 22.391955587000 	  5.550835840000 	  2.518614282400 	
H	 21.823411457000 	  5.550838650000 	 12.649171002400 	
H	 22.391924487000 	 11.734397600000 	  2.518611452400 	
H	 21.823380357000 	 11.734400410000 	 12.649168172400 	
H	  6.031245163400 	  2.505704356200 	  3.002092091400 	
H	  5.462701033400 	  2.505707166200 	 13.132648811400 	
H	  6.031214063400 	  8.689266116200 	  3.002089261400 	
H	  5.462669933400 	  8.689268926200 	 13.132645981400 	
H	 20.712072463400 	  2.505713586200 	  3.030222021400 	
H	 20.143528333400 	  2.505716396200 	 13.160778741400 	
H	 20.712041363400 	  8.689275346200 	  3.030219191400 	
H	 20.143497233400 	  8.689278156200 	 13.160775911400 	
C	  2.060699965000 	  2.923971898300 	  6.778256047500 	
C	  1.492155835000 	  2.923974708300 	 16.908812767500 	
C	  2.060668865000 	  9.107533658300 	  6.778253217500 	
C	  1.492124735000 	  9.107536468300 	 16.908809937500 	
C	 16.741527265000 	  2.923981128300 	  6.806385977500 	
C	 16.172983135000 	  2.923983938300 	 16.936942697500 	
C	 16.741496165000 	  9.107542888300 	  6.806383147500 	
C	 16.172952035000 	  9.107545698300 	 16.936939867500 	
C	 11.249821980800 	  5.969055390200 	  9.426999575200 	
C	 10.681277850800 	  5.969058200200 	 19.557556295200 	
C	 11.249790880800 	 12.152617150200 	  9.426996745200 	
C	 10.681246750800 	 12.152619960200 	 19.557553465200 	
C	 25.930649280800 	  5.969064620200 	  9.455129505200 	
C	 25.362105150800 	  5.969067430200 	 19.585686225200 	
C	 25.930618180800 	 12.152626380200 	  9.455126675200 	
C	 25.362074050800 	 12.152629190200 	 19.585683395200 	
C	 11.465708592700 	  3.166222067100 	  4.070675242600 	
C	 10.897164462700 	  3.166224877100 	 14.201231962600 	
C	 11.465677492700 	  9.349783827100 	  4.070672412600 	
C	 10.897133362700 	  9.349786637100 	 14.201229132600 	
C	 26.146535892700 	  3.166231297100 	  4.098805172600 	
C	 25.577991762700 	  3.166234107100 	 14.229361892600 	
C	 26.146504792700 	  9.349793057100 	  4.098802342600 	
C	 25.577960662700 	  9.349795867100 	 14.229359062600 	
C	  2.276586376900 	  0.121138088000 	  1.421933213400 	
C	  1.708042246900 	  0.121140898000 	 11.552489933400 	
C	  2.276555276900 	  6.304699848000 	  1.421930383400 	
C	  1.708011146900 	  6.304702658000 	 11.552487103400 	
C	 16.957413676900 	  0.121147318000 	  1.450063143400 	
C	 16.388869546900 	  0.121150128000 	 11.580619863400 	
C	 16.957382576900 	  6.304709078000 	  1.450060313400 	
C	 16.388838446900 	  6.304711888000 	 11.580617033400 	
C	  2.262347017200 	  2.221751156100 	  5.422902565400 	
C	  1.693802887200 	  2.221753966100 	 15.553459285400 	
C	  2.262315917200 	  8.405312916100 	  5.422899735400 	
C	  1.693771787200 	  8.405315726100 	 15.553456455400 	
C	 16.943174317200 	  2.221760386100 	  5.451032495400 	
C	 16.374630187200 	  2.221763196100 	 15.581589215400 	
C	 16.943143217200 	  8.405322146100 	  5.451029665400 	
C	 16.374599087200 	  8.405324956100 	 15.581586385400 	
C	 11.048108919500 	 -0.823375339700 	 10.782308126400 	
C	 10.479564789500 	 -0.823372529700 	 20.912864846400 	
C	 11.048077819500 	  5.360186420300 	 10.782305296400 	
C	 10.479533689500 	  5.360189230300 	 20.912862016400 	
C	 25.728936219500 	 -0.823366109700 	 10.810438056400 	
C	 25.160392089500 	 -0.823363299700 	 20.940994776400 	
C	 25.728905119500 	  5.360195650300 	 10.810435226400 	
C	 25.160360989500 	  5.360198460300 	 20.940991946400 	
C	 11.264060258300 	  3.868441104100 	  5.426029355200 	
C	 10.695516128300 	  3.868443914100 	 15.556586075200 	
C	 11.264029158300 	 10.052002864100 	  5.426026525200 	
C	 10.695485028300 	 10.052005674100 	 15.556583245200 	
C	 25.944887558300 	  3.868450334100 	  5.454159285200 	
C	 25.376343428300 	  3.868453144100 	 15.584716005200 	
C	 25.944856458300 	 10.052012094100 	  5.454156455200 	
C	 25.376312328300 	 10.052014904100 	 15.584713175200 	
C	  2.478298879800 	  6.913569000600 	  0.066624656700 	
C	  1.909754749800 	  6.913571810600 	 10.197181376700 	
C	  2.478267779800 	 13.097130760600 	  0.066621826700 	
C	  1.909723649800 	 13.097133570600 	 10.197178546700 	
C	 17.159126179800 	  6.913578230600 	  0.094754586700 	
C	 16.590582049800 	  6.913581040600 	 10.225311306700 	
C	 17.159095079800 	 13.097139990600 	  0.094751756700 	
C	 16.590550949800 	 13.097142800600 	 10.225308476700 	
H	  3.170768161300 	  2.565029211100 	  4.913710526400 	
H	  2.602224031300 	  2.565032021100 	 15.044267246400 	
H	  3.170737061300 	  8.748590971100 	  4.913707696400 	
H	  2.602192931300 	  8.748593781100 	 15.044264416400 	
H	 17.851595461300 	  2.565038441100 	  4.941840456400 	
H	 17.283051331300 	  2.565041251100 	 15.072397176400 	
H	 17.851564361300 	  8.748600201100 	  4.941837626400 	
H	 17.283020231300 	  8.748603011100 	 15.072394346400 	
H	 10.139696801000 	 -0.480096932800 	 11.291488826700 	
H	  9.571152671000 	 -0.480094122800 	 21.422045546700 	
H	 10.139665701000 	  5.703464827200 	 11.291485996700 	
H	  9.571121571000 	  5.703467637200 	 21.422042716700 	
H	 24.820524101000 	 -0.480087702800 	 11.319618756700 	
H	 24.251979971000 	 -0.480084892800 	 21.450175476700 	
H	 24.820493001000 	  5.703474057200 	 11.319615926700 	
H	 24.251948871000 	  5.703476867200 	 21.450172646700 	
H	 10.355639694200 	  3.525160856600 	  5.935220864000 	
H	  9.787095564200 	  3.525163666600 	 16.065777584000 	
H	 10.355608594200 	  9.708722616600 	  5.935218034000 	
H	  9.787064464200 	  9.708725426600 	 16.065774754000 	
H	 25.036466994200 	  3.525170086600 	  5.963350794000 	
H	 24.467922864200 	  3.525172896600 	 16.093907514000 	
H	 25.036435894200 	  9.708731846600 	  5.963347964000 	
H	 24.467891764200 	  9.708734656600 	 16.093904684000 	
H	  3.386710736400 	  6.570290654600 	 -0.442556474800 	
H	  2.818166606400 	  6.570293464600 	  9.688000245200 	
H	  3.386679636400 	 12.753852414600 	 -0.442559304800 	
H	  2.818135506400 	 12.753855224600 	  9.687997415200 	
H	 18.067538036400 	  6.570299884600 	 -0.414426544800 	
H	 17.498993906400 	  6.570302694600 	  9.716130175200 	
H	 18.067506936400 	 12.753861644600 	 -0.414429374800 	
H	 17.498962806400 	 12.753864454600 	  9.716127345200 	
H	  1.404496117300 	  2.427035558900 	  4.770053794800 	
H	  0.835951987300 	  2.427038368900 	 14.900610514800 	
H	  1.404465017300 	  8.610597318900 	  4.770050964800 	
H	  0.835920887300 	  8.610600128900 	 14.900607684800 	
H	 16.085323417300 	  2.427044788900 	  4.798183724800 	
H	 15.516779287300 	  2.427047598900 	 14.928740444800 	
H	 16.085292317300 	  8.610606548900 	  4.798180894800 	
H	 15.516748187300 	  8.610609358900 	 14.928737614800 	
H	 12.337828175700 	 -0.618075910000 	  0.722500627700 	
H	 11.769284045700 	 -0.618073100000 	 10.853057347700 	
H	 12.337797075700 	  5.565485850000 	  0.722497797700 	
H	 11.769252945700 	  5.565488660000 	 10.853054517700 	
H	 27.018655475700 	 -0.618066680000 	  0.750630557700 	
H	 26.450111345700 	 -0.618063870000 	 10.881187277700 	
H	 27.018624375700 	  5.565495080000 	  0.750627727700 	
H	 26.450080245700 	  5.565497890000 	 10.881184447700 	
H	 12.121911302100 	  3.663157614800 	  6.078878020100 	
H	 11.553367172100 	  3.663160424800 	 16.209434740100 	
H	 12.121880202100 	  9.846719374800 	  6.078875190100 	
H	 11.553336072100 	  9.846722184800 	 16.209431910100 	
H	 26.802738602100 	  3.663166844800 	  6.107007950100 	
H	 26.234194472100 	  3.663169654800 	 16.237564670100 	
H	 26.802707502100 	  9.846728604800 	  6.107005120100 	
H	 26.234163372100 	  9.846731414800 	 16.237561840100 	
H	  1.188579187600 	  6.708269631800 	 10.126432579800 	
H	  0.620035057600 	  6.708272441800 	 20.256989299800 	
H	  1.188548087600 	 12.891831391800 	 10.126429749800 	
H	  0.620003957600 	 12.891834201800 	 20.256986469800 	
H	 15.869406487600 	  6.708278861800 	 10.154562509800 	
H	 15.300862357600 	  6.708281671800 	 20.285119229800 	
H	 15.869375387600 	 12.891840621800 	 10.154559679800 	
H	 15.300831257600 	 12.891843431800 	 20.285116399800 	
H	  2.333338513100 	  1.133106211500 	  5.520678957300 	
H	  1.764794383100 	  1.133109021500 	 15.651235677300 	
H	  2.333307413100 	  7.316667971500 	  5.520676127300 	
H	  1.764763283100 	  7.316670781500 	 15.651232847300 	
H	 17.014165813100 	  1.133115441500 	  5.548808887300 	
H	 16.445621683100 	  1.133118251500 	 15.679365607300 	
H	 17.014134713100 	  7.316677201500 	  5.548806057300 	
H	 16.445590583100 	  7.316680011500 	 15.679362777300 	
H	 11.409028324500 	  4.178196056400 	 -0.028085263100 	
H	 10.840484194500 	  4.178198866400 	 10.102471456900 	
H	 11.408997224500 	 10.361757816400 	 -0.028088093100 	
H	 10.840453094500 	 10.361760626400 	 10.102468626900 	
H	 26.089855624500 	  4.178205286400 	  0.000044666900 	
H	 25.521311494500 	  4.178208096400 	 10.130601386900 	
H	 26.089824524500 	 10.361767046400 	  0.000041836900 	
H	 25.521280394500 	 10.361769856400 	 10.130598556900 	
H	 11.193066621200 	  4.957086048700 	  5.328254121300 	
H	 10.624522491200 	  4.957088858700 	 15.458810841300 	
H	 11.193035521200 	 11.140647808700 	  5.328251291300 	
H	 10.624491391200 	 11.140650618700 	 15.458808011300 	
H	 25.873893921200 	  4.957095278700 	  5.356384051300 	
H	 25.305349791200 	  4.957098088700 	 15.486940771300 	
H	 25.873862821200 	 11.140657038700 	  5.356381221300 	
H	 25.305318691200 	 11.140659848700 	 15.486937941300 	
H	  2.117379466200 	  1.911997604500 	 10.877018260400 	
H	  1.548835336200 	  1.912000414500 	 21.007574980400 	
H	  2.117348366200 	  8.095559364500 	 10.877015430400 	
H	  1.548804236200 	  8.095562174500 	 21.007572150400 	
H	 16.798206766200 	  1.912006834500 	 10.905148190400 	
H	 16.229662636200 	  1.912009644500 	 21.035704910400 	
H	 16.798175666200 	  8.095568594500 	 10.905145360400 	
H	 16.229631536200 	  8.095571404500 	 21.035702080400 	
C	  1.734559952200 	  4.404219912900 	  6.506123107300 	
C	  1.166015822200 	  4.404222722900 	 16.636679827300 	
C	  1.734528852200 	 10.587781672900 	  6.506120277300 	
C	  1.165984722200 	 10.587784482900 	 16.636676997300 	
C	 16.415387252200 	  4.404229142900 	  6.534253037300 	
C	 15.846843122200 	  4.404231952900 	 16.664809757300 	
C	 16.415356152200 	 10.587790902900 	  6.534250207300 	
C	 15.846812022200 	 10.587793712900 	 16.664806927300 	
C	 11.575904795300 	  1.359102403300 	  9.699089153700 	
C	 11.007360665300 	  1.359105213300 	 19.829645873700 	
C	 11.575873695300 	  7.542664163300 	  9.699086323700 	
C	 11.007329565300 	  7.542666973300 	 19.829643043700 	
C	 26.256732095300 	  1.359111633300 	  9.727219083700 	
C	 25.688187965300 	  1.359114443300 	 19.857775803700 	
C	 26.256700995300 	  7.542673393300 	  9.727216253700 	
C	 25.688156865300 	  7.542676203300 	 19.857772973700 	
C	 11.791850066100 	  1.685974113500 	  4.342806589600 	
C	 11.223305936100 	  1.685976923500 	 14.473363309600 	
C	 11.791818966100 	  7.869535873500 	  4.342803759600 	
C	 11.223274836100 	  7.869538683500 	 14.473360479600 	
C	 26.472677366100 	  1.685983343500 	  4.370936519600 	
C	 25.904133236100 	  1.685986153500 	 14.501493239600 	
C	 26.472646266100 	  7.869545103500 	  4.370933689600 	
C	 25.904102136100 	  7.869547913500 	 14.501490409600 	
C	  1.950503562300 	  4.731091074900 	  1.149843634900 	
C	  1.381959432300 	  4.731093884900 	 11.280400354900 	
C	  1.950472462300 	 10.914652834900 	  1.149840804900 	
C	  1.381928332300 	 10.914655644900 	 11.280397524900 	
C	 16.631330862300 	  4.731100304900 	  1.177973564900 	
C	 16.062786732300 	  4.731103114900 	 11.308530284900 	
C	 16.631299762300 	 10.914662064900 	  1.177970734900 	
C	 16.062755632300 	 10.914664874900 	 11.308527454900 	
H	  2.589703828300 	  4.918653371200 	  6.050687656000 	
H	  2.021159698300 	  4.918656181200 	 16.181244376000 	
H	  2.589672728300 	 11.102215131200 	  6.050684826000 	
H	  2.021128598300 	 11.102217941200 	 16.181241546000 	
H	 17.270531128300 	  4.918662601200 	  6.078817586000 	
H	 16.701986998300 	  4.918665411200 	 16.209374306000 	
H	 17.270500028300 	 11.102224361200 	  6.078814756000 	
H	 16.701955898300 	 11.102227171200 	 16.209371476000 	
H	 10.720753036400 	  1.873537183300 	 10.154505291000 	
H	 10.152208906400 	  1.873539993300 	 20.285062011000 	
H	 10.720721936400 	  8.057098943300 	 10.154502461000 	
H	 10.152177806400 	  8.057101753300 	 20.285059181000 	
H	 25.401580336400 	  1.873546413300 	 10.182635221000 	
H	 24.833036206400 	  1.873549223300 	 20.313191941000 	
H	 25.401549236400 	  8.057108173300 	 10.182632391000 	
H	 24.833005106400 	  8.057110983300 	 20.313189111000 	
H	 10.936706512400 	  1.171539254400 	  4.798240972300 	
H	 10.368162382400 	  1.171542064400 	 14.928797692300 	
H	 10.936675412400 	  7.355101014400 	  4.798238142300 	
H	 10.368131282400 	  7.355103824400 	 14.928794862300 	
H	 25.617533812400 	  1.171548484400 	  4.826370902300 	
H	 25.048989682400 	  1.171551294400 	 14.956927622300 	
H	 25.617502712400 	  7.355110244400 	  4.826368072300 	
H	 25.048958582400 	  7.355113054400 	 14.956924792300 	
H	  2.805655203200 	  4.216656416700 	  0.694426960500 	
H	  2.237111073200 	  4.216659226700 	 10.824983680500 	
H	  2.805624103200 	 10.400218176700 	  0.694424130500 	
H	  2.237079973200 	 10.400220986700 	 10.824980850500 	
H	 17.486482503200 	  4.216665646700 	  0.722556890500 	
H	 16.917938373200 	  4.216668456700 	 10.853113610500 	
H	 17.486451403200 	 10.400227406700 	  0.722554060500 	
H	 16.917907273200 	 10.400230216700 	 10.853110780500 	
H	  1.454454417400 	  4.942542076000 	  7.419312257100 	
H	  0.885910287400 	  4.942544886000 	 17.549868977100 	
H	  1.454423317400 	 11.126103836000 	  7.419309427100 	
H	  0.885879187400 	 11.126106646000 	 17.549866147100 	
H	 16.135281717400 	  4.942551306000 	  7.447442187100 	
H	 15.566737587400 	  4.942554116000 	 17.577998907100 	
H	 16.135250617400 	 11.126113066000 	  7.447439357100 	
H	 15.566706487400 	 11.126115876000 	 17.577996077100 	
H	 11.856081281800 	  7.987633929300 	  8.785941752800 	
H	 11.287537151800 	  7.987636739300 	 18.916498472800 	
H	 11.856050181800 	 14.171195689300 	  8.785938922800 	
H	 11.287506051800 	 14.171198499300 	 18.916495642800 	
H	 26.536908581800 	  7.987643159300 	  8.814071682800 	
H	 25.968364451800 	  7.987645969300 	 18.944628402800 	
H	 26.536877481800 	 14.171204919300 	  8.814068852800 	
H	 25.968333351800 	 14.171207729300 	 18.944625572800 	
H	 12.071956739200 	  1.147653411900 	  3.429616915000 	
H	 11.503412609200 	  1.147656221900 	 13.560173635000 	
H	 12.071925639200 	  7.331215171900 	  3.429614085000 	
H	 11.503381509200 	  7.331217981900 	 13.560170805000 	
H	 26.752784039200 	  1.147662641900 	  3.457746845000 	
H	 26.184239909200 	  1.147665451900 	 13.588303565000 	
H	 26.752752939200 	  7.331224401900 	  3.457744015000 	
H	 26.184208809200 	  7.331227211900 	 13.588300735000 	
H	  1.670327769500 	 -1.897440633900 	  2.062991149700 	
H	  1.101783639500 	 -1.897437823900 	 12.193547869700 	
H	  1.670296669500 	  4.286121126100 	  2.062988319700 	
H	  1.101752539500 	  4.286123936100 	 12.193545039700 	
H	 16.351155069500 	 -1.897431403900 	  2.091121079700 	
H	 15.782610939500 	 -1.897428593900 	 12.221677799700 	
H	 16.351123969500 	  4.286130356100 	  2.091118249700 	
H	 15.782579839500 	  4.286133166100 	 12.221674969700 	
H	  0.882064840800 	  4.479102131000 	  5.817989803200 	
H	  0.313520710800 	  4.479104941000 	 15.948546523200 	
H	  0.882033740800 	 10.662663891000 	  5.817986973200 	
H	  0.313489610800 	 10.662666701000 	 15.948543693200 	
H	 15.562892140800 	  4.479111361000 	  5.846119733200 	
H	 14.994348010800 	  4.479114171000 	 15.976676453200 	
H	 15.562861040800 	 10.662673121000 	  5.846116903200 	
H	 14.994316910800 	 10.662675931000 	 15.976673623200 	
H	 12.428454998600 	  7.524205360700 	 10.387278883200 	
H	 11.859910868600 	  7.524208170700 	 20.517835603200 	
H	 12.428423898600 	 13.707767120700 	 10.387276053200 	
H	 11.859879768600 	 13.707769930700 	 20.517832773200 	
H	 27.109282298600 	  7.524214590700 	 10.415408813200 	
H	 26.540738168600 	  7.524217400700 	 20.545965533200 	
H	 27.109251198600 	 13.707776350700 	 10.415405983200 	
H	 26.540707068600 	 13.707779160700 	 20.545962703200 	
H	 12.644344881100 	  1.611092017100 	  5.030940319400 	
H	 12.075800751100 	  1.611094827100 	 15.161497039400 	
H	 12.644313781100 	  7.794653777100 	  5.030937489400 	
H	 12.075769651100 	  7.794656587100 	 15.161494209400 	
H	 27.325172181100 	  1.611101247100 	  5.059070249400 	
H	 26.756628051100 	  1.611104057100 	 15.189626969400 	
H	 27.325141081100 	  7.794663007100 	  5.059067419400 	
H	 26.756596951100 	  7.794665817100 	 15.189624139400 	
H	  1.097952918700 	 -1.434011943400 	  0.461654436900 	
H	  0.529408788700 	 -1.434009133400 	 10.592211156900 	
H	  1.097921818700 	  4.749549816600 	  0.461651606900 	
H	  0.529377688700 	  4.749552626600 	 10.592208326900 	
H	 15.778780218700 	 -1.434002713400 	  0.489784366900 	
H	 15.210236088700 	 -1.433999903400 	 10.620341086900 	
H	 15.778749118700 	  4.749559046600 	  0.489781536900 	
H	 15.210204988700 	  4.749561856600 	 10.620338256900 	
C	  0.859009870300 	  2.275087521200 	  7.498940079800 	
C	  0.290465740300 	  2.275090331200 	 17.629496799800 	
C	  0.858978770300 	  8.458649281200 	  7.498937249800 	
C	  0.290434640300 	  8.458652091200 	 17.629493969800 	
C	 15.539837170300 	  2.275096751200 	  7.527070009800 	
C	 14.971293040300 	  2.275099561200 	 17.657626729800 	
C	 15.539806070300 	  8.458658511200 	  7.527067179800 	
C	 14.971261940300 	  8.458661321200 	 17.657623899800 	
C	 12.451513155200 	  5.320185271700 	  8.706323091700 	
C	 11.882969025200 	  5.320188081700 	 18.836879811700 	
C	 12.451482055200 	 11.503747031700 	  8.706320261700 	
C	 11.882937925200 	 11.503749841700 	 18.836876981700 	
C	 27.132340455200 	  5.320194501700 	  8.734453021700 	
C	 26.563796325200 	  5.320197311700 	 18.865009741700 	
C	 27.132309355200 	 11.503756261700 	  8.734450191700 	
C	 26.563765225200 	 11.503759071700 	 18.865006911700 	
C	 12.667397959200 	  3.815108697600 	  3.349991953400 	
C	 12.098853829200 	  3.815111507600 	 13.480548673400 	
C	 12.667366859200 	  9.998670457600 	  3.349989123400 	
C	 12.098822729200 	  9.998673267600 	 13.480545843400 	
C	 27.348225259200 	  3.815117927600 	  3.378121883400 	
C	 26.779681129200 	  3.815120737600 	 13.508678603400 	
C	 27.348194159200 	  9.998679687600 	  3.378119053400 	
C	 26.779650029200 	  9.998682497600 	 13.508675773400 	
C	  1.074895180800 	  0.770007780200 	  2.142610232500 	
C	  0.506351050800 	  0.770010590200 	 12.273166952500 	
C	  1.074864080800 	  6.953569540200 	  2.142607402500 	
C	  0.506319950800 	  6.953572350200 	 12.273164122500 	
C	 15.755722480800 	  0.770017010200 	  2.170740162500 	
C	 15.187178350800 	  0.770019820200 	 12.301296882500 	
C	 15.755691380800 	  6.953578770200 	  2.170737332500 	
C	 15.187147250800 	  6.953581580200 	 12.301294052500 	
H	 -0.047227588500 	  2.355973740600 	  6.881775666400 	
H	 -0.615771718500 	  2.355976550600 	 17.012332386400 	
H	 -0.047258688500 	  8.539535500600 	  6.881772836400 	
H	 -0.615802818500 	  8.539538310600 	 17.012329556400 	
H	 14.633599711500 	  2.355982970600 	  6.909905596400 	
H	 14.065055581500 	  2.355985780600 	 17.040462316400 	
H	 14.633568611500 	  8.539544730600 	  6.909902766400 	
H	 14.065024481500 	  8.539547540600 	 17.040459486400 	
H	 13.357742057700 	  5.401060799500 	  9.323509597600 	
H	 12.789197927700 	  5.401063609500 	 19.454066317600 	
H	 13.357710957700 	 11.584622559500 	  9.323506767600 	
H	 12.789166827700 	 11.584625369500 	 19.454063487600 	
H	 28.038569357700 	  5.401070029500 	  9.351639527600 	
H	 27.470025227700 	  5.401072839500 	 19.482196247600 	
H	 28.038538257700 	 11.584631789500 	  9.351636697600 	
H	 27.469994127700 	 11.584634599500 	 19.482193417600 	
H	 13.573635570700 	  3.734222417300 	  3.967156046800 	
H	 13.005091440700 	  3.734225227300 	 14.097712766800 	
H	 13.573604470700 	  9.917784177300 	  3.967153216800 	
H	 13.005060340700 	  9.917786987300 	 14.097709936800 	
H	 28.254462870700 	  3.734231647300 	  3.995285976800 	
H	 27.685918740700 	  3.734234457300 	 14.125842696800 	
H	 28.254431770700 	  9.917793407300 	  3.995283146800 	
H	 27.685887640700 	  9.917796217300 	 14.125839866800 	
H	  0.168666130200 	  0.689132191500 	  1.525423939400 	
H	 -0.399877999800 	  0.689135001500 	 11.655980659400 	
H	  0.168635030200 	  6.872693951500 	  1.525421109400 	
H	 -0.399909099800 	  6.872696761500 	 11.655977829400 	
H	 14.849493430200 	  0.689141421500 	  1.553553869400 	
H	 14.280949300200 	  0.689144231500 	 11.684110589400 	
H	 14.849462330200 	  6.872703181500 	  1.553551039400 	
H	 14.280918200200 	  6.872705991500 	 11.684107759400 	
H	  0.663727609200 	  2.763729103700 	  8.461941528400 	
H	  0.095183479200 	  2.763731913700 	 18.592498248400 	
H	  0.663696509200 	  8.947290863700 	  8.461938698400 	
H	  0.095152379200 	  8.947293673700 	 18.592495418400 	
H	 15.344554909200 	  2.763738333700 	  8.490071458400 	
H	 14.776010779200 	  2.763741143700 	 18.620628178400 	
H	 15.344523809200 	  8.947300093700 	  8.490068628400 	
H	 14.775979679200 	  8.947302903700 	 18.620625348400 	
H	 12.646828893000 	  5.808844884300 	  7.743333331200 	
H	 12.078284763000 	  5.808847694300 	 17.873890051200 	
H	 12.646797793000 	 11.992406644300 	  7.743330501200 	
H	 12.078253663000 	 11.992409454300 	 17.873887221200 	
H	 27.327656193000 	  5.808854114300 	  7.771463261200 	
H	 26.759112063000 	  5.808856924300 	 17.902019981200 	
H	 27.327625093000 	 11.992415874300 	  7.771460431200 	
H	 26.759080963000 	 11.992418684300 	 17.902017151200 	
H	 12.862680534200 	  3.326468820300 	  2.386989650500 	
H	 12.294136404200 	  3.326471630300 	 12.517546370500 	
H	 12.862649434200 	  9.510030580300 	  2.386986820500 	
H	 12.294105304200 	  9.510033390300 	 12.517543540500 	
H	 27.543507834200 	  3.326478050300 	  2.415119580500 	
H	 26.974963704200 	  3.326480860300 	 12.545676300500 	
H	 27.543476734200 	  9.510039810300 	  2.415116750500 	
H	 26.974932604200 	  9.510042620300 	 12.545673470500 	
H	  0.879579730900 	  0.281347802200 	  3.105599781400 	
H	  0.311035600900 	  0.281350612200 	 13.236156501400 	
H	  0.879548630900 	  6.464909562200 	  3.105596951400 	
H	  0.311004500900 	  6.464912372200 	 13.236153671400 	
H	 15.560407030900 	  0.281357032200 	  3.133729711400 	
H	 14.991862900900 	  0.281359842200 	 13.264286431400 	
H	 15.560375930900 	  6.464918792200 	  3.133726881400 	
H	 14.991831800900 	  6.464921602200 	 13.264283601400 	
H	  1.045204185900 	  1.211387289900 	  7.689215422100 	
H	  0.476660055900 	  1.211390099900 	 17.819772142100 	
H	  1.045173085900 	  7.394949049900 	  7.689212592100 	
H	  0.476628955900 	  7.394951859900 	 17.819769312100 	
H	 15.726031485900 	  1.211396519900 	  7.717345352100 	
H	 15.157487355900 	  1.211399329900 	 17.847902072100 	
H	 15.726000385900 	  7.394958279900 	  7.717342522100 	
H	 15.157456255900 	  7.394961089900 	 17.847899242100 	
H	 12.265311577400 	  4.256482564700 	  8.516029920700 	
H	 11.696767447400 	  4.256485374700 	 18.646586640700 	
H	 12.265280477400 	 10.440044324700 	  8.516027090700 	
H	 11.696736347400 	 10.440047134700 	 18.646583810700 	
H	 26.946138877400 	  4.256491794700 	  8.544159850700 	
H	 26.377594747400 	  4.256494604700 	 18.674716570700 	
H	 26.946107777400 	 10.440053554700 	  8.544157020700 	
H	 26.377563647400 	 10.440056364700 	 18.674713740700 	
H	 12.481202737100 	  4.878809050700 	  3.159718317000 	
H	 11.912658607100 	  4.878811860700 	 13.290275037000 	
H	 12.481171637100 	 11.062370810700 	  3.159715487000 	
H	 11.912627507100 	 11.062373620700 	 13.290272207000 	
H	 27.162030037100 	  4.878818280700 	  3.187848247000 	
H	 26.593485907100 	  4.878821090700 	 13.318404967000 	
H	 27.161998937100 	 11.062380040700 	  3.187845417000 	
H	 26.593454807100 	 11.062382850700 	 13.318402137000 	
H	  1.261096601800 	  1.833710487200 	  2.332903830600 	
H	  0.692552471800 	  1.833713297200 	 12.463460550600 	
H	  1.261065501800 	  8.017272247200 	  2.332901000600 	
H	  0.692521371800 	  8.017275057200 	 12.463457720600 	
H	 15.941923901800 	  1.833719717200 	  2.361033760600 	
H	 15.373379771800 	  1.833722527200 	 12.491590480600 	
H	 15.941892801800 	  8.017281477200 	  2.361030930600 	
H	 15.373348671800 	  8.017284287200 	 12.491587650600 	
