  Invoking FHI-aims ...
  | Number of atoms                   :  96
  ...scf iterations...
  | Total energy corrected        :   -7.287932739485E+01 eV
  ...
  Total atomic forces (unitary forces cleaned)
     1  -2.1759288031E-01  5.8898554222E-01  1.9014577937E-01
     2  2.1385757831E-01  5.8212502321E-01  -1.9548015064E-01
     3  2.1759299715E-01  -5.8898545883E-01  -1.9014570679E-01
     4  -2.1385744641E-01  -5.8212481195E-01  1.9548021565E-01
     5  -8.3960560259E-01  1.1323001344E+00  5.6614160598E-02
     6  8.2436305734E-01  1.0660484238E+00  4.5372198036E-02
     7  8.3960575049E-01  -1.1323000088E+00  -5.6613941842E-02
     8  -8.2436333334E-01  -1.0660485394E+00  -4.5371895390E-02
     9  -1.9794259538E-01  1.6336017572E-01  -1.0469598478E-01
    10  8.8516008934E-02  4.8414742746E-02  1.1371387780E-01
    11  1.9794233394E-01  -1.6335981732E-01  1.0469576548E-01
    12  -8.8516396507E-02  -4.8414978848E-02  -1.1371376508E-01
    13  -3.9128201439E-01  -8.7795797378E-01  -8.9395542798E-01
    14  5.0276971157E-01  -7.6047698675E-01  8.8463297641E-01
    15  3.9128151771E-01  8.7795798838E-01  8.9395516237E-01
    16  -5.0276983082E-01  7.6047730595E-01  -8.8463229439E-01
    17  1.6606714104E+00  -2.4434689068E+00  -2.2885792029E-01
    18  -1.7084797627E+00  -2.3628142367E+00  1.0795358626E-01
    19  -1.6606725737E+00  2.4434719286E+00  2.2885811542E-01
    20  1.7084797746E+00  2.3628147705E+00  -1.0795437629E-01
    21  -7.6542021618E-01  8.2448963349E-01  -6.7846083906E-02
    22  7.7257645051E-01  8.4507636554E-01  5.7081533216E-02
    23  7.6542159584E-01  -8.2449230680E-01  6.7845768088E-02
    24  -7.7257666649E-01  -8.4507683711E-01  -5.7081407177E-02
    25  4.8248507999E-01  5.1002454293E-03  4.2555373237E-01
    26  -4.4586299608E-01  -9.3721386957E-02  -3.0322003466E-01
    27  -4.8248525321E-01  -5.1004954713E-03  -4.2555394075E-01
    28  4.4586360039E-01  9.3721511994E-02  3.0321989345E-01
    29  7.5706998478E-01  1.9932420457E+00  2.0316491718E+00
    30  -7.5744649486E-01  1.9905000846E+00  -2.0293322464E+00
    31  -7.5707033220E-01  -1.9932430550E+00  -2.0316494620E+00
    32  7.5744714807E-01  -1.9905014064E+00  2.0293325718E+00
    33  -2.6845869766E-01  -6.7746941278E-01  -7.1057514789E-01
    34  2.6461374978E-01  -6.8031901927E-01  7.0676647818E-01
    35  2.6845908018E-01  6.7747007563E-01  7.1057568155E-01
    36  -2.6461432347E-01  6.8032003109E-01  -7.0676718572E-01
    37  -1.8611260381E+00  2.3585872981E+00  1.0378115630E-01
    38  1.8589918166E+00  2.3555056534E+00  -1.0285467324E-01
    39  1.8611255181E+00  -2.3585866905E+00  -1.0378061475E-01
    40  -1.8589908521E+00  -2.3555045617E+00  1.0285518833E-01
    41  5.3612583266E-01  -7.7356550783E-01  -1.2155538073E-01
    42  -5.3743198028E-01  -7.7437141596E-01  1.2242693295E-01
    43  -5.3612529987E-01  7.7356471980E-01  1.2155512058E-01
    44  5.3743130129E-01  7.7437044648E-01  -1.2242695843E-01
    45  -1.5449598791E+00  1.5395536749E-01  -9.8276788018E-01
    46  1.4336307805E+00  -1.2139827403E-02  9.5609299562E-01
    47  1.5449540664E+00  -1.5395492938E-01  9.8276509035E-01
    48  -1.4336311665E+00  1.2140206177E-02  -9.5609268149E-01
    49  -1.3052376571E+01  5.3373090525E+00  9.8301054956E+00
    50  1.6150337957E+01  1.6314080655E+01  -1.0269447080E+01
    51  1.3052180431E+01  -5.3371855020E+00  -9.8300315982E+00
    52  -1.6150348191E+01  -1.6314056969E+01  1.0269449056E+01
    53  9.6271135140E+00  6.1136047921E+00  -4.3249450392E+00
    54  -8.4069972707E+00  5.7733695920E+00  3.8186646500E+00
    55  -9.6269721047E+00  -6.1135374903E+00  4.3248820593E+00
    56  8.4070112174E+00  -5.7733801632E+00  -3.8186755161E+00
    57  -1.1188474442E+00  1.6098886226E-01  -9.2553340395E-01
    58  2.2021726161E-01  4.2836760410E-02  2.2246458882E-01
    59  1.1188589136E+00  -1.6099022110E-01  9.2554343640E-01
    60  -2.2021492179E-01  -4.2836593604E-02  -2.2246224820E-01
    61  3.7719084831E+00  -1.0850996142E+01  -1.4554365131E+00
    62  -7.1838809941E+00  -2.1394901195E+01  3.1638480435E+00
    63  -3.7718656265E+00  1.0850811111E+01  1.4554211960E+00
    64  7.1838760884E+00  2.1394887380E+01  -3.1638413286E+00
    65  -6.3916325595E-01  -1.0116968650E+01  -2.8906282609E+00
    66  1.0433487027E+00  -9.7080031330E+00  1.5701418588E+00
    67  6.3912902931E-01  1.0116913484E+01  2.8906147202E+00
    68  -1.0433509010E+00  9.7079988106E+00  -1.5701357335E+00
    69  4.6748172135E+00  5.0013901033E+00  -1.5243381483E+00
    70  -5.0961201311E+00  5.4222570695E+00  1.6363019058E+00
    71  -4.6747801611E+00  -5.0013599229E+00  1.5243206516E+00
    72  5.0961178326E+00  -5.4222538665E+00  -1.6363047036E+00
    73  -1.2394686976E+00  1.9283649343E+00  5.5507227699E+00
    74  1.0032360596E+00  1.3905457492E+00  -4.5776813405E+00
    75  1.2394664914E+00  -1.9283474829E+00  -5.5506898036E+00
    76  -1.0032324579E+00  -1.3905450022E+00  4.5776766293E+00
    77  -1.4622108874E+00  6.6849223309E-02  -1.1457598137E+00
    78  1.8024163627E+00  -7.6242099296E-03  1.3819808076E+00
    79  1.4622104368E+00  -6.6849583830E-02  1.1457599456E+00
    80  -1.8024162041E+00  7.6240685274E-03  -1.3819794157E+00
    81  1.4210310876E+00  1.1751174724E+01  -7.9183250993E+00
    82  -1.4146168458E+00  1.1738520612E+01  7.9098973637E+00
    83  -1.4210568355E+00  -1.1751058627E+01  7.9182270129E+00
    84  1.4146214403E+00  -1.1738509151E+01  -7.9099224028E+00
    85  -1.3834085907E+00  4.0184461630E-02  -8.3407062286E-01
    86  1.3889913898E+00  3.7000702710E-02  8.2744765025E-01
    87  1.3834157817E+00  -4.0184371144E-02  8.3407449454E-01
    88  -1.3889906712E+00  -3.7000995368E-02  -8.2744658694E-01
    89  -1.3535680153E+00  9.2306642135E-01  7.4679678813E+00
    90  1.3630427410E+00  9.1585369710E-01  -7.4795408298E+00
    91  1.3535552789E+00  -9.2304614856E-01  -7.4678936297E+00
    92  -1.3630450344E+00  -9.1585877682E-01  7.4795591736E+00
    93  3.5438220535E+00  -1.0603389917E+01  6.0690516930E-02
    94  -3.5421397845E+00  -1.0609000024E+01  -6.6704210977E-02
    95  -3.5437842498E+00  1.0603255994E+01  -6.0675682651E-02
    96  3.5421365658E+00  1.0608994730E+01  6.6709112859E-02
  Stress tensor (eV/A^3):
  -2.1730809450E-02  -6.6980179130E-03  4.3276706545E-02
  -6.6980179130E-03  -9.3453339746E-02  3.1022068336E-03
  4.3276706545E-02  3.1022068336E-03  -1.8878345464E-02
