  Invoking FHI-aims ...
  | Number of atoms                   :  96
  ...scf iterations...
  | Total energy corrected        :   -1.001666164140E+02 eV
  ...
  Total atomic forces (unitary forces cleaned)
     1  -3.1433032408E-01  6.2213277702E-01  1.9354814707E-01
     2  2.3520377202E-01  5.8787597601E-01  -1.8545155313E-01
     3  3.1433035233E-01  -6.2213266353E-01  -1.9354808879E-01
     4  -2.3520361637E-01  -5.8787578708E-01  1.8545160428E-01
     5  -7.5353241265E-01  6.6287003257E-01  -3.4068520329E-01
     6  1.1115118374E+00  -1.8304351225E+00  2.7094827996E+00
     7  7.5353284488E-01  -6.6286987887E-01  3.4068566887E-01
     8  -1.1115120653E+00  1.8304350000E+00  -2.7094824877E+00
     9  -4.7397022959E-01  3.4322483046E-01  -2.0551859256E-01
    10  -8.2128509619E-01  -1.2113871889E+00  1.9996379026E-01
    11  4.7396973920E-01  -3.4322467366E-01  2.0551816208E-01
    12  8.2128630414E-01  1.2113885568E+00  -1.9996396774E-01
    13  -5.7537694997E-01  -1.0906478070E+00  -1.1775227772E+00
    14  1.7986138438E+00  3.4296837821E-01  1.2432084733E+00
    15  5.7537627742E-01  1.0906480083E+00  1.1775224608E+00
    16  -1.7986156408E+00  -3.4296955276E-01  -1.2432074903E+00
    17  4.9406130140E-01  -6.6768388652E-01  -4.7608811807E-02
    18  -1.2364856177E+00  5.8680223090E-01  -1.3655861289E+00
    19  -4.9406046736E-01  6.6768395653E-01  4.7609399146E-02
    20  1.2364864476E+00  -5.8680299835E-01  1.3655863437E+00
    21  6.6234168139E-01  -1.2484213282E+00  -2.4610299556E-01
    22  -5.7756215748E-01  -1.2689958311E+00  3.7943500505E-01
    23  -6.6234228290E-01  1.2484216963E+00  2.4610248551E-01
    24  5.7756197905E-01  1.2689959182E+00  -3.7943518331E-01
    25  1.0265586458E+00  7.7442688318E-02  8.7427586227E-01
    26  -2.2202856646E-01  -1.3594306917E+00  6.7219464410E-01
    27  -1.0265612641E+00  -7.7443000147E-02  -8.7427792129E-01
    28  2.2202901848E-01  1.3594319133E+00  -6.7219545171E-01
    29  5.5761888000E-01  3.7840702092E-01  7.0181361890E-01
    30  -4.5943030062E-01  5.0795398550E-01  -7.3247124287E-01
    31  -5.5761870101E-01  -3.7840704500E-01  -7.0181365381E-01
    32  4.5942976130E-01  -5.0795426267E-01  7.3247088701E-01
    33  2.2555877990E-01  1.0662539442E+00  9.6670009806E-01
    34  -1.8257591645E-01  1.1700988241E+00  -9.1891864401E-01
    35  -2.2555865426E-01  -1.0662542949E+00  -9.6669986301E-01
    36  1.8257621702E-01  -1.1700992310E+00  9.1891845575E-01
    37  -8.0485195606E-01  5.2221365660E-01  -2.9063855718E-01
    38  8.3413404159E-01  6.2887435866E-01  2.0538048756E-01
    39  8.0485199171E-01  -5.2221386136E-01  2.9063858690E-01
    40  -8.3413402217E-01  -6.2887466999E-01  -2.0537999656E-01
    41  -9.0480357341E-01  1.1954227985E+00  7.2600415815E-02
    42  9.2833715370E-01  1.2306686099E+00  -7.6966723937E-02
    43  9.0480349952E-01  -1.1954226657E+00  -7.2600163457E-02
    44  -9.2833688470E-01  -1.2306683244E+00  7.6966923540E-02
    45  5.4592804145E-01  1.4282168562E-01  6.3375960274E-01
    46  -3.7240081697E+00  -1.5831499998E+00  -2.9227766892E+00
    47  -5.4589404017E-01  -1.4282029352E-01  -6.3373368860E-01
    48  3.7240082906E+00  1.5831495020E+00  2.9227738394E+00
    49  -1.0313711004E+00  2.9203137840E-01  6.3742950287E-01
    50  9.3176849051E-01  2.0311322600E+00  -3.5303295915E+00
    51  1.0313540069E+00  -2.9202491851E-01  -6.3742891707E-01
    52  -9.3176907888E-01  -2.0311346515E+00  3.5303302326E+00
    53  -7.2393557620E-01  -1.2339763056E+00  6.4670754262E-02
    54  1.1328755078E+00  -9.6370877211E-01  -4.5725112894E-01
    55  7.2394230896E-01  1.2339682907E+00  -6.4676908987E-02
    56  -1.1328742902E+00  9.6371186590E-01  4.5725166220E-01
    57  8.5960165074E-01  -1.6396344724E-01  7.0547393745E-01
    58  1.7619351067E+00  1.4415368302E-03  2.7780408384E+00
    59  -8.5960659929E-01  1.6396274659E-01  -7.0548196650E-01
    60  -1.7619367494E+00  -1.4414909843E-03  -2.7780395070E+00
    61  -4.5065746022E-02  1.4178819102E+00  -6.7624556159E-02
    62  -2.5614317280E+00  -1.8939317964E+00  1.6712245583E+00
    63  4.5079447106E-02  -1.4178803778E+00  6.7614589197E-02
    64  2.5614332161E+00  1.8939296981E+00  -1.6712244655E+00
    65  -2.5646790036E-03  -4.9437291776E-01  -7.8430338178E-02
    66  3.8796828253E+00  2.0349316434E+00  -1.2458205540E+00
    67  2.5563041245E-03  4.9436996924E-01  7.8424535221E-02
    68  -3.8796824897E+00  -2.0349333729E+00  1.2458237728E+00
    69  -9.3958730036E-01  -8.5462434460E-01  6.7642175666E-01
    70  9.7699686911E-01  -6.1897116701E-01  -8.9144399401E-01
    71  9.3959224230E-01  8.5463429679E-01  -6.7641916750E-01
    72  -9.7699646078E-01  6.1897132372E-01  8.9144369510E-01
    73  7.0292597723E-01  -7.9846964130E-02  -1.4569250112E+00
    74  -1.1859060011E+00  -9.8010638320E-01  2.9451399456E+00
    75  -7.0292649534E-01  7.9851104216E-02  1.4569332265E+00
    76  1.1859044311E+00  9.8010895068E-01  -2.9451424108E+00
    77  8.1235586384E-01  -2.7103890957E-01  4.7055543223E-01
    78  -1.2407270663E+00  -4.5154503547E-01  -8.2228722457E-01
    79  -8.1236304662E-01  2.7103978042E-01  -4.7056116207E-01
    80  1.2407278512E+00  4.5154531153E-01  8.2228688876E-01
    81  1.4762102421E-02  7.7621905274E-01  -4.2909190110E-01
    82  -2.6550940795E-01  1.4069559877E+00  8.0683549661E-01
    83  -1.4769315150E-02  -7.7621216358E-01  4.2907981174E-01
    84  2.6550982432E-01  -1.4069560604E+00  -8.0683773946E-01
    85  8.7477451739E-01  1.3757834216E-02  4.5024093059E-01
    86  -8.6998990058E-01  6.5342622039E-02  -2.6928894702E-01
    87  -8.7478545294E-01  -1.3759417283E-02  -4.5024527728E-01
    88  8.6998927004E-01  -6.5342684196E-02  2.6928888606E-01
    89  3.5241126911E-01  -4.9896480066E-01  -1.3580778816E+00
    90  -4.1856376810E-01  -4.1347375051E-01  1.5570099965E+00
    91  -3.5241197064E-01  4.9895530698E-01  1.3580869854E+00
    92  4.1856323303E-01  4.1347544193E-01  -1.5570083561E+00
    93  -5.1669190224E-01  8.8632288818E-01  4.6935844049E-01
    94  4.7869339218E-01  1.2134333640E+00  -3.6768185782E-01
    95  5.1669235005E-01  -8.8633186626E-01  -4.6935146748E-01
    96  -4.7869372430E-01  -1.2134342570E+00  3.6768257055E-01
  Stress tensor (eV/A^3):
  7.2589945042E-02  -9.9674102817E-03  2.4386945625E-02
  -9.9674102817E-03  7.2270330403E-02  9.1731202724E-03
  2.4386945625E-02  9.1731202724E-03  6.2437283599E-02
