64 
Energy: 2.8162027658507855e+00 
Mg	  0.000000000000 	  0.000000000000 	  0.000000000000 	
Mg	  1.000000000000 	  0.000000000000 	  2.980000000000 	
Mg	  0.000000000000 	  3.980000000000 	  0.000000000000 	
Mg	  1.000000000000 	  3.980000000000 	  2.980000000000 	
Mg	  3.980000000000 	  0.000000000000 	  0.000000000000 	
Mg	  4.980000000000 	  0.000000000000 	  2.980000000000 	
Mg	  3.980000000000 	  3.980000000000 	  0.000000000000 	
Mg	  4.980000000000 	  3.980000000000 	  2.980000000000 	
Mg	  1.707511245198 	  1.801674163465 	  0.000000000000 	
Mg	  2.707511245198 	  1.801674163465 	  2.980000000000 	
Mg	  1.707511245198 	  5.781674163465 	  0.000000000000 	
Mg	  2.707511245198 	  5.781674163465 	  2.980000000000 	
Mg	  5.687511245198 	  1.801674163465 	  0.000000000000 	
Mg	  6.687511245198 	  1.801674163465 	  2.980000000000 	
Mg	  5.687511245198 	  5.781674163465 	  0.000000000000 	
Mg	  6.687511245198 	  5.781674163465 	  2.980000000000 	
Mg	  2.460814591337 	  0.000000000000 	  1.519185408663 	
Mg	  3.460814591337 	  0.000000000000 	  4.499185408663 	
Mg	  2.460814591337 	  3.980000000000 	  1.519185408663 	
Mg	  3.460814591337 	  3.980000000000 	  4.499185408663 	
Mg	  6.440814591337 	  0.000000000000 	  1.519185408663 	
Mg	  7.440814591337 	  0.000000000000 	  4.499185408663 	
Mg	  6.440814591337 	  3.980000000000 	  1.519185408663 	
Mg	  7.440814591337 	  3.980000000000 	  4.499185408663 	
Mg	  0.470814591337 	  1.990000000000 	  1.519185408663 	
Mg	  1.470814591337 	  1.990000000000 	  4.499185408663 	
Mg	  0.470814591337 	  5.970000000000 	  1.519185408663 	
Mg	  1.470814591337 	  5.970000000000 	  4.499185408663 	
Mg	  4.450814591337 	  1.990000000000 	  1.519185408663 	
Mg	  5.450814591337 	  1.990000000000 	  4.499185408663 	
Mg	  4.450814591337 	  5.970000000000 	  1.519185408663 	
Mg	  5.450814591337 	  5.970000000000 	  4.499185408663 	
O	  1.990000000000 	  0.000000000000 	  0.000000000000 	
O	  2.990000000000 	  0.000000000000 	  2.980000000000 	
O	  1.990000000000 	  3.980000000000 	  0.000000000000 	
O	  2.990000000000 	  3.980000000000 	  2.980000000000 	
O	  5.970000000000 	  0.000000000000 	  0.000000000000 	
O	  6.970000000000 	  0.000000000000 	  2.980000000000 	
O	  5.970000000000 	  3.980000000000 	  0.000000000000 	
O	  6.970000000000 	  3.980000000000 	  2.980000000000 	
O	  0.000000000000 	  1.990000000000 	  0.000000000000 	
O	  1.000000000000 	  1.990000000000 	  2.980000000000 	
O	  0.000000000000 	  5.970000000000 	  0.000000000000 	
O	  1.000000000000 	  5.970000000000 	  2.980000000000 	
O	  3.980000000000 	  1.990000000000 	  0.000000000000 	
O	  4.980000000000 	  1.990000000000 	  2.980000000000 	
O	  3.980000000000 	  5.970000000000 	  0.000000000000 	
O	  4.980000000000 	  5.970000000000 	  2.980000000000 	
O	  0.470814591337 	  0.000000000000 	  1.519185408663 	
O	  1.470814591337 	  0.000000000000 	  4.499185408663 	
O	  0.470814591337 	  3.980000000000 	  1.519185408663 	
O	  1.470814591337 	  3.980000000000 	  4.499185408663 	
O	  4.450814591337 	  0.000000000000 	  1.519185408663 	
O	  5.450814591337 	  0.000000000000 	  4.499185408663 	
O	  4.450814591337 	  3.980000000000 	  1.519185408663 	
O	  5.450814591337 	  3.980000000000 	  4.499185408663 	
O	  2.837466264407 	  1.371349626983 	  1.519185408663 	
O	  3.837466264407 	  1.371349626983 	  4.499185408663 	
O	  2.837466264407 	  5.351349626983 	  1.519185408663 	
O	  3.837466264407 	  5.351349626983 	  4.499185408663 	
O	  6.817466264407 	  1.371349626983 	  1.519185408663 	
O	  7.817466264407 	  1.371349626983 	  4.499185408663 	
O	  6.817466264407 	  5.351349626983 	  1.519185408663 	
O	  7.817466264407 	  5.351349626983 	  4.499185408663 	
64 
Energy: 2.8095525864241764e+00 
Mg	  0.000000000000 	  0.000000000000 	  0.000000000000 	
Mg	  1.000000000000 	  0.000000000000 	  2.980000000000 	
Mg	  0.000000000000 	  3.980000000000 	  0.000000000000 	
Mg	  1.000000000000 	  3.980000000000 	  2.980000000000 	
Mg	  3.980000000000 	  0.000000000000 	  0.000000000000 	
Mg	  4.980000000000 	  0.000000000000 	  2.980000000000 	
Mg	  3.980000000000 	  3.980000000000 	  0.000000000000 	
Mg	  4.980000000000 	  3.980000000000 	  2.980000000000 	
Mg	  1.733410016322 	  1.821770780872 	  0.000000000000 	
Mg	  2.733410016322 	  1.821770780872 	  2.980000000000 	
Mg	  1.733410016322 	  5.801770780872 	  0.000000000000 	
Mg	  2.733410016322 	  5.801770780872 	  2.980000000000 	
Mg	  5.713410016322 	  1.821770780872 	  0.000000000000 	
Mg	  6.713410016322 	  1.821770780872 	  2.980000000000 	
Mg	  5.713410016322 	  5.801770780872 	  0.000000000000 	
Mg	  6.713410016322 	  5.801770780872 	  2.980000000000 	
Mg	  2.440296132721 	  0.000000000000 	  1.556688487222 	
Mg	  3.440296132721 	  0.000000000000 	  4.536688487222 	
Mg	  2.440296132721 	  3.980000000000 	  1.556688487222 	
Mg	  3.440296132721 	  3.980000000000 	  4.536688487222 	
Mg	  6.420296132721 	  0.000000000000 	  1.556688487222 	
Mg	  7.420296132721 	  0.000000000000 	  4.536688487222 	
Mg	  6.420296132721 	  3.980000000000 	  1.556688487222 	
Mg	  7.420296132721 	  3.980000000000 	  4.536688487222 	
Mg	  0.441803822749 	  1.998492309972 	  1.556688487222 	
Mg	  1.441803822749 	  1.998492309972 	  4.536688487222 	
Mg	  0.441803822749 	  5.978492309972 	  1.556688487222 	
Mg	  1.441803822749 	  5.978492309972 	  4.536688487222 	
Mg	  4.421803822749 	  1.998492309972 	  1.556688487222 	
Mg	  5.421803822749 	  1.998492309972 	  4.536688487222 	
Mg	  4.421803822749 	  5.978492309972 	  1.556688487222 	
Mg	  5.421803822749 	  5.978492309972 	  4.536688487222 	
O	  1.998492309972 	  0.000000000000 	  0.000000000000 	
O	  2.998492309972 	  0.000000000000 	  2.980000000000 	
O	  1.998492309972 	  3.980000000000 	  0.000000000000 	
O	  2.998492309972 	  3.980000000000 	  2.980000000000 	
O	  5.978492309972 	  0.000000000000 	  0.000000000000 	
O	  6.978492309972 	  0.000000000000 	  2.980000000000 	
O	  5.978492309972 	  3.980000000000 	  0.000000000000 	
O	  6.978492309972 	  3.980000000000 	  2.980000000000 	
O	  0.000000000000 	  1.998492309972 	  0.000000000000 	
O	  1.000000000000 	  1.998492309972 	  2.980000000000 	
O	  0.000000000000 	  5.978492309972 	  0.000000000000 	
O	  1.000000000000 	  5.978492309972 	  2.980000000000 	
O	  3.980000000000 	  1.998492309972 	  0.000000000000 	
O	  4.980000000000 	  1.998492309972 	  2.980000000000 	
O	  3.980000000000 	  5.978492309972 	  0.000000000000 	
O	  4.980000000000 	  5.978492309972 	  2.980000000000 	
O	  0.441803822749 	  0.000000000000 	  1.556688487222 	
O	  1.441803822749 	  0.000000000000 	  4.536688487222 	
O	  0.441803822749 	  3.980000000000 	  1.556688487222 	
O	  1.441803822749 	  3.980000000000 	  4.536688487222 	
O	  4.421803822749 	  0.000000000000 	  1.556688487222 	
O	  5.421803822749 	  0.000000000000 	  4.536688487222 	
O	  4.421803822749 	  3.980000000000 	  1.556688487222 	
O	  5.421803822749 	  3.980000000000 	  4.536688487222 	
O	  2.793739190921 	  1.417962086879 	  1.556688487222 	
O	  3.793739190921 	  1.417962086879 	  4.536688487222 	
O	  2.793739190921 	  5.397962086879 	  1.556688487222 	
O	  3.793739190921 	  5.397962086879 	  4.536688487222 	
O	  6.773739190921 	  1.417962086879 	  1.556688487222 	
O	  7.773739190921 	  1.417962086879 	  4.536688487222 	
O	  6.773739190921 	  5.397962086879 	  1.556688487222 	
O	  7.773739190921 	  5.397962086879 	  4.536688487222 	
64 
Energy: 3.2237357922134571e+00 
Mg	  0.000000000000 	  0.000000000000 	  0.000000000000 	
Mg	  1.000000000000 	  0.000000000000 	  2.980000000000 	
Mg	  0.000000000000 	  3.980000000000 	  0.000000000000 	
Mg	  1.000000000000 	  3.980000000000 	  2.980000000000 	
Mg	  3.980000000000 	  0.000000000000 	  0.000000000000 	
Mg	  4.980000000000 	  0.000000000000 	  2.980000000000 	
Mg	  3.980000000000 	  3.980000000000 	  0.000000000000 	
Mg	  4.980000000000 	  3.980000000000 	  2.980000000000 	
Mg	  1.759465235273 	  1.841943121794 	  0.000000000000 	
Mg	  2.759465235273 	  1.841943121794 	  2.980000000000 	
Mg	  1.759465235273 	  5.821943121794 	  0.000000000000 	
Mg	  2.759465235273 	  5.821943121794 	  2.980000000000 	
Mg	  5.739465235273 	  1.841943121794 	  0.000000000000 	
Mg	  6.739465235273 	  1.841943121794 	  2.980000000000 	
Mg	  5.739465235273 	  5.821943121794 	  0.000000000000 	
Mg	  6.739465235273 	  5.821943121794 	  2.980000000000 	
Mg	  2.419288327438 	  0.000000000000 	  1.594509462231 	
Mg	  3.419288327438 	  0.000000000000 	  4.574509462231 	
Mg	  2.419288327438 	  3.980000000000 	  1.594509462231 	
Mg	  3.419288327438 	  3.980000000000 	  4.574509462231 	
Mg	  6.399288327438 	  0.000000000000 	  1.594509462231 	
Mg	  7.399288327438 	  0.000000000000 	  4.574509462231 	
Mg	  6.399288327438 	  3.980000000000 	  1.594509462231 	
Mg	  7.399288327438 	  3.980000000000 	  4.574509462231 	
Mg	  0.412389432603 	  2.006898894835 	  1.594509462231 	
Mg	  1.412389432603 	  2.006898894835 	  4.574509462231 	
Mg	  0.412389432603 	  5.986898894835 	  1.594509462231 	
Mg	  1.412389432603 	  5.986898894835 	  4.574509462231 	
Mg	  4.392389432603 	  2.006898894835 	  1.594509462231 	
Mg	  5.392389432603 	  2.006898894835 	  4.574509462231 	
Mg	  4.392389432603 	  5.986898894835 	  1.594509462231 	
Mg	  5.392389432603 	  5.986898894835 	  4.574509462231 	
O	  2.006898894835 	  0.000000000000 	  0.000000000000 	
O	  3.006898894835 	  0.000000000000 	  2.980000000000 	
O	  2.006898894835 	  3.980000000000 	  0.000000000000 	
O	  3.006898894835 	  3.980000000000 	  2.980000000000 	
O	  5.986898894835 	  0.000000000000 	  0.000000000000 	
O	  6.986898894835 	  0.000000000000 	  2.980000000000 	
O	  5.986898894835 	  3.980000000000 	  0.000000000000 	
O	  6.986898894835 	  3.980000000000 	  2.980000000000 	
O	  0.000000000000 	  2.006898894835 	  0.000000000000 	
O	  1.000000000000 	  2.006898894835 	  2.980000000000 	
O	  0.000000000000 	  5.986898894835 	  0.000000000000 	
O	  1.000000000000 	  5.986898894835 	  2.980000000000 	
O	  3.980000000000 	  2.006898894835 	  0.000000000000 	
O	  4.980000000000 	  2.006898894835 	  2.980000000000 	
O	  3.980000000000 	  5.986898894835 	  0.000000000000 	
O	  4.980000000000 	  5.986898894835 	  2.980000000000 	
O	  0.412389432603 	  0.000000000000 	  1.594509462231 	
O	  1.412389432603 	  0.000000000000 	  4.574509462231 	
O	  0.412389432603 	  3.980000000000 	  1.594509462231 	
O	  1.412389432603 	  3.980000000000 	  4.574509462231 	
O	  4.392389432603 	  0.000000000000 	  1.594509462231 	
O	  5.392389432603 	  0.000000000000 	  4.574509462231 	
O	  4.392389432603 	  3.980000000000 	  1.594509462231 	
O	  5.392389432603 	  3.980000000000 	  4.574509462231 	
O	  2.749199873521 	  1.465019180394 	  1.594509462231 	
O	  3.749199873521 	  1.465019180394 	  4.574509462231 	
O	  2.749199873521 	  5.445019180394 	  1.594509462231 	
O	  3.749199873521 	  5.445019180394 	  4.574509462231 	
O	  6.729199873521 	  1.465019180394 	  1.594509462231 	
O	  7.729199873521 	  1.465019180394 	  4.574509462231 	
O	  6.729199873521 	  5.445019180394 	  1.594509462231 	
O	  7.729199873521 	  5.445019180394 	  4.574509462231 	
64 
Energy: 3.8469881986535537e+00 
Mg	  0.000000000000 	  0.000000000000 	  0.000000000000 	
Mg	  1.000000000000 	  0.000000000000 	  2.980000000000 	
Mg	  0.000000000000 	  3.980000000000 	  0.000000000000 	
Mg	  1.000000000000 	  3.980000000000 	  2.980000000000 	
Mg	  3.980000000000 	  0.000000000000 	  0.000000000000 	
Mg	  4.980000000000 	  0.000000000000 	  2.980000000000 	
Mg	  3.980000000000 	  3.980000000000 	  0.000000000000 	
Mg	  4.980000000000 	  3.980000000000 	  2.980000000000 	
Mg	  1.785547814464 	  1.862139688987 	  0.000000000000 	
Mg	  2.785547814464 	  1.862139688987 	  2.980000000000 	
Mg	  1.785547814464 	  5.842139688987 	  0.000000000000 	
Mg	  2.785547814464 	  5.842139688987 	  2.980000000000 	
Mg	  5.765547814464 	  1.862139688987 	  0.000000000000 	
Mg	  6.765547814464 	  1.862139688987 	  2.980000000000 	
Mg	  5.765547814464 	  5.842139688987 	  0.000000000000 	
Mg	  6.765547814464 	  5.842139688987 	  2.980000000000 	
Mg	  2.398282810651 	  0.000000000000 	  1.632364065417 	
Mg	  3.398282810651 	  0.000000000000 	  4.612364065417 	
Mg	  2.398282810651 	  3.980000000000 	  1.632364065417 	
Mg	  3.398282810651 	  3.980000000000 	  4.612364065417 	
Mg	  6.378282810651 	  0.000000000000 	  1.632364065417 	
Mg	  7.378282810651 	  0.000000000000 	  4.612364065417 	
Mg	  6.378282810651 	  3.980000000000 	  1.632364065417 	
Mg	  7.378282810651 	  3.980000000000 	  4.612364065417 	
Mg	  0.382959372617 	  2.015323438034 	  1.632364065417 	
Mg	  1.382959372617 	  2.015323438034 	  4.612364065417 	
Mg	  0.382959372617 	  5.995323438034 	  1.632364065417 	
Mg	  1.382959372617 	  5.995323438034 	  4.612364065417 	
Mg	  4.362959372617 	  2.015323438034 	  1.632364065417 	
Mg	  5.362959372617 	  2.015323438034 	  4.612364065417 	
Mg	  4.362959372617 	  5.995323438034 	  1.632364065417 	
Mg	  5.362959372617 	  5.995323438034 	  4.612364065417 	
O	  2.015323438034 	  0.000000000000 	  0.000000000000 	
O	  3.015323438034 	  0.000000000000 	  2.980000000000 	
O	  2.015323438034 	  3.980000000000 	  0.000000000000 	
O	  3.015323438034 	  3.980000000000 	  2.980000000000 	
O	  5.995323438034 	  0.000000000000 	  0.000000000000 	
O	  6.995323438034 	  0.000000000000 	  2.980000000000 	
O	  5.995323438034 	  3.980000000000 	  0.000000000000 	
O	  6.995323438034 	  3.980000000000 	  2.980000000000 	
O	  0.000000000000 	  2.015323438034 	  0.000000000000 	
O	  1.000000000000 	  2.015323438034 	  2.980000000000 	
O	  0.000000000000 	  5.995323438034 	  0.000000000000 	
O	  1.000000000000 	  5.995323438034 	  2.980000000000 	
O	  3.980000000000 	  2.015323438034 	  0.000000000000 	
O	  4.980000000000 	  2.015323438034 	  2.980000000000 	
O	  3.980000000000 	  5.995323438034 	  0.000000000000 	
O	  4.980000000000 	  5.995323438034 	  2.980000000000 	
O	  0.382959372617 	  0.000000000000 	  1.632364065417 	
O	  1.382959372617 	  0.000000000000 	  4.612364065417 	
O	  0.382959372617 	  3.980000000000 	  1.632364065417 	
O	  1.382959372617 	  3.980000000000 	  4.612364065417 	
O	  4.362959372617 	  0.000000000000 	  1.632364065417 	
O	  5.362959372617 	  0.000000000000 	  4.612364065417 	
O	  4.362959372617 	  3.980000000000 	  1.632364065417 	
O	  5.362959372617 	  3.980000000000 	  4.612364065417 	
O	  2.704650308745 	  1.512114822416 	  1.632364065417 	
O	  3.704650308745 	  1.512114822416 	  4.612364065417 	
O	  2.704650308745 	  5.492114822416 	  1.632364065417 	
O	  3.704650308745 	  5.492114822416 	  4.612364065417 	
O	  6.684650308745 	  1.512114822416 	  1.632364065417 	
O	  7.684650308745 	  1.512114822416 	  4.612364065417 	
O	  6.684650308745 	  5.492114822416 	  1.632364065417 	
O	  7.684650308745 	  5.492114822416 	  4.612364065417 	
64 
Energy: 4.5143001966123171e+00 
Mg	  0.000000000000 	  0.000000000000 	  0.000000000000 	
Mg	  1.000000000000 	  0.000000000000 	  2.980000000000 	
Mg	  0.000000000000 	  3.980000000000 	  0.000000000000 	
Mg	  1.000000000000 	  3.980000000000 	  2.980000000000 	
Mg	  3.980000000000 	  0.000000000000 	  0.000000000000 	
Mg	  4.980000000000 	  0.000000000000 	  2.980000000000 	
Mg	  3.980000000000 	  3.980000000000 	  0.000000000000 	
Mg	  4.980000000000 	  3.980000000000 	  2.980000000000 	
Mg	  1.811657852439 	  1.882357617459 	  0.000000000000 	
Mg	  2.811657852439 	  1.882357617459 	  2.980000000000 	
Mg	  1.811657852439 	  5.862357617459 	  0.000000000000 	
Mg	  2.811657852439 	  5.862357617459 	  2.980000000000 	
Mg	  5.791657852439 	  1.882357617459 	  0.000000000000 	
Mg	  6.791657852439 	  1.882357617459 	  2.980000000000 	
Mg	  5.791657852439 	  5.862357617459 	  0.000000000000 	
Mg	  6.791657852439 	  5.862357617459 	  2.980000000000 	
Mg	  2.377255972596 	  0.000000000000 	  1.670258322400 	
Mg	  3.377255972596 	  0.000000000000 	  4.650258322400 	
Mg	  2.377255972596 	  3.980000000000 	  1.670258322400 	
Mg	  3.377255972596 	  3.980000000000 	  4.650258322400 	
Mg	  6.357255972596 	  0.000000000000 	  1.670258322400 	
Mg	  7.357255972596 	  0.000000000000 	  4.650258322400 	
Mg	  6.357255972596 	  3.980000000000 	  1.670258322400 	
Mg	  7.357255972596 	  3.980000000000 	  4.650258322400 	
Mg	  0.353498825098 	  2.023757147498 	  1.670258322400 	
Mg	  1.353498825098 	  2.023757147498 	  4.650258322400 	
Mg	  0.353498825098 	  6.003757147498 	  1.670258322400 	
Mg	  1.353498825098 	  6.003757147498 	  4.650258322400 	
Mg	  4.333498825098 	  2.023757147498 	  1.670258322400 	
Mg	  5.333498825098 	  2.023757147498 	  4.650258322400 	
Mg	  4.333498825098 	  6.003757147498 	  1.670258322400 	
Mg	  5.333498825098 	  6.003757147498 	  4.650258322400 	
O	  2.023757147498 	  0.000000000000 	  0.000000000000 	
O	  3.023757147498 	  0.000000000000 	  2.980000000000 	
O	  2.023757147498 	  3.980000000000 	  0.000000000000 	
O	  3.023757147498 	  3.980000000000 	  2.980000000000 	
O	  6.003757147498 	  0.000000000000 	  0.000000000000 	
O	  7.003757147498 	  0.000000000000 	  2.980000000000 	
O	  6.003757147498 	  3.980000000000 	  0.000000000000 	
O	  7.003757147498 	  3.980000000000 	  2.980000000000 	
O	  0.000000000000 	  2.023757147498 	  0.000000000000 	
O	  1.000000000000 	  2.023757147498 	  2.980000000000 	
O	  0.000000000000 	  6.003757147498 	  0.000000000000 	
O	  1.000000000000 	  6.003757147498 	  2.980000000000 	
O	  3.980000000000 	  2.023757147498 	  0.000000000000 	
O	  4.980000000000 	  2.023757147498 	  2.980000000000 	
O	  3.980000000000 	  6.003757147498 	  0.000000000000 	
O	  4.980000000000 	  6.003757147498 	  2.980000000000 	
O	  0.353498825098 	  0.000000000000 	  1.670258322400 	
O	  1.353498825098 	  0.000000000000 	  4.650258322400 	
O	  0.353498825098 	  3.980000000000 	  1.670258322400 	
O	  1.353498825098 	  3.980000000000 	  4.650258322400 	
O	  4.333498825098 	  0.000000000000 	  1.670258322400 	
O	  5.333498825098 	  0.000000000000 	  4.650258322400 	
O	  4.333498825098 	  3.980000000000 	  1.670258322400 	
O	  5.333498825098 	  3.980000000000 	  4.650258322400 	
O	  2.660055032674 	  1.559259691319 	  1.670258322400 	
O	  3.660055032674 	  1.559259691319 	  4.650258322400 	
O	  2.660055032674 	  5.539259691319 	  1.670258322400 	
O	  3.660055032674 	  5.539259691319 	  4.650258322400 	
O	  6.640055032674 	  1.559259691319 	  1.670258322400 	
O	  7.640055032674 	  1.559259691319 	  4.650258322400 	
O	  6.640055032674 	  5.539259691319 	  1.670258322400 	
O	  7.640055032674 	  5.539259691319 	  4.650258322400 	
64 
Energy: 5.1063299555691355e+00 
Mg	  0.000000000000 	  0.000000000000 	  0.000000000000 	
Mg	  1.000000000000 	  0.000000000000 	  2.980000000000 	
Mg	  0.000000000000 	  3.980000000000 	  0.000000000000 	
Mg	  1.000000000000 	  3.980000000000 	  2.980000000000 	
Mg	  3.980000000000 	  0.000000000000 	  0.000000000000 	
Mg	  4.980000000000 	  0.000000000000 	  2.980000000000 	
Mg	  3.980000000000 	  3.980000000000 	  0.000000000000 	
Mg	  4.980000000000 	  3.980000000000 	  2.980000000000 	
Mg	  1.837785464866 	  1.902589988082 	  0.000000000000 	
Mg	  2.837785464866 	  1.902589988082 	  2.980000000000 	
Mg	  1.837785464866 	  5.882589988082 	  0.000000000000 	
Mg	  2.837785464866 	  5.882589988082 	  2.980000000000 	
Mg	  5.817785464866 	  1.902589988082 	  0.000000000000 	
Mg	  6.817785464866 	  1.902589988082 	  2.980000000000 	
Mg	  5.817785464866 	  5.882589988082 	  0.000000000000 	
Mg	  6.817785464866 	  5.882589988082 	  2.980000000000 	
Mg	  2.356221650596 	  0.000000000000 	  1.708176418434 	
Mg	  3.356221650596 	  0.000000000000 	  4.688176418434 	
Mg	  2.356221650596 	  3.980000000000 	  1.708176418434 	
Mg	  3.356221650596 	  3.980000000000 	  4.688176418434 	
Mg	  6.336221650596 	  0.000000000000 	  1.708176418434 	
Mg	  7.336221650596 	  0.000000000000 	  4.688176418434 	
Mg	  6.336221650596 	  3.980000000000 	  1.708176418434 	
Mg	  7.336221650596 	  3.980000000000 	  4.688176418434 	
Mg	  0.324022616081 	  2.032199034515 	  1.708176418434 	
Mg	  1.324022616081 	  2.032199034515 	  4.688176418434 	
Mg	  0.324022616081 	  6.012199034515 	  1.708176418434 	
Mg	  1.324022616081 	  6.012199034515 	  4.688176418434 	
Mg	  4.304022616081 	  2.032199034515 	  1.708176418434 	
Mg	  5.304022616081 	  2.032199034515 	  4.688176418434 	
Mg	  4.304022616081 	  6.012199034515 	  1.708176418434 	
Mg	  5.304022616081 	  6.012199034515 	  4.688176418434 	
O	  2.032199034515 	  0.000000000000 	  0.000000000000 	
O	  3.032199034515 	  0.000000000000 	  2.980000000000 	
O	  2.032199034515 	  3.980000000000 	  0.000000000000 	
O	  3.032199034515 	  3.980000000000 	  2.980000000000 	
O	  6.012199034515 	  0.000000000000 	  0.000000000000 	
O	  7.012199034515 	  0.000000000000 	  2.980000000000 	
O	  6.012199034515 	  3.980000000000 	  0.000000000000 	
O	  7.012199034515 	  3.980000000000 	  2.980000000000 	
O	  0.000000000000 	  2.032199034515 	  0.000000000000 	
O	  1.000000000000 	  2.032199034515 	  2.980000000000 	
O	  0.000000000000 	  6.012199034515 	  0.000000000000 	
O	  1.000000000000 	  6.012199034515 	  2.980000000000 	
O	  3.980000000000 	  2.032199034515 	  0.000000000000 	
O	  4.980000000000 	  2.032199034515 	  2.980000000000 	
O	  3.980000000000 	  6.012199034515 	  0.000000000000 	
O	  4.980000000000 	  6.012199034515 	  2.980000000000 	
O	  0.324022616081 	  0.000000000000 	  1.708176418434 	
O	  1.324022616081 	  0.000000000000 	  4.688176418434 	
O	  0.324022616081 	  3.980000000000 	  1.708176418434 	
O	  1.324022616081 	  3.980000000000 	  4.688176418434 	
O	  4.304022616081 	  0.000000000000 	  1.708176418434 	
O	  5.304022616081 	  0.000000000000 	  4.688176418434 	
O	  4.304022616081 	  3.980000000000 	  1.708176418434 	
O	  5.304022616081 	  3.980000000000 	  4.688176418434 	
O	  2.615439743461 	  1.606433316984 	  1.708176418434 	
O	  3.615439743461 	  1.606433316984 	  4.688176418434 	
O	  2.615439743461 	  5.586433316984 	  1.708176418434 	
O	  3.615439743461 	  5.586433316984 	  4.688176418434 	
O	  6.595439743461 	  1.606433316984 	  1.708176418434 	
O	  7.595439743461 	  1.606433316984 	  4.688176418434 	
O	  6.595439743461 	  5.586433316984 	  1.708176418434 	
O	  7.595439743461 	  5.586433316984 	  4.688176418434 	
64 
Energy: 5.5369439744201134e+00 
Mg	  0.000000000000 	  0.000000000000 	  0.000000000000 	
Mg	  1.000000000000 	  0.000000000000 	  2.980000000000 	
Mg	  0.000000000000 	  3.980000000000 	  0.000000000000 	
Mg	  1.000000000000 	  3.980000000000 	  2.980000000000 	
Mg	  3.980000000000 	  0.000000000000 	  0.000000000000 	
Mg	  4.980000000000 	  0.000000000000 	  2.980000000000 	
Mg	  3.980000000000 	  3.980000000000 	  0.000000000000 	
Mg	  4.980000000000 	  3.980000000000 	  2.980000000000 	
Mg	  1.863925592887 	  1.922832374723 	  0.000000000000 	
Mg	  2.863925592887 	  1.922832374723 	  2.980000000000 	
Mg	  1.863925592887 	  5.902832374723 	  0.000000000000 	
Mg	  2.863925592887 	  5.902832374723 	  2.980000000000 	
Mg	  5.843925592887 	  1.922832374723 	  0.000000000000 	
Mg	  6.843925592887 	  1.922832374723 	  2.980000000000 	
Mg	  5.843925592887 	  5.902832374723 	  0.000000000000 	
Mg	  6.843925592887 	  5.902832374723 	  2.980000000000 	
Mg	  2.335179847577 	  0.000000000000 	  1.746112029214 	
Mg	  3.335179847577 	  0.000000000000 	  4.726112029214 	
Mg	  2.335179847577 	  3.980000000000 	  1.746112029214 	
Mg	  3.335179847577 	  3.980000000000 	  4.726112029214 	
Mg	  6.315179847577 	  0.000000000000 	  1.746112029214 	
Mg	  7.315179847577 	  0.000000000000 	  4.726112029214 	
Mg	  6.315179847577 	  3.980000000000 	  1.746112029214 	
Mg	  7.315179847577 	  3.980000000000 	  4.726112029214 	
Mg	  0.294533909181 	  2.040645938396 	  1.746112029214 	
Mg	  1.294533909181 	  2.040645938396 	  4.726112029214 	
Mg	  0.294533909181 	  6.020645938396 	  1.746112029214 	
Mg	  1.294533909181 	  6.020645938396 	  4.726112029214 	
Mg	  4.274533909181 	  2.040645938396 	  1.746112029214 	
Mg	  5.274533909181 	  2.040645938396 	  4.726112029214 	
Mg	  4.274533909181 	  6.020645938396 	  1.746112029214 	
Mg	  5.274533909181 	  6.020645938396 	  4.726112029214 	
O	  2.040645938396 	  0.000000000000 	  0.000000000000 	
O	  3.040645938396 	  0.000000000000 	  2.980000000000 	
O	  2.040645938396 	  3.980000000000 	  0.000000000000 	
O	  3.040645938396 	  3.980000000000 	  2.980000000000 	
O	  6.020645938396 	  0.000000000000 	  0.000000000000 	
O	  7.020645938396 	  0.000000000000 	  2.980000000000 	
O	  6.020645938396 	  3.980000000000 	  0.000000000000 	
O	  7.020645938396 	  3.980000000000 	  2.980000000000 	
O	  0.000000000000 	  2.040645938396 	  0.000000000000 	
O	  1.000000000000 	  2.040645938396 	  2.980000000000 	
O	  0.000000000000 	  6.020645938396 	  0.000000000000 	
O	  1.000000000000 	  6.020645938396 	  2.980000000000 	
O	  3.980000000000 	  2.040645938396 	  0.000000000000 	
O	  4.980000000000 	  2.040645938396 	  2.980000000000 	
O	  3.980000000000 	  6.020645938396 	  0.000000000000 	
O	  4.980000000000 	  6.020645938396 	  2.980000000000 	
O	  0.294533909181 	  0.000000000000 	  1.746112029214 	
O	  1.294533909181 	  0.000000000000 	  4.726112029214 	
O	  0.294533909181 	  3.980000000000 	  1.746112029214 	
O	  1.294533909181 	  3.980000000000 	  4.726112029214 	
O	  4.274533909181 	  0.000000000000 	  1.746112029214 	
O	  5.274533909181 	  0.000000000000 	  4.726112029214 	
O	  4.274533909181 	  3.980000000000 	  1.746112029214 	
O	  5.274533909181 	  3.980000000000 	  4.726112029214 	
O	  2.570806974922 	  1.653628381731 	  1.746112029214 	
O	  3.570806974922 	  1.653628381731 	  4.726112029214 	
O	  2.570806974922 	  5.633628381731 	  1.746112029214 	
O	  3.570806974922 	  5.633628381731 	  4.726112029214 	
O	  6.550806974922 	  1.653628381731 	  1.746112029214 	
O	  7.550806974922 	  1.653628381731 	  4.726112029214 	
O	  6.550806974922 	  5.633628381731 	  1.746112029214 	
O	  7.550806974922 	  5.633628381731 	  4.726112029214 	
64 
Energy: 5.7480450390234115e+00 
Mg	  0.000000000000 	  0.000000000000 	  0.000000000000 	
Mg	  1.000000000000 	  0.000000000000 	  2.980000000000 	
Mg	  0.000000000000 	  3.980000000000 	  0.000000000000 	
Mg	  1.000000000000 	  3.980000000000 	  2.980000000000 	
Mg	  3.980000000000 	  0.000000000000 	  0.000000000000 	
Mg	  4.980000000000 	  0.000000000000 	  2.980000000000 	
Mg	  3.980000000000 	  3.980000000000 	  0.000000000000 	
Mg	  4.980000000000 	  3.980000000000 	  2.980000000000 	
Mg	  1.890072213247 	  1.943080063293 	  0.000000000000 	
Mg	  2.890072213247 	  1.943080063293 	  2.980000000000 	
Mg	  1.890072213247 	  5.923080063293 	  0.000000000000 	
Mg	  2.890072213247 	  5.923080063293 	  2.980000000000 	
Mg	  5.870072213247 	  1.943080063293 	  0.000000000000 	
Mg	  6.870072213247 	  1.943080063293 	  2.980000000000 	
Mg	  5.870072213247 	  5.923080063293 	  0.000000000000 	
Mg	  6.870072213247 	  5.923080063293 	  2.980000000000 	
Mg	  2.314135013612 	  0.000000000000 	  1.784056513156 	
Mg	  3.314135013612 	  0.000000000000 	  4.764056513156 	
Mg	  2.314135013612 	  3.980000000000 	  1.784056513156 	
Mg	  3.314135013612 	  3.980000000000 	  4.764056513156 	
Mg	  6.294135013612 	  0.000000000000 	  1.784056513156 	
Mg	  7.294135013612 	  0.000000000000 	  4.764056513156 	
Mg	  6.294135013612 	  3.980000000000 	  1.784056513156 	
Mg	  7.294135013612 	  3.980000000000 	  4.764056513156 	
Mg	  0.265039250228 	  2.049095763384 	  1.784056513156 	
Mg	  1.265039250228 	  2.049095763384 	  4.764056513156 	
Mg	  0.265039250228 	  6.029095763384 	  1.784056513156 	
Mg	  1.265039250228 	  6.029095763384 	  4.764056513156 	
Mg	  4.245039250228 	  2.049095763384 	  1.784056513156 	
Mg	  5.245039250228 	  2.049095763384 	  4.764056513156 	
Mg	  4.245039250228 	  6.029095763384 	  1.784056513156 	
Mg	  5.245039250228 	  6.029095763384 	  4.764056513156 	
O	  2.049095763384 	  0.000000000000 	  0.000000000000 	
O	  3.049095763384 	  0.000000000000 	  2.980000000000 	
O	  2.049095763384 	  3.980000000000 	  0.000000000000 	
O	  3.049095763384 	  3.980000000000 	  2.980000000000 	
O	  6.029095763384 	  0.000000000000 	  0.000000000000 	
O	  7.029095763384 	  0.000000000000 	  2.980000000000 	
O	  6.029095763384 	  3.980000000000 	  0.000000000000 	
O	  7.029095763384 	  3.980000000000 	  2.980000000000 	
O	  0.000000000000 	  2.049095763384 	  0.000000000000 	
O	  1.000000000000 	  2.049095763384 	  2.980000000000 	
O	  0.000000000000 	  6.029095763384 	  0.000000000000 	
O	  1.000000000000 	  6.029095763384 	  2.980000000000 	
O	  3.980000000000 	  2.049095763384 	  0.000000000000 	
O	  4.980000000000 	  2.049095763384 	  2.980000000000 	
O	  3.980000000000 	  6.029095763384 	  0.000000000000 	
O	  4.980000000000 	  6.029095763384 	  2.980000000000 	
O	  0.265039250228 	  0.000000000000 	  1.784056513156 	
O	  1.265039250228 	  0.000000000000 	  4.764056513156 	
O	  0.265039250228 	  3.980000000000 	  1.784056513156 	
O	  1.265039250228 	  3.980000000000 	  4.764056513156 	
O	  4.245039250228 	  0.000000000000 	  1.784056513156 	
O	  5.245039250228 	  0.000000000000 	  4.764056513156 	
O	  4.245039250228 	  3.980000000000 	  1.784056513156 	
O	  5.245039250228 	  3.980000000000 	  4.764056513156 	
O	  2.526166413794 	  1.700834188585 	  1.784056513156 	
O	  3.526166413794 	  1.700834188585 	  4.764056513156 	
O	  2.526166413794 	  5.680834188585 	  1.784056513156 	
O	  3.526166413794 	  5.680834188585 	  4.764056513156 	
O	  6.506166413794 	  1.700834188585 	  1.784056513156 	
O	  7.506166413794 	  1.700834188585 	  4.764056513156 	
O	  6.506166413794 	  5.680834188585 	  1.784056513156 	
O	  7.506166413794 	  5.680834188585 	  4.764056513156 	
64 
Energy: 5.7047998220302745e+00 
Mg	  0.000000000000 	  0.000000000000 	  0.000000000000 	
Mg	  1.000000000000 	  0.000000000000 	  2.980000000000 	
Mg	  0.000000000000 	  3.980000000000 	  0.000000000000 	
Mg	  1.000000000000 	  3.980000000000 	  2.980000000000 	
Mg	  3.980000000000 	  0.000000000000 	  0.000000000000 	
Mg	  4.980000000000 	  0.000000000000 	  2.980000000000 	
Mg	  3.980000000000 	  3.980000000000 	  0.000000000000 	
Mg	  4.980000000000 	  3.980000000000 	  2.980000000000 	
Mg	  1.916220313861 	  1.963328894811 	  0.000000000000 	
Mg	  2.916220313861 	  1.963328894811 	  2.980000000000 	
Mg	  1.916220313861 	  5.943328894811 	  0.000000000000 	
Mg	  2.916220313861 	  5.943328894811 	  2.980000000000 	
Mg	  5.896220313861 	  1.963328894811 	  0.000000000000 	
Mg	  6.896220313861 	  1.963328894811 	  2.980000000000 	
Mg	  5.896220313861 	  5.943328894811 	  0.000000000000 	
Mg	  6.896220313861 	  5.943328894811 	  2.980000000000 	
Mg	  2.293088961460 	  0.000000000000 	  1.822003151961 	
Mg	  3.293088961460 	  0.000000000000 	  4.802003151961 	
Mg	  2.293088961460 	  3.980000000000 	  1.822003151961 	
Mg	  3.293088961460 	  3.980000000000 	  4.802003151961 	
Mg	  6.273088961460 	  0.000000000000 	  1.822003151961 	
Mg	  7.273088961460 	  0.000000000000 	  4.802003151961 	
Mg	  6.273088961460 	  3.980000000000 	  1.822003151961 	
Mg	  7.273088961460 	  3.980000000000 	  4.802003151961 	
Mg	  0.235542904750 	  2.057546056710 	  1.822003151961 	
Mg	  1.235542904750 	  2.057546056710 	  4.802003151961 	
Mg	  0.235542904750 	  6.037546056710 	  1.822003151961 	
Mg	  1.235542904750 	  6.037546056710 	  4.802003151961 	
Mg	  4.215542904750 	  2.057546056710 	  1.822003151961 	
Mg	  5.215542904750 	  2.057546056710 	  4.802003151961 	
Mg	  4.215542904750 	  6.037546056710 	  1.822003151961 	
Mg	  5.215542904750 	  6.037546056710 	  4.802003151961 	
O	  2.057546056710 	  0.000000000000 	  0.000000000000 	
O	  3.057546056710 	  0.000000000000 	  2.980000000000 	
O	  2.057546056710 	  3.980000000000 	  0.000000000000 	
O	  3.057546056710 	  3.980000000000 	  2.980000000000 	
O	  6.037546056710 	  0.000000000000 	  0.000000000000 	
O	  7.037546056710 	  0.000000000000 	  2.980000000000 	
O	  6.037546056710 	  3.980000000000 	  0.000000000000 	
O	  7.037546056710 	  3.980000000000 	  2.980000000000 	
O	  0.000000000000 	  2.057546056710 	  0.000000000000 	
O	  1.000000000000 	  2.057546056710 	  2.980000000000 	
O	  0.000000000000 	  6.037546056710 	  0.000000000000 	
O	  1.000000000000 	  6.037546056710 	  2.980000000000 	
O	  3.980000000000 	  2.057546056710 	  0.000000000000 	
O	  4.980000000000 	  2.057546056710 	  2.980000000000 	
O	  3.980000000000 	  6.037546056710 	  0.000000000000 	
O	  4.980000000000 	  6.037546056710 	  2.980000000000 	
O	  0.235542904750 	  0.000000000000 	  1.822003151961 	
O	  1.235542904750 	  0.000000000000 	  4.802003151961 	
O	  0.235542904750 	  3.980000000000 	  1.822003151961 	
O	  1.235542904750 	  3.980000000000 	  4.802003151961 	
O	  4.215542904750 	  0.000000000000 	  1.822003151961 	
O	  5.215542904750 	  0.000000000000 	  4.802003151961 	
O	  4.215542904750 	  3.980000000000 	  1.822003151961 	
O	  5.215542904750 	  3.980000000000 	  4.802003151961 	
O	  2.481523285260 	  1.748042679869 	  1.822003151961 	
O	  3.481523285260 	  1.748042679869 	  4.802003151961 	
O	  2.481523285260 	  5.728042679869 	  1.822003151961 	
O	  3.481523285260 	  5.728042679869 	  4.802003151961 	
O	  6.461523285260 	  1.748042679869 	  1.822003151961 	
O	  7.461523285260 	  1.748042679869 	  4.802003151961 	
O	  6.461523285260 	  5.728042679869 	  1.822003151961 	
O	  7.461523285260 	  5.728042679869 	  4.802003151961 	
64 
Energy: 5.3945258461242398e+00 
Mg	  0.000000000000 	  0.000000000000 	  0.000000000000 	
Mg	  1.000000000000 	  0.000000000000 	  2.980000000000 	
Mg	  0.000000000000 	  3.980000000000 	  0.000000000000 	
Mg	  1.000000000000 	  3.980000000000 	  2.980000000000 	
Mg	  3.980000000000 	  0.000000000000 	  0.000000000000 	
Mg	  4.980000000000 	  0.000000000000 	  2.980000000000 	
Mg	  3.980000000000 	  3.980000000000 	  0.000000000000 	
Mg	  4.980000000000 	  3.980000000000 	  2.980000000000 	
Mg	  1.942365513490 	  1.983575521686 	  0.000000000000 	
Mg	  2.942365513490 	  1.983575521686 	  2.980000000000 	
Mg	  1.942365513490 	  5.963575521686 	  0.000000000000 	
Mg	  2.942365513490 	  5.963575521686 	  2.980000000000 	
Mg	  5.922365513490 	  1.983575521686 	  0.000000000000 	
Mg	  6.922365513490 	  1.983575521686 	  2.980000000000 	
Mg	  5.922365513490 	  5.963575521686 	  0.000000000000 	
Mg	  6.922365513490 	  5.963575521686 	  2.980000000000 	
Mg	  2.272045579055 	  0.000000000000 	  1.859945497098 	
Mg	  3.272045579055 	  0.000000000000 	  4.839945497098 	
Mg	  2.272045579055 	  3.980000000000 	  1.859945497098 	
Mg	  3.272045579055 	  3.980000000000 	  4.839945497098 	
Mg	  6.252045579055 	  0.000000000000 	  1.859945497098 	
Mg	  7.252045579055 	  0.000000000000 	  4.839945497098 	
Mg	  6.252045579055 	  3.980000000000 	  1.859945497098 	
Mg	  7.252045579055 	  3.980000000000 	  4.839945497098 	
Mg	  0.206050040978 	  2.065995538077 	  1.859945497098 	
Mg	  1.206050040978 	  2.065995538077 	  4.839945497098 	
Mg	  0.206050040978 	  6.045995538077 	  1.859945497098 	
Mg	  1.206050040978 	  6.045995538077 	  4.839945497098 	
Mg	  4.186050040978 	  2.065995538077 	  1.859945497098 	
Mg	  5.186050040978 	  2.065995538077 	  4.839945497098 	
Mg	  4.186050040978 	  6.045995538077 	  1.859945497098 	
Mg	  5.186050040978 	  6.045995538077 	  4.839945497098 	
O	  2.065995538077 	  0.000000000000 	  0.000000000000 	
O	  3.065995538077 	  0.000000000000 	  2.980000000000 	
O	  2.065995538077 	  3.980000000000 	  0.000000000000 	
O	  3.065995538077 	  3.980000000000 	  2.980000000000 	
O	  6.045995538077 	  0.000000000000 	  0.000000000000 	
O	  7.045995538077 	  0.000000000000 	  2.980000000000 	
O	  6.045995538077 	  3.980000000000 	  0.000000000000 	
O	  7.045995538077 	  3.980000000000 	  2.980000000000 	
O	  0.000000000000 	  2.065995538077 	  0.000000000000 	
O	  1.000000000000 	  2.065995538077 	  2.980000000000 	
O	  0.000000000000 	  6.045995538077 	  0.000000000000 	
O	  1.000000000000 	  6.045995538077 	  2.980000000000 	
O	  3.980000000000 	  2.065995538077 	  0.000000000000 	
O	  4.980000000000 	  2.065995538077 	  2.980000000000 	
O	  3.980000000000 	  6.045995538077 	  0.000000000000 	
O	  4.980000000000 	  6.045995538077 	  2.980000000000 	
O	  0.206050040978 	  0.000000000000 	  1.859945497098 	
O	  1.206050040978 	  0.000000000000 	  4.839945497098 	
O	  0.206050040978 	  3.980000000000 	  1.859945497098 	
O	  1.206050040978 	  3.980000000000 	  4.839945497098 	
O	  4.186050040978 	  0.000000000000 	  1.859945497098 	
O	  5.186050040978 	  0.000000000000 	  4.839945497098 	
O	  4.186050040978 	  3.980000000000 	  1.859945497098 	
O	  5.186050040978 	  3.980000000000 	  4.839945497098 	
O	  2.436885611838 	  1.795245784231 	  1.859945497098 	
O	  3.436885611838 	  1.795245784231 	  4.839945497098 	
O	  2.436885611838 	  5.775245784231 	  1.859945497098 	
O	  3.436885611838 	  5.775245784231 	  4.839945497098 	
O	  6.416885611838 	  1.795245784231 	  1.859945497098 	
O	  7.416885611838 	  1.795245784231 	  4.839945497098 	
O	  6.416885611838 	  5.775245784231 	  1.859945497098 	
O	  7.416885611838 	  5.775245784231 	  4.839945497098 	
64 
Energy: 4.8263015990248466e+00 
Mg	  0.000000000000 	  0.000000000000 	  0.000000000000 	
Mg	  1.000000000000 	  0.000000000000 	  2.980000000000 	
Mg	  0.000000000000 	  3.980000000000 	  0.000000000000 	
Mg	  1.000000000000 	  3.980000000000 	  2.980000000000 	
Mg	  3.980000000000 	  0.000000000000 	  0.000000000000 	
Mg	  4.980000000000 	  0.000000000000 	  2.980000000000 	
Mg	  3.980000000000 	  3.980000000000 	  0.000000000000 	
Mg	  4.980000000000 	  3.980000000000 	  2.980000000000 	
Mg	  1.968503725869 	  2.003816742149 	  0.000000000000 	
Mg	  2.968503725869 	  2.003816742149 	  2.980000000000 	
Mg	  1.968503725869 	  5.983816742149 	  0.000000000000 	
Mg	  2.968503725869 	  5.983816742149 	  2.980000000000 	
Mg	  5.948503725869 	  2.003816742149 	  0.000000000000 	
Mg	  6.948503725869 	  2.003816742149 	  2.980000000000 	
Mg	  5.948503725869 	  5.983816742149 	  0.000000000000 	
Mg	  6.948503725869 	  5.983816742149 	  2.980000000000 	
Mg	  2.251007856107 	  0.000000000000 	  1.897877693309 	
Mg	  3.251007856107 	  0.000000000000 	  4.877877693309 	
Mg	  2.251007856107 	  3.980000000000 	  1.897877693309 	
Mg	  3.251007856107 	  3.980000000000 	  4.877877693309 	
Mg	  6.231007856107 	  0.000000000000 	  1.897877693309 	
Mg	  7.231007856107 	  0.000000000000 	  4.877877693309 	
Mg	  6.231007856107 	  3.980000000000 	  1.897877693309 	
Mg	  7.231007856107 	  3.980000000000 	  4.877877693309 	
Mg	  0.176565081399 	  2.074442774708 	  1.897877693309 	
Mg	  1.176565081399 	  2.074442774708 	  4.877877693309 	
Mg	  0.176565081399 	  6.054442774708 	  1.897877693309 	
Mg	  1.176565081399 	  6.054442774708 	  4.877877693309 	
Mg	  4.156565081399 	  2.074442774708 	  1.897877693309 	
Mg	  5.156565081399 	  2.074442774708 	  4.877877693309 	
Mg	  4.156565081399 	  6.054442774708 	  1.897877693309 	
Mg	  5.156565081399 	  6.054442774708 	  4.877877693309 	
O	  2.074442774708 	  0.000000000000 	  0.000000000000 	
O	  3.074442774708 	  0.000000000000 	  2.980000000000 	
O	  2.074442774708 	  3.980000000000 	  0.000000000000 	
O	  3.074442774708 	  3.980000000000 	  2.980000000000 	
O	  6.054442774708 	  0.000000000000 	  0.000000000000 	
O	  7.054442774708 	  0.000000000000 	  2.980000000000 	
O	  6.054442774708 	  3.980000000000 	  0.000000000000 	
O	  7.054442774708 	  3.980000000000 	  2.980000000000 	
O	  0.000000000000 	  2.074442774708 	  0.000000000000 	
O	  1.000000000000 	  2.074442774708 	  2.980000000000 	
O	  0.000000000000 	  6.054442774708 	  0.000000000000 	
O	  1.000000000000 	  6.054442774708 	  2.980000000000 	
O	  3.980000000000 	  2.074442774708 	  0.000000000000 	
O	  4.980000000000 	  2.074442774708 	  2.980000000000 	
O	  3.980000000000 	  6.054442774708 	  0.000000000000 	
O	  4.980000000000 	  6.054442774708 	  2.980000000000 	
O	  0.176565081399 	  0.000000000000 	  1.897877693309 	
O	  1.176565081399 	  0.000000000000 	  4.877877693309 	
O	  0.176565081399 	  3.980000000000 	  1.897877693309 	
O	  1.176565081399 	  3.980000000000 	  4.877877693309 	
O	  4.156565081399 	  0.000000000000 	  1.897877693309 	
O	  5.156565081399 	  0.000000000000 	  4.877877693309 	
O	  4.156565081399 	  3.980000000000 	  1.897877693309 	
O	  5.156565081399 	  3.980000000000 	  4.877877693309 	
O	  2.392259921227 	  1.842436257750 	  1.897877693309 	
O	  3.392259921227 	  1.842436257750 	  4.877877693309 	
O	  2.392259921227 	  5.822436257750 	  1.897877693309 	
O	  3.392259921227 	  5.822436257750 	  4.877877693309 	
O	  6.372259921227 	  1.842436257750 	  1.897877693309 	
O	  7.372259921227 	  1.842436257750 	  4.877877693309 	
O	  6.372259921227 	  5.822436257750 	  1.897877693309 	
O	  7.372259921227 	  5.822436257750 	  4.877877693309 	
64 
Energy: 4.0329162533950029e+00 
Mg	  0.000000000000 	  0.000000000000 	  0.000000000000 	
Mg	  1.000000000000 	  0.000000000000 	  2.980000000000 	
Mg	  0.000000000000 	  3.980000000000 	  0.000000000000 	
Mg	  1.000000000000 	  3.980000000000 	  2.980000000000 	
Mg	  3.980000000000 	  0.000000000000 	  0.000000000000 	
Mg	  4.980000000000 	  0.000000000000 	  2.980000000000 	
Mg	  3.980000000000 	  3.980000000000 	  0.000000000000 	
Mg	  4.980000000000 	  3.980000000000 	  2.980000000000 	
Mg	  1.994631145165 	  2.024049525531 	  0.000000000000 	
Mg	  2.994631145165 	  2.024049525531 	  2.980000000000 	
Mg	  1.994631145165 	  6.004049525531 	  0.000000000000 	
Mg	  2.994631145165 	  6.004049525531 	  2.980000000000 	
Mg	  5.974631145165 	  2.024049525531 	  0.000000000000 	
Mg	  6.974631145165 	  2.024049525531 	  2.980000000000 	
Mg	  5.974631145165 	  6.004049525531 	  0.000000000000 	
Mg	  6.974631145165 	  6.004049525531 	  2.980000000000 	
Mg	  2.229978188091 	  0.000000000000 	  1.935794384433 	
Mg	  3.229978188091 	  0.000000000000 	  4.915794384433 	
Mg	  2.229978188091 	  3.980000000000 	  1.935794384433 	
Mg	  3.229978188091 	  3.980000000000 	  4.915794384433 	
Mg	  6.209978188091 	  0.000000000000 	  1.935794384433 	
Mg	  7.209978188091 	  0.000000000000 	  4.915794384433 	
Mg	  6.209978188091 	  3.980000000000 	  1.935794384433 	
Mg	  7.209978188091 	  3.980000000000 	  4.915794384433 	
Mg	  0.147091901829 	  2.082886286262 	  1.935794384433 	
Mg	  1.147091901829 	  2.082886286262 	  4.915794384433 	
Mg	  0.147091901829 	  6.062886286262 	  1.935794384433 	
Mg	  1.147091901829 	  6.062886286262 	  4.915794384433 	
Mg	  4.127091901829 	  2.082886286262 	  1.935794384433 	
Mg	  5.127091901829 	  2.082886286262 	  4.915794384433 	
Mg	  4.127091901829 	  6.062886286262 	  1.935794384433 	
Mg	  5.127091901829 	  6.062886286262 	  4.915794384433 	
O	  2.082886286262 	  0.000000000000 	  0.000000000000 	
O	  3.082886286262 	  0.000000000000 	  2.980000000000 	
O	  2.082886286262 	  3.980000000000 	  0.000000000000 	
O	  3.082886286262 	  3.980000000000 	  2.980000000000 	
O	  6.062886286262 	  0.000000000000 	  0.000000000000 	
O	  7.062886286262 	  0.000000000000 	  2.980000000000 	
O	  6.062886286262 	  3.980000000000 	  0.000000000000 	
O	  7.062886286262 	  3.980000000000 	  2.980000000000 	
O	  0.000000000000 	  2.082886286262 	  0.000000000000 	
O	  1.000000000000 	  2.082886286262 	  2.980000000000 	
O	  0.000000000000 	  6.062886286262 	  0.000000000000 	
O	  1.000000000000 	  6.062886286262 	  2.980000000000 	
O	  3.980000000000 	  2.082886286262 	  0.000000000000 	
O	  4.980000000000 	  2.082886286262 	  2.980000000000 	
O	  3.980000000000 	  6.062886286262 	  0.000000000000 	
O	  4.980000000000 	  6.062886286262 	  2.980000000000 	
O	  0.147091901829 	  0.000000000000 	  1.935794384433 	
O	  1.147091901829 	  0.000000000000 	  4.915794384433 	
O	  0.147091901829 	  3.980000000000 	  1.935794384433 	
O	  1.147091901829 	  3.980000000000 	  4.915794384433 	
O	  4.127091901829 	  0.000000000000 	  1.935794384433 	
O	  5.127091901829 	  0.000000000000 	  4.915794384433 	
O	  4.127091901829 	  3.980000000000 	  1.935794384433 	
O	  5.127091901829 	  3.980000000000 	  4.915794384433 	
O	  2.347651709554 	  1.889607527259 	  1.935794384433 	
O	  3.347651709554 	  1.889607527259 	  4.915794384433 	
O	  2.347651709554 	  5.869607527259 	  1.935794384433 	
O	  3.347651709554 	  5.869607527259 	  4.915794384433 	
O	  6.327651709554 	  1.889607527259 	  1.935794384433 	
O	  7.327651709554 	  1.889607527259 	  4.915794384433 	
O	  6.327651709554 	  5.869607527259 	  1.935794384433 	
O	  7.327651709554 	  5.869607527259 	  4.915794384433 	
64 
Energy: 3.0741903518011187e+00 
Mg	  0.000000000000 	  0.000000000000 	  0.000000000000 	
Mg	  1.000000000000 	  0.000000000000 	  2.980000000000 	
Mg	  0.000000000000 	  3.980000000000 	  0.000000000000 	
Mg	  1.000000000000 	  3.980000000000 	  2.980000000000 	
Mg	  3.980000000000 	  0.000000000000 	  0.000000000000 	
Mg	  4.980000000000 	  0.000000000000 	  2.980000000000 	
Mg	  3.980000000000 	  3.980000000000 	  0.000000000000 	
Mg	  4.980000000000 	  3.980000000000 	  2.980000000000 	
Mg	  2.020744363276 	  2.044271126892 	  0.000000000000 	
Mg	  3.020744363276 	  2.044271126892 	  2.980000000000 	
Mg	  2.020744363276 	  6.024271126892 	  0.000000000000 	
Mg	  3.020744363276 	  6.024271126892 	  2.980000000000 	
Mg	  6.000744363276 	  2.044271126892 	  0.000000000000 	
Mg	  7.000744363276 	  2.044271126892 	  2.980000000000 	
Mg	  6.000744363276 	  6.024271126892 	  0.000000000000 	
Mg	  7.000744363276 	  6.024271126892 	  2.980000000000 	
Mg	  2.208958472209 	  0.000000000000 	  1.973690836042 	
Mg	  3.208958472209 	  0.000000000000 	  4.953690836042 	
Mg	  2.208958472209 	  3.980000000000 	  1.973690836042 	
Mg	  3.208958472209 	  3.980000000000 	  4.953690836042 	
Mg	  6.188958472209 	  0.000000000000 	  1.973690836042 	
Mg	  7.188958472209 	  0.000000000000 	  4.953690836042 	
Mg	  6.188958472209 	  3.980000000000 	  1.973690836042 	
Mg	  7.188958472209 	  3.980000000000 	  4.953690836042 	
Mg	  0.117633818083 	  2.091324654126 	  1.973690836042 	
Mg	  1.117633818083 	  2.091324654126 	  4.953690836042 	
Mg	  0.117633818083 	  6.071324654126 	  1.973690836042 	
Mg	  1.117633818083 	  6.071324654126 	  4.953690836042 	
Mg	  4.097633818083 	  2.091324654126 	  1.973690836042 	
Mg	  5.097633818083 	  2.091324654126 	  4.953690836042 	
Mg	  4.097633818083 	  6.071324654126 	  1.973690836042 	
Mg	  5.097633818083 	  6.071324654126 	  4.953690836042 	
O	  2.091324654126 	  0.000000000000 	  0.000000000000 	
O	  3.091324654126 	  0.000000000000 	  2.980000000000 	
O	  2.091324654126 	  3.980000000000 	  0.000000000000 	
O	  3.091324654126 	  3.980000000000 	  2.980000000000 	
O	  6.071324654126 	  0.000000000000 	  0.000000000000 	
O	  7.071324654126 	  0.000000000000 	  2.980000000000 	
O	  6.071324654126 	  3.980000000000 	  0.000000000000 	
O	  7.071324654126 	  3.980000000000 	  2.980000000000 	
O	  0.000000000000 	  2.091324654126 	  0.000000000000 	
O	  1.000000000000 	  2.091324654126 	  2.980000000000 	
O	  0.000000000000 	  6.071324654126 	  0.000000000000 	
O	  1.000000000000 	  6.071324654126 	  2.980000000000 	
O	  3.980000000000 	  2.091324654126 	  0.000000000000 	
O	  4.980000000000 	  2.091324654126 	  2.980000000000 	
O	  3.980000000000 	  6.071324654126 	  0.000000000000 	
O	  4.980000000000 	  6.071324654126 	  2.980000000000 	
O	  0.117633818083 	  0.000000000000 	  1.973690836042 	
O	  1.117633818083 	  0.000000000000 	  4.953690836042 	
O	  0.117633818083 	  3.980000000000 	  1.973690836042 	
O	  1.117633818083 	  3.980000000000 	  4.953690836042 	
O	  4.097633818083 	  0.000000000000 	  1.973690836042 	
O	  5.097633818083 	  0.000000000000 	  4.953690836042 	
O	  4.097633818083 	  3.980000000000 	  1.973690836042 	
O	  5.097633818083 	  3.980000000000 	  4.953690836042 	
O	  2.303065526676 	  1.936753817164 	  1.973690836042 	
O	  3.303065526676 	  1.936753817164 	  4.953690836042 	
O	  2.303065526676 	  5.916753817164 	  1.973690836042 	
O	  3.303065526676 	  5.916753817164 	  4.953690836042 	
O	  6.283065526676 	  1.936753817164 	  1.973690836042 	
O	  7.283065526676 	  1.936753817164 	  4.953690836042 	
O	  6.283065526676 	  5.916753817164 	  1.973690836042 	
O	  7.283065526676 	  5.916753817164 	  4.953690836042 	
64 
Energy: 2.0414097409840739e+00 
Mg	  0.000000000000 	  0.000000000000 	  0.000000000000 	
Mg	  1.000000000000 	  0.000000000000 	  2.980000000000 	
Mg	  0.000000000000 	  3.980000000000 	  0.000000000000 	
Mg	  1.000000000000 	  3.980000000000 	  2.980000000000 	
Mg	  3.980000000000 	  0.000000000000 	  0.000000000000 	
Mg	  4.980000000000 	  0.000000000000 	  2.980000000000 	
Mg	  3.980000000000 	  3.980000000000 	  0.000000000000 	
Mg	  4.980000000000 	  3.980000000000 	  2.980000000000 	
Mg	  2.046840332454 	  2.064479060341 	  0.000000000000 	
Mg	  3.046840332454 	  2.064479060341 	  2.980000000000 	
Mg	  2.046840332454 	  6.044479060341 	  0.000000000000 	
Mg	  3.046840332454 	  6.044479060341 	  2.980000000000 	
Mg	  6.026840332454 	  2.064479060341 	  0.000000000000 	
Mg	  7.026840332454 	  2.064479060341 	  2.980000000000 	
Mg	  6.026840332454 	  6.044479060341 	  0.000000000000 	
Mg	  7.026840332454 	  6.044479060341 	  2.980000000000 	
Mg	  2.187950155555 	  0.000000000000 	  2.011562876678 	
Mg	  3.187950155555 	  0.000000000000 	  4.991562876678 	
Mg	  2.187950155555 	  3.980000000000 	  2.011562876678 	
Mg	  3.187950155555 	  3.980000000000 	  4.991562876678 	
Mg	  6.167950155555 	  0.000000000000 	  2.011562876678 	
Mg	  7.167950155555 	  0.000000000000 	  4.991562876678 	
Mg	  6.167950155555 	  3.980000000000 	  2.011562876678 	
Mg	  7.167950155555 	  3.980000000000 	  4.991562876678 	
Mg	  0.088193639438 	  2.099756516116 	  2.011562876678 	
Mg	  1.088193639438 	  2.099756516116 	  4.991562876678 	
Mg	  0.088193639438 	  6.079756516116 	  2.011562876678 	
Mg	  1.088193639438 	  6.079756516116 	  4.991562876678 	
Mg	  4.068193639438 	  2.099756516116 	  2.011562876678 	
Mg	  5.068193639438 	  2.099756516116 	  4.991562876678 	
Mg	  4.068193639438 	  6.079756516116 	  2.011562876678 	
Mg	  5.068193639438 	  6.079756516116 	  4.991562876678 	
O	  2.099756516116 	  0.000000000000 	  0.000000000000 	
O	  3.099756516116 	  0.000000000000 	  2.980000000000 	
O	  2.099756516116 	  3.980000000000 	  0.000000000000 	
O	  3.099756516116 	  3.980000000000 	  2.980000000000 	
O	  6.079756516116 	  0.000000000000 	  0.000000000000 	
O	  7.079756516116 	  0.000000000000 	  2.980000000000 	
O	  6.079756516116 	  3.980000000000 	  0.000000000000 	
O	  7.079756516116 	  3.980000000000 	  2.980000000000 	
O	  0.000000000000 	  2.099756516116 	  0.000000000000 	
O	  1.000000000000 	  2.099756516116 	  2.980000000000 	
O	  0.000000000000 	  6.079756516116 	  0.000000000000 	
O	  1.000000000000 	  6.079756516116 	  2.980000000000 	
O	  3.980000000000 	  2.099756516116 	  0.000000000000 	
O	  4.980000000000 	  2.099756516116 	  2.980000000000 	
O	  3.980000000000 	  6.079756516116 	  0.000000000000 	
O	  4.980000000000 	  6.079756516116 	  2.980000000000 	
O	  0.088193639438 	  0.000000000000 	  2.011562876678 	
O	  1.088193639438 	  0.000000000000 	  4.991562876678 	
O	  0.088193639438 	  3.980000000000 	  2.011562876678 	
O	  1.088193639438 	  3.980000000000 	  4.991562876678 	
O	  4.068193639438 	  0.000000000000 	  2.011562876678 	
O	  5.068193639438 	  0.000000000000 	  4.991562876678 	
O	  4.068193639438 	  3.980000000000 	  2.011562876678 	
O	  5.068193639438 	  3.980000000000 	  4.991562876678 	
O	  2.258505067105 	  1.983870073895 	  2.011562876678 	
O	  3.258505067105 	  1.983870073895 	  4.991562876678 	
O	  2.258505067105 	  5.963870073895 	  2.011562876678 	
O	  3.258505067105 	  5.963870073895 	  4.991562876678 	
O	  6.238505067105 	  1.983870073895 	  2.011562876678 	
O	  7.238505067105 	  1.983870073895 	  4.991562876678 	
O	  6.238505067105 	  5.963870073895 	  2.011562876678 	
O	  7.238505067105 	  5.963870073895 	  4.991562876678 	
64 
Energy: 1.0626953915377368e+00 
Mg	  0.000000000000 	  0.000000000000 	  0.000000000000 	
Mg	  1.000000000000 	  0.000000000000 	  2.980000000000 	
Mg	  0.000000000000 	  3.980000000000 	  0.000000000000 	
Mg	  1.000000000000 	  3.980000000000 	  2.980000000000 	
Mg	  3.980000000000 	  0.000000000000 	  0.000000000000 	
Mg	  4.980000000000 	  0.000000000000 	  2.980000000000 	
Mg	  3.980000000000 	  3.980000000000 	  0.000000000000 	
Mg	  4.980000000000 	  3.980000000000 	  2.980000000000 	
Mg	  2.072916373123 	  2.084671098419 	  0.000000000000 	
Mg	  3.072916373123 	  2.084671098419 	  2.980000000000 	
Mg	  2.072916373123 	  6.064671098419 	  0.000000000000 	
Mg	  3.072916373123 	  6.064671098419 	  2.980000000000 	
Mg	  6.052916373123 	  2.084671098419 	  0.000000000000 	
Mg	  7.052916373123 	  2.084671098419 	  2.980000000000 	
Mg	  6.052916373123 	  6.064671098419 	  0.000000000000 	
Mg	  7.052916373123 	  6.064671098419 	  2.980000000000 	
Mg	  2.166954175493 	  0.000000000000 	  2.049406922530 	
Mg	  3.166954175493 	  0.000000000000 	  5.029406922530 	
Mg	  2.166954175493 	  3.980000000000 	  2.049406922530 	
Mg	  3.166954175493 	  3.980000000000 	  5.029406922530 	
Mg	  6.146954175493 	  0.000000000000 	  2.049406922530 	
Mg	  7.146954175493 	  0.000000000000 	  5.029406922530 	
Mg	  6.146954175493 	  3.980000000000 	  2.049406922530 	
Mg	  7.146954175493 	  3.980000000000 	  5.029406922530 	
Mg	  0.058773626481 	  2.108180549011 	  2.049406922530 	
Mg	  1.058773626481 	  2.108180549011 	  5.029406922530 	
Mg	  0.058773626481 	  6.088180549011 	  2.049406922530 	
Mg	  1.058773626481 	  6.088180549011 	  5.029406922530 	
Mg	  4.038773626481 	  2.108180549011 	  2.049406922530 	
Mg	  5.038773626481 	  2.108180549011 	  5.029406922530 	
Mg	  4.038773626481 	  6.088180549011 	  2.049406922530 	
Mg	  5.038773626481 	  6.088180549011 	  5.029406922530 	
O	  2.108180549011 	  0.000000000000 	  0.000000000000 	
O	  3.108180549011 	  0.000000000000 	  2.980000000000 	
O	  2.108180549011 	  3.980000000000 	  0.000000000000 	
O	  3.108180549011 	  3.980000000000 	  2.980000000000 	
O	  6.088180549011 	  0.000000000000 	  0.000000000000 	
O	  7.088180549011 	  0.000000000000 	  2.980000000000 	
O	  6.088180549011 	  3.980000000000 	  0.000000000000 	
O	  7.088180549011 	  3.980000000000 	  2.980000000000 	
O	  0.000000000000 	  2.108180549011 	  0.000000000000 	
O	  1.000000000000 	  2.108180549011 	  2.980000000000 	
O	  0.000000000000 	  6.088180549011 	  0.000000000000 	
O	  1.000000000000 	  6.088180549011 	  2.980000000000 	
O	  3.980000000000 	  2.108180549011 	  0.000000000000 	
O	  4.980000000000 	  2.108180549011 	  2.980000000000 	
O	  3.980000000000 	  6.088180549011 	  0.000000000000 	
O	  4.980000000000 	  6.088180549011 	  2.980000000000 	
O	  0.058773626481 	  0.000000000000 	  2.049406922530 	
O	  1.058773626481 	  0.000000000000 	  5.029406922530 	
O	  0.058773626481 	  3.980000000000 	  2.049406922530 	
O	  1.058773626481 	  3.980000000000 	  5.029406922530 	
O	  4.038773626481 	  0.000000000000 	  2.049406922530 	
O	  5.038773626481 	  0.000000000000 	  5.029406922530 	
O	  4.038773626481 	  3.980000000000 	  2.049406922530 	
O	  5.038773626481 	  3.980000000000 	  5.029406922530 	
O	  2.213973076678 	  2.030952003815 	  2.049406922530 	
O	  3.213973076678 	  2.030952003815 	  5.029406922530 	
O	  2.213973076678 	  6.010952003815 	  2.049406922530 	
O	  3.213973076678 	  6.010952003815 	  5.029406922530 	
O	  6.193973076678 	  2.030952003815 	  2.049406922530 	
O	  7.193973076678 	  2.030952003815 	  5.029406922530 	
O	  6.193973076678 	  6.010952003815 	  2.049406922530 	
O	  7.193973076678 	  6.010952003815 	  5.029406922530 	
64 
Energy: 3.0896955752795446e-01 
Mg	  0.000000000000 	  0.000000000000 	  0.000000000000 	
Mg	  1.000000000000 	  0.000000000000 	  2.980000000000 	
Mg	  0.000000000000 	  3.980000000000 	  0.000000000000 	
Mg	  1.000000000000 	  3.980000000000 	  2.980000000000 	
Mg	  3.980000000000 	  0.000000000000 	  0.000000000000 	
Mg	  4.980000000000 	  0.000000000000 	  2.980000000000 	
Mg	  3.980000000000 	  3.980000000000 	  0.000000000000 	
Mg	  4.980000000000 	  3.980000000000 	  2.980000000000 	
Mg	  2.098970206852 	  2.104845292069 	  0.000000000000 	
Mg	  3.098970206852 	  2.104845292069 	  2.980000000000 	
Mg	  2.098970206852 	  6.084845292069 	  0.000000000000 	
Mg	  3.098970206852 	  6.084845292069 	  2.980000000000 	
Mg	  6.078970206852 	  2.104845292069 	  0.000000000000 	
Mg	  7.078970206852 	  2.104845292069 	  2.980000000000 	
Mg	  6.078970206852 	  6.084845292069 	  0.000000000000 	
Mg	  7.078970206852 	  6.084845292069 	  2.980000000000 	
Mg	  2.145970888582 	  0.000000000000 	  2.087220036420 	
Mg	  3.145970888582 	  0.000000000000 	  5.067220036420 	
Mg	  2.145970888582 	  3.980000000000 	  2.087220036420 	
Mg	  3.145970888582 	  3.980000000000 	  5.067220036420 	
Mg	  6.125970888582 	  0.000000000000 	  2.087220036420 	
Mg	  7.125970888582 	  0.000000000000 	  5.067220036420 	
Mg	  6.125970888582 	  3.980000000000 	  2.087220036420 	
Mg	  7.125970888582 	  3.980000000000 	  5.067220036420 	
Mg	  0.029375426081 	  2.116595462501 	  2.087220036420 	
Mg	  1.029375426081 	  2.116595462501 	  5.067220036420 	
Mg	  0.029375426081 	  6.096595462501 	  2.087220036420 	
Mg	  1.029375426081 	  6.096595462501 	  5.067220036420 	
Mg	  4.009375426081 	  2.116595462501 	  2.087220036420 	
Mg	  5.009375426081 	  2.116595462501 	  5.067220036420 	
Mg	  4.009375426081 	  6.096595462501 	  2.087220036420 	
Mg	  5.009375426081 	  6.096595462501 	  5.067220036420 	
O	  2.116595462501 	  0.000000000000 	  0.000000000000 	
O	  3.116595462501 	  0.000000000000 	  2.980000000000 	
O	  2.116595462501 	  3.980000000000 	  0.000000000000 	
O	  3.116595462501 	  3.980000000000 	  2.980000000000 	
O	  6.096595462501 	  0.000000000000 	  0.000000000000 	
O	  7.096595462501 	  0.000000000000 	  2.980000000000 	
O	  6.096595462501 	  3.980000000000 	  0.000000000000 	
O	  7.096595462501 	  3.980000000000 	  2.980000000000 	
O	  0.000000000000 	  2.116595462501 	  0.000000000000 	
O	  1.000000000000 	  2.116595462501 	  2.980000000000 	
O	  0.000000000000 	  6.096595462501 	  0.000000000000 	
O	  1.000000000000 	  6.096595462501 	  2.980000000000 	
O	  3.980000000000 	  2.116595462501 	  0.000000000000 	
O	  4.980000000000 	  2.116595462501 	  2.980000000000 	
O	  3.980000000000 	  6.096595462501 	  0.000000000000 	
O	  4.980000000000 	  6.096595462501 	  2.980000000000 	
O	  0.029375426081 	  0.000000000000 	  2.087220036420 	
O	  1.029375426081 	  0.000000000000 	  5.067220036420 	
O	  0.029375426081 	  3.980000000000 	  2.087220036420 	
O	  1.029375426081 	  3.980000000000 	  5.067220036420 	
O	  4.009375426081 	  0.000000000000 	  2.087220036420 	
O	  5.009375426081 	  0.000000000000 	  5.067220036420 	
O	  4.009375426081 	  3.980000000000 	  2.087220036420 	
O	  5.009375426081 	  3.980000000000 	  5.067220036420 	
O	  2.169471229447 	  2.077996152631 	  2.087220036420 	
O	  3.169471229447 	  2.077996152631 	  5.067220036420 	
O	  2.169471229447 	  6.057996152631 	  2.087220036420 	
O	  3.169471229447 	  6.057996152631 	  5.067220036420 	
O	  6.149471229447 	  2.077996152631 	  2.087220036420 	
O	  7.149471229447 	  2.077996152631 	  5.067220036420 	
O	  6.149471229447 	  6.057996152631 	  2.087220036420 	
O	  7.149471229447 	  6.057996152631 	  5.067220036420 	
64 
Energy: 0.0000000000000000e+00 
Mg	  0.000000000000 	  0.000000000000 	  0.000000000000 	
Mg	  1.000000000000 	  0.000000000000 	  2.980000000000 	
Mg	  0.000000000000 	  3.980000000000 	  0.000000000000 	
Mg	  1.000000000000 	  3.980000000000 	  2.980000000000 	
Mg	  3.980000000000 	  0.000000000000 	  0.000000000000 	
Mg	  4.980000000000 	  0.000000000000 	  2.980000000000 	
Mg	  3.980000000000 	  3.980000000000 	  0.000000000000 	
Mg	  4.980000000000 	  3.980000000000 	  2.980000000000 	
Mg	  2.125000000000 	  2.125000000000 	  0.000000000000 	
Mg	  3.125000000000 	  2.125000000000 	  2.980000000000 	
Mg	  2.125000000000 	  6.105000000000 	  0.000000000000 	
Mg	  3.125000000000 	  6.105000000000 	  2.980000000000 	
Mg	  6.105000000000 	  2.125000000000 	  0.000000000000 	
Mg	  7.105000000000 	  2.125000000000 	  2.980000000000 	
Mg	  6.105000000000 	  6.105000000000 	  0.000000000000 	
Mg	  7.105000000000 	  6.105000000000 	  2.980000000000 	
Mg	  2.125000000000 	  0.000000000000 	  2.125000000000 	
Mg	  3.125000000000 	  0.000000000000 	  5.105000000000 	
Mg	  2.125000000000 	  3.980000000000 	  2.125000000000 	
Mg	  3.125000000000 	  3.980000000000 	  5.105000000000 	
Mg	  6.105000000000 	  0.000000000000 	  2.125000000000 	
Mg	  7.105000000000 	  0.000000000000 	  5.105000000000 	
Mg	  6.105000000000 	  3.980000000000 	  2.125000000000 	
Mg	  7.105000000000 	  3.980000000000 	  5.105000000000 	
Mg	  0.000000000000 	  2.125000000000 	  2.125000000000 	
Mg	  1.000000000000 	  2.125000000000 	  5.105000000000 	
Mg	  0.000000000000 	  6.105000000000 	  2.125000000000 	
Mg	  1.000000000000 	  6.105000000000 	  5.105000000000 	
Mg	  3.980000000000 	  2.125000000000 	  2.125000000000 	
Mg	  4.980000000000 	  2.125000000000 	  5.105000000000 	
Mg	  3.980000000000 	  6.105000000000 	  2.125000000000 	
Mg	  4.980000000000 	  6.105000000000 	  5.105000000000 	
O	  2.125000000000 	  0.000000000000 	  0.000000000000 	
O	  3.125000000000 	  0.000000000000 	  2.980000000000 	
O	  2.125000000000 	  3.980000000000 	  0.000000000000 	
O	  3.125000000000 	  3.980000000000 	  2.980000000000 	
O	  6.105000000000 	  0.000000000000 	  0.000000000000 	
O	  7.105000000000 	  0.000000000000 	  2.980000000000 	
O	  6.105000000000 	  3.980000000000 	  0.000000000000 	
O	  7.105000000000 	  3.980000000000 	  2.980000000000 	
O	  0.000000000000 	  2.125000000000 	  0.000000000000 	
O	  1.000000000000 	  2.125000000000 	  2.980000000000 	
O	  0.000000000000 	  6.105000000000 	  0.000000000000 	
O	  1.000000000000 	  6.105000000000 	  2.980000000000 	
O	  3.980000000000 	  2.125000000000 	  0.000000000000 	
O	  4.980000000000 	  2.125000000000 	  2.980000000000 	
O	  3.980000000000 	  6.105000000000 	  0.000000000000 	
O	  4.980000000000 	  6.105000000000 	  2.980000000000 	
O	  0.000000000000 	  0.000000000000 	  2.125000000000 	
O	  1.000000000000 	  0.000000000000 	  5.105000000000 	
O	  0.000000000000 	  3.980000000000 	  2.125000000000 	
O	  1.000000000000 	  3.980000000000 	  5.105000000000 	
O	  3.980000000000 	  0.000000000000 	  2.125000000000 	
O	  4.980000000000 	  0.000000000000 	  5.105000000000 	
O	  3.980000000000 	  3.980000000000 	  2.125000000000 	
O	  4.980000000000 	  3.980000000000 	  5.105000000000 	
O	  2.125000000000 	  2.125000000000 	  2.125000000000 	
O	  3.125000000000 	  2.125000000000 	  5.105000000000 	
O	  2.125000000000 	  6.105000000000 	  2.125000000000 	
O	  3.125000000000 	  6.105000000000 	  5.105000000000 	
O	  6.105000000000 	  2.125000000000 	  2.125000000000 	
O	  7.105000000000 	  2.125000000000 	  5.105000000000 	
O	  6.105000000000 	  6.105000000000 	  2.125000000000 	
O	  7.105000000000 	  6.105000000000 	  5.105000000000 	
