  Invoking FHI-aims ...
  | Number of atoms                   :  96
  ...scf iterations...
  | Total energy corrected        :   -8.749133530846E+01 eV
  ...
  Total atomic forces (unitary forces cleaned)
     1  -3.2756587629E-01  6.4271696531E-01  2.0617691810E-01
     2  2.3853332971E-01  5.9691424273E-01  -1.9760568849E-01
     3  3.2756598294E-01  -6.4271686273E-01  -2.0617682972E-01
     4  -2.3853321767E-01  -5.9691392301E-01  1.9760571789E-01
     5  -6.8041162772E-01  7.7682568873E-01  -3.5304985423E-01
     6  1.1489226398E+00  -1.4274531327E+00  2.4142742185E+00
     7  6.8041166664E-01  -7.7682554726E-01  3.5304999718E-01
     8  -1.1489233201E+00  1.4274530624E+00  -2.4142740337E+00
     9  -4.4024480260E-01  3.6886415784E-01  -2.0160596195E-01
    10  -1.3316247248E+00  -1.6525993869E+00  1.6712262662E-01
    11  4.4024458682E-01  -3.6886342871E-01  2.0160587912E-01
    12  1.3316258948E+00  1.6526004165E+00  -1.6712252038E-01
    13  -5.4760047893E-01  -1.0416304558E+00  -1.1770906780E+00
    14  2.2581326522E+00  8.4206056292E-01  1.2820210995E+00
    15  5.4759989210E-01  1.0416305107E+00  1.1770903203E+00
    16  -2.2581345403E+00  -8.4206159087E-01  -1.2820196905E+00
    17  6.6910764232E-01  -9.4594029500E-01  -7.0940847696E-02
    18  -1.6008992412E+00  2.3456798978E-01  -1.5690345756E+00
    19  -6.6910676504E-01  9.4594070749E-01  7.0941547680E-02
    20  1.6009005477E+00  -2.3456863435E-01  1.5690344768E+00
    21  4.9405608911E-01  -9.4788270916E-01  -2.0254223280E-01
    22  -3.8005472424E-01  -8.9654409157E-01  3.1731946077E-01
    23  -4.9405593504E-01  9.4788295421E-01  2.0254180249E-01
    24  3.8005424419E-01  8.9654400871E-01  -3.1731960127E-01
    25  1.0284644659E+00  2.5113515893E-02  9.3444812089E-01
    26  -3.4124955491E-01  -1.4427171952E+00  6.6781156606E-01
    27  -1.0284640543E+00  -2.5114317165E-02  -9.3444828383E-01
    28  3.4124962969E-01  1.4427182008E+00  -6.6781254862E-01
    29  6.0226533636E-01  5.5867754723E-01  9.2035807882E-01
    30  -4.9630778311E-01  6.9415395379E-01  -9.3164965153E-01
    31  -6.0226543822E-01  -5.5867755810E-01  -9.2035799280E-01
    32  4.9630771985E-01  -6.9415424124E-01  9.3164938342E-01
    33  9.5100717101E-02  8.0883882196E-01  7.1050855112E-01
    34  3.0152870712E-02  9.2601201511E-01  -6.2122820433E-01
    35  -9.5100689427E-02  -8.0883917860E-01  -7.1050817314E-01
    36  -3.0152602408E-02  -9.2601225899E-01  6.2122807309E-01
    37  -9.6698587426E-01  8.0951975868E-01  -2.7363740767E-01
    38  9.5634405886E-01  9.3871298007E-01  1.7085126859E-01
    39  9.6698584339E-01  -8.0951988431E-01  2.7363731994E-01
    40  -9.5634409718E-01  -9.3871288734E-01  -1.7085088871E-01
    41  -6.6746417540E-01  9.2786308766E-01  4.2012486201E-02
    42  7.0477215212E-01  9.8119037827E-01  -4.9937937159E-02
    43  6.6746421051E-01  -9.2786323392E-01  -4.2012198095E-02
    44  -7.0477205606E-01  -9.8119024632E-01  4.9938165857E-02
    45  -1.3479208164E+00  1.4276695843E-01  -9.3493270088E-01
    46  3.5807131495E-01  -3.2671711152E+00  -3.2499736262E-02
    47  1.3479172214E+00  -1.4276642578E-01  9.3493160914E-01
    48  -3.5807167165E-01  3.2671702902E+00  3.2500627767E-02
    49  -2.1652416480E-01  7.6292641499E-01  1.7583486436E+00
    50  -5.8784912461E-01  5.8995187901E+00  -3.4935910602E+00
    51  2.1652594869E-01  -7.6292434930E-01  -1.7583490401E+00
    52  5.8785031529E-01  -5.8995173176E+00  3.4935868456E+00
    53  -1.0324539983E+00  -5.2217207044E-01  4.3550061913E-01
    54  4.1191193297E-01  -5.8266744643E-01  -2.3212423322E-01
    55  1.0324517128E+00  5.2217354512E-01  -4.3549875151E-01
    56  -4.1191011005E-01  5.8266652015E-01  2.3212364236E-01
    57  7.5567560419E-01  -1.8182300067E-01  5.4382135255E-01
    58  1.8692606607E+00  -2.0430785555E-01  1.5503174439E+00
    59  -7.5567530536E-01  1.8182181456E-01  -5.4382036863E-01
    60  -1.8692615844E+00  2.0430720451E-01  -1.5503150815E+00
    61  -5.3317300282E-02  1.0943761194E+00  -5.7635855194E-02
    62  -1.3264393875E+00  -3.8138196133E+00  -1.9781519287E-01
    63  5.3319332415E-02  -1.0943749744E+00  5.7634313002E-02
    64  1.3264389311E+00  3.8138196486E+00  1.9781717134E-01
    65  4.9591238299E-01  -1.8553341857E+00  3.5425932278E-01
    66  2.1898132427E+00  3.0134433348E+00  -9.4355434229E-01
    67  -4.9591390796E-01  1.8553334412E+00  -3.5425714074E-01
    68  -2.1898124898E+00  -3.0134443456E+00  9.4355475371E-01
    69  -9.0899622642E-01  -3.6224058538E-01  4.7204949557E-01
    70  7.2752585564E-01  -1.3028253329E-01  -2.9463246080E-01
    71  9.0899442475E-01  3.6224132309E-01  -4.7204807373E-01
    72  -7.2752576477E-01  1.3028256299E-01  2.9463312475E-01
    73  3.8271687188E-01  -3.3381554138E-01  -9.7790136709E-01
    74  -6.6749204387E-01  -1.9738575405E+00  2.4769953574E+00
    75  -3.8271735915E-01  3.3381203860E-01  9.7790074830E-01
    76  6.6749017651E-01  1.9738580231E+00  -2.4769954011E+00
    77  7.2400181942E-01  -7.0957807079E-02  5.6124645532E-01
    78  -1.6741099505E+00  -5.9596750247E-01  -1.3323823358E+00
    79  -7.2400084448E-01  7.0957236623E-02  -5.6124656858E-01
    80  1.6741106069E+00  5.9596773855E-01  1.3323813692E+00
    81  1.4996556824E+00  8.0516897540E-01  -8.3960666616E-01
    82  -1.6718657758E+00  9.2706836473E-01  9.7119019388E-01
    83  -1.4996536189E+00  -8.0517086235E-01  8.3960502236E-01
    84  1.6718653743E+00  -9.2706750016E-01  -9.7119069336E-01
    85  7.3264033544E-01  -9.0046424763E-02  5.2216360083E-01
    86  -7.8712786700E-01  -5.9642832922E-02  -4.9822620758E-01
    87  -7.3263923545E-01  9.0046965137E-02  -5.2216291854E-01
    88  7.8712765672E-01  5.9642710633E-02  4.9822631769E-01
    89  1.0235300552E-01  -5.5504271137E-01  -9.5368617041E-01
    90  -1.2863710799E-01  -5.0375183004E-01  1.0366350518E+00
    91  -1.0235304193E-01  5.5504111762E-01  9.5368502529E-01
    92  1.2863650707E-01  5.0375226461E-01  -1.0366346993E+00
    93  -3.4324147209E-01  1.0188755019E+00  -1.0296580341E-01
    94  3.0285944475E-01  1.1231281385E+00  1.7141938361E-01
    95  3.4324242207E-01  -1.0188727789E+00  1.0296362604E-01
    96  -3.0285920740E-01  -1.1231283604E+00  -1.7141952616E-01
  Stress tensor (eV/A^3):
  7.9317988197E-02  -5.3315004743E-03  2.1757246417E-02
  -5.3315004743E-03  7.3043660169E-02  -3.3885894325E-04
  2.1757246417E-02  -3.3885894325E-04  7.9384204452E-02
