  Invoking FHI-aims ...
  | Number of atoms                   :  96
  ...scf iterations...
  | Total energy corrected        :   -9.848972507263E+01 eV
  ...
  Total atomic forces (unitary forces cleaned)
     1  -2.9930215746E-01  6.1523557303E-01  1.9198146230E-01
     2  2.2634317323E-01  5.8117357322E-01  -1.8532343711E-01
     3  2.9930220964E-01  -6.1523547222E-01  -1.9198139965E-01
     4  -2.2634301584E-01  -5.8117338733E-01  1.8532349091E-01
     5  -7.7541906283E-01  1.2821011093E+00  3.0484183814E-02
     6  1.0049612886E+00  -1.4289076157E+00  2.1218779509E+00
     7  7.7541946447E-01  -1.2821009584E+00  -3.0483744095E-02
     8  -1.0049615010E+00  1.4289074855E+00  -2.1218776377E+00
     9  -4.5046996969E-01  3.1273879559E-01  -2.0574531811E-01
    10  2.1881835357E-01  -2.9637756866E-01  1.8781715961E-01
    11  4.5046949982E-01  -3.1273862357E-01  2.0574491014E-01
    12  -2.1881744949E-01  2.9637865751E-01  -1.8781711504E-01
    13  -5.6571151201E-01  -1.0708195555E+00  -1.1555180160E+00
    14  7.4005200638E-01  -5.5569551195E-01  1.2171998750E+00
    15  5.6571085296E-01  1.0708197425E+00  1.1555177035E+00
    16  -7.4005342500E-01  5.5569460588E-01  -1.2171990798E+00
    17  4.0252991432E-01  -5.3578903086E-01  -3.6691914897E-02
    18  -7.5343540743E-01  2.4871735433E-01  -5.7435545678E-01
    19  -4.0252900960E-01  5.3578895572E-01  3.6692497082E-02
    20  7.5343580677E-01  -2.4871806745E-01  5.7435561245E-01
    21  7.2531990159E-01  -1.3432300797E+00  -2.5371906707E-01
    22  -6.8563861058E-01  -1.4138708576E+00  3.6479934068E-01
    23  -7.2532056799E-01  1.3432305548E+00  2.5371855692E-01
    24  6.8563847802E-01  1.4138710662E+00  -3.6479958095E-01
    25  1.0013933691E+00  6.3716739552E-02  8.4537617576E-01
    26  -5.5793853926E-01  -8.0784187363E-01  -1.2900281814E-01
    27  -1.0013955095E+00  -6.3717084030E-02  -8.4537789460E-01
    28  5.5793921577E-01  8.0784288137E-01  1.2900204380E-01
    29  5.1771094908E-01  2.7757328834E-01  5.9791403620E-01
    30  -4.5451718990E-01  3.7556221752E-01  -6.3398864701E-01
    31  -5.1771076600E-01  -2.7757326773E-01  -5.9791408396E-01
    32  4.5451661381E-01  -3.7556240646E-01  6.3398826263E-01
    33  2.4577027851E-01  1.1572562347E+00  1.0445672421E+00
    34  -2.1145803322E-01  1.2401614986E+00  -1.0023445746E+00
    35  -2.4577015118E-01  -1.1572565943E+00  -1.0445669777E+00
    36  2.1145838853E-01  -1.2401619355E+00  1.0023444098E+00
    37  -7.0777984481E-01  4.1766460167E-01  -2.8367056720E-01
    38  7.4081204534E-01  5.0057774000E-01  2.2792358226E-01
    39  7.0777992145E-01  -4.1766486731E-01  2.8367057580E-01
    40  -7.4081206151E-01  -5.0057809289E-01  -2.2792311003E-01
    41  -9.7478808502E-01  1.2938544104E+00  8.5978144083E-02
    42  9.9023451753E-01  1.3176027012E+00  -8.6719309118E-02
    43  9.7478797999E-01  -1.2938542278E+00  -8.5977868649E-02
    44  -9.9023420519E-01  -1.3176023538E+00  8.6719511927E-02
    45  6.1530604201E-01  1.4254801814E-01  7.1145076939E-01
    46  -3.8176085115E+00  -1.9232225659E+00  -3.2072859237E+00
    47  -6.1526445308E-01  -1.4254494552E-01  -7.1141726535E-01
    48  3.8176085727E+00  1.9232221781E+00  3.2072821133E+00
    49  -1.2765619821E+00  2.6292710942E-01  4.1884544762E-02
    50  1.1378313871E+00  2.6171659629E+00  -3.0415602277E+00
    51  1.2765307403E+00  -2.6291793878E-01  -4.1892449296E-02
    52  -1.1378314439E+00  -2.6171676016E+00  3.0415624824E+00
    53  -7.3403004575E-01  -1.1943326914E+00  8.6983500943E-02
    54  1.3895066100E+00  -2.2538052460E+00  -6.5780865339E-01
    55  7.3404444404E-01  1.1943298988E+00  -8.6994136594E-02
    56  -1.3895045130E+00  2.2538052140E+00  6.5780905480E-01
    57  1.1936528321E+00  -2.0317598946E-01  1.1150171921E+00
    58  1.6622857400E+00  5.7789267045E-02  2.5924836812E+00
    59  -1.1936536018E+00  2.0317470603E-01  -1.1150197795E+00
    60  -1.6622877867E+00  -5.7789317454E-02  -2.5924831223E+00
    61  -9.3209496078E-02  1.4279880119E+00  -1.6846033366E-02
    62  -3.1396726532E+00  -1.2589396735E+00  2.1478249194E+00
    63  9.3227364592E-02  -1.4279952925E+00  1.6832709298E-02
    64  3.1396728064E+00  1.2589398611E+00  -2.1478243681E+00
    65  -2.3804030326E-01  9.1737530322E-02  1.0394111603E-01
    66  3.9487192478E+00  2.9910072696E+00  -1.3204666363E+00
    67  2.3802563972E-01  -9.1734898179E-02  -1.0394855760E-01
    68  -3.9487186176E+00  -2.9910085962E+00  1.3204695201E+00
    69  -1.0765060459E+00  -1.1384766975E+00  6.8192945064E-01
    70  9.8236460634E-01  -7.2013681631E-01  -8.0515886946E-01
    71  1.0765120057E+00  1.1384888682E+00  -6.8192721163E-01
    72  -9.8236435609E-01  7.2013703770E-01  8.0515870368E-01
    73  7.9260194804E-01  -2.4822926559E-01  -1.8003016770E+00
    74  -1.1542462328E+00  -9.7500615458E-01  2.9435198101E+00
    75  -7.9260322874E-01  2.4823304993E-01  1.8003106056E+00
    76  1.1542448210E+00  9.7500853424E-01  -2.9435222633E+00
    77  1.0675959168E+00  -3.5329183221E-01  6.3296605481E-01
    78  -1.3150331526E+00  -4.9790504687E-01  -8.6230510672E-01
    79  -1.0676002506E+00  3.5329201157E-01  -6.3296996621E-01
    80  1.3150338871E+00  4.9790525810E-01  8.6230472902E-01
    81  -5.0292043107E-01  5.5296844325E-01  -2.4705672504E-01
    82  4.3986935254E-01  9.3943038051E-01  5.2322691564E-01
    83  5.0290046911E-01  -5.5295992807E-01  2.4704137253E-01
    84  -4.3986860304E-01  -9.3943063182E-01  -5.2323012162E-01
    85  1.2574227252E+00  6.4831003569E-02  6.1530289573E-01
    86  -1.2299563128E+00  1.0297193673E-01  -4.6184728818E-01
    87  -1.2574287847E+00  -6.4832016790E-02  -6.1530524521E-01
    88  1.2299558107E+00  -1.0297197377E-01  4.6184718327E-01
    89  4.2375666119E-01  -4.2774210972E-01  -1.6480337438E+00
    90  -4.6308966297E-01  -3.6592532291E-01  1.7584744471E+00
    91  -4.2375844529E-01  4.2773245472E-01  1.6480467035E+00
    92  4.6308882574E-01  3.6592711202E-01  -1.7584716739E+00
    93  -5.0683630879E-01  9.5630172546E-01  4.3316428109E-01
    94  4.7082960604E-01  1.1664051077E+00  -3.6860205283E-01
    95  5.0683893981E-01  -9.5631965614E-01  -4.3315747227E-01
    96  -4.7082993265E-01  -1.1664060966E+00  3.6860270417E-01
  Stress tensor (eV/A^3):
  7.6215725385E-02  -1.0467520697E-02  2.6527745261E-02
  -1.0467520697E-02  7.6393101906E-02  9.1556654119E-03
  2.6527745261E-02  9.1556654119E-03  6.5630736788E-02
