  Invoking FHI-aims ...
  | Number of atoms                   :  96
  ...scf iterations...
  | Total energy corrected        :   -8.295025100403E+01 eV
  ...
  Total atomic forces (unitary forces cleaned)
     1  -2.3955607191E-01  5.9912418843E-01  1.8521023581E-01
     2  2.0582184579E-01  5.6968919183E-01  -1.9337554089E-01
     3  2.3955620615E-01  -5.9912409933E-01  -1.8521015237E-01
     4  -2.0582171698E-01  -5.6968893856E-01  1.9337559595E-01
     5  -8.1083946869E-01  1.4354241840E+00  2.1045539502E-01
     6  8.1621346167E-01  1.5134591707E+00  -3.4521968933E-01
     7  8.1083956335E-01  -1.4354240493E+00  -2.1045521244E-01
     8  -8.1621384119E-01  -1.5134592830E+00  3.4521999325E-01
     9  -2.8347520654E-01  2.0129162257E-01  -1.5830155292E-01
    10  4.6569660924E-01  3.7122124544E-01  1.4580602345E-01
    11  2.8347496535E-01  -2.0129112447E-01  1.5830135646E-01
    12  -4.6569706480E-01  -3.7122170888E-01  -1.4580568475E-01
    13  -4.6378633493E-01  -9.3427346911E-01  -1.0074997547E+00
    14  2.9306572312E-01  -1.1111543275E+00  1.0373583608E+00
    15  4.6378581633E-01  9.3427349075E-01  1.0074994658E+00
    16  -2.9306580590E-01  1.1111548451E+00  -1.0373575751E+00
    17  5.9465860793E-01  -8.5045378943E-01  -7.9697346256E-02
    18  -5.5443652877E-01  -9.7040885677E-01  2.5854060616E-01
    19  -5.9465796563E-01  8.5045413596E-01  7.9697828256E-02
    20  5.5443626545E-01  9.7040889353E-01  -2.5854113906E-01
    21  3.7768848342E-01  -8.4940347489E-01  -2.1248117945E-01
    22  -3.7429107940E-01  -8.5344493298E-01  2.2353022994E-01
    23  -3.7768865459E-01  8.4940367833E-01  2.1248063506E-01
    24  3.7429085986E-01  8.5344506543E-01  -2.2353049204E-01
    25  7.0656415467E-01  -2.7680210898E-03  6.2412798879E-01
    26  -7.6284218128E-01  1.0854239795E-01  -8.0936039975E-01
    27  -7.0656405721E-01  2.7676012491E-03  -6.2412813190E-01
    28  7.6284318427E-01  -1.0854234484E-01  8.0936013155E-01
    29  4.7761422125E-01  5.9664262007E-01  8.0992938478E-01
    30  -4.7023385508E-01  6.0928174003E-01  -8.1312251076E-01
    31  -4.7761424271E-01  -5.9664270993E-01  -8.0992933870E-01
    32  4.7023373392E-01  -6.0928190256E-01  8.1312224849E-01
    33  8.8040780768E-02  7.6114621181E-01  6.1080490852E-01
    34  -7.5713716847E-02  7.7073221981E-01  -5.9677602983E-01
    35  -8.8040826640E-02  -7.6114653378E-01  -6.1080460686E-01
    36  7.5713983154E-02  -7.7073242390E-01  5.9677584404E-01
    37  -8.3295912285E-01  8.2494681720E-01  -1.3489583508E-01
    38  8.3415488375E-01  8.3660713503E-01  1.2663901724E-01
    39  8.3295915005E-01  -8.2494698802E-01  1.3489590997E-01
    40  -8.3415481451E-01  -8.3660708357E-01  -1.2663866267E-01
    41  -6.0919173732E-01  8.4146222035E-01  4.2001854117E-02
    42  6.1001532078E-01  8.4150229005E-01  -4.3737566419E-02
    43  6.0919174649E-01  -8.4146228579E-01  -4.2001616348E-02
    44  -6.1001521813E-01  -8.4150216738E-01  4.3737731515E-02
    45  -1.5868215269E+00  1.6297263989E-01  -1.0541942823E+00
    46  1.6834587151E+00  2.9457188797E-01  1.0006628764E+00
    47  1.5868163465E+00  -1.6297197445E-01  1.0541919137E+00
    48  -1.6834593613E+00  -2.9457215807E-01  -1.0006624270E+00
    49  -1.8513572815E+00  1.4348987670E+00  2.8039608914E+00
    50  2.2824376206E+00  7.6308771722E+00  -5.1786981439E+00
    51  1.8513356888E+00  -1.4348753972E+00  -2.8039488560E+00
    52  -2.2824372538E+00  -7.6308740129E+00  5.1786981060E+00
    53  2.0791444018E-01  -5.1652186944E-02  -2.6728490325E-01
    54  -4.5114196778E-01  -1.1959306261E-02  4.1771628306E-01
    55  -2.0789994049E-01  5.1657612157E-02  2.6727713780E-01
    56  4.5114512618E-01  1.1957698692E-02  -4.1771808240E-01
    57  7.8263614092E-01  -1.5695548797E-01  6.3185328984E-01
    58  1.0012918939E+00  1.3188717441E-01  1.0075658109E+00
    59  -7.8263410792E-01  1.5695418478E-01  -6.3185082531E-01
    60  -1.0012935601E+00  -1.3188765234E-01  -1.0075660159E+00
    61  1.9761190084E-01  -1.8504511959E-01  -1.1111358894E-01
    62  -2.1861317695E+00  -6.6464503651E+00  7.4966725379E-01
    63  -1.9760605464E-01  1.8502231081E-01  1.1111058495E-01
    64  2.1861313228E+00  6.6464488937E+00  -7.4966523432E-01
    65  4.7648923243E-01  -2.7691306592E+00  2.5930713723E-02
    66  2.0942586547E-01  -2.1470282764E+00  -1.1934565453E+00
    67  -4.7649639327E-01  2.7691192643E+00  -2.5932795099E-02
    68  -2.0942461988E-01  2.1470266500E+00  1.1934577884E+00
    69  -3.6950254495E-01  -1.1381404648E-01  2.7659497768E-01
    70  3.9344116688E-01  -1.2658122943E-01  -2.8049956730E-01
    71  3.6950672988E-01  1.1381894404E-01  -2.7659642872E-01
    72  -3.9344175418E-01  1.2658191881E-01  2.8050005347E-01
    73  3.4232348663E-01  -9.1261807749E-02  -5.2421178000E-01
    74  -7.5240408237E-01  -8.5371183760E-01  1.9175111130E+00
    75  -3.4232444964E-01  9.1263078859E-02  5.2421688448E-01
    76  7.5240296683E-01  8.5371264712E-01  -1.9175120536E+00
    77  6.4427168532E-01  -1.4847906636E-01  4.4991393639E-01
    78  -1.0091815477E+00  -2.3478595412E-01  -7.2831347098E-01
    79  -6.4426902473E-01  1.4847804047E-01  -4.4991258189E-01
    80  1.0091815059E+00  2.3478587463E-01  7.2831270861E-01
    81  1.5618391713E+00  2.3012141497E+00  -1.6952207765E+00
    82  -1.5750148994E+00  2.3161063344E+00  1.7105069785E+00
    83  -1.5618368991E+00  -2.3012017658E+00  1.6951996901E+00
    84  1.5750161140E+00  -2.3161028086E+00  -1.7105121649E+00
    85  7.5210091446E-01  -4.3887805416E-02  4.4443170301E-01
    86  -7.5660708445E-01  -4.4675903213E-02  -4.3412938418E-01
    87  -7.5209770973E-01  4.3888047253E-02  -4.4442998617E-01
    88  7.5660697911E-01  4.4675778151E-02  4.3412947410E-01
    89  1.2246617387E-02  -2.6757506416E-01  -2.6656457113E-01
    90  -2.2135627640E-02  -2.5880994337E-01  2.7950601000E-01
    91  -1.2249259119E-02  2.6757706026E-01  2.6657667585E-01
    92  2.2134528178E-02  2.5880934346E-01  -2.7950185947E-01
    93  -5.7894502260E-02  -1.9791926767E-01  1.4380314781E-01
    94  5.3875459872E-02  -1.8762302921E-01  -1.2920679563E-01
    95  5.7897438465E-02  1.9790500560E-01  -1.4380075435E-01
    96  -5.3875890336E-02  1.8762119643E-01  1.2920714433E-01
  Stress tensor (eV/A^3):
  6.8842128171E-02  -3.6289926093E-03  2.4824185162E-02
  -3.6289926093E-03  6.0587438582E-02  -1.2373304985E-03
  2.4824185162E-02  -1.2373304985E-03  6.9469834812E-02
