64 
Energy: 2.8686417441124910e+00 
Mg	  0.000000000000 	  0.000000000000 	  0.000000000000 	
Mg	  1.000000000000 	  0.000000000000 	  2.980000000000 	
Mg	  0.000000000000 	  3.980000000000 	  0.000000000000 	
Mg	  1.000000000000 	  3.980000000000 	  2.980000000000 	
Mg	  3.980000000000 	  0.000000000000 	  0.000000000000 	
Mg	  4.980000000000 	  0.000000000000 	  2.980000000000 	
Mg	  3.980000000000 	  3.980000000000 	  0.000000000000 	
Mg	  4.980000000000 	  3.980000000000 	  2.980000000000 	
Mg	  1.700036187301 	  1.796690791534 	  0.000000000000 	
Mg	  2.700036187301 	  1.796690791534 	  2.980000000000 	
Mg	  1.700036187301 	  5.776690791534 	  0.000000000000 	
Mg	  2.700036187301 	  5.776690791534 	  2.980000000000 	
Mg	  5.680036187301 	  1.796690791534 	  0.000000000000 	
Mg	  6.680036187301 	  1.796690791534 	  2.980000000000 	
Mg	  5.680036187301 	  5.776690791534 	  0.000000000000 	
Mg	  6.680036187301 	  5.776690791534 	  2.980000000000 	
Mg	  2.473273021165 	  0.000000000000 	  1.506726978835 	
Mg	  3.473273021165 	  0.000000000000 	  4.486726978835 	
Mg	  2.473273021165 	  3.980000000000 	  1.506726978835 	
Mg	  3.473273021165 	  3.980000000000 	  4.486726978835 	
Mg	  6.453273021165 	  0.000000000000 	  1.506726978835 	
Mg	  7.453273021165 	  0.000000000000 	  4.486726978835 	
Mg	  6.453273021165 	  3.980000000000 	  1.506726978835 	
Mg	  7.453273021165 	  3.980000000000 	  4.486726978835 	
Mg	  0.483273021165 	  1.990000000000 	  1.506726978835 	
Mg	  1.483273021165 	  1.990000000000 	  4.486726978835 	
Mg	  0.483273021165 	  5.970000000000 	  1.506726978835 	
Mg	  1.483273021165 	  5.970000000000 	  4.486726978835 	
Mg	  4.463273021165 	  1.990000000000 	  1.506726978835 	
Mg	  5.463273021165 	  1.990000000000 	  4.486726978835 	
Mg	  4.463273021165 	  5.970000000000 	  1.506726978835 	
Mg	  5.463273021165 	  5.970000000000 	  4.486726978835 	
O	  1.990000000000 	  0.000000000000 	  0.000000000000 	
O	  2.990000000000 	  0.000000000000 	  2.980000000000 	
O	  1.990000000000 	  3.980000000000 	  0.000000000000 	
O	  2.990000000000 	  3.980000000000 	  2.980000000000 	
O	  5.970000000000 	  0.000000000000 	  0.000000000000 	
O	  6.970000000000 	  0.000000000000 	  2.980000000000 	
O	  5.970000000000 	  3.980000000000 	  0.000000000000 	
O	  6.970000000000 	  3.980000000000 	  2.980000000000 	
O	  0.000000000000 	  1.990000000000 	  0.000000000000 	
O	  1.000000000000 	  1.990000000000 	  2.980000000000 	
O	  0.000000000000 	  5.970000000000 	  0.000000000000 	
O	  1.000000000000 	  5.970000000000 	  2.980000000000 	
O	  3.980000000000 	  1.990000000000 	  0.000000000000 	
O	  4.980000000000 	  1.990000000000 	  2.980000000000 	
O	  3.980000000000 	  5.970000000000 	  0.000000000000 	
O	  4.980000000000 	  5.970000000000 	  2.980000000000 	
O	  0.483273021165 	  0.000000000000 	  1.506726978835 	
O	  1.483273021165 	  0.000000000000 	  4.486726978835 	
O	  0.483273021165 	  3.980000000000 	  1.506726978835 	
O	  1.483273021165 	  3.980000000000 	  4.486726978835 	
O	  4.463273021165 	  0.000000000000 	  1.506726978835 	
O	  5.463273021165 	  0.000000000000 	  4.486726978835 	
O	  4.463273021165 	  3.980000000000 	  1.506726978835 	
O	  5.463273021165 	  3.980000000000 	  4.486726978835 	
O	  2.859891438097 	  1.354979250190 	  1.506726978835 	
O	  3.859891438097 	  1.354979250190 	  4.486726978835 	
O	  2.859891438097 	  5.334979250190 	  1.506726978835 	
O	  3.859891438097 	  5.334979250190 	  4.486726978835 	
O	  6.839891438096 	  1.354979250190 	  1.506726978835 	
O	  7.839891438096 	  1.354979250190 	  4.486726978835 	
O	  6.839891438096 	  5.334979250190 	  1.506726978835 	
O	  7.839891438096 	  5.334979250190 	  4.486726978835 	
64 
Energy: 2.8403472778059076e+00 
Mg	  0.000000000000 	  0.000000000000 	  0.000000000000 	
Mg	  1.000000000000 	  0.000000000000 	  2.980000000000 	
Mg	  0.000000000000 	  3.980000000000 	  0.000000000000 	
Mg	  1.000000000000 	  3.980000000000 	  2.980000000000 	
Mg	  3.980000000000 	  0.000000000000 	  0.000000000000 	
Mg	  4.980000000000 	  0.000000000000 	  2.980000000000 	
Mg	  3.980000000000 	  3.980000000000 	  0.000000000000 	
Mg	  4.980000000000 	  3.980000000000 	  2.980000000000 	
Mg	  1.726462772124 	  1.817134156305 	  0.000000000000 	
Mg	  2.726462772124 	  1.817134156305 	  2.980000000000 	
Mg	  1.726462772124 	  5.797134156305 	  0.000000000000 	
Mg	  2.726462772124 	  5.797134156305 	  2.980000000000 	
Mg	  5.706462772124 	  1.817134156305 	  0.000000000000 	
Mg	  6.706462772124 	  1.817134156305 	  2.980000000000 	
Mg	  5.706462772124 	  5.797134156305 	  0.000000000000 	
Mg	  6.706462772124 	  5.797134156305 	  2.980000000000 	
Mg	  2.451833845572 	  0.000000000000 	  1.545120003762 	
Mg	  3.451833845572 	  0.000000000000 	  4.525120003762 	
Mg	  2.451833845572 	  3.980000000000 	  1.545120003762 	
Mg	  3.451833845572 	  3.980000000000 	  4.525120003762 	
Mg	  6.431833845572 	  0.000000000000 	  1.545120003762 	
Mg	  7.431833845572 	  0.000000000000 	  4.525120003762 	
Mg	  6.431833845572 	  3.980000000000 	  1.545120003762 	
Mg	  7.431833845572 	  3.980000000000 	  4.525120003762 	
Mg	  0.453356920905 	  1.998476924667 	  1.545120003762 	
Mg	  1.453356920905 	  1.998476924667 	  4.525120003762 	
Mg	  0.453356920905 	  5.978476924667 	  1.545120003762 	
Mg	  1.453356920905 	  5.978476924667 	  4.525120003762 	
Mg	  4.433356920905 	  1.998476924667 	  1.545120003762 	
Mg	  5.433356920905 	  1.998476924667 	  4.525120003762 	
Mg	  4.433356920905 	  5.978476924667 	  1.545120003762 	
Mg	  5.433356920905 	  5.978476924667 	  4.525120003762 	
O	  1.998476924667 	  0.000000000000 	  0.000000000000 	
O	  2.998476924667 	  0.000000000000 	  2.980000000000 	
O	  1.998476924667 	  3.980000000000 	  0.000000000000 	
O	  2.998476924667 	  3.980000000000 	  2.980000000000 	
O	  5.978476924667 	  0.000000000000 	  0.000000000000 	
O	  6.978476924667 	  0.000000000000 	  2.980000000000 	
O	  5.978476924667 	  3.980000000000 	  0.000000000000 	
O	  6.978476924667 	  3.980000000000 	  2.980000000000 	
O	  0.000000000000 	  1.998476924667 	  0.000000000000 	
O	  1.000000000000 	  1.998476924667 	  2.980000000000 	
O	  0.000000000000 	  5.978476924667 	  0.000000000000 	
O	  1.000000000000 	  5.978476924667 	  2.980000000000 	
O	  3.980000000000 	  1.998476924667 	  0.000000000000 	
O	  4.980000000000 	  1.998476924667 	  2.980000000000 	
O	  3.980000000000 	  5.978476924667 	  0.000000000000 	
O	  4.980000000000 	  5.978476924667 	  2.980000000000 	
O	  0.453356920905 	  0.000000000000 	  1.545120003762 	
O	  1.453356920905 	  0.000000000000 	  4.525120003762 	
O	  0.453356920905 	  3.980000000000 	  1.545120003762 	
O	  1.453356920905 	  3.980000000000 	  4.525120003762 	
O	  4.433356920905 	  0.000000000000 	  1.545120003762 	
O	  5.433356920905 	  0.000000000000 	  4.525120003762 	
O	  4.433356920905 	  3.980000000000 	  1.545120003762 	
O	  5.433356920905 	  3.980000000000 	  4.525120003762 	
O	  2.814519382296 	  1.402765930598 	  1.545120003762 	
O	  3.814519382296 	  1.402765930598 	  4.525120003762 	
O	  2.814519382296 	  5.382765930598 	  1.545120003762 	
O	  3.814519382296 	  5.382765930598 	  4.525120003762 	
O	  6.794519382296 	  1.402765930598 	  1.545120003762 	
O	  7.794519382296 	  1.402765930598 	  4.525120003762 	
O	  6.794519382296 	  5.382765930598 	  1.545120003762 	
O	  7.794519382296 	  5.382765930598 	  4.525120003762 	
64 
Energy: 3.2406085148530228e+00 
Mg	  0.000000000000 	  0.000000000000 	  0.000000000000 	
Mg	  1.000000000000 	  0.000000000000 	  2.980000000000 	
Mg	  0.000000000000 	  3.980000000000 	  0.000000000000 	
Mg	  1.000000000000 	  3.980000000000 	  2.980000000000 	
Mg	  3.980000000000 	  0.000000000000 	  0.000000000000 	
Mg	  4.980000000000 	  0.000000000000 	  2.980000000000 	
Mg	  3.980000000000 	  3.980000000000 	  0.000000000000 	
Mg	  4.980000000000 	  3.980000000000 	  2.980000000000 	
Mg	  1.752998041745 	  1.837629920007 	  0.000000000000 	
Mg	  2.752998041745 	  1.837629920007 	  2.980000000000 	
Mg	  1.752998041745 	  5.817629920007 	  0.000000000000 	
Mg	  2.752998041745 	  5.817629920007 	  2.980000000000 	
Mg	  5.732998041745 	  1.837629920007 	  0.000000000000 	
Mg	  6.732998041745 	  1.837629920007 	  2.980000000000 	
Mg	  5.732998041745 	  5.817629920007 	  0.000000000000 	
Mg	  6.732998041745 	  5.817629920007 	  2.980000000000 	
Mg	  2.430053067843 	  0.000000000000 	  1.583734285220 	
Mg	  3.430053067843 	  0.000000000000 	  4.563734285220 	
Mg	  2.430053067843 	  3.980000000000 	  1.583734285220 	
Mg	  3.430053067843 	  3.980000000000 	  4.563734285220 	
Mg	  6.410053067843 	  0.000000000000 	  1.583734285220 	
Mg	  7.410053067843 	  0.000000000000 	  4.563734285220 	
Mg	  6.410053067843 	  3.980000000000 	  1.583734285220 	
Mg	  7.410053067843 	  3.980000000000 	  4.563734285220 	
Mg	  0.423159391311 	  2.006893676532 	  1.583734285220 	
Mg	  1.423159391311 	  2.006893676532 	  4.563734285220 	
Mg	  0.423159391311 	  5.986893676532 	  1.583734285220 	
Mg	  1.423159391311 	  5.986893676532 	  4.563734285220 	
Mg	  4.403159391311 	  2.006893676532 	  1.583734285220 	
Mg	  5.403159391311 	  2.006893676532 	  4.563734285220 	
Mg	  4.403159391311 	  5.986893676532 	  1.583734285220 	
Mg	  5.403159391311 	  5.986893676532 	  4.563734285220 	
O	  2.006893676532 	  0.000000000000 	  0.000000000000 	
O	  3.006893676532 	  0.000000000000 	  2.980000000000 	
O	  2.006893676532 	  3.980000000000 	  0.000000000000 	
O	  3.006893676532 	  3.980000000000 	  2.980000000000 	
O	  5.986893676532 	  0.000000000000 	  0.000000000000 	
O	  6.986893676532 	  0.000000000000 	  2.980000000000 	
O	  5.986893676532 	  3.980000000000 	  0.000000000000 	
O	  6.986893676532 	  3.980000000000 	  2.980000000000 	
O	  0.000000000000 	  2.006893676532 	  0.000000000000 	
O	  1.000000000000 	  2.006893676532 	  2.980000000000 	
O	  0.000000000000 	  5.986893676532 	  0.000000000000 	
O	  1.000000000000 	  5.986893676532 	  2.980000000000 	
O	  3.980000000000 	  2.006893676532 	  0.000000000000 	
O	  4.980000000000 	  2.006893676532 	  2.980000000000 	
O	  3.980000000000 	  5.986893676532 	  0.000000000000 	
O	  4.980000000000 	  5.986893676532 	  2.980000000000 	
O	  0.423159391311 	  0.000000000000 	  1.583734285220 	
O	  1.423159391311 	  0.000000000000 	  4.563734285220 	
O	  0.423159391311 	  3.980000000000 	  1.583734285220 	
O	  1.423159391311 	  3.980000000000 	  4.563734285220 	
O	  4.403159391311 	  0.000000000000 	  1.583734285220 	
O	  5.403159391311 	  0.000000000000 	  4.563734285220 	
O	  4.403159391311 	  3.980000000000 	  1.583734285220 	
O	  5.403159391311 	  3.980000000000 	  4.563734285220 	
O	  2.768580580892 	  1.450862236349 	  1.583734285220 	
O	  3.768580580892 	  1.450862236349 	  4.563734285220 	
O	  2.768580580892 	  5.430862236349 	  1.583734285220 	
O	  3.768580580892 	  5.430862236349 	  4.563734285220 	
O	  6.748580580892 	  1.450862236349 	  1.583734285220 	
O	  7.748580580892 	  1.450862236349 	  4.563734285220 	
O	  6.748580580892 	  5.430862236349 	  1.583734285220 	
O	  7.748580580892 	  5.430862236349 	  4.563734285220 	
64 
Energy: 3.8569735729791823e+00 
Mg	  0.000000000000 	  0.000000000000 	  0.000000000000 	
Mg	  1.000000000000 	  0.000000000000 	  2.980000000000 	
Mg	  0.000000000000 	  3.980000000000 	  0.000000000000 	
Mg	  1.000000000000 	  3.980000000000 	  2.980000000000 	
Mg	  3.980000000000 	  0.000000000000 	  0.000000000000 	
Mg	  4.980000000000 	  0.000000000000 	  2.980000000000 	
Mg	  3.980000000000 	  3.980000000000 	  0.000000000000 	
Mg	  4.980000000000 	  3.980000000000 	  2.980000000000 	
Mg	  1.779553558658 	  1.858142392494 	  0.000000000000 	
Mg	  2.779553558658 	  1.858142392494 	  2.980000000000 	
Mg	  1.779553558658 	  5.838142392494 	  0.000000000000 	
Mg	  2.779553558658 	  5.838142392494 	  2.980000000000 	
Mg	  5.759553558658 	  1.858142392494 	  0.000000000000 	
Mg	  6.759553558658 	  1.858142392494 	  2.980000000000 	
Mg	  5.759553558658 	  5.838142392494 	  0.000000000000 	
Mg	  6.759553558658 	  5.838142392494 	  2.980000000000 	
Mg	  2.408264229339 	  0.000000000000 	  1.622375890988 	
Mg	  3.408264229339 	  0.000000000000 	  4.602375890988 	
Mg	  2.408264229339 	  3.980000000000 	  1.622375890988 	
Mg	  3.408264229339 	  3.980000000000 	  4.602375890988 	
Mg	  6.388264229339 	  0.000000000000 	  1.622375890988 	
Mg	  7.388264229339 	  0.000000000000 	  4.602375890988 	
Mg	  6.388264229339 	  3.980000000000 	  1.622375890988 	
Mg	  7.388264229339 	  3.980000000000 	  4.602375890988 	
Mg	  0.392944169175 	  2.015320060164 	  1.622375890988 	
Mg	  1.392944169175 	  2.015320060164 	  4.602375890988 	
Mg	  0.392944169175 	  5.995320060164 	  1.622375890988 	
Mg	  1.392944169175 	  5.995320060164 	  4.602375890988 	
Mg	  4.372944169175 	  2.015320060164 	  1.622375890988 	
Mg	  5.372944169175 	  2.015320060164 	  4.602375890988 	
Mg	  4.372944169175 	  5.995320060164 	  1.622375890988 	
Mg	  5.372944169175 	  5.995320060164 	  4.602375890988 	
O	  2.015320060164 	  0.000000000000 	  0.000000000000 	
O	  3.015320060164 	  0.000000000000 	  2.980000000000 	
O	  2.015320060164 	  3.980000000000 	  0.000000000000 	
O	  3.015320060164 	  3.980000000000 	  2.980000000000 	
O	  5.995320060164 	  0.000000000000 	  0.000000000000 	
O	  6.995320060164 	  0.000000000000 	  2.980000000000 	
O	  5.995320060164 	  3.980000000000 	  0.000000000000 	
O	  6.995320060164 	  3.980000000000 	  2.980000000000 	
O	  0.000000000000 	  2.015320060164 	  0.000000000000 	
O	  1.000000000000 	  2.015320060164 	  2.980000000000 	
O	  0.000000000000 	  5.995320060164 	  0.000000000000 	
O	  1.000000000000 	  5.995320060164 	  2.980000000000 	
O	  3.980000000000 	  2.015320060164 	  0.000000000000 	
O	  4.980000000000 	  2.015320060164 	  2.980000000000 	
O	  3.980000000000 	  5.995320060164 	  0.000000000000 	
O	  4.980000000000 	  5.995320060164 	  2.980000000000 	
O	  0.392944169175 	  0.000000000000 	  1.622375890988 	
O	  1.392944169175 	  0.000000000000 	  4.602375890988 	
O	  0.392944169175 	  3.980000000000 	  1.622375890988 	
O	  1.392944169175 	  3.980000000000 	  4.602375890988 	
O	  4.372944169175 	  0.000000000000 	  1.622375890988 	
O	  5.372944169175 	  0.000000000000 	  4.602375890988 	
O	  4.372944169175 	  3.980000000000 	  1.622375890988 	
O	  5.372944169175 	  3.980000000000 	  4.602375890988 	
O	  2.722619564680 	  1.498991421867 	  1.622375890988 	
O	  3.722619564680 	  1.498991421867 	  4.602375890988 	
O	  2.722619564680 	  5.478991421867 	  1.622375890988 	
O	  3.722619564680 	  5.478991421867 	  4.602375890988 	
O	  6.702619564680 	  1.498991421867 	  1.622375890988 	
O	  7.702619564680 	  1.498991421867 	  4.602375890988 	
O	  6.702619564680 	  5.478991421867 	  1.622375890988 	
O	  7.702619564680 	  5.478991421867 	  4.602375890988 	
64 
Energy: 4.5228941641349163e+00 
Mg	  0.000000000000 	  0.000000000000 	  0.000000000000 	
Mg	  1.000000000000 	  0.000000000000 	  2.980000000000 	
Mg	  0.000000000000 	  3.980000000000 	  0.000000000000 	
Mg	  1.000000000000 	  3.980000000000 	  2.980000000000 	
Mg	  3.980000000000 	  0.000000000000 	  0.000000000000 	
Mg	  4.980000000000 	  0.000000000000 	  2.980000000000 	
Mg	  3.980000000000 	  3.980000000000 	  0.000000000000 	
Mg	  4.980000000000 	  3.980000000000 	  2.980000000000 	
Mg	  1.806125095852 	  1.878668382219 	  0.000000000000 	
Mg	  2.806125095852 	  1.878668382219 	  2.980000000000 	
Mg	  1.806125095852 	  5.858668382219 	  0.000000000000 	
Mg	  2.806125095852 	  5.858668382219 	  2.980000000000 	
Mg	  5.786125095852 	  1.878668382219 	  0.000000000000 	
Mg	  6.786125095852 	  1.878668382219 	  2.980000000000 	
Mg	  5.786125095852 	  5.858668382219 	  0.000000000000 	
Mg	  6.786125095852 	  5.858668382219 	  2.980000000000 	
Mg	  2.386471386786 	  0.000000000000 	  1.661038523119 	
Mg	  3.386471386786 	  0.000000000000 	  4.641038523119 	
Mg	  2.386471386786 	  3.980000000000 	  1.661038523119 	
Mg	  3.386471386786 	  3.980000000000 	  4.641038523119 	
Mg	  6.366471386786 	  0.000000000000 	  1.661038523119 	
Mg	  7.366471386786 	  0.000000000000 	  4.641038523119 	
Mg	  6.366471386786 	  3.980000000000 	  1.661038523119 	
Mg	  7.366471386786 	  3.980000000000 	  4.641038523119 	
Mg	  0.362716431833 	  2.023754954952 	  1.661038523119 	
Mg	  1.362716431833 	  2.023754954952 	  4.641038523119 	
Mg	  0.362716431833 	  6.003754954952 	  1.661038523119 	
Mg	  1.362716431833 	  6.003754954952 	  4.641038523119 	
Mg	  4.342716431833 	  2.023754954952 	  1.661038523119 	
Mg	  5.342716431833 	  2.023754954952 	  4.641038523119 	
Mg	  4.342716431833 	  6.003754954952 	  1.661038523119 	
Mg	  5.342716431833 	  6.003754954952 	  4.641038523119 	
O	  2.023754954952 	  0.000000000000 	  0.000000000000 	
O	  3.023754954952 	  0.000000000000 	  2.980000000000 	
O	  2.023754954952 	  3.980000000000 	  0.000000000000 	
O	  3.023754954952 	  3.980000000000 	  2.980000000000 	
O	  6.003754954952 	  0.000000000000 	  0.000000000000 	
O	  7.003754954952 	  0.000000000000 	  2.980000000000 	
O	  6.003754954952 	  3.980000000000 	  0.000000000000 	
O	  7.003754954952 	  3.980000000000 	  2.980000000000 	
O	  0.000000000000 	  2.023754954952 	  0.000000000000 	
O	  1.000000000000 	  2.023754954952 	  2.980000000000 	
O	  0.000000000000 	  6.003754954952 	  0.000000000000 	
O	  1.000000000000 	  6.003754954952 	  2.980000000000 	
O	  3.980000000000 	  2.023754954952 	  0.000000000000 	
O	  4.980000000000 	  2.023754954952 	  2.980000000000 	
O	  3.980000000000 	  6.003754954952 	  0.000000000000 	
O	  4.980000000000 	  6.003754954952 	  2.980000000000 	
O	  0.362716431833 	  0.000000000000 	  1.661038523119 	
O	  1.362716431833 	  0.000000000000 	  4.641038523119 	
O	  0.362716431833 	  3.980000000000 	  1.661038523119 	
O	  1.362716431833 	  3.980000000000 	  4.641038523119 	
O	  4.342716431833 	  0.000000000000 	  1.661038523119 	
O	  5.342716431833 	  0.000000000000 	  4.641038523119 	
O	  4.342716431833 	  3.980000000000 	  1.661038523119 	
O	  5.342716431833 	  3.980000000000 	  4.641038523119 	
O	  2.676644532252 	  1.547145563524 	  1.661038523119 	
O	  3.676644532252 	  1.547145563524 	  4.641038523119 	
O	  2.676644532252 	  5.527145563524 	  1.661038523119 	
O	  3.676644532252 	  5.527145563524 	  4.641038523119 	
O	  6.656644532252 	  1.547145563524 	  1.661038523119 	
O	  7.656644532252 	  1.547145563524 	  4.641038523119 	
O	  6.656644532252 	  5.527145563524 	  1.661038523119 	
O	  7.656644532252 	  5.527145563524 	  4.641038523119 	
64 
Energy: 5.1168900037950094e+00 
Mg	  0.000000000000 	  0.000000000000 	  0.000000000000 	
Mg	  1.000000000000 	  0.000000000000 	  2.980000000000 	
Mg	  0.000000000000 	  3.980000000000 	  0.000000000000 	
Mg	  1.000000000000 	  3.980000000000 	  2.980000000000 	
Mg	  3.980000000000 	  0.000000000000 	  0.000000000000 	
Mg	  4.980000000000 	  0.000000000000 	  2.980000000000 	
Mg	  3.980000000000 	  3.980000000000 	  0.000000000000 	
Mg	  4.980000000000 	  3.980000000000 	  2.980000000000 	
Mg	  1.832708101956 	  1.899204156287 	  0.000000000000 	
Mg	  2.832708101956 	  1.899204156287 	  2.980000000000 	
Mg	  1.832708101956 	  5.879204156287 	  0.000000000000 	
Mg	  2.832708101956 	  5.879204156287 	  2.980000000000 	
Mg	  5.812708101956 	  1.899204156287 	  0.000000000000 	
Mg	  6.812708101956 	  1.899204156287 	  2.980000000000 	
Mg	  5.812708101956 	  5.879204156287 	  0.000000000000 	
Mg	  6.812708101956 	  5.879204156287 	  2.980000000000 	
Mg	  2.364676536607 	  0.000000000000 	  1.699715993293 	
Mg	  3.364676536607 	  0.000000000000 	  4.679715993293 	
Mg	  2.364676536607 	  3.980000000000 	  1.699715993293 	
Mg	  3.364676536607 	  3.980000000000 	  4.679715993293 	
Mg	  6.344676536607 	  0.000000000000 	  1.699715993293 	
Mg	  7.344676536607 	  0.000000000000 	  4.679715993293 	
Mg	  6.344676536607 	  3.980000000000 	  1.699715993293 	
Mg	  7.344676536607 	  3.980000000000 	  4.679715993293 	
Mg	  0.332480271657 	  2.032196264950 	  1.699715993293 	
Mg	  1.332480271657 	  2.032196264950 	  4.679715993293 	
Mg	  0.332480271657 	  6.012196264950 	  1.699715993293 	
Mg	  1.332480271657 	  6.012196264950 	  4.679715993293 	
Mg	  4.312480271657 	  2.032196264950 	  1.699715993293 	
Mg	  5.312480271657 	  2.032196264950 	  4.679715993293 	
Mg	  4.312480271657 	  6.012196264950 	  1.699715993293 	
Mg	  5.312480271657 	  6.012196264950 	  4.679715993293 	
O	  2.032196264950 	  0.000000000000 	  0.000000000000 	
O	  3.032196264950 	  0.000000000000 	  2.980000000000 	
O	  2.032196264950 	  3.980000000000 	  0.000000000000 	
O	  3.032196264950 	  3.980000000000 	  2.980000000000 	
O	  6.012196264950 	  0.000000000000 	  0.000000000000 	
O	  7.012196264950 	  0.000000000000 	  2.980000000000 	
O	  6.012196264950 	  3.980000000000 	  0.000000000000 	
O	  7.012196264950 	  3.980000000000 	  2.980000000000 	
O	  0.000000000000 	  2.032196264950 	  0.000000000000 	
O	  1.000000000000 	  2.032196264950 	  2.980000000000 	
O	  0.000000000000 	  6.012196264950 	  0.000000000000 	
O	  1.000000000000 	  6.012196264950 	  2.980000000000 	
O	  3.980000000000 	  2.032196264950 	  0.000000000000 	
O	  4.980000000000 	  2.032196264950 	  2.980000000000 	
O	  3.980000000000 	  6.012196264950 	  0.000000000000 	
O	  4.980000000000 	  6.012196264950 	  2.980000000000 	
O	  0.332480271657 	  0.000000000000 	  1.699715993293 	
O	  1.332480271657 	  0.000000000000 	  4.679715993293 	
O	  0.332480271657 	  3.980000000000 	  1.699715993293 	
O	  1.332480271657 	  3.980000000000 	  4.679715993293 	
O	  4.312480271657 	  0.000000000000 	  1.699715993293 	
O	  5.312480271657 	  0.000000000000 	  4.679715993293 	
O	  4.312480271657 	  3.980000000000 	  1.699715993293 	
O	  5.312480271657 	  3.980000000000 	  4.679715993293 	
O	  2.630660753933 	  1.595317187993 	  1.699715993293 	
O	  3.630660753933 	  1.595317187993 	  4.679715993293 	
O	  2.630660753933 	  5.575317187993 	  1.699715993293 	
O	  3.630660753933 	  5.575317187993 	  4.679715993293 	
O	  6.610660753933 	  1.595317187993 	  1.699715993293 	
O	  7.610660753933 	  1.595317187993 	  4.679715993293 	
O	  6.610660753933 	  5.575317187993 	  1.699715993293 	
O	  7.610660753933 	  5.575317187993 	  4.679715993293 	
64 
Energy: 5.5502452395956254e+00 
Mg	  0.000000000000 	  0.000000000000 	  0.000000000000 	
Mg	  1.000000000000 	  0.000000000000 	  2.980000000000 	
Mg	  0.000000000000 	  3.980000000000 	  0.000000000000 	
Mg	  1.000000000000 	  3.980000000000 	  2.980000000000 	
Mg	  3.980000000000 	  0.000000000000 	  0.000000000000 	
Mg	  4.980000000000 	  0.000000000000 	  2.980000000000 	
Mg	  3.980000000000 	  3.980000000000 	  0.000000000000 	
Mg	  4.980000000000 	  3.980000000000 	  2.980000000000 	
Mg	  1.859299111364 	  1.919746687173 	  0.000000000000 	
Mg	  2.859299111364 	  1.919746687173 	  2.980000000000 	
Mg	  1.859299111364 	  5.899746687173 	  0.000000000000 	
Mg	  2.859299111364 	  5.899746687173 	  2.980000000000 	
Mg	  5.839299111364 	  1.919746687173 	  0.000000000000 	
Mg	  6.839299111364 	  1.919746687173 	  2.980000000000 	
Mg	  5.839299111364 	  5.899746687173 	  0.000000000000 	
Mg	  6.839299111364 	  5.899746687173 	  2.980000000000 	
Mg	  2.342879717834 	  0.000000000000 	  1.738403959747 	
Mg	  3.342879717834 	  0.000000000000 	  4.718403959747 	
Mg	  2.342879717834 	  3.980000000000 	  1.738403959747 	
Mg	  3.342879717834 	  3.980000000000 	  4.718403959747 	
Mg	  6.322879717834 	  0.000000000000 	  1.738403959747 	
Mg	  7.322879717834 	  0.000000000000 	  4.718403959747 	
Mg	  6.322879717834 	  3.980000000000 	  1.738403959747 	
Mg	  7.322879717834 	  3.980000000000 	  4.718403959747 	
Mg	  0.302237879044 	  2.040641838791 	  1.738403959747 	
Mg	  1.302237879044 	  2.040641838791 	  4.718403959747 	
Mg	  0.302237879044 	  6.020641838791 	  1.738403959747 	
Mg	  1.302237879044 	  6.020641838791 	  4.718403959747 	
Mg	  4.282237879044 	  2.040641838791 	  1.738403959747 	
Mg	  5.282237879044 	  2.040641838791 	  4.718403959747 	
Mg	  4.282237879044 	  6.020641838791 	  1.738403959747 	
Mg	  5.282237879044 	  6.020641838791 	  4.718403959747 	
O	  2.040641838791 	  0.000000000000 	  0.000000000000 	
O	  3.040641838791 	  0.000000000000 	  2.980000000000 	
O	  2.040641838791 	  3.980000000000 	  0.000000000000 	
O	  3.040641838791 	  3.980000000000 	  2.980000000000 	
O	  6.020641838791 	  0.000000000000 	  0.000000000000 	
O	  7.020641838791 	  0.000000000000 	  2.980000000000 	
O	  6.020641838791 	  3.980000000000 	  0.000000000000 	
O	  7.020641838791 	  3.980000000000 	  2.980000000000 	
O	  0.000000000000 	  2.040641838791 	  0.000000000000 	
O	  1.000000000000 	  2.040641838791 	  2.980000000000 	
O	  0.000000000000 	  6.020641838791 	  0.000000000000 	
O	  1.000000000000 	  6.020641838791 	  2.980000000000 	
O	  3.980000000000 	  2.040641838791 	  0.000000000000 	
O	  4.980000000000 	  2.040641838791 	  2.980000000000 	
O	  3.980000000000 	  6.020641838791 	  0.000000000000 	
O	  4.980000000000 	  6.020641838791 	  2.980000000000 	
O	  0.302237879044 	  0.000000000000 	  1.738403959747 	
O	  1.302237879044 	  0.000000000000 	  4.718403959747 	
O	  0.302237879044 	  3.980000000000 	  1.738403959747 	
O	  1.302237879044 	  3.980000000000 	  4.718403959747 	
O	  4.282237879044 	  0.000000000000 	  1.738403959747 	
O	  5.282237879044 	  0.000000000000 	  4.718403959747 	
O	  4.282237879044 	  3.980000000000 	  1.738403959747 	
O	  5.282237879044 	  3.980000000000 	  4.718403959747 	
O	  2.584670021069 	  1.643501265727 	  1.738403959747 	
O	  3.584670021069 	  1.643501265727 	  4.718403959747 	
O	  2.584670021069 	  5.623501265727 	  1.738403959747 	
O	  3.584670021069 	  5.623501265727 	  4.718403959747 	
O	  6.564670021069 	  1.643501265727 	  1.738403959747 	
O	  7.564670021069 	  1.643501265727 	  4.718403959747 	
O	  6.564670021069 	  5.623501265727 	  1.738403959747 	
O	  7.564670021069 	  5.623501265727 	  4.718403959747 	
64 
Energy: 5.7624987510628900e+00 
Mg	  0.000000000000 	  0.000000000000 	  0.000000000000 	
Mg	  1.000000000000 	  0.000000000000 	  2.980000000000 	
Mg	  0.000000000000 	  3.980000000000 	  0.000000000000 	
Mg	  1.000000000000 	  3.980000000000 	  2.980000000000 	
Mg	  3.980000000000 	  0.000000000000 	  0.000000000000 	
Mg	  4.980000000000 	  0.000000000000 	  2.980000000000 	
Mg	  3.980000000000 	  3.980000000000 	  0.000000000000 	
Mg	  4.980000000000 	  3.980000000000 	  2.980000000000 	
Mg	  1.885894357304 	  1.940292840235 	  0.000000000000 	
Mg	  2.885894357304 	  1.940292840235 	  2.980000000000 	
Mg	  1.885894357304 	  5.920292840235 	  0.000000000000 	
Mg	  2.885894357304 	  5.920292840235 	  2.980000000000 	
Mg	  5.865894357304 	  1.940292840235 	  0.000000000000 	
Mg	  6.865894357304 	  1.940292840235 	  2.980000000000 	
Mg	  5.865894357304 	  5.920292840235 	  0.000000000000 	
Mg	  6.865894357304 	  5.920292840235 	  2.980000000000 	
Mg	  2.321082220752 	  0.000000000000 	  1.777097391442 	
Mg	  3.321082220752 	  0.000000000000 	  4.757097391442 	
Mg	  2.321082220752 	  3.980000000000 	  1.777097391442 	
Mg	  3.321082220752 	  3.980000000000 	  4.757097391442 	
Mg	  6.301082220752 	  0.000000000000 	  1.777097391442 	
Mg	  7.301082220752 	  0.000000000000 	  4.757097391442 	
Mg	  6.301082220752 	  3.980000000000 	  1.777097391442 	
Mg	  7.301082220752 	  3.980000000000 	  4.757097391442 	
Mg	  0.271992414655 	  2.049089806097 	  1.777097391442 	
Mg	  1.271992414655 	  2.049089806097 	  4.757097391442 	
Mg	  0.271992414655 	  6.029089806097 	  1.777097391442 	
Mg	  1.271992414655 	  6.029089806097 	  4.757097391442 	
Mg	  4.251992414655 	  2.049089806097 	  1.777097391442 	
Mg	  5.251992414655 	  2.049089806097 	  4.757097391442 	
Mg	  4.251992414655 	  6.029089806097 	  1.777097391442 	
Mg	  5.251992414655 	  6.029089806097 	  4.757097391442 	
O	  2.049089806097 	  0.000000000000 	  0.000000000000 	
O	  3.049089806097 	  0.000000000000 	  2.980000000000 	
O	  2.049089806097 	  3.980000000000 	  0.000000000000 	
O	  3.049089806097 	  3.980000000000 	  2.980000000000 	
O	  6.029089806097 	  0.000000000000 	  0.000000000000 	
O	  7.029089806097 	  0.000000000000 	  2.980000000000 	
O	  6.029089806097 	  3.980000000000 	  0.000000000000 	
O	  7.029089806097 	  3.980000000000 	  2.980000000000 	
O	  0.000000000000 	  2.049089806097 	  0.000000000000 	
O	  1.000000000000 	  2.049089806097 	  2.980000000000 	
O	  0.000000000000 	  6.029089806097 	  0.000000000000 	
O	  1.000000000000 	  6.029089806097 	  2.980000000000 	
O	  3.980000000000 	  2.049089806097 	  0.000000000000 	
O	  4.980000000000 	  2.049089806097 	  2.980000000000 	
O	  3.980000000000 	  6.029089806097 	  0.000000000000 	
O	  4.980000000000 	  6.029089806097 	  2.980000000000 	
O	  0.271992414655 	  0.000000000000 	  1.777097391442 	
O	  1.271992414655 	  0.000000000000 	  4.757097391442 	
O	  0.271992414655 	  3.980000000000 	  1.777097391442 	
O	  1.271992414655 	  3.980000000000 	  4.757097391442 	
O	  4.251992414655 	  0.000000000000 	  1.777097391442 	
O	  5.251992414655 	  0.000000000000 	  4.757097391442 	
O	  4.251992414655 	  3.980000000000 	  1.777097391442 	
O	  5.251992414655 	  3.980000000000 	  4.757097391442 	
O	  2.538676152476 	  1.691691773240 	  1.777097391442 	
O	  3.538676152476 	  1.691691773240 	  4.757097391442 	
O	  2.538676152476 	  5.671691773240 	  1.777097391442 	
O	  3.538676152476 	  5.671691773240 	  4.757097391442 	
O	  6.518676152476 	  1.691691773240 	  1.777097391442 	
O	  7.518676152476 	  1.691691773240 	  4.757097391442 	
O	  6.518676152476 	  5.671691773240 	  1.777097391442 	
O	  7.518676152476 	  5.671691773240 	  4.757097391442 	
64 
Energy: 5.7175459806655349e+00 
Mg	  0.000000000000 	  0.000000000000 	  0.000000000000 	
Mg	  1.000000000000 	  0.000000000000 	  2.980000000000 	
Mg	  0.000000000000 	  3.980000000000 	  0.000000000000 	
Mg	  1.000000000000 	  3.980000000000 	  2.980000000000 	
Mg	  3.980000000000 	  0.000000000000 	  0.000000000000 	
Mg	  4.980000000000 	  0.000000000000 	  2.980000000000 	
Mg	  3.980000000000 	  3.980000000000 	  0.000000000000 	
Mg	  4.980000000000 	  3.980000000000 	  2.980000000000 	
Mg	  1.912490763578 	  1.960839946352 	  0.000000000000 	
Mg	  2.912490763578 	  1.960839946352 	  2.980000000000 	
Mg	  1.912490763578 	  5.940839946352 	  0.000000000000 	
Mg	  2.912490763578 	  5.940839946352 	  2.980000000000 	
Mg	  5.892490763578 	  1.960839946352 	  0.000000000000 	
Mg	  6.892490763578 	  1.960839946352 	  2.980000000000 	
Mg	  5.892490763578 	  5.940839946352 	  0.000000000000 	
Mg	  6.892490763578 	  5.940839946352 	  2.980000000000 	
Mg	  2.299284225772 	  0.000000000000 	  1.815792398029 	
Mg	  3.299284225772 	  0.000000000000 	  4.795792398029 	
Mg	  2.299284225772 	  3.980000000000 	  1.815792398029 	
Mg	  3.299284225772 	  3.980000000000 	  4.795792398029 	
Mg	  6.279284225772 	  0.000000000000 	  1.815792398029 	
Mg	  7.279284225772 	  0.000000000000 	  4.795792398029 	
Mg	  6.279284225772 	  3.980000000000 	  1.815792398029 	
Mg	  7.279284225772 	  3.980000000000 	  4.795792398029 	
Mg	  0.241745913872 	  2.057538311901 	  1.815792398029 	
Mg	  1.241745913872 	  2.057538311901 	  4.795792398029 	
Mg	  0.241745913872 	  6.037538311901 	  1.815792398029 	
Mg	  1.241745913872 	  6.037538311901 	  4.795792398029 	
Mg	  4.221745913872 	  2.057538311901 	  1.815792398029 	
Mg	  5.221745913872 	  2.057538311901 	  4.795792398029 	
Mg	  4.221745913872 	  6.037538311901 	  1.815792398029 	
Mg	  5.221745913872 	  6.037538311901 	  4.795792398029 	
O	  2.057538311901 	  0.000000000000 	  0.000000000000 	
O	  3.057538311901 	  0.000000000000 	  2.980000000000 	
O	  2.057538311901 	  3.980000000000 	  0.000000000000 	
O	  3.057538311901 	  3.980000000000 	  2.980000000000 	
O	  6.037538311901 	  0.000000000000 	  0.000000000000 	
O	  7.037538311901 	  0.000000000000 	  2.980000000000 	
O	  6.037538311901 	  3.980000000000 	  0.000000000000 	
O	  7.037538311901 	  3.980000000000 	  2.980000000000 	
O	  0.000000000000 	  2.057538311901 	  0.000000000000 	
O	  1.000000000000 	  2.057538311901 	  2.980000000000 	
O	  0.000000000000 	  6.037538311901 	  0.000000000000 	
O	  1.000000000000 	  6.037538311901 	  2.980000000000 	
O	  3.980000000000 	  2.057538311901 	  0.000000000000 	
O	  4.980000000000 	  2.057538311901 	  2.980000000000 	
O	  3.980000000000 	  6.037538311901 	  0.000000000000 	
O	  4.980000000000 	  6.037538311901 	  2.980000000000 	
O	  0.241745913872 	  0.000000000000 	  1.815792398029 	
O	  1.241745913872 	  0.000000000000 	  4.795792398029 	
O	  0.241745913872 	  3.980000000000 	  1.815792398029 	
O	  1.241745913872 	  3.980000000000 	  4.795792398029 	
O	  4.221745913872 	  0.000000000000 	  1.815792398029 	
O	  5.221745913872 	  0.000000000000 	  4.795792398029 	
O	  4.221745913872 	  3.980000000000 	  1.815792398029 	
O	  5.221745913872 	  3.980000000000 	  4.795792398029 	
O	  2.492680956870 	  1.739884181073 	  1.815792398029 	
O	  3.492680956870 	  1.739884181073 	  4.795792398029 	
O	  2.492680956870 	  5.719884181073 	  1.815792398029 	
O	  3.492680956870 	  5.719884181073 	  4.795792398029 	
O	  6.472680956870 	  1.739884181073 	  1.815792398029 	
O	  7.472680956870 	  1.739884181073 	  4.795792398029 	
O	  6.472680956870 	  5.719884181073 	  1.815792398029 	
O	  7.472680956870 	  5.719884181073 	  4.795792398029 	
64 
Energy: 5.4024646153009375e+00 
Mg	  0.000000000000 	  0.000000000000 	  0.000000000000 	
Mg	  1.000000000000 	  0.000000000000 	  2.980000000000 	
Mg	  0.000000000000 	  3.980000000000 	  0.000000000000 	
Mg	  1.000000000000 	  3.980000000000 	  2.980000000000 	
Mg	  3.980000000000 	  0.000000000000 	  0.000000000000 	
Mg	  4.980000000000 	  0.000000000000 	  2.980000000000 	
Mg	  3.980000000000 	  3.980000000000 	  0.000000000000 	
Mg	  4.980000000000 	  3.980000000000 	  2.980000000000 	
Mg	  1.939085211591 	  1.981385492550 	  0.000000000000 	
Mg	  2.939085211591 	  1.981385492550 	  2.980000000000 	
Mg	  1.939085211591 	  5.961385492550 	  0.000000000000 	
Mg	  2.939085211591 	  5.961385492550 	  2.980000000000 	
Mg	  5.919085211591 	  1.981385492550 	  0.000000000000 	
Mg	  6.919085211591 	  1.981385492550 	  2.980000000000 	
Mg	  5.919085211591 	  5.961385492550 	  0.000000000000 	
Mg	  6.919085211591 	  5.961385492550 	  2.980000000000 	
Mg	  2.277487459257 	  0.000000000000 	  1.854484649675 	
Mg	  3.277487459257 	  0.000000000000 	  4.834484649675 	
Mg	  2.277487459257 	  3.980000000000 	  1.854484649675 	
Mg	  3.277487459257 	  3.980000000000 	  4.834484649675 	
Mg	  6.257487459257 	  0.000000000000 	  1.854484649675 	
Mg	  7.257487459257 	  0.000000000000 	  4.834484649675 	
Mg	  6.257487459257 	  3.980000000000 	  1.854484649675 	
Mg	  7.257487459257 	  3.980000000000 	  4.834484649675 	
Mg	  0.211501404791 	  2.065986054466 	  1.854484649675 	
Mg	  1.211501404791 	  2.065986054466 	  4.834484649675 	
Mg	  0.211501404791 	  6.045986054466 	  1.854484649675 	
Mg	  1.211501404791 	  6.045986054466 	  4.834484649675 	
Mg	  4.191501404791 	  2.065986054466 	  1.854484649675 	
Mg	  5.191501404791 	  2.065986054466 	  4.834484649675 	
Mg	  4.191501404791 	  6.045986054466 	  1.854484649675 	
Mg	  5.191501404791 	  6.045986054466 	  4.834484649675 	
O	  2.065986054466 	  0.000000000000 	  0.000000000000 	
O	  3.065986054466 	  0.000000000000 	  2.980000000000 	
O	  2.065986054466 	  3.980000000000 	  0.000000000000 	
O	  3.065986054466 	  3.980000000000 	  2.980000000000 	
O	  6.045986054466 	  0.000000000000 	  0.000000000000 	
O	  7.045986054466 	  0.000000000000 	  2.980000000000 	
O	  6.045986054466 	  3.980000000000 	  0.000000000000 	
O	  7.045986054466 	  3.980000000000 	  2.980000000000 	
O	  0.000000000000 	  2.065986054466 	  0.000000000000 	
O	  1.000000000000 	  2.065986054466 	  2.980000000000 	
O	  0.000000000000 	  6.045986054466 	  0.000000000000 	
O	  1.000000000000 	  6.045986054466 	  2.980000000000 	
O	  3.980000000000 	  2.065986054466 	  0.000000000000 	
O	  4.980000000000 	  2.065986054466 	  2.980000000000 	
O	  3.980000000000 	  6.045986054466 	  0.000000000000 	
O	  4.980000000000 	  6.045986054466 	  2.980000000000 	
O	  0.211501404791 	  0.000000000000 	  1.854484649675 	
O	  1.211501404791 	  0.000000000000 	  4.834484649675 	
O	  0.211501404791 	  3.980000000000 	  1.854484649675 	
O	  1.211501404791 	  3.980000000000 	  4.834484649675 	
O	  4.191501404791 	  0.000000000000 	  1.854484649675 	
O	  5.191501404791 	  0.000000000000 	  4.834484649675 	
O	  4.191501404791 	  3.980000000000 	  1.854484649675 	
O	  5.191501404791 	  3.980000000000 	  4.834484649675 	
O	  2.446688583090 	  1.788073208570 	  1.854484649675 	
O	  3.446688583090 	  1.788073208570 	  4.834484649675 	
O	  2.446688583090 	  5.768073208570 	  1.854484649675 	
O	  3.446688583090 	  5.768073208570 	  4.834484649675 	
O	  6.426688583090 	  1.788073208570 	  1.854484649675 	
O	  7.426688583090 	  1.788073208570 	  4.834484649675 	
O	  6.426688583090 	  5.768073208570 	  1.854484649675 	
O	  7.426688583090 	  5.768073208570 	  4.834484649675 	
64 
Energy: 4.8274151770750500e+00 
Mg	  0.000000000000 	  0.000000000000 	  0.000000000000 	
Mg	  1.000000000000 	  0.000000000000 	  2.980000000000 	
Mg	  0.000000000000 	  3.980000000000 	  0.000000000000 	
Mg	  1.000000000000 	  3.980000000000 	  2.980000000000 	
Mg	  3.980000000000 	  0.000000000000 	  0.000000000000 	
Mg	  4.980000000000 	  0.000000000000 	  2.980000000000 	
Mg	  3.980000000000 	  3.980000000000 	  0.000000000000 	
Mg	  4.980000000000 	  3.980000000000 	  2.980000000000 	
Mg	  1.965674907289 	  2.001927188073 	  0.000000000000 	
Mg	  2.965674907289 	  2.001927188073 	  2.980000000000 	
Mg	  1.965674907289 	  5.981927188073 	  0.000000000000 	
Mg	  2.965674907289 	  5.981927188073 	  2.980000000000 	
Mg	  5.945674907289 	  2.001927188073 	  0.000000000000 	
Mg	  6.945674907289 	  2.001927188073 	  2.980000000000 	
Mg	  5.945674907289 	  5.981927188073 	  0.000000000000 	
Mg	  6.945674907289 	  5.981927188073 	  2.980000000000 	
Mg	  2.255693153556 	  0.000000000000 	  1.893170345723 	
Mg	  3.255693153556 	  0.000000000000 	  4.873170345723 	
Mg	  2.255693153556 	  3.980000000000 	  1.893170345723 	
Mg	  3.255693153556 	  3.980000000000 	  4.873170345723 	
Mg	  6.235693153556 	  0.000000000000 	  1.893170345723 	
Mg	  7.235693153556 	  0.000000000000 	  4.873170345723 	
Mg	  6.235693153556 	  3.980000000000 	  1.893170345723 	
Mg	  7.235693153556 	  3.980000000000 	  4.873170345723 	
Mg	  0.181261403917 	  2.074431749639 	  1.893170345723 	
Mg	  1.181261403917 	  2.074431749639 	  4.873170345723 	
Mg	  0.181261403917 	  6.054431749639 	  1.893170345723 	
Mg	  1.181261403917 	  6.054431749639 	  4.873170345723 	
Mg	  4.161261403917 	  2.074431749639 	  1.893170345723 	
Mg	  5.161261403917 	  2.074431749639 	  4.873170345723 	
Mg	  4.161261403917 	  6.054431749639 	  1.893170345723 	
Mg	  5.161261403917 	  6.054431749639 	  4.873170345723 	
O	  2.074431749639 	  0.000000000000 	  0.000000000000 	
O	  3.074431749639 	  0.000000000000 	  2.980000000000 	
O	  2.074431749639 	  3.980000000000 	  0.000000000000 	
O	  3.074431749639 	  3.980000000000 	  2.980000000000 	
O	  6.054431749639 	  0.000000000000 	  0.000000000000 	
O	  7.054431749639 	  0.000000000000 	  2.980000000000 	
O	  6.054431749639 	  3.980000000000 	  0.000000000000 	
O	  7.054431749639 	  3.980000000000 	  2.980000000000 	
O	  0.000000000000 	  2.074431749639 	  0.000000000000 	
O	  1.000000000000 	  2.074431749639 	  2.980000000000 	
O	  0.000000000000 	  6.054431749639 	  0.000000000000 	
O	  1.000000000000 	  6.054431749639 	  2.980000000000 	
O	  3.980000000000 	  2.074431749639 	  0.000000000000 	
O	  4.980000000000 	  2.074431749639 	  2.980000000000 	
O	  3.980000000000 	  6.054431749639 	  0.000000000000 	
O	  4.980000000000 	  6.054431749639 	  2.980000000000 	
O	  0.181261403917 	  0.000000000000 	  1.893170345723 	
O	  1.181261403917 	  0.000000000000 	  4.873170345723 	
O	  0.181261403917 	  3.980000000000 	  1.893170345723 	
O	  1.181261403917 	  3.980000000000 	  4.873170345723 	
O	  4.161261403917 	  0.000000000000 	  1.893170345723 	
O	  5.161261403917 	  0.000000000000 	  4.873170345723 	
O	  4.161261403917 	  3.980000000000 	  1.893170345723 	
O	  5.161261403917 	  3.980000000000 	  4.873170345723 	
O	  2.400702276689 	  1.836254264893 	  1.893170345723 	
O	  3.400702276689 	  1.836254264893 	  4.873170345723 	
O	  2.400702276689 	  5.816254264893 	  1.893170345723 	
O	  3.400702276689 	  5.816254264893 	  4.873170345723 	
O	  6.380702276689 	  1.836254264893 	  1.893170345723 	
O	  7.380702276689 	  1.836254264893 	  4.873170345723 	
O	  6.380702276689 	  5.816254264893 	  1.893170345723 	
O	  7.380702276689 	  5.816254264893 	  4.873170345723 	
64 
Energy: 4.0271506522112226e+00 
Mg	  0.000000000000 	  0.000000000000 	  0.000000000000 	
Mg	  1.000000000000 	  0.000000000000 	  2.980000000000 	
Mg	  0.000000000000 	  3.980000000000 	  0.000000000000 	
Mg	  1.000000000000 	  3.980000000000 	  2.980000000000 	
Mg	  3.980000000000 	  0.000000000000 	  0.000000000000 	
Mg	  4.980000000000 	  0.000000000000 	  2.980000000000 	
Mg	  3.980000000000 	  3.980000000000 	  0.000000000000 	
Mg	  4.980000000000 	  3.980000000000 	  2.980000000000 	
Mg	  1.992257390339 	  2.022462975145 	  0.000000000000 	
Mg	  2.992257390339 	  2.022462975145 	  2.980000000000 	
Mg	  1.992257390339 	  6.002462975145 	  0.000000000000 	
Mg	  2.992257390339 	  6.002462975145 	  2.980000000000 	
Mg	  5.972257390339 	  2.022462975145 	  0.000000000000 	
Mg	  6.972257390339 	  2.022462975145 	  2.980000000000 	
Mg	  5.972257390339 	  6.002462975145 	  0.000000000000 	
Mg	  6.972257390339 	  6.002462975145 	  2.980000000000 	
Mg	  2.233902068783 	  0.000000000000 	  1.931846220728 	
Mg	  3.233902068783 	  0.000000000000 	  4.911846220728 	
Mg	  2.233902068783 	  3.980000000000 	  1.931846220728 	
Mg	  3.233902068783 	  3.980000000000 	  4.911846220728 	
Mg	  6.213902068783 	  0.000000000000 	  1.931846220728 	
Mg	  7.213902068783 	  0.000000000000 	  4.911846220728 	
Mg	  6.213902068783 	  3.980000000000 	  1.931846220728 	
Mg	  7.213902068783 	  3.980000000000 	  4.911846220728 	
Mg	  0.151027924027 	  2.082874144756 	  1.931846220728 	
Mg	  1.151027924027 	  2.082874144756 	  4.911846220728 	
Mg	  0.151027924027 	  6.062874144756 	  1.931846220728 	
Mg	  1.151027924027 	  6.062874144756 	  4.911846220728 	
Mg	  4.131027924027 	  2.082874144756 	  1.931846220728 	
Mg	  5.131027924027 	  2.082874144756 	  4.911846220728 	
Mg	  4.131027924027 	  6.062874144756 	  1.931846220728 	
Mg	  5.131027924027 	  6.062874144756 	  4.911846220728 	
O	  2.082874144756 	  0.000000000000 	  0.000000000000 	
O	  3.082874144756 	  0.000000000000 	  2.980000000000 	
O	  2.082874144756 	  3.980000000000 	  0.000000000000 	
O	  3.082874144756 	  3.980000000000 	  2.980000000000 	
O	  6.062874144756 	  0.000000000000 	  0.000000000000 	
O	  7.062874144756 	  0.000000000000 	  2.980000000000 	
O	  6.062874144756 	  3.980000000000 	  0.000000000000 	
O	  7.062874144756 	  3.980000000000 	  2.980000000000 	
O	  0.000000000000 	  2.082874144756 	  0.000000000000 	
O	  1.000000000000 	  2.082874144756 	  2.980000000000 	
O	  0.000000000000 	  6.062874144756 	  0.000000000000 	
O	  1.000000000000 	  6.062874144756 	  2.980000000000 	
O	  3.980000000000 	  2.082874144756 	  0.000000000000 	
O	  4.980000000000 	  2.082874144756 	  2.980000000000 	
O	  3.980000000000 	  6.062874144756 	  0.000000000000 	
O	  4.980000000000 	  6.062874144756 	  2.980000000000 	
O	  0.151027924027 	  0.000000000000 	  1.931846220728 	
O	  1.151027924027 	  0.000000000000 	  4.911846220728 	
O	  0.151027924027 	  3.980000000000 	  1.931846220728 	
O	  1.151027924027 	  3.980000000000 	  4.911846220728 	
O	  4.131027924027 	  0.000000000000 	  1.931846220728 	
O	  5.131027924027 	  0.000000000000 	  4.911846220728 	
O	  4.131027924027 	  3.980000000000 	  1.931846220728 	
O	  5.131027924027 	  3.980000000000 	  4.911846220728 	
O	  2.354724408005 	  1.884423452584 	  1.931846220728 	
O	  3.354724408005 	  1.884423452584 	  4.911846220728 	
O	  2.354724408005 	  5.864423452584 	  1.931846220728 	
O	  3.354724408005 	  5.864423452584 	  4.911846220728 	
O	  6.334724408005 	  1.884423452584 	  1.931846220728 	
O	  7.334724408005 	  1.884423452584 	  4.911846220728 	
O	  6.334724408005 	  5.864423452584 	  1.931846220728 	
O	  7.334724408005 	  5.864423452584 	  4.911846220728 	
64 
Energy: 3.0636891053656985e+00 
Mg	  0.000000000000 	  0.000000000000 	  0.000000000000 	
Mg	  1.000000000000 	  0.000000000000 	  2.980000000000 	
Mg	  0.000000000000 	  3.980000000000 	  0.000000000000 	
Mg	  1.000000000000 	  3.980000000000 	  2.980000000000 	
Mg	  3.980000000000 	  0.000000000000 	  0.000000000000 	
Mg	  4.980000000000 	  0.000000000000 	  2.980000000000 	
Mg	  3.980000000000 	  3.980000000000 	  0.000000000000 	
Mg	  4.980000000000 	  3.980000000000 	  2.980000000000 	
Mg	  2.018830551909 	  2.042991066846 	  0.000000000000 	
Mg	  3.018830551909 	  2.042991066846 	  2.980000000000 	
Mg	  2.018830551909 	  6.022991066846 	  0.000000000000 	
Mg	  3.018830551909 	  6.022991066846 	  2.980000000000 	
Mg	  5.998830551909 	  2.042991066846 	  0.000000000000 	
Mg	  6.998830551909 	  2.042991066846 	  2.980000000000 	
Mg	  5.998830551909 	  6.022991066846 	  0.000000000000 	
Mg	  6.998830551909 	  6.022991066846 	  2.980000000000 	
Mg	  2.212114671408 	  0.000000000000 	  1.970509522034 	
Mg	  3.212114671408 	  0.000000000000 	  4.950509522034 	
Mg	  2.212114671408 	  3.980000000000 	  1.970509522034 	
Mg	  3.212114671408 	  3.980000000000 	  4.950509522034 	
Mg	  6.192114671408 	  0.000000000000 	  1.970509522034 	
Mg	  7.192114671408 	  0.000000000000 	  4.950509522034 	
Mg	  6.192114671408 	  3.980000000000 	  1.970509522034 	
Mg	  7.192114671408 	  3.980000000000 	  4.950509522034 	
Mg	  0.120802574687 	  2.091312096721 	  1.970509522034 	
Mg	  1.120802574687 	  2.091312096721 	  4.950509522034 	
Mg	  0.120802574687 	  6.071312096721 	  1.970509522034 	
Mg	  1.120802574687 	  6.071312096721 	  4.950509522034 	
Mg	  4.100802574687 	  2.091312096721 	  1.970509522034 	
Mg	  5.100802574687 	  2.091312096721 	  4.950509522034 	
Mg	  4.100802574687 	  6.071312096721 	  1.970509522034 	
Mg	  5.100802574687 	  6.071312096721 	  4.950509522034 	
O	  2.091312096721 	  0.000000000000 	  0.000000000000 	
O	  3.091312096721 	  0.000000000000 	  2.980000000000 	
O	  2.091312096721 	  3.980000000000 	  0.000000000000 	
O	  3.091312096721 	  3.980000000000 	  2.980000000000 	
O	  6.071312096721 	  0.000000000000 	  0.000000000000 	
O	  7.071312096721 	  0.000000000000 	  2.980000000000 	
O	  6.071312096721 	  3.980000000000 	  0.000000000000 	
O	  7.071312096721 	  3.980000000000 	  2.980000000000 	
O	  0.000000000000 	  2.091312096721 	  0.000000000000 	
O	  1.000000000000 	  2.091312096721 	  2.980000000000 	
O	  0.000000000000 	  6.071312096721 	  0.000000000000 	
O	  1.000000000000 	  6.071312096721 	  2.980000000000 	
O	  3.980000000000 	  2.091312096721 	  0.000000000000 	
O	  4.980000000000 	  2.091312096721 	  2.980000000000 	
O	  3.980000000000 	  6.071312096721 	  0.000000000000 	
O	  4.980000000000 	  6.071312096721 	  2.980000000000 	
O	  0.120802574687 	  0.000000000000 	  1.970509522034 	
O	  1.120802574687 	  0.000000000000 	  4.950509522034 	
O	  0.120802574687 	  3.980000000000 	  1.970509522034 	
O	  1.120802574687 	  3.980000000000 	  4.950509522034 	
O	  4.100802574687 	  0.000000000000 	  1.970509522034 	
O	  5.100802574687 	  0.000000000000 	  4.950509522034 	
O	  4.100802574687 	  3.980000000000 	  1.970509522034 	
O	  5.100802574687 	  3.980000000000 	  4.950509522034 	
O	  2.308756731157 	  1.932577513582 	  1.970509522034 	
O	  3.308756731157 	  1.932577513582 	  4.950509522034 	
O	  2.308756731157 	  5.912577513582 	  1.970509522034 	
O	  3.308756731157 	  5.912577513582 	  4.950509522034 	
O	  6.288756731157 	  1.932577513582 	  1.970509522034 	
O	  7.288756731157 	  1.932577513582 	  4.950509522034 	
O	  6.288756731157 	  5.912577513582 	  1.970509522034 	
O	  7.288756731157 	  5.912577513582 	  4.950509522034 	
64 
Energy: 2.0299651170423871e+00 
Mg	  0.000000000000 	  0.000000000000 	  0.000000000000 	
Mg	  1.000000000000 	  0.000000000000 	  2.980000000000 	
Mg	  0.000000000000 	  3.980000000000 	  0.000000000000 	
Mg	  1.000000000000 	  3.980000000000 	  2.980000000000 	
Mg	  3.980000000000 	  0.000000000000 	  0.000000000000 	
Mg	  4.980000000000 	  0.000000000000 	  2.980000000000 	
Mg	  3.980000000000 	  3.980000000000 	  0.000000000000 	
Mg	  4.980000000000 	  3.980000000000 	  2.980000000000 	
Mg	  2.045392618573 	  2.063509932998 	  0.000000000000 	
Mg	  3.045392618573 	  2.063509932998 	  2.980000000000 	
Mg	  2.045392618573 	  6.043509932997 	  0.000000000000 	
Mg	  3.045392618573 	  6.043509932997 	  2.980000000000 	
Mg	  6.025392618573 	  2.063509932998 	  0.000000000000 	
Mg	  7.025392618573 	  2.063509932998 	  2.980000000000 	
Mg	  6.025392618573 	  6.043509932997 	  0.000000000000 	
Mg	  7.025392618573 	  6.043509932997 	  2.980000000000 	
Mg	  2.190331133968 	  0.000000000000 	  2.009157989724 	
Mg	  3.190331133968 	  0.000000000000 	  4.989157989724 	
Mg	  2.190331133968 	  3.980000000000 	  2.009157989724 	
Mg	  3.190331133968 	  3.980000000000 	  4.989157989724 	
Mg	  6.170331133968 	  0.000000000000 	  2.009157989724 	
Mg	  7.170331133968 	  0.000000000000 	  4.989157989724 	
Mg	  6.170331133968 	  3.980000000000 	  2.009157989724 	
Mg	  7.170331133968 	  3.980000000000 	  4.989157989724 	
Mg	  0.090586572122 	  2.099744561846 	  2.009157989724 	
Mg	  1.090586572122 	  2.099744561846 	  4.989157989724 	
Mg	  0.090586572122 	  6.079744561846 	  2.009157989724 	
Mg	  1.090586572122 	  6.079744561846 	  4.989157989724 	
Mg	  4.070586572122 	  2.099744561846 	  2.009157989724 	
Mg	  5.070586572122 	  2.099744561846 	  4.989157989724 	
Mg	  4.070586572122 	  6.079744561846 	  2.009157989724 	
Mg	  5.070586572122 	  6.079744561846 	  4.989157989724 	
O	  2.099744561846 	  0.000000000000 	  0.000000000000 	
O	  3.099744561846 	  0.000000000000 	  2.980000000000 	
O	  2.099744561846 	  3.980000000000 	  0.000000000000 	
O	  3.099744561846 	  3.980000000000 	  2.980000000000 	
O	  6.079744561846 	  0.000000000000 	  0.000000000000 	
O	  7.079744561846 	  0.000000000000 	  2.980000000000 	
O	  6.079744561846 	  3.980000000000 	  0.000000000000 	
O	  7.079744561846 	  3.980000000000 	  2.980000000000 	
O	  0.000000000000 	  2.099744561846 	  0.000000000000 	
O	  1.000000000000 	  2.099744561846 	  2.980000000000 	
O	  0.000000000000 	  6.079744561846 	  0.000000000000 	
O	  1.000000000000 	  6.079744561846 	  2.980000000000 	
O	  3.980000000000 	  2.099744561846 	  0.000000000000 	
O	  4.980000000000 	  2.099744561846 	  2.980000000000 	
O	  3.980000000000 	  6.079744561846 	  0.000000000000 	
O	  4.980000000000 	  6.079744561846 	  2.980000000000 	
O	  0.090586572122 	  0.000000000000 	  2.009157989724 	
O	  1.090586572122 	  0.000000000000 	  4.989157989724 	
O	  0.090586572122 	  3.980000000000 	  2.009157989724 	
O	  1.090586572122 	  3.980000000000 	  4.989157989724 	
O	  4.070586572122 	  0.000000000000 	  2.009157989724 	
O	  5.070586572122 	  0.000000000000 	  4.989157989724 	
O	  4.070586572122 	  3.980000000000 	  2.009157989724 	
O	  5.070586572122 	  3.980000000000 	  4.989157989724 	
O	  2.262800391665 	  1.980713806078 	  2.009157989724 	
O	  3.262800391665 	  1.980713806078 	  4.989157989724 	
O	  2.262800391665 	  5.960713806078 	  2.009157989724 	
O	  3.262800391665 	  5.960713806078 	  4.989157989724 	
O	  6.242800391665 	  1.980713806078 	  2.009157989724 	
O	  7.242800391665 	  1.980713806078 	  4.989157989724 	
O	  6.242800391665 	  5.960713806078 	  2.009157989724 	
O	  7.242800391665 	  5.960713806078 	  4.989157989724 	
64 
Energy: 1.0543502607745092e+00 
Mg	  0.000000000000 	  0.000000000000 	  0.000000000000 	
Mg	  1.000000000000 	  0.000000000000 	  2.980000000000 	
Mg	  0.000000000000 	  3.980000000000 	  0.000000000000 	
Mg	  1.000000000000 	  3.980000000000 	  2.980000000000 	
Mg	  3.980000000000 	  0.000000000000 	  0.000000000000 	
Mg	  4.980000000000 	  0.000000000000 	  2.980000000000 	
Mg	  3.980000000000 	  3.980000000000 	  0.000000000000 	
Mg	  4.980000000000 	  3.980000000000 	  2.980000000000 	
Mg	  2.071942170832 	  2.084018310323 	  0.000000000000 	
Mg	  3.071942170832 	  2.084018310323 	  2.980000000000 	
Mg	  2.071942170832 	  6.064018310323 	  0.000000000000 	
Mg	  3.071942170832 	  6.064018310323 	  2.980000000000 	
Mg	  6.051942170832 	  2.084018310323 	  0.000000000000 	
Mg	  7.051942170832 	  2.084018310323 	  2.980000000000 	
Mg	  6.051942170832 	  6.064018310323 	  0.000000000000 	
Mg	  7.051942170832 	  6.064018310323 	  2.980000000000 	
Mg	  2.168551286757 	  0.000000000000 	  2.047789891851 	
Mg	  3.168551286757 	  0.000000000000 	  5.027789891851 	
Mg	  2.168551286757 	  3.980000000000 	  2.047789891851 	
Mg	  3.168551286757 	  3.980000000000 	  5.027789891851 	
Mg	  6.148551286757 	  0.000000000000 	  2.047789891851 	
Mg	  7.148551286757 	  0.000000000000 	  5.027789891851 	
Mg	  6.148551286757 	  3.980000000000 	  2.047789891851 	
Mg	  7.148551286757 	  3.980000000000 	  5.027789891851 	
Mg	  0.060380697453 	  2.108170589304 	  2.047789891851 	
Mg	  1.060380697453 	  2.108170589304 	  5.027789891851 	
Mg	  0.060380697453 	  6.088170589304 	  2.047789891851 	
Mg	  1.060380697453 	  6.088170589304 	  5.027789891851 	
Mg	  4.040380697453 	  2.108170589304 	  2.047789891851 	
Mg	  5.040380697453 	  2.108170589304 	  5.027789891851 	
Mg	  4.040380697453 	  6.088170589304 	  2.047789891851 	
Mg	  5.040380697453 	  6.088170589304 	  5.027789891851 	
O	  2.108170589304 	  0.000000000000 	  0.000000000000 	
O	  3.108170589304 	  0.000000000000 	  2.980000000000 	
O	  2.108170589304 	  3.980000000000 	  0.000000000000 	
O	  3.108170589304 	  3.980000000000 	  2.980000000000 	
O	  6.088170589304 	  0.000000000000 	  0.000000000000 	
O	  7.088170589304 	  0.000000000000 	  2.980000000000 	
O	  6.088170589304 	  3.980000000000 	  0.000000000000 	
O	  7.088170589304 	  3.980000000000 	  2.980000000000 	
O	  0.000000000000 	  2.108170589304 	  0.000000000000 	
O	  1.000000000000 	  2.108170589304 	  2.980000000000 	
O	  0.000000000000 	  6.088170589304 	  0.000000000000 	
O	  1.000000000000 	  6.088170589304 	  2.980000000000 	
O	  3.980000000000 	  2.108170589304 	  0.000000000000 	
O	  4.980000000000 	  2.108170589304 	  2.980000000000 	
O	  3.980000000000 	  6.088170589304 	  0.000000000000 	
O	  4.980000000000 	  6.088170589304 	  2.980000000000 	
O	  0.060380697453 	  0.000000000000 	  2.047789891851 	
O	  1.060380697453 	  0.000000000000 	  5.027789891851 	
O	  0.060380697453 	  3.980000000000 	  2.047789891851 	
O	  1.060380697453 	  3.980000000000 	  5.027789891851 	
O	  4.040380697453 	  0.000000000000 	  2.047789891851 	
O	  5.040380697453 	  0.000000000000 	  5.027789891851 	
O	  4.040380697453 	  3.980000000000 	  2.047789891851 	
O	  5.040380697453 	  3.980000000000 	  5.027789891851 	
O	  2.216855844719 	  2.028830352851 	  2.047789891851 	
O	  3.216855844719 	  2.028830352851 	  5.027789891851 	
O	  2.216855844719 	  6.008830352851 	  2.047789891851 	
O	  3.216855844719 	  6.008830352851 	  5.027789891851 	
O	  6.196855844719 	  2.028830352851 	  2.047789891851 	
O	  7.196855844719 	  2.028830352851 	  5.027789891851 	
O	  6.196855844719 	  6.008830352851 	  2.047789891851 	
O	  7.196855844719 	  6.008830352851 	  5.027789891851 	
64 
Energy: 3.0588485630907708e-01 
Mg	  0.000000000000 	  0.000000000000 	  0.000000000000 	
Mg	  1.000000000000 	  0.000000000000 	  2.980000000000 	
Mg	  0.000000000000 	  3.980000000000 	  0.000000000000 	
Mg	  1.000000000000 	  3.980000000000 	  2.980000000000 	
Mg	  3.980000000000 	  0.000000000000 	  0.000000000000 	
Mg	  4.980000000000 	  0.000000000000 	  2.980000000000 	
Mg	  3.980000000000 	  3.980000000000 	  0.000000000000 	
Mg	  4.980000000000 	  3.980000000000 	  2.980000000000 	
Mg	  2.098478171973 	  2.104515221945 	  0.000000000000 	
Mg	  3.098478171973 	  2.104515221945 	  2.980000000000 	
Mg	  2.098478171973 	  6.084515221945 	  0.000000000000 	
Mg	  3.098478171973 	  6.084515221945 	  2.980000000000 	
Mg	  6.078478171973 	  2.104515221945 	  0.000000000000 	
Mg	  7.078478171973 	  2.104515221945 	  2.980000000000 	
Mg	  6.078478171973 	  6.084515221945 	  0.000000000000 	
Mg	  7.078478171973 	  6.084515221945 	  2.980000000000 	
Mg	  2.146774571754 	  0.000000000000 	  2.086404072027 	
Mg	  3.146774571754 	  0.000000000000 	  5.066404072027 	
Mg	  2.146774571754 	  3.980000000000 	  2.086404072027 	
Mg	  3.146774571754 	  3.980000000000 	  5.066404072027 	
Mg	  6.126774571754 	  0.000000000000 	  2.086404072027 	
Mg	  7.126774571754 	  0.000000000000 	  5.066404072027 	
Mg	  6.126774571754 	  3.980000000000 	  2.086404072027 	
Mg	  7.126774571754 	  3.980000000000 	  5.066404072027 	
Mg	  0.030185249863 	  2.116589321891 	  2.086404072027 	
Mg	  1.030185249863 	  2.116589321891 	  5.066404072027 	
Mg	  0.030185249863 	  6.096589321891 	  2.086404072027 	
Mg	  1.030185249863 	  6.096589321891 	  5.066404072027 	
Mg	  4.010185249863 	  2.116589321891 	  2.086404072027 	
Mg	  5.010185249863 	  2.116589321891 	  5.066404072027 	
Mg	  4.010185249863 	  6.096589321891 	  2.086404072027 	
Mg	  5.010185249863 	  6.096589321891 	  5.066404072027 	
O	  2.116589321891 	  0.000000000000 	  0.000000000000 	
O	  3.116589321891 	  0.000000000000 	  2.980000000000 	
O	  2.116589321891 	  3.980000000000 	  0.000000000000 	
O	  3.116589321891 	  3.980000000000 	  2.980000000000 	
O	  6.096589321891 	  0.000000000000 	  0.000000000000 	
O	  7.096589321891 	  0.000000000000 	  2.980000000000 	
O	  6.096589321891 	  3.980000000000 	  0.000000000000 	
O	  7.096589321891 	  3.980000000000 	  2.980000000000 	
O	  0.000000000000 	  2.116589321891 	  0.000000000000 	
O	  1.000000000000 	  2.116589321891 	  2.980000000000 	
O	  0.000000000000 	  6.096589321891 	  0.000000000000 	
O	  1.000000000000 	  6.096589321891 	  2.980000000000 	
O	  3.980000000000 	  2.116589321891 	  0.000000000000 	
O	  4.980000000000 	  2.116589321891 	  2.980000000000 	
O	  3.980000000000 	  6.096589321891 	  0.000000000000 	
O	  4.980000000000 	  6.096589321891 	  2.980000000000 	
O	  0.030185249863 	  0.000000000000 	  2.086404072027 	
O	  1.030185249863 	  0.000000000000 	  5.066404072027 	
O	  0.030185249863 	  3.980000000000 	  2.086404072027 	
O	  1.030185249863 	  3.980000000000 	  5.066404072027 	
O	  4.010185249863 	  0.000000000000 	  2.086404072027 	
O	  5.010185249863 	  0.000000000000 	  5.066404072027 	
O	  4.010185249863 	  3.980000000000 	  2.086404072027 	
O	  5.010185249863 	  3.980000000000 	  5.066404072027 	
O	  2.170922771645 	  2.076925903570 	  2.086404072027 	
O	  3.170922771645 	  2.076925903570 	  5.066404072027 	
O	  2.170922771645 	  6.056925903570 	  2.086404072027 	
O	  3.170922771645 	  6.056925903570 	  5.066404072027 	
O	  6.150922771645 	  2.076925903570 	  2.086404072027 	
O	  7.150922771645 	  2.076925903570 	  5.066404072027 	
O	  6.150922771645 	  6.056925903570 	  2.086404072027 	
O	  7.150922771645 	  6.056925903570 	  5.066404072027 	
64 
Energy: 0.0000000000000000e+00 
Mg	  0.000000000000 	  0.000000000000 	  0.000000000000 	
Mg	  1.000000000000 	  0.000000000000 	  2.980000000000 	
Mg	  0.000000000000 	  3.980000000000 	  0.000000000000 	
Mg	  1.000000000000 	  3.980000000000 	  2.980000000000 	
Mg	  3.980000000000 	  0.000000000000 	  0.000000000000 	
Mg	  4.980000000000 	  0.000000000000 	  2.980000000000 	
Mg	  3.980000000000 	  3.980000000000 	  0.000000000000 	
Mg	  4.980000000000 	  3.980000000000 	  2.980000000000 	
Mg	  2.125000000000 	  2.125000000000 	  0.000000000000 	
Mg	  3.125000000000 	  2.125000000000 	  2.980000000000 	
Mg	  2.125000000000 	  6.105000000000 	  0.000000000000 	
Mg	  3.125000000000 	  6.105000000000 	  2.980000000000 	
Mg	  6.105000000000 	  2.125000000000 	  0.000000000000 	
Mg	  7.105000000000 	  2.125000000000 	  2.980000000000 	
Mg	  6.105000000000 	  6.105000000000 	  0.000000000000 	
Mg	  7.105000000000 	  6.105000000000 	  2.980000000000 	
Mg	  2.125000000000 	  0.000000000000 	  2.125000000000 	
Mg	  3.125000000000 	  0.000000000000 	  5.105000000000 	
Mg	  2.125000000000 	  3.980000000000 	  2.125000000000 	
Mg	  3.125000000000 	  3.980000000000 	  5.105000000000 	
Mg	  6.105000000000 	  0.000000000000 	  2.125000000000 	
Mg	  7.105000000000 	  0.000000000000 	  5.105000000000 	
Mg	  6.105000000000 	  3.980000000000 	  2.125000000000 	
Mg	  7.105000000000 	  3.980000000000 	  5.105000000000 	
Mg	  0.000000000000 	  2.125000000000 	  2.125000000000 	
Mg	  1.000000000000 	  2.125000000000 	  5.105000000000 	
Mg	  0.000000000000 	  6.105000000000 	  2.125000000000 	
Mg	  1.000000000000 	  6.105000000000 	  5.105000000000 	
Mg	  3.980000000000 	  2.125000000000 	  2.125000000000 	
Mg	  4.980000000000 	  2.125000000000 	  5.105000000000 	
Mg	  3.980000000000 	  6.105000000000 	  2.125000000000 	
Mg	  4.980000000000 	  6.105000000000 	  5.105000000000 	
O	  2.125000000000 	  0.000000000000 	  0.000000000000 	
O	  3.125000000000 	  0.000000000000 	  2.980000000000 	
O	  2.125000000000 	  3.980000000000 	  0.000000000000 	
O	  3.125000000000 	  3.980000000000 	  2.980000000000 	
O	  6.105000000000 	  0.000000000000 	  0.000000000000 	
O	  7.105000000000 	  0.000000000000 	  2.980000000000 	
O	  6.105000000000 	  3.980000000000 	  0.000000000000 	
O	  7.105000000000 	  3.980000000000 	  2.980000000000 	
O	  0.000000000000 	  2.125000000000 	  0.000000000000 	
O	  1.000000000000 	  2.125000000000 	  2.980000000000 	
O	  0.000000000000 	  6.105000000000 	  0.000000000000 	
O	  1.000000000000 	  6.105000000000 	  2.980000000000 	
O	  3.980000000000 	  2.125000000000 	  0.000000000000 	
O	  4.980000000000 	  2.125000000000 	  2.980000000000 	
O	  3.980000000000 	  6.105000000000 	  0.000000000000 	
O	  4.980000000000 	  6.105000000000 	  2.980000000000 	
O	  0.000000000000 	  0.000000000000 	  2.125000000000 	
O	  1.000000000000 	  0.000000000000 	  5.105000000000 	
O	  0.000000000000 	  3.980000000000 	  2.125000000000 	
O	  1.000000000000 	  3.980000000000 	  5.105000000000 	
O	  3.980000000000 	  0.000000000000 	  2.125000000000 	
O	  4.980000000000 	  0.000000000000 	  5.105000000000 	
O	  3.980000000000 	  3.980000000000 	  2.125000000000 	
O	  4.980000000000 	  3.980000000000 	  5.105000000000 	
O	  2.125000000000 	  2.125000000000 	  2.125000000000 	
O	  3.125000000000 	  2.125000000000 	  5.105000000000 	
O	  2.125000000000 	  6.105000000000 	  2.125000000000 	
O	  3.125000000000 	  6.105000000000 	  5.105000000000 	
O	  6.105000000000 	  2.125000000000 	  2.125000000000 	
O	  7.105000000000 	  2.125000000000 	  5.105000000000 	
O	  6.105000000000 	  6.105000000000 	  2.125000000000 	
O	  7.105000000000 	  6.105000000000 	  5.105000000000 	
