  Invoking FHI-aims ...
  | Number of atoms                   :  96
  ...scf iterations...
  | Total energy corrected        :   -7.864995524761E+01 eV
  ...
  Total atomic forces (unitary forces cleaned)
     1  -2.4271973984E-01  5.8229463426E-01  1.8416011843E-01
     2  2.3207613290E-01  5.7134637049E-01  -1.8949941697E-01
     3  2.4271968741E-01  -5.8229456749E-01  -1.8416011382E-01
     4  -2.3207603751E-01  -5.7134636888E-01  1.8949953007E-01
     5  -8.8780072188E-01  1.1444969510E+00  9.1213289161E-02
     6  8.7590483021E-01  1.0604690261E+00  1.6046069906E-02
     7  8.8780137377E-01  -1.1444967812E+00  -9.1212708749E-02
     8  -8.7590467807E-01  -1.0604692030E+00  -1.6045878626E-02
     9  -2.3431432656E-01  1.3716189781E-01  -1.1226687696E-01
    10  1.2102821222E-01  3.0294202626E-02  1.2294870392E-01
    11  2.3431372537E-01  -1.3716222852E-01  1.1226650475E-01
    12  -1.2102844086E-01  -3.0293921295E-02  -1.2294894691E-01
    13  -4.0938507336E-01  -9.4538787802E-01  -8.7582918278E-01
    14  5.2728406905E-01  -8.3645690613E-01  8.6667200566E-01
    15  4.0938449883E-01  9.4538812673E-01  8.7582897379E-01
    16  -5.2728424605E-01  8.3645688339E-01  -8.6667190637E-01
    17  1.2046909091E+00  -1.6255921512E+00  -1.4373789474E-01
    18  -1.2591985926E+00  -1.5355891839E+00  2.2521455905E-02
    19  -1.2046906810E+00  1.6255925768E+00  1.4373829797E-01
    20  1.2591988953E+00  1.5355897098E+00  -2.2521852085E-02
    21  -2.6774674838E-01  2.9285305898E-02  -6.8129821730E-02
    22  2.7864697570E-01  5.4058573800E-02  5.8301435004E-02
    23  2.6774675868E-01  -2.9285497571E-02  6.8129727154E-02
    24  -2.7864707767E-01  -5.4058985299E-02  -5.8301481003E-02
    25  6.0896724946E-01  6.5193173089E-02  4.0675946441E-01
    26  -5.6948099561E-01  -4.4224733101E-02  -2.8522934178E-01
    27  -6.0896754200E-01  -6.5193609074E-02  -4.0675977557E-01
    28  5.6948118084E-01  4.4225099443E-02  2.8522924830E-01
    29  5.8964623840E-01  1.4054523125E+00  1.3832091378E+00
    30  -5.8895431306E-01  1.4030897275E+00  -1.3804245370E+00
    31  -5.8964591663E-01  -1.4054516361E+00  -1.3832089906E+00
    32  5.8895373469E-01  -1.4030901338E+00  1.3804243708E+00
    33  -1.5366675997E-01  -2.1772872747E-02  -7.4899842331E-02
    34  1.5389784344E-01  -2.3060700840E-02  7.5440711880E-02
    35  1.5366677634E-01  2.1772382162E-02  7.4899428808E-02
    36  -1.5389794051E-01  2.3060741242E-02  -7.5440755243E-02
    37  -1.4479714700E+00  1.5625636198E+00  4.5886817818E-02
    38  1.4453279875E+00  1.5601394970E+00  -4.5405548117E-02
    39  1.4479710348E+00  -1.5625630389E+00  -4.5886570646E-02
    40  -1.4453270935E+00  -1.5601392014E+00  4.5405905517E-02
    41  4.1368238621E-03  -3.1445416439E-02  -4.3457682268E-02
    42  -5.7331687827E-03  -3.2474490340E-02  4.4396383419E-02
    43  -4.1363848323E-03  3.1444849536E-02  4.3457619240E-02
    44  5.7328067998E-03  3.2473978630E-02  -4.4396328327E-02
    45  -1.3036783797E+00  4.3785638656E-02  -8.2588339055E-01
    46  1.1836075102E+00  -7.3102133695E-02  7.3096674031E-01
    47  1.3036744459E+00  -4.3786011661E-02  8.2588074864E-01
    48  -1.1836072237E+00  7.3102408984E-02  -7.3096709461E-01
    49  -3.1863516915E+00  -2.3426459450E+00  4.3704662109E+00
    50  5.1824999797E+00  -2.1047471027E-01  -5.5224197077E+00
    51  3.1863090857E+00  2.3426298713E+00  -4.3704518658E+00
    52  -5.1825020712E+00  2.1047884175E-01  5.5224174000E+00
    53  1.2929446871E+00  2.4761346496E+00  -4.6671043626E-02
    54  -1.0644968821E+00  2.2197960685E+00  2.4001922768E-02
    55  -1.2929282638E+00  -2.4761042226E+00  4.6673227525E-02
    56  1.0644986891E+00  -2.2198000584E+00  -2.4002236995E-02
    57  -6.0923876392E-01  6.4931973168E-02  -5.6465482156E-01
    58  4.3536108726E-01  6.5533582607E-02  4.3839379505E-01
    59  6.0924262151E-01  -6.4932271348E-02  5.6465809831E-01
    60  -4.3535970599E-01  -6.5533612323E-02  -4.3839263750E-01
    61  1.7370055107E+00  -1.2311142165E+00  -1.2766137035E+00
    62  -3.8127071003E+00  -3.0473151466E+00  2.7626852968E+00
    63  -1.7369842199E+00  1.2310976046E+00  1.2765981944E+00
    64  3.8127059292E+00  3.0473144609E+00  -2.7626834407E+00
    65  2.7327568080E+00  -3.1287253791E+00  -2.5067217749E+00
    66  -2.6129501701E+00  -2.6917609620E+00  3.1475598902E+00
    67  -2.7327577816E+00  3.1287114982E+00  2.5067091116E+00
    68  2.6129462562E+00  2.6917678821E+00  -3.1475521761E+00
    69  5.6132144921E-01  1.6068276590E+00  4.2754180847E-01
    70  -5.9949164923E-01  1.6504562129E+00  -3.9629324386E-01
    71  -5.6131724782E-01  -1.6068146584E+00  -4.2753949644E-01
    72  5.9949286027E-01  -1.6504601040E+00  3.9629306289E-01
    73  -3.2295300320E-01  -1.9778059689E-01  1.3597413246E+00
    74  5.0181714954E-01  -5.2030314238E-01  -2.0393507281E+00
    75  3.2295223186E-01  1.9777898334E-01  -1.3597339509E+00
    76  -5.0181529553E-01  5.2030042873E-01  2.0393436499E+00
    77  -8.1840118562E-01  -3.3323455430E-03  -5.2139446588E-01
    78  6.9775924784E-01  -6.7385585450E-02  4.4509163289E-01
    79  8.1840178303E-01  3.3322745120E-03  5.2139491324E-01
    80  -6.9775922667E-01  6.7385449949E-02  -4.4509150786E-01
    81  5.7898815105E-01  5.4732078025E+00  3.8968447282E-01
    82  -5.7644359507E-01  5.4569897102E+00  -3.9156660379E-01
    83  -5.7901213901E-01  -5.4731721261E+00  -3.8967449070E-01
    84  5.7644275844E-01  -5.4569919876E+00  3.9156407959E-01
    85  -7.0507208645E-01  -2.1170476724E-02  -3.8111343234E-01
    86  7.0938100920E-01  -3.0786016914E-02  3.7777208814E-01
    87  7.0507582487E-01  2.1170497083E-02  3.8111573279E-01
    88  -7.0938072442E-01  3.0785931052E-02  -3.7777180500E-01
    89  -1.9040586975E-01  -9.7524353382E-01  1.5049992280E+00
    90  1.9059765491E-01  -9.8130397376E-01  -1.5095809153E+00
    91  1.9040525172E-01  9.7523872975E-01  -1.5049919163E+00
    92  -1.9059788648E-01  9.8130463343E-01  1.5095826868E+00
    93  1.5858066589E+00  -1.7539285696E+00  -1.1438022359E+00
    94  -1.5866657979E+00  -1.7620761469E+00  1.1424700553E+00
    95  -1.5857836015E+00  1.7539029272E+00  1.1437836960E+00
    96  1.5866671251E+00  1.7620780792E+00  -1.1424701290E+00
  Stress tensor (eV/A^3):
  3.5567290093E-02  -3.1420430140E-03  2.5610947961E-02
  -3.1420430140E-03  2.7007946535E-02  1.6298411684E-03
  2.5610947961E-02  1.6298411684E-03  2.3622928604E-02
