  Invoking FHI-aims ...
  | Number of atoms                   :  96
  ...scf iterations...
  | Total energy corrected        :   -9.340329499326E+01 eV
  ...
  Total atomic forces (unitary forces cleaned)
     1  -3.2926493384E-01  5.9888183393E-01  1.9684500442E-01
     2  2.4828230785E-01  5.8964814573E-01  -1.8216647866E-01
     3  3.2926482903E-01  -5.9888171422E-01  -1.9684499622E-01
     4  -2.4828222738E-01  -5.8964816279E-01  1.8216659027E-01
     5  -7.9768937094E-01  1.3297302566E+00  3.2038563476E-02
     6  1.1035438369E+00  -2.9771364909E+00  3.6278397075E+00
     7  7.9769041957E-01  -1.3297300356E+00  -3.2037656565E-02
     8  -1.1035435160E+00  2.9771362896E+00  -3.6278393854E+00
     9  -4.7520601540E-01  2.7154710186E-01  -1.9947595969E-01
    10  -5.8528478243E-01  -9.8478933320E-01  1.9519083281E-01
    11  4.7520513338E-01  -2.7154780969E-01  1.9947514174E-01
    12  5.8528371742E-01  9.8478928894E-01  -1.9519135491E-01
    13  -5.6897201586E-01  -1.1280496232E+00  -1.0906912396E+00
    14  1.5486285705E+00  2.0762233438E-02  1.1362034681E+00
    15  5.6897107938E-01  1.1280499998E+00  1.0906908818E+00
    16  -1.5486281337E+00  -2.0761734309E-02  -1.1362034051E+00
    17  4.0856046044E-01  -5.1011051874E-01  -1.4533823065E-02
    18  -1.3088659146E+00  1.2112534353E+00  -1.8121585805E+00
    19  -4.0855983665E-01  5.1011084788E-01  1.4534437547E-02
    20  1.3088659781E+00  -1.2112537910E+00  1.8121585566E+00
    21  7.5485128256E-01  -1.2928194129E+00  -1.7689577178E-01
    22  -7.0434848237E-01  -1.3945173560E+00  3.0610577174E-01
    23  -7.5485139785E-01  1.2928194902E+00  1.7689576704E-01
    24  7.0434865680E-01  1.3945176388E+00  -3.0610589112E-01
    25  1.1325889726E+00  1.2912282141E-01  8.0964612880E-01
    26  -3.0999436995E-01  -1.7047523011E+00  1.0464042935E+00
    27  -1.1325889414E+00  -1.2912361002E-01  -8.0964648995E-01
    28  3.0999487539E-01  1.7047531616E+00  -1.0464046329E+00
    29  5.0016222795E-01  3.0398063012E-01  5.7182959488E-01
    30  -4.3820411037E-01  4.3224398656E-01  -6.1964987586E-01
    31  -5.0016212692E-01  -3.0398074817E-01  -5.7183017024E-01
    32  4.3820312720E-01  -4.3224447002E-01  6.1964966003E-01
    33  1.8564020917E-01  1.2006065131E+00  9.8818006731E-01
    34  -1.7447551704E-01  1.2516544039E+00  -9.9274314975E-01
    35  -1.8564000222E-01  -1.2006061488E+00  -9.8817977676E-01
    36  1.7447549910E-01  -1.2516545506E+00  9.9274310244E-01
    37  -7.3386581123E-01  3.7636034525E-01  -2.4122592458E-01
    38  7.7692803832E-01  4.8116506683E-01  1.7160388654E-01
    39  7.3386601905E-01  -3.7636064425E-01  2.4122626023E-01
    40  -7.7692781795E-01  -4.8116585164E-01  -1.7160328712E-01
    41  -1.0241280591E+00  1.2528203643E+00  9.4439367381E-02
    42  1.0421900181E+00  1.2793374113E+00  -9.6352362782E-02
    43  1.0241278664E+00  -1.2528198361E+00  -9.4439331629E-02
    44  -1.0421896131E+00  -1.2793370860E+00  9.6352402087E-02
    45  -1.8554643601E+00  1.0175428104E-01  -1.2513260532E+00
    46  -1.3185617021E-01  -2.4156521385E+00  -1.0121813158E+00
    47  1.8554657941E+00  -1.0175238901E-01  1.2513265200E+00
    48  1.3185515138E-01  2.4156509546E+00  1.0121797284E+00
    49  2.8870343709E-01  -4.1758724744E-01  1.2045802016E+00
    50  -3.8683502577E-02  4.0926582544E-01  -2.7572568972E+00
    51  -2.8870564855E-01  4.1758614654E-01  -1.2045811627E+00
    52  3.8682924240E-02  -4.0926523930E-01  2.7572601774E+00
    53  -9.2639431510E-01  -1.9979898656E+00  -1.6863025956E-01
    54  3.2855931140E-01  -2.9752353695E+00  5.4448066347E-01
    55  9.2639417938E-01  1.9979904668E+00  1.6862990210E-01
    56  -3.2855922120E-01  2.9752355452E+00  -5.4448001690E-01
    57  1.1191389119E+00  -1.6053806580E-01  9.4905992311E-01
    58  1.8677895561E+00  3.9565114881E-01  1.6337041732E+00
    59  -1.1191377604E+00  1.6053701413E-01  -9.4905861342E-01
    60  -1.8677899857E+00  -3.9565148138E-01  -1.6337048621E+00
    61  -1.5841053581E+00  1.2353253264E+00  1.1226339461E+00
    62  -1.5686621001E+00  1.3116792853E+00  8.4219071388E-01
    63  1.5841059970E+00  -1.2353253427E+00  -1.1226333381E+00
    64  1.5686621537E+00  -1.3116794565E+00  -8.4219067976E-01
    65  1.1893346423E+00  -4.8660813273E-01  -7.7099304416E-02
    66  2.1378682902E+00  1.1063800046E+00  -4.3709292582E-02
    67  -1.1893364755E+00  4.8660929613E-01  7.7100518878E-02
    68  -2.1378680050E+00  -1.1063798026E+00  4.3710138385E-02
    69  -4.5965650858E-01  -2.1355373320E+00  -1.7450628231E-01
    70  1.0761957130E+00  -2.6153668669E+00  -2.7674111940E-01
    71  4.5965650987E-01  2.1355357740E+00  1.7450600400E-01
    72  -1.0761961038E+00  2.6153660972E+00  2.7674145465E-01
    73  5.5348798511E-01  6.7956006732E-01  -2.0877690337E+00
    74  -7.5592934455E-01  1.0466748961E+00  2.0685365708E+00
    75  -5.5348792666E-01  -6.7955951145E-01  2.0877669414E+00
    76  7.5592972595E-01  -1.0466735793E+00  -2.0685387409E+00
    77  1.2103103267E+00  -1.1598586015E-01  6.6804788708E-01
    78  -2.3713692583E+00  -5.5461492871E-01  -1.3280946710E+00
    79  -1.2103086578E+00  1.1598542487E-01  -6.6804807433E-01
    80  2.3713698756E+00  5.5461514679E-01  1.3280948543E+00
    81  9.2843087547E-01  7.9957682355E-01  4.8249875832E-01
    82  -9.9289698216E-01  1.2831773506E+00  -4.0758752843E-01
    83  -9.2843407920E-01  -7.9957852453E-01  -4.8249732603E-01
    84  9.9289772878E-01  -1.2831776750E+00  4.0758765637E-01
    85  1.3246032670E+00  1.0103687016E-01  7.3103456148E-01
    86  -1.4354330996E+00  2.6454744104E-01  -7.0150526480E-01
    87  -1.3246018009E+00  -1.0103636137E-01  -7.3103387855E-01
    88  1.4354326028E+00  -2.6454733601E-01  7.0150510844E-01
    89  3.1799017641E-01  1.0099430422E+00  -1.9957027005E+00
    90  -3.2948414955E-01  1.1951705028E+00  2.0887531218E+00
    91  -3.1798977289E-01  -1.0099413085E+00  1.9957010452E+00
    92  3.2948443043E-01  -1.1951698994E+00  -2.0887534288E+00
    93  -1.2120284737E+00  1.3860136645E+00  1.2122917168E+00
    94  1.2462008408E+00  1.5983631962E+00  -1.2042049521E+00
    95  1.2120290522E+00  -1.3860144358E+00  -1.2122919342E+00
    96  -1.2462005277E+00  -1.5983634793E+00  1.2042045015E+00
  Stress tensor (eV/A^3):
  9.3128595726E-02  -5.1631983582E-03  2.3741301276E-02
  -5.1631983582E-03  1.1117796681E-01  7.2053389031E-03
  2.3741301276E-02  7.2053389031E-03  7.3434239857E-02
