768 
Energy: -7.3825508041559999e+01 
S	  8.778583098100 	  1.541356859400 	  0.034410210600 	
S	  8.210038968100 	  1.541359669400 	 10.164966930600 	
S	  8.778551998100 	  7.724918619400 	  0.034407380600 	
S	  8.210007868100 	  7.724921429400 	 10.164964100600 	
S	 23.459410398100 	  1.541366089400 	  0.062540140600 	
S	 22.890866268100 	  1.541368899400 	 10.193096860600 	
S	 23.459379298100 	  7.724927849400 	  0.062537310600 	
S	 22.890835168100 	  7.724930659400 	 10.193094030600 	
S	  5.617972169000 	  4.633116300900 	  5.058959345800 	
S	  5.049428039000 	  4.633119110900 	 15.189516065800 	
S	  5.617941069000 	 10.816678060900 	  5.058956515800 	
S	  5.049396939000 	 10.816680870900 	 15.189513235800 	
S	 20.298799469000 	  4.633125530900 	  5.087089275800 	
S	 19.730255339000 	  4.633128340900 	 15.217645995800 	
S	 20.298768369000 	 10.816687290900 	  5.087086445800 	
S	 19.730224239000 	 10.816690100900 	 15.217643165800 	
S	  5.333668977500 	  4.642216569600 	 10.124273508100 	
S	  4.765124847500 	  4.642219379600 	 20.254830228100 	
S	  5.333637877500 	 10.825778329600 	 10.124270678100 	
S	  4.765093747500 	 10.825781139600 	 20.254827398100 	
S	 20.014496277500 	  4.642225799600 	 10.152403438100 	
S	 19.445952147500 	  4.642228609600 	 20.282960158100 	
S	 20.014465177500 	 10.825787559600 	 10.152400608100 	
S	 19.445921047500 	 10.825790369600 	 20.282957328100 	
S	  8.494280183300 	  1.550457870200 	  5.099724677400 	
S	  7.925736053300 	  1.550460680200 	 15.230281397400 	
S	  8.494249083300 	  7.734019630200 	  5.099721847400 	
S	  7.925704953300 	  7.734022440200 	 15.230278567400 	
S	 23.175107483300 	  1.550467100200 	  5.127854607400 	
S	 22.606563353300 	  1.550469910200 	 15.258411327400 	
S	 23.175076383300 	  7.734028860200 	  5.127851777400 	
S	 22.606532253300 	  7.734031670200 	 15.258408497400 	
C	  6.798118307500 	  2.504334010600 	  9.780797448900 	
C	  6.229574177500 	  2.504336820600 	 19.911354168900 	
C	  6.798087207500 	  8.687895770600 	  9.780794618900 	
C	  6.229543077500 	  8.687898580600 	 19.911351338900 	
C	 21.478945607500 	  2.504343240600 	  9.808927378900 	
C	 20.910401477500 	  2.504346050600 	 19.939484098900 	
C	 21.478914507500 	  8.687905000600 	  9.808924548900 	
C	 20.910370377500 	  8.687907810600 	 19.939481268900 	
C	  7.029858902800 	  5.596110217300 	  5.443156977400 	
C	  6.461314772800 	  5.596113027300 	 15.573713697400 	
C	  7.029827802800 	 11.779671977300 	  5.443154147400 	
C	  6.461283672800 	 11.779674787300 	 15.573710867400 	
C	 21.710686202800 	  5.596119447300 	  5.471286907400 	
C	 21.142142072800 	  5.596122257300 	 15.601843627400 	
C	 21.710655102800 	 11.779681207300 	  5.471284077400 	
C	 21.142110972800 	 11.779684017300 	 15.601840797400 	
C	  7.314133768200 	  3.679239356500 	  0.377886269800 	
C	  6.745589638200 	  3.679242166500 	 10.508442989800 	
C	  7.314102668200 	  9.862801116500 	  0.377883439800 	
C	  6.745558538200 	  9.862803926500 	 10.508440159800 	
C	 21.994961068200 	  3.679248586500 	  0.406016199800 	
C	 21.426416938200 	  3.679251396500 	 10.536572919800 	
C	 21.994929968200 	  9.862810346500 	  0.406013369800 	
C	 21.426385838200 	  9.862813156500 	 10.536570089800 	
C	  7.082393302600 	  0.587464077300 	  4.715527045500 	
C	  6.513849172600 	  0.587466887300 	 14.846083765500 	
C	  7.082362202600 	  6.771025837300 	  4.715524215500 	
C	  6.513818072600 	  6.771028647300 	 14.846080935500 	
C	 21.763220602600 	  0.587473307300 	  4.743656975500 	
C	 21.194676472600 	  0.587476117300 	 14.874213695500 	
C	 21.763189502600 	  6.771035067300 	  4.743654145500 	
C	 21.194645372600 	  6.771037877300 	 14.874210865500 	
C	  5.707537281800 	  2.321126042300 	  8.876603728600 	
C	  5.138993151800 	  2.321128852300 	 19.007160448600 	
C	  5.707506181800 	  8.504687802300 	  8.876600898600 	
C	  5.138962051800 	  8.504690612300 	 19.007157618600 	
C	 20.388364581800 	  2.321135272300 	  8.904733658600 	
C	 19.819820451800 	  2.321138082300 	 19.035290378600 	
C	 20.388333481800 	  8.504697032300 	  8.904730828600 	
C	 19.819789351800 	  8.504699842300 	 19.035287548600 	
C	  8.120442166400 	  5.412901958300 	  6.347351676700 	
C	  7.551898036400 	  5.412904768300 	 16.477908396700 	
C	  8.120411066400 	 11.596463718300 	  6.347348846700 	
C	  7.551866936400 	 11.596466528300 	 16.477905566700 	
C	 22.801269466400 	  5.412911188300 	  6.375481606700 	
C	 22.232725336400 	  5.412913998300 	 16.506038326700 	
C	 22.801238366400 	 11.596472948300 	  6.375478776700 	
C	 22.232694236400 	 11.596475758300 	 16.506035496700 	
C	  8.404714652800 	  3.862447386700 	  1.282079888500 	
C	  7.836170522800 	  3.862450196700 	 11.412636608500 	
C	  8.404683552800 	 10.046009146700 	  1.282077058500 	
C	  7.836139422800 	 10.046011956700 	 11.412633778500 	
C	 23.085541952800 	  3.862456616700 	  1.310209818500 	
C	 22.516997822800 	  3.862459426700 	 11.440766538500 	
C	 23.085510852800 	 10.046018376700 	  1.310206988500 	
C	 22.516966722800 	 10.046021186700 	 11.440763708500 	
C	  5.991810044800 	  0.770672274600 	  3.811332244900 	
C	  5.423265914800 	  0.770675084600 	 13.941888964900 	
C	  5.991778944800 	  6.954234034600 	  3.811329414900 	
C	  5.423234814800 	  6.954236844600 	 13.941886134900 	
C	 20.672637344800 	  0.770681504600 	  3.839462174900 	
C	 20.104093214800 	  0.770684314600 	 13.970018894900 	
C	 20.672606244800 	  6.954243264600 	  3.839459344900 	
C	 20.104062114800 	  6.954246074600 	 13.970016064900 	
C	  4.807288713200 	  3.418578044500 	  8.955234686400 	
C	  4.238744583200 	  3.418580854500 	 19.085791406400 	
C	  4.807257613200 	  9.602139804500 	  8.955231856400 	
C	  4.238713483200 	  9.602142614500 	 19.085788576400 	
C	 19.488116013200 	  3.418587274500 	  8.983364616400 	
C	 18.919571883200 	  3.418590084500 	 19.113921336400 	
C	 19.488084913200 	  9.602149034500 	  8.983361786400 	
C	 18.919540783200 	  9.602151844500 	 19.113918506400 	
C	  9.020685667900 	  0.326811214600 	  6.268754309600 	
C	  8.452141537900 	  0.326814024600 	 16.399311029600 	
C	  9.020654567900 	  6.510372974600 	  6.268751479600 	
C	  8.452110437900 	  6.510375784600 	 16.399308199600 	
C	 23.701512967900 	  0.326820444600 	  6.296884239600 	
C	 23.132968837900 	  0.326823254600 	 16.427440959600 	
C	 23.701481867900 	  6.510382204600 	  6.296881409600 	
C	 23.132937737900 	  6.510385014600 	 16.427438129600 	
C	  9.304963215700 	  2.764995446300 	  1.203449032000 	
C	  8.736419085700 	  2.764998256300 	 11.334005752000 	
C	  9.304932115700 	  8.948557206300 	  1.203446202000 	
C	  8.736387985700 	  8.948560016300 	 11.334002922000 	
C	 23.985790515700 	  2.765004676300 	  1.231578962000 	
C	 23.417246385700 	  2.765007486300 	 11.362135682000 	
C	 23.985759415700 	  8.948566436300 	  1.231576132000 	
C	 23.417215285700 	  8.948569246300 	 11.362132852000 	
C	  5.091566543200 	  5.856762956400 	  3.889929612000 	
C	  4.523022413200 	  5.856765766400 	 14.020486332000 	
C	  5.091535443200 	 12.040324716400 	  3.889926782000 	
C	  4.522991313200 	 12.040327526400 	 14.020483502000 	
C	 19.772393843200 	  5.856772186400 	  3.918059542000 	
C	 19.203849713200 	  5.856774996400 	 14.048616262000 	
C	 19.772362743200 	 12.040333946400 	  3.918056712000 	
C	 19.203818613200 	 12.040336756400 	 14.048613432000 	
C	  3.638231112900 	  3.456968704600 	  8.193277916700 	
C	  3.069686982900 	  3.456971514600 	 18.323834636700 	
C	  3.638200012900 	  9.640530464600 	  8.193275086700 	
C	  3.069655882900 	  9.640533274600 	 18.323831806700 	
C	 18.319058412900 	  3.456977934600 	  8.221407846700 	
C	 17.750514282900 	  3.456980744600 	 18.351964566700 	
C	 18.319027312900 	  9.640539694600 	  8.221405016700 	
C	 17.750483182900 	  9.640542504600 	 18.351961736700 	
C	 10.189735933600 	  0.365211363600 	  7.030719744100 	
C	  9.621191803600 	  0.365214173600 	 17.161276464100 	
C	 10.189704833600 	  6.548773123600 	  7.030716914100 	
C	  9.621160703600 	  6.548775933600 	 17.161273634100 	
C	 24.870563233600 	  0.365220593600 	  7.058849674100 	
C	 24.302019103600 	  0.365223403600 	 17.189406394100 	
C	 24.870532133600 	  6.548782353600 	  7.058846844100 	
C	 24.301988003600 	  6.548785163600 	 17.189403564100 	
C	 10.474020810300 	  2.726604848100 	  1.965405903000 	
C	  9.905476680300 	  2.726607658100 	 12.095962623000 	
C	 10.473989710300 	  8.910166608100 	  1.965403073000 	
C	  9.905445580300 	  8.910169418100 	 12.095959793000 	
C	 25.154848110300 	  2.726614078100 	  1.993535833000 	
C	 24.586303980300 	  2.726616888100 	 12.124092553000 	
C	 25.154817010300 	  8.910175838100 	  1.993533003000 	
C	 24.586272880300 	  8.910178648100 	 12.124089723000 	
C	  3.922516277600 	  5.818362745600 	  3.127964177500 	
C	  3.353972147600 	  5.818365555600 	 13.258520897500 	
C	  3.922485177600 	 12.001924505600 	  3.127961347500 	
C	  3.353941047600 	 12.001927315600 	 13.258518067500 	
C	 18.603343577600 	  5.818371975600 	  3.156094107500 	
C	 18.034799447600 	  5.818374785600 	 13.286650827500 	
C	 18.603312477600 	 12.001933735600 	  3.156091277500 	
C	 18.034768347600 	 12.001936545600 	 13.286647997500 	
H	  2.977023765500 	  4.314908014000 	  8.276816523600 	
H	  2.408479635500 	  4.314910824000 	 18.407373243600 	
H	  2.976992665500 	 10.498469774000 	  8.276813693600 	
H	  2.408448535500 	 10.498472584000 	 18.407370413600 	
H	 17.657851065500 	  4.314917244000 	  8.304946453600 	
H	 17.089306935500 	  4.314920054000 	 18.435503173600 	
H	 17.657819965500 	 10.498479004000 	  8.304943623600 	
H	 17.089275835500 	 10.498481814000 	 18.435500343600 	
H	 10.850920197100 	  1.223158377000 	  6.947191975500 	
H	 10.282376067100 	  1.223161187000 	 17.077748695500 	
H	 10.850889097100 	  7.406720137000 	  6.947189145500 	
H	 10.282344967100 	  7.406722947000 	 17.077745865500 	
H	 25.531747497100 	  1.223167607000 	  6.975321905500 	
H	 24.963203367100 	  1.223170417000 	 17.105878625500 	
H	 25.531716397100 	  7.406729367000 	  6.975319075500 	
H	 24.963172267100 	  7.406732177000 	 17.105875795500 	
H	 11.135228163400 	  1.868665538700 	  1.881867194800 	
H	 10.566684033400 	  1.868668348700 	 12.012423914800 	
H	 11.135197063400 	  8.052227298700 	  1.881864364800 	
H	 10.566652933400 	  8.052230108700 	 12.012421084800 	
H	 25.816055463400 	  1.868674768700 	  1.909997124800 	
H	 25.247511333400 	  1.868677578700 	 12.040553844800 	
H	 25.816024363400 	  8.052236528700 	  1.909994294800 	
H	 25.247480233400 	  8.052239338700 	 12.040551014800 	
H	  3.261332160800 	  4.960415670400 	  3.211491946300 	
H	  2.692788030800 	  4.960418480400 	 13.342048666300 	
H	  3.261301060800 	 11.143977430400 	  3.211489116300 	
H	  2.692756930800 	 11.143980240400 	 13.342045836300 	
H	 17.942159460800 	  4.960424900400 	  3.239621876300 	
H	 17.373615330800 	  4.960427710400 	 13.370178596300 	
H	 17.942128360800 	 11.143986660400 	  3.239619046300 	
H	 17.373584230800 	 11.143989470400 	 13.370175766300 	
C	  3.326383536000 	  2.393111112500 	  7.336713806700 	
C	  2.757839406000 	  2.393113922500 	 17.467270526700 	
C	  3.326352436000 	  8.576672872500 	  7.336710976700 	
C	  2.757808306000 	  8.576675682500 	 17.467267696700 	
C	 18.007210836000 	  2.393120342500 	  7.364843736700 	
C	 17.438666706000 	  2.393123152500 	 17.495400456700 	
C	 18.007179736000 	  8.576682102500 	  7.364840906700 	
C	 17.438635606000 	  8.576684912500 	 17.495397626700 	
C	 10.501585199000 	  5.484900443400 	  7.887257318900 	
C	  9.933041069000 	  5.484903253400 	 18.017814038900 	
C	 10.501554099000 	 11.668462203400 	  7.887254488900 	
C	  9.933009969000 	 11.668465013400 	 18.017811208900 	
C	 25.182412499000 	  5.484909673400 	  7.915387248900 	
C	 24.613868369000 	  5.484912483400 	 18.045943968900 	
C	 25.182381399000 	 11.668471433400 	  7.915384418900 	
C	 24.613837269000 	 11.668474243400 	 18.045941138900 	
C	 10.785868240400 	  3.790462378300 	  2.821970012800 	
C	 10.217324110400 	  3.790465188300 	 12.952526732800 	
C	 10.785837140400 	  9.974024138300 	  2.821967182800 	
C	 10.217293010400 	  9.974026948300 	 12.952523902800 	
C	 25.466695540400 	  3.790471608300 	  2.850099942800 	
C	 24.898151410400 	  3.790474418300 	 12.980656662800 	
C	 25.466664440400 	  9.974033368300 	  2.850097112800 	
C	 24.898120310400 	  9.974036178300 	 12.980653832800 	
C	  3.610667164600 	  0.698673603900 	  2.271426501600 	
C	  3.042123034600 	  0.698676413900 	 12.401983221600 	
C	  3.610636064600 	  6.882235363900 	  2.271423671600 	
C	  3.042091934600 	  6.882238173900 	 12.401980391600 	
C	 18.291494464600 	  0.698682833900 	  2.299556431600 	
C	 17.722950334600 	  0.698685643900 	 12.430113151600 	
C	 18.291463364600 	  6.882244593900 	  2.299553601600 	
C	 17.722919234600 	  6.882247403900 	 12.430110321600 	
C	  4.246239376200 	  1.326745920100 	  7.232392811600 	
C	  3.677695246200 	  1.326748730100 	 17.362949531600 	
C	  4.246208276200 	  7.510307680100 	  7.232389981600 	
C	  3.677664146200 	  7.510310490100 	 17.362946701600 	
C	 18.927066676200 	  1.326755150100 	  7.260522741600 	
C	 18.358522546200 	  1.326757960100 	 17.391079461600 	
C	 18.927035576200 	  7.510316910100 	  7.260519911600 	
C	 18.358491446200 	  7.510319720100 	 17.391076631600 	
C	  9.581760883400 	  4.418519382000 	  7.991559269300 	
C	  9.013216753400 	  4.418522192000 	 18.122115989300 	
C	  9.581729783400 	 10.602081142000 	  7.991556439300 	
C	  9.013185653400 	 10.602083952000 	 18.122113159300 	
C	 24.262588183400 	  4.418528612000 	  8.019689199300 	
C	 23.694044053400 	  4.418531422000 	 18.150245919300 	
C	 24.262557083400 	 10.602090372000 	  8.019686369300 	
C	 23.694012953400 	 10.602093182000 	 18.150243089300 	
C	  9.866012247700 	  4.856827447100 	  2.926291108900 	
C	  9.297468117700 	  4.856830257100 	 13.056847828900 	
C	  9.865981147700 	 11.040389207100 	  2.926288278900 	
C	  9.297437017700 	 11.040392017100 	 13.056844998900 	
C	 24.546839547700 	  4.856836677100 	  2.954421038900 	
C	 23.978295417700 	  4.856839487100 	 13.084977758900 	
C	 24.546808447700 	 11.040398437100 	  2.954418208900 	
C	 23.978264317700 	 11.040401247100 	 13.084974928900 	
C	  4.530491333400 	  1.765054665300 	  2.167124550900 	
C	  3.961947203400 	  1.765057475300 	 12.297681270900 	
C	  4.530460233400 	  7.948616425300 	  2.167121720900 	
C	  3.961916103400 	  7.948619235300 	 12.297678440900 	
C	 19.211318633400 	  1.765063895300 	  2.195254480900 	
C	 18.642774503400 	  1.765066705300 	 12.325811200900 	
C	 19.211287533400 	  7.948625655300 	  2.195251650900 	
C	 18.642743403400 	  7.948628465300 	 12.325808370900 	
H	  4.049839811700 	  0.502303909100 	  6.552247741900 	
H	  3.481295681700 	  0.502306719100 	 16.682804461900 	
H	  4.049808711700 	  6.685865669100 	  6.552244911900 	
H	  3.481264581700 	  6.685868479100 	 16.682801631900 	
H	 18.730667111700 	  0.502313139100 	  6.580377671900 	
H	 18.162122981700 	  0.502315949100 	 16.710934391900 	
H	 18.730636011700 	  6.685874899100 	  6.580374841900 	
H	 18.162091881700 	  6.685877709100 	 16.710931561900 	
H	  9.778172631800 	  3.594078723200 	  8.671703784000 	
H	  9.209628501800 	  3.594081533200 	 18.802260504000 	
H	  9.778141531800 	  9.777640483200 	  8.671700954000 	
H	  9.209597401800 	  9.777643293200 	 18.802257674000 	
H	 24.458999931800 	  3.594087953200 	  8.699833714000 	
H	 23.890455801800 	  3.594090763200 	 18.830390434000 	
H	 24.458968831800 	  9.777649713200 	  8.699830884000 	
H	 23.890424701800 	  9.777652523200 	 18.830387604000 	
H	 10.062411806500 	  5.681269458100 	  3.606436279800 	
H	  9.493867676500 	  5.681272268100 	 13.736992999800 	
H	 10.062380706500 	 11.864831218100 	  3.606433449800 	
H	  9.493836576500 	 11.864834028100 	 13.736990169800 	
H	 24.743239106500 	  5.681278688100 	  3.634566209800 	
H	 24.174694976500 	  5.681281498100 	 13.765122929800 	
H	 24.743208006500 	 11.864840448100 	  3.634563379800 	
H	 24.174663876500 	 11.864843258100 	 13.765120099800 	
H	  4.334079585100 	  2.589495324100 	  1.486980036300 	
H	  3.765535455100 	  2.589498134100 	 11.617536756300 	
H	  4.334048485100 	  8.773057084100 	  1.486977206300 	
H	  3.765504355100 	  8.773059894100 	 11.617533926300 	
H	 19.014906885100 	  2.589504554100 	  1.515109966300 	
H	 18.446362755100 	  2.589507364100 	 11.645666686300 	
H	 19.014875785100 	  8.773066314100 	  1.515107136300 	
H	 18.446331655100 	  8.773069124100 	 11.645663856300 	
C	  5.415710393500 	  1.283137318900 	  7.979564150100 	
C	  4.847166263500 	  1.283140128900 	 18.110120870100 	
C	  5.415679293500 	  7.466699078900 	  7.979561320100 	
C	  4.847135163500 	  7.466701888900 	 18.110118040100 	
C	 20.096537693500 	  1.283146548900 	  8.007694080100 	
C	 19.527993563500 	  1.283149358900 	 18.138250800100 	
C	 20.096506593500 	  7.466708308900 	  8.007691250100 	
C	 19.527962463500 	  7.466711118900 	 18.138247970100 	
C	  8.412295413000 	  4.374903959500 	  7.244378051500 	
C	  7.843751283000 	  4.374906769500 	 17.374934771500 	
C	  8.412264313000 	 10.558465719500 	  7.244375221500 	
C	  7.843720183000 	 10.558468529500 	 17.374931941500 	
C	 23.093122713000 	  4.374913189500 	  7.272507981500 	
C	 22.524578583000 	  4.374915999500 	 17.403064701500 	
C	 23.093091613000 	 10.558474949500 	  7.272505151500 	
C	 22.524547483000 	 10.558477759500 	 17.403061871500 	
C	  8.696541388600 	  4.900436048200 	  2.179119568000 	
C	  8.127997258600 	  4.900438858200 	 12.309676288000 	
C	  8.696510288600 	 11.083997808200 	  2.179116738000 	
C	  8.127966158600 	 11.084000618200 	 12.309673458000 	
C	 23.377368688600 	  4.900445278200 	  2.207249498000 	
C	 22.808824558600 	  4.900448088200 	 12.337806218000 	
C	 23.377337588600 	 11.084007038200 	  2.207246668000 	
C	 22.808793458600 	 11.084009848200 	 12.337803388000 	
C	  5.699956798100 	  1.808670211500 	  2.914305870100 	
C	  5.131412668100 	  1.808673021500 	 13.044862590100 	
C	  5.699925698100 	  7.992231971500 	  2.914303040100 	
C	  5.131381568100 	  7.992234781500 	 13.044859760100 	
C	 20.380784098100 	  1.808679441500 	  2.942435800100 	
C	 19.812239968100 	  1.808682251500 	 13.072992520100 	
C	 20.380752998100 	  7.992241201500 	  2.942432970100 	
C	 19.812208868100 	  7.992244011500 	 13.072989690100 	
H	  6.095413680900 	  0.440179673500 	  7.880948511900 	
H	  5.526869550900 	  0.440182483500 	 18.011505231900 	
H	  6.095382580900 	  6.623741433500 	  7.880945681900 	
H	  5.526838450900 	  6.623744243500 	 18.011502401900 	
H	 20.776240980900 	  0.440188903500 	  7.909078441900 	
H	 20.207696850900 	  0.440191713500 	 18.039635161900 	
H	 20.776209880900 	  6.623750663500 	  7.909075611900 	
H	 20.207665750900 	  6.623753473500 	 18.039632331900 	
H	  7.732618281700 	  3.531935504600 	  7.342985579400 	
H	  7.164074151700 	  3.531938314600 	 17.473542299400 	
H	  7.732587181700 	  9.715497264600 	  7.342982749400 	
H	  7.164043051700 	  9.715500074600 	 17.473539469400 	
H	 22.413445581700 	  3.531944734600 	  7.371115509400 	
H	 21.844901451700 	  3.531947544600 	 17.501672229400 	
H	 22.413414481700 	  9.715506494600 	  7.371112679400 	
H	 21.844870351700 	  9.715509304600 	 17.501669399400 	
H	  8.016837948600 	  5.743393631800 	  2.277735307300 	
H	  7.448293818600 	  5.743396441800 	 12.408292027300 	
H	  8.016806848600 	 11.926955391800 	  2.277732477300 	
H	  7.448262718600 	 11.926958201800 	 12.408289197300 	
H	 22.697665248600 	  5.743402861800 	  2.305865237300 	
H	 22.129121118600 	  5.743405671800 	 12.436421957300 	
H	 22.697634148600 	 11.926964621800 	  2.305862407300 	
H	 22.129090018600 	 11.926967431800 	 12.436419127300 	
H	  6.379633929400 	  2.651638728300 	  2.815698342200 	
H	  5.811089799400 	  2.651641538300 	 12.946255062200 	
H	  6.379602829400 	  8.835200488300 	  2.815695512200 	
H	  5.811058699400 	  8.835203298300 	 12.946252232200 	
H	 21.060461229400 	  2.651647958300 	  2.843828272200 	
H	 20.491917099400 	  2.651650768300 	 12.974384992200 	
H	 21.060430129400 	  8.835209718300 	  2.843825442200 	
H	 20.491885999400 	  8.835212528300 	 12.974382162200 	
C	  2.038932514800 	  2.415402770700 	  6.496426445200 	
C	  1.470388384800 	  2.415405580700 	 16.626983165200 	
C	  2.038901414800 	  8.598964530700 	  6.496423615200 	
C	  1.470357284800 	  8.598967340700 	 16.626980335200 	
C	 16.719759814800 	  2.415412000700 	  6.524556375200 	
C	 16.151215684800 	  2.415414810700 	 16.655113095200 	
C	 16.719728714800 	  8.598973760700 	  6.524553545200 	
C	 16.151184584800 	  8.598976570700 	 16.655110265200 	
C	 11.789036815200 	  5.507193873300 	  8.727543141800 	
C	 11.220492685200 	  5.507196683300 	 18.858099861800 	
C	 11.789005715200 	 11.690755633300 	  8.727540311800 	
C	 11.220461585200 	 11.690758443300 	 18.858097031800 	
C	 26.469864115200 	  5.507203103300 	  8.755673071800 	
C	 25.901319985200 	  5.507205913300 	 18.886229791800 	
C	 26.469833015200 	 11.690764863300 	  8.755670241800 	
C	 25.901288885200 	 11.690767673300 	 18.886226961800 	
C	 12.073319255900 	  3.768170843800 	  3.662257475500 	
C	 11.504775125900 	  3.768173653800 	 13.792814195500 	
C	 12.073288155900 	  9.951732603800 	  3.662254645500 	
C	 11.504744025900 	  9.951735413800 	 13.792811365500 	
C	 26.754146555900 	  3.768180073800 	  3.690387405500 	
C	 26.185602425900 	  3.768182883800 	 13.820944125500 	
C	 26.754115455900 	  9.951741833800 	  3.690384575500 	
C	 26.185571325900 	  9.951744643800 	 13.820941295500 	
C	  2.323215700900 	  0.676380050400 	  1.431140577700 	
C	  1.754671570900 	  0.676382860400 	 11.561697297700 	
C	  2.323184600900 	  6.859941810400 	  1.431137747700 	
C	  1.754640470900 	  6.859944620400 	 11.561694467700 	
C	 17.004043000900 	  0.676389280400 	  1.459270507700 	
C	 16.435498870900 	  0.676392090400 	 11.589827227700 	
C	 17.004011900900 	  6.859951040400 	  1.459267677700 	
C	 16.435467770900 	  6.859953850400 	 11.589824397700 	
C	  2.316129708800 	  3.196526817000 	  5.195239794800 	
C	  1.747585578800 	  3.196529627000 	 15.325796514800 	
C	  2.316098608800 	  9.380088577000 	  5.195236964800 	
C	  1.747554478800 	  9.380091387000 	 15.325793684800 	
C	 16.996957008800 	  3.196536047000 	  5.223369724800 	
C	 16.428412878800 	  3.196538857000 	 15.353926444800 	
C	 16.996925908800 	  9.380097807000 	  5.223366894800 	
C	 16.428381778800 	  9.380100617000 	 15.353923614800 	
C	 11.511861565400 	  0.104754769900 	 10.028731499500 	
C	 10.943317435400 	  0.104757579900 	 20.159288219500 	
C	 11.511830465400 	  6.288316529900 	 10.028728669500 	
C	 10.943286335400 	  6.288319339900 	 20.159285389500 	
C	 26.192688865400 	  0.104763999900 	 10.056861429500 	
C	 25.624144735400 	  0.104766809900 	 20.187418149500 	
C	 26.192657765400 	  6.288325759900 	 10.056858599500 	
C	 25.624113635400 	  6.288328569900 	 20.187415319500 	
C	 11.796121898000 	  2.987047354100 	  4.963444429600 	
C	 11.227577768000 	  2.987050164100 	 15.094001149600 	
C	 11.796090798000 	  9.170609114100 	  4.963441599600 	
C	 11.227546668000 	  9.170611924100 	 15.093998319600 	
C	 26.476949198000 	  2.987056584100 	  4.991574359600 	
C	 25.908405068000 	  2.987059394100 	 15.122131079600 	
C	 26.476918098000 	  9.170618344100 	  4.991571529600 	
C	 25.908373968000 	  9.170621154100 	 15.122128249600 	
C	  2.600391103200 	  6.078819463000 	  0.129952119000 	
C	  2.031846973200 	  6.078822273000 	 10.260508839000 	
C	  2.600360003200 	 12.262381223000 	  0.129949289000 	
C	  2.031815873200 	 12.262384033000 	 10.260506009000 	
C	 17.281218403200 	  6.078828693000 	  0.158082049000 	
C	 16.712674273200 	  6.078831503000 	 10.288638769000 	
C	 17.281187303200 	 12.262390453000 	  0.158079219000 	
C	 16.712643173200 	 12.262393263000 	 10.288635939000 	
H	  2.612757015800 	  4.227841415400 	  5.421537736000 	
H	  2.044212885800 	  4.227844225400 	 15.552094456000 	
H	  2.612725915800 	 10.411403175400 	  5.421534906000 	
H	  2.044181785800 	 10.411405985400 	 15.552091626000 	
H	 17.293584315800 	  4.227850645400 	  5.449667666000 	
H	 16.725040185800 	  4.227853455400 	 15.580224386000 	
H	 17.293553215800 	 10.411412405400 	  5.449664836000 	
H	 16.725009085800 	 10.411415215400 	 15.580221556000 	
H	 11.215218029300 	  1.136067184600 	  9.802432299100 	
H	 10.646673899300 	  1.136069994600 	 19.932989019100 	
H	 11.215186929300 	  7.319628944600 	  9.802429469100 	
H	 10.646642799300 	  7.319631754600 	 19.932986189100 	
H	 25.896045329300 	  1.136076414600 	  9.830562229100 	
H	 25.327501199300 	  1.136079224600 	 19.961118949100 	
H	 25.896014229300 	  7.319638174600 	  9.830559399100 	
H	 25.327470099300 	  7.319640984600 	 19.961116119100 	
H	 11.499494568300 	  1.955732631900 	  4.737146893600 	
H	 10.930950438300 	  1.955735441900 	 14.867703613600 	
H	 11.499463468300 	  8.139294391900 	  4.737144063600 	
H	 10.930919338300 	  8.139297201900 	 14.867700783600 	
H	 26.180321868300 	  1.955741861900 	  4.765276823600 	
H	 25.611777738300 	  1.955744671900 	 14.895833543600 	
H	 26.180290768300 	  8.139303621900 	  4.765273993600 	
H	 25.611746638300 	  8.139306431900 	 14.895830713600 	
H	  2.897034650700 	  5.047507048200 	  0.356251116800 	
H	  2.328490520700 	  5.047509858200 	 10.486807836800 	
H	  2.897003550700 	 11.231068808200 	  0.356248286800 	
H	  2.328459420700 	 11.231071618200 	 10.486805006800 	
H	 17.577861950700 	  5.047516278200 	  0.384381046800 	
H	 17.009317820700 	  5.047519088200 	 10.514937766800 	
H	 17.577830850700 	 11.231078038200 	  0.384378216800 	
H	 17.009286720700 	 11.231080848200 	 10.514934936800 	
H	  1.412048820700 	  3.230173843200 	  4.570178105800 	
H	  0.843504690700 	  3.230176653200 	 14.700734825800 	
H	  1.412017720700 	  9.413735603200 	  4.570175275800 	
H	  0.843473590700 	  9.413738413200 	 14.700731995800 	
H	 16.092876120700 	  3.230183073200 	  4.598308035800 	
H	 15.524331990700 	  3.230185883200 	 14.728864755800 	
H	 16.092845020700 	  9.413744833200 	  4.598305205800 	
H	 15.524300890700 	  9.413747643200 	 14.728861925800 	
H	 12.984491248900 	  0.138409911600 	  0.523233610500 	
H	 12.415947118900 	  0.138412721600 	 10.653790330500 	
H	 12.984460148900 	  6.321971671600 	  0.523230780500 	
H	 12.415916018900 	  6.321974481600 	 10.653787500500 	
H	 27.665318548900 	  0.138419141600 	  0.551363540500 	
H	 27.096774418900 	  0.138421951600 	 10.681920260500 	
H	 27.665287448900 	  6.321980901600 	  0.551360710500 	
H	 27.096743318900 	  6.321983711600 	 10.681917430500 	
H	 12.700202627900 	  2.953400575200 	  5.588506320900 	
H	 12.131658497900 	  2.953403385200 	 15.719063040900 	
H	 12.700171527900 	  9.136962335200 	  5.588503490900 	
H	 12.131627397900 	  9.136965145200 	 15.719060210900 	
H	 27.381029927900 	  2.953409805200 	  5.616636250900 	
H	 26.812485797900 	  2.953412615200 	 15.747192970900 	
H	 27.380998827900 	  9.136971565200 	  5.616633420900 	
H	 26.812454697900 	  9.136974375200 	 15.747190140900 	
H	  1.127761431100 	  6.045164321200 	  9.635449805400 	
H	  0.559217301100 	  6.045167131200 	 19.766006525400 	
H	  1.127730331100 	 12.228726081200 	  9.635446975400 	
H	  0.559186201100 	 12.228728891200 	 19.766003695400 	
H	 15.808588731100 	  6.045173551200 	  9.663579735400 	
H	 15.240044601100 	  6.045176361200 	 19.794136455400 	
H	 15.808557631100 	 12.228735311200 	  9.663576905400 	
H	 15.240013501100 	 12.228738121200 	 19.794133625400 	
H	  3.117974382100 	  2.721514149100 	  4.615664106800 	
H	  2.549430252100 	  2.721516959100 	 14.746220826800 	
H	  3.117943282100 	  8.905075909100 	  4.615661276800 	
H	  2.549399152100 	  8.905078719100 	 14.746217996800 	
H	 17.798801682100 	  2.721523379100 	  4.643794036800 	
H	 17.230257552100 	  2.721526189100 	 14.774350756800 	
H	 17.798770582100 	  8.905085139100 	  4.643791206800 	
H	 17.230226452100 	  8.905087949100 	 14.774347926800 	
H	 11.278543592100 	  5.813293234200 	  0.477751838000 	
H	 10.709999462100 	  5.813296044200 	 10.608308558000 	
H	 11.278512492100 	 11.996854994200 	  0.477749008000 	
H	 10.709968362100 	 11.996857804200 	 10.608305728000 	
H	 25.959370892100 	  5.813302464200 	  0.505881768000 	
H	 25.390826762100 	  5.813305274200 	 10.636438488000 	
H	 25.959339792100 	 11.996864224200 	  0.505878938000 	
H	 25.390795662100 	 11.996867034200 	 10.636435658000 	
H	 10.994277095000 	  3.462060207400 	  5.543019813300 	
H	 10.425732965000 	  3.462063017400 	 15.673576533300 	
H	 10.994245995000 	  9.645621967400 	  5.543016983300 	
H	 10.425701865000 	  9.645624777400 	 15.673573703300 	
H	 25.675104395000 	  3.462069437400 	  5.571149743300 	
H	 25.106560265000 	  3.462072247400 	 15.701706463300 	
H	 25.675073295000 	  9.645631197400 	  5.571146913300 	
H	 25.106529165000 	  9.645634007400 	 15.701703633300 	
H	  2.833709070800 	  0.370281122300 	  9.680931881800 	
H	  2.265164940800 	  0.370283932300 	 19.811488601800 	
H	  2.833677970800 	  6.553842882300 	  9.680929051800 	
H	  2.265133840800 	  6.553845692300 	 19.811485771800 	
H	 17.514536370800 	  0.370290352300 	  9.709061811800 	
H	 16.945992240800 	  0.370293162300 	 19.839618531800 	
H	 17.514505270800 	  6.553852112300 	  9.709058981800 	
H	 16.945961140800 	  6.553854922300 	 19.839615701800 	
C	  0.887164533100 	  3.099405811500 	  7.256915573700 	
C	  0.318620403100 	  3.099408621500 	 17.387472293700 	
C	  0.887133433100 	  9.282967571500 	  7.256912743700 	
C	  0.318589303100 	  9.282970381500 	 17.387469463700 	
C	 15.567991833100 	  3.099415041500 	  7.285045503700 	
C	 14.999447703100 	  3.099417851500 	 17.415602223700 	
C	 15.567960733100 	  9.282976801500 	  7.285042673700 	
C	 14.999416603100 	  9.282979611500 	 17.415599393700 	
C	 12.940820695000 	  0.007641134200 	  7.967052756600 	
C	 12.372276565000 	  0.007643944200 	 18.097609476600 	
C	 12.940789595000 	  6.191202894200 	  7.967049926600 	
C	 12.372245465000 	  6.191205704200 	 18.097606646600 	
C	 27.621647995000 	  0.007650364200 	  7.995182686600 	
C	 27.053103865000 	  0.007653174200 	 18.125739406600 	
C	 27.621616895000 	  6.191212124200 	  7.995179856600 	
C	 27.053072765000 	  6.191214934200 	 18.125736576600 	
C	 13.225087214900 	  3.084167431900 	  2.901768752300 	
C	 12.656543084900 	  3.084170241900 	 13.032325472300 	
C	 13.225056114900 	  9.267729191900 	  2.901765922300 	
C	 12.656511984900 	  9.267732001900 	 13.032322642300 	
C	 27.905914514900 	  3.084176661900 	  2.929898682300 	
C	 27.337370384900 	  3.084179471900 	 13.060455402300 	
C	 27.905883414900 	  9.267738421900 	  2.929895852300 	
C	 27.337339284900 	  9.267741231900 	 13.060452572300 	
C	  1.171431838100 	  6.175932418400 	  2.191630659100 	
C	  0.602887708100 	  6.175935228400 	 12.322187379100 	
C	  1.171400738100 	 12.359494178400 	  2.191627829100 	
C	  0.602856608100 	 12.359496988400 	 12.322184549100 	
C	 15.852259138100 	  6.175941648400 	  2.219760589100 	
C	 15.283715008100 	  6.175944458400 	 12.350317309100 	
C	 15.852228038100 	 12.359503408400 	  2.219757759100 	
C	 15.283683908100 	 12.359506218400 	 12.350314479100 	
H	  1.090122822200 	  4.156575733700 	  7.463856135200 	
H	  0.521578692200 	  4.156578543700 	 17.594412855200 	
H	  1.090091722200 	 10.340137493700 	  7.463853305200 	
H	  0.521547592200 	 10.340140303700 	 17.594410025200 	
H	 15.770950122200 	  4.156584963700 	  7.491986065200 	
H	 15.202405992200 	  4.156587773700 	 17.622542785200 	
H	 15.770919022200 	 10.340146723700 	  7.491983235200 	
H	 15.202374892200 	 10.340149533700 	 17.622539955200 	
H	 12.737839640600 	  1.064812279800 	  7.760118093700 	
H	 12.169295510600 	  1.064815089800 	 17.890674813700 	
H	 12.737808540600 	  7.248374039800 	  7.760115263700 	
H	 12.169264410600 	  7.248376849800 	 17.890671983700 	
H	 27.418666940600 	  1.064821509800 	  7.788248023700 	
H	 26.850122810600 	  1.064824319800 	 17.918804743700 	
H	 27.418635840600 	  7.248383269800 	  7.788245193700 	
H	 26.850091710600 	  7.248386079800 	 17.918801913700 	
H	 13.022128767600 	  2.026997447900 	  2.694828393100 	
H	 12.453584637600 	  2.027000257900 	 12.825385113100 	
H	 13.022097667600 	  8.210559207900 	  2.694825563100 	
H	 12.453553537600 	  8.210562017900 	 12.825382283100 	
H	 27.702956067600 	  2.027006677900 	  2.722958323100 	
H	 27.134411937600 	  2.027009487900 	 12.853515043100 	
H	 27.702924967600 	  8.210568437900 	  2.722955493100 	
H	 27.134380837600 	  8.210571247900 	 12.853512213100 	
H	  1.374413050700 	  5.118761334700 	  2.398565119600 	
H	  0.805868920700 	  5.118764144700 	 12.529121839600 	
H	  1.374381950700 	 11.302323094700 	  2.398562289600 	
H	  0.805837820700 	 11.302325904700 	 12.529119009600 	
H	 16.055240350700 	  5.118770564700 	  2.426695049600 	
H	 15.486696220700 	  5.118773374700 	 12.557251769600 	
H	 16.055209250700 	 11.302332324700 	  2.426692219600 	
H	 15.486665120700 	 11.302335134700 	 12.557248939600 	
H	  0.683561485800 	  2.596531593500 	  8.210188040200 	
H	  0.115017355800 	  2.596534403500 	 18.340744760200 	
H	  0.683530385800 	  8.780093353500 	  8.210185210200 	
H	  0.114986255800 	  8.780096163500 	 18.340741930200 	
H	 15.364388785800 	  2.596540823500 	  8.238317970200 	
H	 14.795844655800 	  2.596543633500 	 18.368874690200 	
H	 15.364357685800 	  8.780102583500 	  8.238315140200 	
H	 14.795813555800 	  8.780105393500 	 18.368871860200 	
H	 13.144397725400 	  5.688341754300 	  7.013772246600 	
H	 12.575853595400 	  5.688344564300 	 17.144328966600 	
H	 13.144366625400 	 11.871903514300 	  7.013769416600 	
H	 12.575822495400 	 11.871906324300 	 17.144326136600 	
H	 27.825225025400 	  5.688350984300 	  7.041902176600 	
H	 27.256680895400 	  5.688353794300 	 17.172458896600 	
H	 27.825193925400 	 11.871912744300 	  7.041899346600 	
H	 27.256649795400 	 11.871915554300 	 17.172456066600 	
H	 13.428690561400 	  3.587041340800 	  1.948496185000 	
H	 12.860146431400 	  3.587044150800 	 12.079052905000 	
H	 13.428659461400 	  9.770603100800 	  1.948493355000 	
H	 12.860115331400 	  9.770605910800 	 12.079050075000 	
H	 28.109517861400 	  3.587050570800 	  1.976626115000 	
H	 27.540973731400 	  3.587053380800 	 12.107182835000 	
H	 28.109486761400 	  9.770612330800 	  1.976623285000 	
H	 27.540942631400 	  9.770615140800 	 12.107180005000 	
H	  0.967854649600 	  0.495231612900 	  3.144911371300 	
H	  0.399310519600 	  0.495234422900 	 13.275468091300 	
H	  0.967823549600 	  6.678793372900 	  3.144908541300 	
H	  0.399279419600 	  6.678796182900 	 13.275465261300 	
H	 15.648681949600 	  0.495240842900 	  3.173041301300 	
H	 15.080137819600 	  0.495243652900 	 13.303598021300 	
H	 15.648650849600 	  6.678802602900 	  3.173038471300 	
H	 15.080106719600 	  6.678805412900 	 13.303595191300 	
H	 -0.027515277800 	  3.062154096700 	  6.650929329100 	
H	 -0.596059407800 	  3.062156906700 	 16.781486049100 	
H	 -0.027546377800 	  9.245715856700 	  6.650926499100 	
H	 -0.596090507800 	  9.245718666700 	 16.781483219100 	
H	 14.653312022200 	  3.062163326700 	  6.679059259100 	
H	 14.084767892200 	  3.062166136700 	 16.809615979100 	
H	 14.653280922200 	  9.245725086700 	  6.679056429100 	
H	 14.084736792200 	  9.245727896700 	 16.809613149100 	
H	 13.855469667900 	  6.153952088900 	  8.573035597100 	
H	 13.286925537900 	  6.153954898900 	 18.703592317100 	
H	 13.855438567900 	 12.337513848900 	  8.573032767100 	
H	 13.286894437900 	 12.337516658900 	 18.703589487100 	
H	 28.536296967900 	  6.153961318900 	  8.601165527100 	
H	 27.967752837900 	  6.153964128900 	 18.731722247100 	
H	 28.536265867900 	 12.337523078900 	  8.601162697100 	
H	 27.967721737900 	 12.337525888900 	 18.731719417100 	
H	 14.139766867500 	  3.121419146800 	  3.507755199200 	
H	 13.571222737500 	  3.121421956800 	 13.638311919200 	
H	 14.139735767500 	  9.304980906800 	  3.507752369200 	
H	 13.571191637500 	  9.304983716800 	 13.638309089200 	
H	 28.820594167500 	  3.121428376800 	  3.535885129200 	
H	 28.252050037500 	  3.121431186800 	 13.666441849200 	
H	 28.820563067500 	  9.304990136800 	  3.535882299200 	
H	 28.252018937500 	  9.304992946800 	 13.666439019200 	
H	  0.256782865300 	  0.029621463700 	  1.585647818500 	
H	 -0.311761264700 	  0.029624273700 	 11.716204538500 	
H	  0.256751765300 	  6.213183223700 	  1.585644988500 	
H	 -0.311792364700 	  6.213186033700 	 11.716201708500 	
H	 14.937610165300 	  0.029630693700 	  1.613777748500 	
H	 14.369066035300 	  0.029633503700 	 11.744334468500 	
H	 14.937579065300 	  6.213192453700 	  1.613774918500 	
H	 14.369034935300 	  6.213195263700 	 11.744331638500 	
C	  1.581473236200 	  0.991044022700 	  6.130188493600 	
C	  1.012929106200 	  0.991046832700 	 16.260745213600 	
C	  1.581442136200 	  7.174605782700 	  6.130185663600 	
C	  1.012898006200 	  7.174608592700 	 16.260742383600 	
C	 16.262300536200 	  0.991053252700 	  6.158318423600 	
C	 15.693756406200 	  0.991056062700 	 16.288875143600 	
C	 16.262269436200 	  7.174615012700 	  6.158315593600 	
C	 15.693725306200 	  7.174617822700 	 16.288872313600 	
C	 12.246521765400 	  4.082837103900 	  9.093781709700 	
C	 11.677977635400 	  4.082839913900 	 19.224338429700 	
C	 12.246490665400 	 10.266398863900 	  9.093778879700 	
C	 11.677946535400 	 10.266401673900 	 19.224335599700 	
C	 26.927349065400 	  4.082846333900 	  9.121911639700 	
C	 26.358804935400 	  4.082849143900 	 19.252468359700 	
C	 26.927317965400 	 10.266408093900 	  9.121908809700 	
C	 26.358773835400 	 10.266410903900 	 19.252465529700 	
C	 12.530778715400 	  5.192529777300 	  4.028494819600 	
C	 11.962234585400 	  5.192532587300 	 14.159051539600 	
C	 12.530747615400 	 11.376091537300 	  4.028491989600 	
C	 11.962203485400 	 11.376094347300 	 14.159048709600 	
C	 27.211606015400 	  5.192539007300 	  4.056624749600 	
C	 26.643061885400 	  5.192541817300 	 14.187181469600 	
C	 27.211574915400 	 11.376100767300 	  4.056621919600 	
C	 26.643030785400 	 11.376103577300 	 14.187178639600 	
C	  1.865730445700 	  2.100736819800 	  1.064902211900 	
C	  1.297186315700 	  2.100739629800 	 11.195458931900 	
C	  1.865699345700 	  8.284298579800 	  1.064899381900 	
C	  1.297155215700 	  8.284301389800 	 11.195456101900 	
C	 16.546557745700 	  2.100746049800 	  1.093032141900 	
C	 15.978013615700 	  2.100748859800 	 11.223588861900 	
C	 16.546526645700 	  8.284307809800 	  1.093029311900 	
C	 15.977982515700 	  8.284310619800 	 11.223586031900 	
H	  0.610675950600 	  1.034865784000 	  5.618136422600 	
H	  0.042131820600 	  1.034868594000 	 15.748693142600 	
H	  0.610644850600 	  7.218427544000 	  5.618133592600 	
H	  0.042100720600 	  7.218430354000 	 15.748690312600 	
H	 15.291503250600 	  1.034875014000 	  5.646266352600 	
H	 14.722959120600 	  1.034877824000 	 15.776823072600 	
H	 15.291472150600 	  7.218436774000 	  5.646263522600 	
H	 14.722928020600 	  7.218439584000 	 15.776820242600 	
H	 13.217317326700 	  4.126663991400 	  9.605838297400 	
H	 12.648773196700 	  4.126666801400 	 19.736395017400 	
H	 13.217286226700 	 10.310225751400 	  9.605835467400 	
H	 12.648742096700 	 10.310228561400 	 19.736392187400 	
H	 27.898144626700 	  4.126673221400 	  9.633968227400 	
H	 27.329600496700 	  4.126676031400 	 19.764524947400 	
H	 27.898113526700 	 10.310234981400 	  9.633965397400 	
H	 27.329569396700 	 10.310237791400 	 19.764522117400 	
H	 13.501575842900 	  5.148708016000 	  4.540547092900 	
H	 12.933031712900 	  5.148710826000 	 14.671103812900 	
H	 13.501544742900 	 11.332269776000 	  4.540544262900 	
H	 12.933000612900 	 11.332272586000 	 14.671100982900 	
H	 28.182403142900 	  5.148717246000 	  4.568677022900 	
H	 27.613859012900 	  5.148720056000 	 14.699233742900 	
H	 28.182372042900 	 11.332279006000 	  4.568674192900 	
H	 27.613827912900 	 11.332281816000 	 14.699230912900 	
H	  0.894934890100 	  2.056909870500 	  0.552845522900 	
H	  0.326390760100 	  2.056912680500 	 10.683402242900 	
H	  0.894903790100 	  8.240471630500 	  0.552842692900 	
H	  0.326359660100 	  8.240474440500 	 10.683399412900 	
H	 15.575762190100 	  2.056919100500 	  0.580975452900 	
H	 15.007218060100 	  2.056921910500 	 10.711532172900 	
H	 15.575731090100 	  8.240480860500 	  0.580972622900 	
H	 15.007186960100 	  8.240483670500 	 10.711529342900 	
H	  1.459783142400 	  0.369871747300 	  7.026704052400 	
H	  0.891239012400 	  0.369874557300 	 17.157260772400 	
H	  1.459752042400 	  6.553433507300 	  7.026701222400 	
H	  0.891207912400 	  6.553436317300 	 17.157257942400 	
H	 16.140610442400 	  0.369880977300 	  7.054833982400 	
H	 15.572066312400 	  0.369883787300 	 17.185390702400 	
H	 16.140579342400 	  6.553442737300 	  7.054831152400 	
H	 15.572035212400 	  6.553445547300 	 17.185387872400 	
H	 12.368224107600 	  3.461662627600 	  8.197272303400 	
H	 11.799679977600 	  3.461665437600 	 18.327829023400 	
H	 12.368193007600 	  9.645224387600 	  8.197269473400 	
H	 11.799648877600 	  9.645227197600 	 18.327826193400 	
H	 27.049051407600 	  3.461671857600 	  8.225402233400 	
H	 26.480507277600 	  3.461674667600 	 18.355958953400 	
H	 27.049020307600 	  9.645233617600 	  8.225399403400 	
H	 26.480476177600 	  9.645236427600 	 18.355956123400 	
H	 12.652468820600 	  5.813701619900 	  3.131979058100 	
H	 12.083924690600 	  5.813704429900 	 13.262535778100 	
H	 12.652437720600 	 11.997263379900 	  3.131976228100 	
H	 12.083893590600 	 11.997266189900 	 13.262532948100 	
H	 27.333296120600 	  5.813710849900 	  3.160108988100 	
H	 26.764751990600 	  5.813713659900 	 13.290665708100 	
H	 27.333265020600 	 11.997272609900 	  3.160106158100 	
H	 26.764720890600 	 11.997275419900 	 13.290662878100 	
H	  1.744027951100 	  2.721911110600 	  1.961411719200 	
H	  1.175483821100 	  2.721913920600 	 12.091968439200 	
H	  1.743996851100 	  8.905472870600 	  1.961408889200 	
H	  1.175452721100 	  8.905475680600 	 12.091965609200 	
H	 16.424855251100 	  2.721920340600 	  1.989541649200 	
H	 15.856311121100 	  2.721923150600 	 12.120098369200 	
H	 16.424824151100 	  8.905482100600 	  1.989538819200 	
H	 15.856280021100 	  8.905484910600 	 12.120095539200 	
H	  2.286177287500 	  0.494504553500 	  5.453213134500 	
H	  1.717633157500 	  0.494507363500 	 15.583769854500 	
H	  2.286146187500 	  6.678066313500 	  5.453210304500 	
H	  1.717602057500 	  6.678069123500 	 15.583767024500 	
H	 16.967004587500 	  0.494513783500 	  5.481343064500 	
H	 16.398460457500 	  0.494516593500 	 15.611899784500 	
H	 16.966973487500 	  6.678075543500 	  5.481340234500 	
H	 16.398429357500 	  6.678078353500 	 15.611896954500 	
H	 11.541823906000 	  3.586296368900 	  9.770757120400 	
H	 10.973279776000 	  3.586299178900 	 19.901313840400 	
H	 11.541792806000 	  9.769858128900 	  9.770754290400 	
H	 10.973248676000 	  9.769860938900 	 19.901311010400 	
H	 26.222651206000 	  3.586305598900 	  9.798887050400 	
H	 25.654107076000 	  3.586308408900 	 19.929443770400 	
H	 26.222620106000 	  9.769867358900 	  9.798884220400 	
H	 25.654075976000 	  9.769870168900 	 19.929440940400 	
H	 11.826074523000 	  5.689069555700 	  4.705470077100 	
H	 11.257530393000 	  5.689072365700 	 14.836026797100 	
H	 11.826043423000 	 11.872631315700 	  4.705467247100 	
H	 11.257499293000 	 11.872634125700 	 14.836023967100 	
H	 26.506901823000 	  5.689078785700 	  4.733600007100 	
H	 25.938357693000 	  5.689081595700 	 14.864156727100 	
H	 26.506870723000 	 11.872640545700 	  4.733597177100 	
H	 25.938326593000 	 11.872643355700 	 14.864153897100 	
H	  2.570428293700 	  2.597277802200 	  0.387927003800 	
H	  2.001884163700 	  2.597280612200 	 10.518483723800 	
H	  2.570397193700 	  8.780839562200 	  0.387924173800 	
H	  2.001853063700 	  8.780842372200 	 10.518480893800 	
H	 17.251255593700 	  2.597287032200 	  0.416056933800 	
H	 16.682711463700 	  2.597289842200 	 10.546613653800 	
H	 17.251224493700 	  8.780848792200 	  0.416054103800 	
H	 16.682680363700 	  8.780851602200 	 10.546610823800 	
768 
Energy: -8.9516684682069993e+01 
S	  8.729148973745 	  1.555878329152 	  0.050165531267 	
S	  8.160604843745 	  1.555881139152 	 10.180722251267 	
S	  8.729117873745 	  7.739440089152 	  0.050162701267 	
S	  8.160573743745 	  7.739442899152 	 10.180719421267 	
S	 23.409976273745 	  1.555887559152 	  0.078295461267 	
S	 22.841432143745 	  1.555890369152 	 10.208852181267 	
S	 23.409945173745 	  7.739449319152 	  0.078292631267 	
S	 22.841401043745 	  7.739452129152 	 10.208849351267 	
S	  5.617881345406 	  4.643594148743 	  5.072427285692 	
S	  5.049337215406 	  4.643596958743 	 15.202984005692 	
S	  5.617850245406 	 10.827155908743 	  5.072424455692 	
S	  5.049306115406 	 10.827158718743 	 15.202981175692 	
S	 20.298708645406 	  4.643603378743 	  5.100557215692 	
S	 19.730164515406 	  4.643606188743 	 15.231113935692 	
S	 20.298677545406 	 10.827165138743 	  5.100554385692 	
S	 19.730133415406 	 10.827167948743 	 15.231111105692 	
S	  5.340408998933 	  4.620889898343 	 10.158820897168 	
S	  4.771864868933 	  4.620892708343 	 20.289377617168 	
S	  5.340377898933 	 10.804451658343 	 10.158818067168 	
S	  4.771833768933 	 10.804454468343 	 20.289374787168 	
S	 20.021236298933 	  4.620899128343 	 10.186950827168 	
S	 19.452692168933 	  4.620901938343 	 20.317507547168 	
S	 20.021205198933 	 10.804460888343 	 10.186947997168 	
S	 19.452661068933 	 10.804463698343 	 20.317504717168 	
S	  8.451677004608 	  1.533174753023 	  5.136559392556 	
S	  7.883132874608 	  1.533177563023 	 15.267116112556 	
S	  8.451645904608 	  7.716736513023 	  5.136556562556 	
S	  7.883101774608 	  7.716739323023 	 15.267113282556 	
S	 23.132504304608 	  1.533183983023 	  5.164689322556 	
S	 22.563960174608 	  1.533186793023 	 15.295246042556 	
S	 23.132473204608 	  7.716745743023 	  5.164686492556 	
S	 22.563929074608 	  7.716748553023 	 15.295243212556 	
C	  6.741398962343 	  2.563243970129 	  9.832752420173 	
C	  6.172854832343 	  2.563246780129 	 19.963309140173 	
C	  6.741367862343 	  8.746805730129 	  9.832749590173 	
C	  6.172823732343 	  8.746808540129 	 19.963306310173 	
C	 21.422226262343 	  2.563253200129 	  9.860882350173 	
C	 20.853682132343 	  2.563256010129 	 19.991439070173 	
C	 21.422195162343 	  8.746814960129 	  9.860879520173 	
C	 20.853651032343 	  8.746817770129 	 19.991436240173 	
C	  7.050870225889 	  5.604243864283 	  5.494293970561 	
C	  6.482326095889 	  5.604246674283 	 15.624850690561 	
C	  7.050839125889 	 11.787805624283 	  5.494291140561 	
C	  6.482294995889 	 11.787808434283 	 15.624847860561 	
C	 21.731697525889 	  5.604253094283 	  5.522423900561 	
C	 21.163153395889 	  5.604255904283 	 15.652980620561 	
C	 21.731666425889 	 11.787814854283 	  5.522421070561 	
C	 21.163122295889 	 11.787817664283 	 15.652977790561 	
C	  7.328159054778 	  3.613524205862 	  0.376234026307 	
C	  6.759614924778 	  3.613527015862 	 10.506790746307 	
C	  7.328127954778 	  9.797085965862 	  0.376231196307 	
C	  6.759583824778 	  9.797088775862 	 10.506787916307 	
C	 22.008986354778 	  3.613533435862 	  0.404363956307 	
C	 21.440442224778 	  3.613536245862 	 10.534920676307 	
C	 22.008955254778 	  9.797095195862 	  0.404361126307 	
C	 21.440411124778 	  9.797098005862 	 10.534917846307 	
C	  7.018687987333 	  0.572525149294 	  4.714692695289 	
C	  6.450143857333 	  0.572527959294 	 14.845249415289 	
C	  7.018656887333 	  6.756086909294 	  4.714689865289 	
C	  6.450112757333 	  6.756089719294 	 14.845246585289 	
C	 21.699515287333 	  0.572534379294 	  4.742822625289 	
C	 21.130971157333 	  0.572537189294 	 14.873379345289 	
C	 21.699484187333 	  6.756096139294 	  4.742819795289 	
C	 21.130940057333 	  6.756098949294 	 14.873376515289 	
C	  5.679203397795 	  2.335257975636 	  8.909462671995 	
C	  5.110659267795 	  2.335260785636 	 19.040019391995 	
C	  5.679172297795 	  8.518819735636 	  8.909459841995 	
C	  5.110628167795 	  8.518822545636 	 19.040016561995 	
C	 20.360030697795 	  2.335267205636 	  8.937592601995 	
C	 19.791486567795 	  2.335270015636 	 19.068149321995 	
C	 20.359999597795 	  8.518828965636 	  8.937589771995 	
C	 19.791455467795 	  8.518831775636 	 19.068146491995 	
C	  8.114055811646 	  5.420623849918 	  6.385461410045 	
C	  7.545511681646 	  5.420626659918 	 16.516018130045 	
C	  8.114024711646 	 11.604185609918 	  6.385458580045 	
C	  7.545480581646 	 11.604188419918 	 16.516015300045 	
C	 22.794883111646 	  5.420633079918 	  6.413591340045 	
C	 22.226338981646 	  5.420635889918 	 16.544148060045 	
C	 22.794852011646 	 11.604194839918 	  6.413588510045 	
C	 22.226307881646 	 11.604197649918 	 16.544145230045 	
C	  8.390354415422 	  3.841510227094 	  1.299523622356 	
C	  7.821810285422 	  3.841513037094 	 11.430080342356 	
C	  8.390323315422 	 10.025071987094 	  1.299520792356 	
C	  7.821779185422 	 10.025074797094 	 11.430077512356 	
C	 23.071181715422 	  3.841519457094 	  1.327653552356 	
C	 22.502637585422 	  3.841522267094 	 11.458210272356 	
C	 23.071150615422 	 10.025081217094 	  1.327650722356 	
C	 22.502606485422 	 10.025084027094 	 11.458207442356 	
C	  5.955502352545 	  0.756145128880 	  3.823525159170 	
C	  5.386958222545 	  0.756147938880 	 13.954081879170 	
C	  5.955471252545 	  6.939706888880 	  3.823522329170 	
C	  5.386927122545 	  6.939709698880 	 13.954079049170 	
C	 20.636329652545 	  0.756154358880 	  3.851655089170 	
C	 20.067785522545 	  0.756157168880 	 13.982211809170 	
C	 20.636298552545 	  6.939716118880 	  3.851652259170 	
C	 20.067754422545 	  6.939718928880 	 13.982208979170 	
C	  4.779326943449 	  3.384457765370 	  8.951349376985 	
C	  4.210782813449 	  3.384460575370 	 19.081906096985 	
C	  4.779295843449 	  9.568019525370 	  8.951346546985 	
C	  4.210751713449 	  9.568022335370 	 19.081903266985 	
C	 19.460154243449 	  3.384466995370 	  8.979479306985 	
C	 18.891610113449 	  3.384469805370 	 19.110036026985 	
C	 19.460123143449 	  9.568028755370 	  8.979476476985 	
C	 18.891579013449 	  9.568031565370 	 19.110033196985 	
C	  9.006907984585 	  0.297709535205 	  6.345213381467 	
C	  8.438363854585 	  0.297712345205 	 16.475770101467 	
C	  9.006876884585 	  6.481271295205 	  6.345210551467 	
C	  8.438332754585 	  6.481274105205 	 16.475767271467 	
C	 23.687735284585 	  0.297718765205 	  6.373343311467 	
C	 23.119191154585 	  0.297721575205 	 16.503900031467 	
C	 23.687704184585 	  6.481280525205 	  6.373340481467 	
C	 23.119160054585 	  6.481283335205 	 16.503897201467 	
C	  9.290230865296 	  2.792310530801 	  1.257637023897 	
C	  8.721686735296 	  2.792313340801 	 11.388193743897 	
C	  9.290199765296 	  8.975872290801 	  1.257634193897 	
C	  8.721655635296 	  8.975875100801 	 11.388190913897 	
C	 23.971058165296 	  2.792319760801 	  1.285766953897 	
C	 23.402514035296 	  2.792322570801 	 11.416323673897 	
C	 23.971027065296 	  8.975881520801 	  1.285764123897 	
C	 23.402482935296 	  8.975884330801 	 11.416320843897 	
C	  5.062650209037 	  5.879059383977 	  3.863773217198 	
C	  4.494106079037 	  5.879062193977 	 13.994329937198 	
C	  5.062619109037 	 12.062621143977 	  3.863770387198 	
C	  4.494074979037 	 12.062623953977 	 13.994327107198 	
C	 19.743477509037 	  5.879068613977 	  3.891903147198 	
C	 19.174933379037 	  5.879071423977 	 14.022459867198 	
C	 19.743446409037 	 12.062630373977 	  3.891900317198 	
C	 19.174902279037 	 12.062633183977 	 14.022457037198 	
C	  3.682120098838 	  3.419412115474 	  8.220042306550 	
C	  3.113575968838 	  3.419414925474 	 18.350599026550 	
C	  3.682088998838 	  9.602973875474 	  8.220039476550 	
C	  3.113544868838 	  9.602976685474 	 18.350596196550 	
C	 18.362947398838 	  3.419421345474 	  8.248172236550 	
C	 17.794403268838 	  3.419424155474 	 18.378728956550 	
C	 18.362916298838 	  9.602983105474 	  8.248169406550 	
C	 17.794372168838 	  9.602985915474 	 18.378726126550 	
C	 10.104027856570 	  0.342102428569 	  7.068825587228 	
C	  9.535483726570 	  0.342105238569 	 17.199382307228 	
C	 10.103996756570 	  6.525664188569 	  7.068822757228 	
C	  9.535452626570 	  6.525666998569 	 17.199379477228 	
C	 24.784855156570 	  0.342111658569 	  7.096955517228 	
C	 24.216311026570 	  0.342114468569 	 17.227512237228 	
C	 24.784824056570 	  6.525673418569 	  7.096952687228 	
C	 24.216279926570 	  6.525676228569 	 17.227509407228 	
C	 10.387437755485 	  2.757356247447 	  1.988944239084 	
C	  9.818893625485 	  2.757359057447 	 12.119500959084 	
C	 10.387406655485 	  8.940918007447 	  1.988941409084 	
C	  9.818862525485 	  8.940920817447 	 12.119498129084 	
C	 25.068265055485 	  2.757365477447 	  2.017074169084 	
C	 24.499720925485 	  2.757368287447 	 12.147630889084 	
C	 25.068233955485 	  8.940927237447 	  2.017071339084 	
C	 24.499689825485 	  8.940930047447 	 12.147628059084 	
C	  3.965530314152 	  5.834666452155 	  3.140161050800 	
C	  3.396986184152 	  5.834669262155 	 13.270717770800 	
C	  3.965499214152 	 12.018228212155 	  3.140158220800 	
C	  3.396955084152 	 12.018231022155 	 13.270714940800 	
C	 18.646357614152 	  5.834675682155 	  3.168290980800 	
C	 18.077813484152 	  5.834678492155 	 13.298847700800 	
C	 18.646326514152 	 12.018237442155 	  3.168288150800 	
C	 18.077782384152 	 12.018240252155 	 13.298844870800 	
H	  2.982162096383 	  4.326211600564 	  8.304356313248 	
H	  2.413617966383 	  4.326214410564 	 18.434913033248 	
H	  2.982130996383 	 10.509773360564 	  8.304353483248 	
H	  2.413586866383 	 10.509776170564 	 18.434910203248 	
H	 17.662989396383 	  4.326220830564 	  8.332486243248 	
H	 17.094445266383 	  4.326223640564 	 18.463042963248 	
H	 17.662958296383 	 10.509782590564 	  8.332483413248 	
H	 17.094414166383 	 10.509785400564 	 18.463040133248 	
H	 10.808303140354 	  1.235571693322 	  6.992956097141 	
H	 10.239759010354 	  1.235574503322 	 17.123512817141 	
H	 10.808272040354 	  7.419133453322 	  6.992953267141 	
H	 10.239727910354 	  7.419136263322 	 17.123509987141 	
H	 25.489130440354 	  1.235580923322 	  7.021086027141 	
H	 24.920586310354 	  1.235583733322 	 17.151642747141 	
H	 25.489099340354 	  7.419142683322 	  7.021083197141 	
H	 24.920555210354 	  7.419145493322 	 17.151639917141 	
H	 11.087395730288 	  1.850556746509 	  1.904630138570 	
H	 10.518851600288 	  1.850559556509 	 12.035186858570 	
H	 11.087364630288 	  8.034118506509 	  1.904627308570 	
H	 10.518820500288 	  8.034121316509 	 12.035184028570 	
H	 25.768223030288 	  1.850565976509 	  1.932760068570 	
H	 25.199678900288 	  1.850568786509 	 12.063316788570 	
H	 25.768191930288 	  8.034127736509 	  1.932757238570 	
H	 25.199647800288 	  8.034130546509 	 12.063313958570 	
H	  3.261255147564 	  4.941197093340 	  3.216030561958 	
H	  2.692711017564 	  4.941199903340 	 13.346587281958 	
H	  3.261224047564 	 11.124758853340 	  3.216027731958 	
H	  2.692679917564 	 11.124761663340 	 13.346584451958 	
H	 17.942082447564 	  4.941206323340 	  3.244160491958 	
H	 17.373538317564 	  4.941209133340 	 13.374717211958 	
H	 17.942051347564 	 11.124768083340 	  3.244157661958 	
H	 17.373507217564 	 11.124770893340 	 13.374714381958 	
C	  3.359935947130 	  2.425380972961 	  7.385262040010 	
C	  2.791391817130 	  2.425383782961 	 17.515818760010 	
C	  3.359904847130 	  8.608942732961 	  7.385259210010 	
C	  2.791360717130 	  8.608945542961 	 17.515815930010 	
C	 18.040763247130 	  2.425390202961 	  7.413391970010 	
C	 17.472219117130 	  2.425393012961 	 17.543948690010 	
C	 18.040732147130 	  8.608951962961 	  7.413389140010 	
C	 17.472188017130 	  8.608954772961 	 17.543945860010 	
C	 10.433845408109 	  5.502207228582 	  7.916999579820 	
C	  9.865301278109 	  5.502210038582 	 18.047556299820 	
C	 10.433814308109 	 11.685768988582 	  7.916996749820 	
C	  9.865270178109 	 11.685771798582 	 18.047553469820 	
C	 25.114672708109 	  5.502216458582 	  7.945129509820 	
C	 24.546128578109 	  5.502219268582 	 18.075686229820 	
C	 25.114641608109 	 11.685778218582 	  7.945126679820 	
C	 24.546097478109 	 11.685781028582 	 18.075683399820 	
C	 10.709621736870 	  3.751387307634 	  2.823724443718 	
C	 10.141077606870 	  3.751390117634 	 12.954281163718 	
C	 10.709590636870 	  9.934949067634 	  2.823721613718 	
C	 10.141046506870 	  9.934951877634 	 12.954278333718 	
C	 25.390449036870 	  3.751396537634 	  2.851854373718 	
C	 24.821904906870 	  3.751399347634 	 12.982411093718 	
C	 25.390417936870 	  9.934958297634 	  2.851851543718 	
C	 24.821873806870 	  9.934961107634 	 12.982408263718 	
C	  3.635712851535 	  0.674561613559 	  2.291986990792 	
C	  3.067168721535 	  0.674564423559 	 12.422543710792 	
C	  3.635681751535 	  6.858123373559 	  2.291984160792 	
C	  3.067137621535 	  6.858126183559 	 12.422540880792 	
C	 18.316540151535 	  0.674570843559 	  2.320116920792 	
C	 17.747996021535 	  0.674573653559 	 12.450673640792 	
C	 18.316509051535 	  6.858132603559 	  2.320114090792 	
C	 17.747964921535 	  6.858135413559 	 12.450670810792 	
C	  4.262452262220 	  1.398267889325 	  7.311662173436 	
C	  3.693908132220 	  1.398270699325 	 17.442218893436 	
C	  4.262421162220 	  7.581829649325 	  7.311659343436 	
C	  3.693877032220 	  7.581832459325 	 17.442216063436 	
C	 18.943279562220 	  1.398277119325 	  7.339792103436 	
C	 18.374735432220 	  1.398279929325 	 17.470348823436 	
C	 18.943248462220 	  7.581838879325 	  7.339789273436 	
C	 18.374704332220 	  7.581841689325 	 17.470345993436 	
C	  9.528394451003 	  4.488116640224 	  7.982882450082 	
C	  8.959850321003 	  4.488119450224 	 18.113439170082 	
C	  9.528363351003 	 10.671678400224 	  7.982879620082 	
C	  8.959819221003 	 10.671681210224 	 18.113436340082 	
C	 24.209221751003 	  4.488125870224 	  8.011012380082 	
C	 23.640677621003 	  4.488128680224 	 18.141569100082 	
C	 24.209190651003 	 10.671687630224 	  8.011009550082 	
C	 23.640646521003 	 10.671690440224 	 18.141566270082 	
C	  9.807105311968 	  4.778500347439 	  2.897324406531 	
C	  9.238561181968 	  4.778503157439 	 13.027881126531 	
C	  9.807074211968 	 10.962062107439 	  2.897321576531 	
C	  9.238530081968 	 10.962064917439 	 13.027878296531 	
C	 24.487932611968 	  4.778509577439 	  2.925454336531 	
C	 23.919388481968 	  4.778512387439 	 13.056011056531 	
C	 24.487901511968 	 10.962071337439 	  2.925451506531 	
C	 23.919357381968 	 10.962074147439 	 13.056008226531 	
C	  4.541163629739 	  1.688652150904 	  2.226104088325 	
C	  3.972619499739 	  1.688654960904 	 12.356660808325 	
C	  4.541132529739 	  7.872213910904 	  2.226101258325 	
C	  3.972588399739 	  7.872216720904 	 12.356657978325 	
C	 19.221990929739 	  1.688661380904 	  2.254234018325 	
C	 18.653446799739 	  1.688664190904 	 12.384790738325 	
C	 19.221959829739 	  7.872223140904 	  2.254231188325 	
C	 18.653415699739 	  7.872225950904 	 12.384787908325 	
H	  4.036851730702 	  0.541953886357 	  6.583658311566 	
H	  3.468307600702 	  0.541956696357 	 16.714215031566 	
H	  4.036820630702 	  6.725515646357 	  6.583655481566 	
H	  3.468276500702 	  6.725518456357 	 16.714212201566 	
H	 18.717679030702 	  0.541963116357 	  6.611788241566 	
H	 18.149134900702 	  0.541965926357 	 16.742344961566 	
H	 18.717647930702 	  6.725524876357 	  6.611785411566 	
H	 18.149103800702 	  6.725527686357 	 16.742342131566 	
H	  9.753295729459 	  3.630997401663 	  8.711633969750 	
H	  9.184751599459 	  3.631000211663 	 18.842190689750 	
H	  9.753264629459 	  9.814559161663 	  8.711631139750 	
H	  9.184720499459 	  9.814561971663 	 18.842187859750 	
H	 24.434123029459 	  3.631006631663 	  8.739763899750 	
H	 23.865578899459 	  3.631009441663 	 18.870320619750 	
H	 24.434091929459 	  9.814568391663 	  8.739761069750 	
H	 23.865547799459 	  9.814571201663 	 18.870317789750 	
H	 10.032705834861 	  5.634814307651 	  3.625328314857 	
H	  9.464161704861 	  5.634817117651 	 13.755885034857 	
H	 10.032674734861 	 11.818376067651 	  3.625325484857 	
H	  9.464130604861 	 11.818378877651 	 13.755882204857 	
H	 24.713533134861 	  5.634823537651 	  3.653458244857 	
H	 24.144989004861 	  5.634826347651 	 13.784014964857 	
H	 24.713502034861 	 11.818385297651 	  3.653455414857 	
H	 24.144957904861 	 11.818388107651 	 13.784012134857 	
H	  4.316262352270 	  2.545771417311 	  1.497352597711 	
H	  3.747718222270 	  2.545774227311 	 11.627909317711 	
H	  4.316231252270 	  8.729333177311 	  1.497349767711 	
H	  3.747687122270 	  8.729335987311 	 11.627906487711 	
H	 18.997089652270 	  2.545780647311 	  1.525482527711 	
H	 18.428545522270 	  2.545783457311 	 11.656039247711 	
H	 18.997058552270 	  8.729342407311 	  1.525479697711 	
H	 18.428514422270 	  8.729345217311 	 11.656036417711 	
C	  5.342967624807 	  1.349185296123 	  8.012111164590 	
C	  4.774423494807 	  1.349188106123 	 18.142667884590 	
C	  5.342936524807 	  7.532747056123 	  8.012108334590 	
C	  4.774392394807 	  7.532749866123 	 18.142665054590 	
C	 20.023794924807 	  1.349194526123 	  8.040241094590 	
C	 19.455250794807 	  1.349197336123 	 18.170797814590 	
C	 20.023763824807 	  7.532756286123 	  8.040238264590 	
C	 19.455219694807 	  7.532759096123 	 18.170794984590 	
C	  8.448025502391 	  4.438827244158 	  7.282631870450 	
C	  7.879481372391 	  4.438830054158 	 17.413188590450 	
C	  8.447994402391 	 10.622389004158 	  7.282629040450 	
C	  7.879450272391 	 10.622391814158 	 17.413185760450 	
C	 23.128852802391 	  4.438836474158 	  7.310761800450 	
C	 22.560308672391 	  4.438839284158 	 17.441318520450 	
C	 23.128821702391 	 10.622398234158 	  7.310758970450 	
C	 22.560277572391 	 10.622401044158 	 17.441315690450 	
C	  8.726590063113 	  4.827582918583 	  2.196875238216 	
C	  8.158045933113 	  4.827585728583 	 12.327431958216 	
C	  8.726558963113 	 11.011144678583 	  2.196872408216 	
C	  8.158014833113 	 11.011147488583 	 12.327429128216 	
C	 23.407417363113 	  4.827592148583 	  2.225005168216 	
C	 22.838873233113 	  4.827594958583 	 12.355561888216 	
C	 23.407386263113 	 11.011153908583 	  2.225002338216 	
C	 22.838842133113 	 11.011156718583 	 12.355559058216 	
C	  5.621532681482 	  1.737941676597 	  2.926354748940 	
C	  5.052988551482 	  1.737944486597 	 13.056911468940 	
C	  5.621501581482 	  7.921503436597 	  2.926351918940 	
C	  5.052957451482 	  7.921506246597 	 13.056908638940 	
C	 20.302359981482 	  1.737950906597 	  2.954484678940 	
C	 19.733815851482 	  1.737953716597 	 13.085041398940 	
C	 20.302328881482 	  7.921512666597 	  2.954481848940 	
C	 19.733784751482 	  7.921515476597 	 13.085038568940 	
H	  6.062348259830 	  0.461721801312 	  7.915511902178 	
H	  5.493804129830 	  0.461724611312 	 18.046068622178 	
H	  6.062317159830 	  6.645283561312 	  7.915509072178 	
H	  5.493773029830 	  6.645286371312 	 18.046065792178 	
H	 20.743175559830 	  0.461731031312 	  7.943641832178 	
H	 20.174631429830 	  0.461733841312 	 18.074198552178 	
H	 20.743144459830 	  6.645292791312 	  7.943639002178 	
H	 20.174600329830 	  6.645295601312 	 18.074195722178 	
H	  7.728204825960 	  3.550437179709 	  7.379950644279 	
H	  7.159660695960 	  3.550439989709 	 17.510507364279 	
H	  7.728173725960 	  9.733998939709 	  7.379947814279 	
H	  7.159629595960 	  9.734001749709 	 17.510504534279 	
H	 22.409032125960 	  3.550446409709 	  7.408080574279 	
H	 21.840487995960 	  3.550449219709 	 17.538637294279 	
H	 22.409001025960 	  9.734008169709 	  7.408077744279 	
H	 21.840456895960 	  9.734010979709 	 17.538634464279 	
H	  8.007209325518 	  5.715046314292 	  2.293474553721 	
H	  7.438665195518 	  5.715049124292 	 12.424031273721 	
H	  8.007178225518 	 11.898608074292 	  2.293471723721 	
H	  7.438634095518 	 11.898610884292 	 12.424028443721 	
H	 22.688036625518 	  5.715055544292 	  2.321604483721 	
H	 22.119492495518 	  5.715058354292 	 12.452161203721 	
H	 22.688005525518 	 11.898617304292 	  2.321601653721 	
H	 22.119461395518 	 11.898620114292 	 12.452158373721 	
H	  6.341353305500 	  2.626331773484 	  2.829035944214 	
H	  5.772809175500 	  2.626334583484 	 12.959592664214 	
H	  6.341322205500 	  8.809893533484 	  2.829033114214 	
H	  5.772778075500 	  8.809896343484 	 12.959589834214 	
H	 21.022180605500 	  2.626341003484 	  2.857165874214 	
H	 20.453636475500 	  2.626343813484 	 12.987722594214 	
H	 21.022149505500 	  8.809902763484 	  2.857163044214 	
H	 20.453605375500 	  8.809905573484 	 12.987719764214 	
C	  1.995770069508 	  2.453417305403 	  6.487805710687 	
C	  1.427225939508 	  2.453420115403 	 16.618362430687 	
C	  1.995738969508 	  8.636979065403 	  6.487802880687 	
C	  1.427194839508 	  8.636981875403 	 16.618359600687 	
C	 16.676597369508 	  2.453426535403 	  6.515935640687 	
C	 16.108053239508 	  2.453429345403 	 16.646492360687 	
C	 16.676566269508 	  8.636988295403 	  6.515932810687 	
C	 16.108022139508 	  8.636991105403 	 16.646489530687 	
C	 11.802104224699 	  5.536008425471 	  8.810010064142 	
C	 11.233560094699 	  5.536011235471 	 18.940566784142 	
C	 11.802073124699 	 11.719570185471 	  8.810007234142 	
C	 11.233528994699 	 11.719572995471 	 18.940563954142 	
C	 26.482931524699 	  5.536017655471 	  8.838139994142 	
C	 25.914387394699 	  5.536020465471 	 18.968696714142 	
C	 26.482900424699 	 11.719579415471 	  8.838137164142 	
C	 25.914356294699 	 11.719582225471 	 18.968693884142 	
C	 12.073787512137 	  3.723351118923 	  3.721180824416 	
C	 11.505243382137 	  3.723353928923 	 13.851737544416 	
C	 12.073756412137 	  9.906912878923 	  3.721177994416 	
C	 11.505212282137 	  9.906915688923 	 13.851734714416 	
C	 26.754614812137 	  3.723360348923 	  3.749310754416 	
C	 26.186070682137 	  3.723363158923 	 13.879867474416 	
C	 26.754583712137 	  9.906922108923 	  3.749307924416 	
C	 26.186039582137 	  9.906924918923 	 13.879864644416 	
C	  2.267454129675 	  0.640760269510 	  1.398976452515 	
C	  1.698909999675 	  0.640763079510 	 11.529533172515 	
C	  2.267423029675 	  6.824322029510 	  1.398973622515 	
C	  1.698878899675 	  6.824324839510 	 11.529530342515 	
C	 16.948281429675 	  0.640769499510 	  1.427106382515 	
C	 16.379737299675 	  0.640772309510 	 11.557663102515 	
C	 16.948250329675 	  6.824331259510 	  1.427103552515 	
C	 16.379706199675 	  6.824334069510 	 11.557660272515 	
C	  2.263001380825 	  3.064649148414 	  5.317759138099 	
C	  1.694457250825 	  3.064651958414 	 15.448315858099 	
C	  2.262970280825 	  9.248210908414 	  5.317756308099 	
C	  1.694426150825 	  9.248213718414 	 15.448313028099 	
C	 16.943828680825 	  3.064658378414 	  5.345889068099 	
C	 16.375284550825 	  3.064661188414 	 15.476445788099 	
C	 16.943797580825 	  9.248220138414 	  5.345886238099 	
C	 16.375253450825 	  9.248222948414 	 15.476442958099 	
C	 11.528816098842 	 -0.018548957852 	  9.889774885577 	
C	 10.960271968842 	 -0.018546147852 	 20.020331605577 	
C	 11.528784998842 	  6.165012802148 	  9.889772055577 	
C	 10.960240868842 	  6.165015612148 	 20.020328775577 	
C	 26.209643398842 	 -0.018539727852 	  9.917904815577 	
C	 25.641099268842 	 -0.018536917852 	 20.048461535577 	
C	 26.209612298842 	  6.165022032148 	  9.917901985577 	
C	 25.641068168842 	  6.165024842148 	 20.048458705577 	
C	 11.806555923052 	  3.112119557946 	  4.891227912164 	
C	 11.238011793052 	  3.112122367946 	 15.021784632164 	
C	 11.806524823052 	  9.295681317946 	  4.891225082164 	
C	 11.237980693052 	  9.295684127946 	 15.021781802164 	
C	 26.487383223052 	  3.112128787946 	  4.919357842164 	
C	 25.918839093052 	  3.112131597946 	 15.049914562164 	
C	 26.487352123052 	  9.295690547946 	  4.919355012164 	
C	 25.918807993052 	  9.295693357946 	 15.049911732164 	
C	  2.540742286667 	  6.195317938762 	  0.319211542775 	
C	  1.972198156667 	  6.195320748762 	 10.449768262775 	
C	  2.540711186667 	 12.378879698762 	  0.319208712775 	
C	  1.972167056667 	 12.378882508762 	 10.449765432775 	
C	 17.221569586667 	  6.195327168762 	  0.347341472775 	
C	 16.653025456667 	  6.195329978762 	 10.477898192775 	
C	 17.221538486667 	 12.378888928762 	  0.347338642775 	
C	 16.652994356667 	 12.378891738762 	 10.477895362775 	
H	  2.660688163232 	  4.124254207267 	  5.381091057127 	
H	  2.092144033232 	  4.124257017267 	 15.511647777127 	
H	  2.660657063232 	 10.307815967267 	  5.381088227127 	
H	  2.092112933232 	 10.307818777267 	 15.511644947127 	
H	 17.341515463232 	  4.124263437267 	  5.409220987127 	
H	 16.772971333232 	  4.124266247267 	 15.539777707127 	
H	 17.341484363232 	 10.307825197267 	  5.409218157127 	
H	 16.772940233232 	 10.307828007267 	 15.539774877127 	
H	 11.123954867851 	  1.025876374883 	  9.918681508217 	
H	 10.555410737851 	  1.025879184883 	 20.049238228217 	
H	 11.123923767851 	  7.209438134883 	  9.918678678217 	
H	 10.555379637851 	  7.209440944883 	 20.049235398217 	
H	 25.804782167851 	  1.025885604883 	  9.946811438217 	
H	 25.236238037851 	  1.025888414883 	 20.077368158217 	
H	 25.804751067851 	  7.209447364883 	  9.946808608217 	
H	 25.236206937851 	  7.209450174883 	 20.077365328217 	
H	 11.408869333213 	  2.052514460704 	  4.827896247106 	
H	 10.840325203213 	  2.052517270704 	 14.958452967106 	
H	 11.408838233213 	  8.236076220704 	  4.827893417106 	
H	 10.840294103213 	  8.236079030704 	 14.958450137106 	
H	 26.089696633213 	  2.052523690704 	  4.856026177106 	
H	 25.521152503213 	  2.052526500704 	 14.986582897106 	
H	 26.089665533213 	  8.236085450704 	  4.856023347106 	
H	 25.521121403213 	  8.236088260704 	 14.986580067106 	
H	  2.945603575119 	  5.150892630291 	  0.290304703981 	
H	  2.377059445119 	  5.150895440291 	 10.420861423981 	
H	  2.945572475119 	 11.334454390291 	  0.290301873981 	
H	  2.377028345119 	 11.334457200291 	 10.420858593981 	
H	 17.626430875119 	  5.150901860291 	  0.318434633981 	
H	 17.057886745119 	  5.150904670291 	 10.448991353981 	
H	 17.626399775119 	 11.334463620291 	  0.318431803981 	
H	 17.057855645119 	 11.334466430291 	 10.448988523981 	
H	  1.414170139597 	  3.172160729049 	  4.583289558086 	
H	  0.845626009597 	  3.172163539049 	 14.713846278086 	
H	  1.414139039597 	  9.355722489049 	  4.583286728086 	
H	  0.845594909597 	  9.355725299049 	 14.713843448086 	
H	 16.094997439597 	  3.172169959049 	  4.611419488086 	
H	 15.526453309597 	  3.172172769049 	 14.741976208086 	
H	 16.094966339597 	  9.355731719049 	  4.611416658086 	
H	 15.526422209597 	  9.355734529049 	 14.741973378086 	
H	 12.989493521246 	  0.091536697571 	  0.581412016949 	
H	 12.420949391246 	  0.091539507571 	 10.711968736949 	
H	 12.989462421246 	  6.275098457571 	  0.581409186949 	
H	 12.420918291246 	  6.275101267571 	 10.711965906949 	
H	 27.670320821246 	  0.091545927571 	  0.609541946949 	
H	 27.101776691246 	  0.091548737571 	 10.740098666949 	
H	 27.670289721246 	  6.275107687571 	  0.609539116949 	
H	 27.101745591246 	  6.275110497571 	 10.740095836949 	
H	 12.655387137993 	  3.004608399752 	  5.625697555404 	
H	 12.086843007993 	  3.004611209752 	 15.756254275404 	
H	 12.655356037993 	  9.188170159752 	  5.625694725404 	
H	 12.086811907993 	  9.188172969752 	 15.756251445404 	
H	 27.336214437993 	  3.004617629752 	  5.653827485404 	
H	 26.767670307993 	  3.004620439752 	 15.784384205404 	
H	 27.336183337993 	  9.188179389752 	  5.653824655404 	
H	 26.767639207993 	  9.188182199752 	 15.784381375404 	
H	  1.080064960235 	  6.085232301354 	  9.627574287464 	
H	  0.511520830235 	  6.085235111354 	 19.758131007464 	
H	  1.080033860235 	 12.268794061354 	  9.627571457464 	
H	  0.511489730235 	 12.268796871354 	 19.758128177464 	
H	 15.760892260235 	  6.085241531354 	  9.655704217464 	
H	 15.192348130235 	  6.085244341354 	 19.786260937464 	
H	 15.760861160235 	 12.268803291354 	  9.655701387464 	
H	 15.192317030235 	 12.268806101354 	 19.786258107464 	
H	  3.070968686711 	  2.601319652592 	  4.670808851923 	
H	  2.502424556711 	  2.601322462592 	 14.801365571923 	
H	  3.070937586711 	  8.784881412592 	  4.670806021923 	
H	  2.502393456711 	  8.784884222592 	 14.801362741923 	
H	 17.751795986711 	  2.601328882592 	  4.698938781923 	
H	 17.183251856711 	  2.601331692592 	 14.829495501923 	
H	 17.751764886711 	  8.784890642592 	  4.698935951923 	
H	 17.183220756711 	  8.784893452592 	 14.829492671923 	
H	 11.232276182402 	  5.684947128232 	  0.481349816631 	
H	 10.663732052402 	  5.684949938232 	 10.611906536631 	
H	 11.232245082402 	 11.868508888232 	  0.481346986631 	
H	 10.663700952402 	 11.868511698232 	 10.611903706631 	
H	 25.913103482402 	  5.684956358232 	  0.509479746631 	
H	 25.344559352402 	  5.684959168232 	 10.640036466631 	
H	 25.913072382402 	 11.868518118232 	  0.509476916631 	
H	 25.344528252402 	 11.868520928232 	 10.640033636631 	
H	 10.998588543009 	  3.575449306141 	  5.538177835930 	
H	 10.430044413009 	  3.575452116141 	 15.668734555930 	
H	 10.998557443009 	  9.759011066141 	  5.538175005930 	
H	 10.430013313009 	  9.759013876141 	 15.668731725930 	
H	 25.679415843009 	  3.575458536141 	  5.566307765930 	
H	 25.110871713009 	  3.575461346141 	 15.696864485930 	
H	 25.679384743009 	  9.759020296141 	  5.566304935930 	
H	 25.110840613009 	  9.759023106141 	 15.696861655930 	
H	  2.837282267299 	  0.491821986474 	  9.727636739074 	
H	  2.268738137299 	  0.491824796474 	 19.858193459074 	
H	  2.837251167299 	  6.675383746474 	  9.727633909074 	
H	  2.268707037299 	  6.675386556474 	 19.858190629074 	
H	 17.518109567299 	  0.491831216474 	  9.755766669074 	
H	 16.949565437299 	  0.491834026474 	 19.886323389074 	
H	 17.518078467299 	  6.675392976474 	  9.755763839074 	
H	 16.949534337299 	  6.675395786474 	 19.886320559074 	
C	  1.030326285428 	  3.127015029522 	  7.130139888552 	
C	  0.461782155428 	  3.127017839522 	 17.260696608552 	
C	  1.030295185428 	  9.310576789522 	  7.130137058552 	
C	  0.461751055428 	  9.310579599522 	 17.260693778552 	
C	 15.711153585428 	  3.127024259522 	  7.158269818552 	
C	 15.142609455428 	  3.127027069522 	 17.288826538552 	
C	 15.711122485428 	  9.310586019522 	  7.158266988552 	
C	 15.142578355428 	  9.310588829522 	 17.288823708552 	
C	 12.760230835495 	  0.047711133518 	  8.202220667534 	
C	 12.191686705495 	  0.047713943518 	 18.332777387534 	
C	 12.760199735495 	  6.231272893518 	  8.202217837534 	
C	 12.191655605495 	  6.231275703518 	 18.332774557534 	
C	 27.441058135495 	  0.047720363518 	  8.230350597534 	
C	 26.872514005495 	  0.047723173518 	 18.360907317534 	
C	 27.441027035495 	  6.231282123518 	  8.230347767534 	
C	 26.872482905495 	  6.231284933518 	 18.360904487534 	
C	 13.039231514893 	  3.049752997500 	  3.078846829355 	
C	 12.470687384893 	  3.049755807500 	 13.209403549355 	
C	 13.039200414893 	  9.233314757500 	  3.078843999355 	
C	 12.470656284893 	  9.233317567500 	 13.209400719355 	
C	 27.720058814893 	  3.049762227500 	  3.106976759355 	
C	 27.151514684893 	  3.049765037500 	 13.237533479355 	
C	 27.720027714893 	  9.233323987500 	  3.106973929355 	
C	 27.151483584893 	  9.233326797500 	 13.237530649355 	
C	  1.309327477235 	  6.129057310646 	  2.006765676129 	
C	  0.740783347235 	  6.129060120646 	 12.137322396129 	
C	  1.309296377235 	 12.312619070646 	  2.006762846129 	
C	  0.740752247235 	 12.312621880646 	 12.137319566129 	
C	 15.990154777235 	  6.129066540646 	  2.034895606129 	
C	 15.421610647235 	  6.129069350646 	 12.165452326129 	
C	 15.990123677235 	 12.312628300646 	  2.034892776129 	
C	 15.421579547235 	 12.312631110646 	 12.165449496129 	
H	  1.205371976341 	  4.222567311044 	  7.367562691509 	
H	  0.636827846341 	  4.222570121044 	 17.498119411509 	
H	  1.205340876341 	 10.406129071044 	  7.367559861509 	
H	  0.636796746341 	 10.406131881044 	 17.498116581509 	
H	 15.886199276341 	  4.222576541044 	  7.395692621509 	
H	 15.317655146341 	  4.222579351044 	 17.526249341509 	
H	 15.886168176341 	 10.406138301044 	  7.395689791509 	
H	 15.317624046341 	 10.406141111044 	 17.526246511509 	
H	 12.592958183596 	  1.123152352272 	  7.924919981248 	
H	 12.024414053596 	  1.123155162272 	 18.055476701248 	
H	 12.592927083596 	  7.306714112272 	  7.924917151248 	
H	 12.024382953596 	  7.306716922272 	 18.055473871248 	
H	 27.273785483596 	  1.123161582272 	  7.953049911248 	
H	 26.705241353596 	  1.123164392272 	 18.083606631248 	
H	 27.273754383596 	  7.306723342272 	  7.953047081248 	
H	 26.705210253596 	  7.306726152272 	 18.083603801248 	
H	 12.864185691093 	  1.954200718342 	  2.841424300289 	
H	 12.295641561093 	  1.954203528342 	 12.971981020289 	
H	 12.864154591093 	  8.137762478342 	  2.841421470289 	
H	 12.295610461093 	  8.137765288342 	 12.971978190289 	
H	 27.545012991093 	  1.954209948342 	  2.869554230289 	
H	 26.976468861093 	  1.954212758342 	 13.000110950289 	
H	 27.544981891093 	  8.137771708342 	  2.869551400289 	
H	 26.976437761093 	  8.137774518342 	 13.000108120289 	
H	  1.476600321975 	  5.053616040294 	  2.284066041878 	
H	  0.908056191975 	  5.053618850294 	 12.414622761878 	
H	  1.476569221975 	 11.237177800294 	  2.284063211878 	
H	  0.908025091975 	 11.237180610294 	 12.414619931878 	
H	 16.157427621975 	  5.053625270294 	  2.312195971878 	
H	 15.588883491975 	  5.053628080294 	 12.442752691878 	
H	 16.157396521975 	 11.237187030294 	  2.312193141878 	
H	 15.588852391975 	 11.237189840294 	 12.442749861878 	
H	  0.735633461653 	  2.768619330163 	  8.162780762414 	
H	  0.167089331653 	  2.768622140163 	 18.293337482414 	
H	  0.735602361653 	  8.952181090163 	  8.162777932414 	
H	  0.167058231653 	  8.952183900163 	 18.293334652414 	
H	 15.416460761653 	  2.768628560163 	  8.190910692414 	
H	 14.847916631653 	  2.768631370163 	 18.321467412414 	
H	 15.416429661653 	  8.952190320163 	  8.190907862414 	
H	 14.847885531653 	  8.952193130163 	 18.321464582414 	
H	 13.055861918135 	  5.860409544401 	  7.119472070316 	
H	 12.487317788135 	  5.860412354401 	 17.250028790316 	
H	 13.055830818135 	 12.043971304401 	  7.119469240316 	
H	 12.487286688135 	 12.043974114401 	 17.250025960316 	
H	 27.736689218135 	  5.860418774401 	  7.147602000316 	
H	 27.168145088135 	  5.860421584401 	 17.278158720316 	
H	 27.736658118135 	 12.043980534401 	  7.147599170316 	
H	 27.168113988135 	 12.043983344401 	 17.278155890316 	
H	 13.333924654868 	  3.408148573727 	  2.046206040524 	
H	 12.765380524868 	  3.408151383727 	 12.176762760524 	
H	 13.333893554868 	  9.591710333727 	  2.046203210524 	
H	 12.765349424868 	  9.591713143727 	 12.176759930524 	
H	 28.014751954868 	  3.408157803727 	  2.074335970524 	
H	 27.446207824868 	  3.408160613727 	 12.204892690524 	
H	 28.014720854868 	  9.591719563727 	  2.074333140524 	
H	 27.446176724868 	  9.591722373727 	 12.204889860524 	
H	  1.013696374921 	  0.316358596140 	  3.089514289923 	
H	  0.445152244921 	  0.316361406140 	 13.220071009923 	
H	  1.013665274921 	  6.499920356140 	  3.089511459923 	
H	  0.445121144921 	  6.499923166140 	 13.220068179923 	
H	 15.694523674921 	  0.316367826140 	  3.117644219923 	
H	 15.125979544921 	  0.316370636140 	 13.248200939923 	
H	 15.694492574921 	  6.499929586140 	  3.117641389923 	
H	 15.125948444921 	  6.499932396140 	 13.248198109923 	
H	  0.039891985628 	  3.165546322487 	  6.592881013993 	
H	 -0.528652144372 	  3.165549132487 	 16.723437733993 	
H	  0.039860885628 	  9.349108082487 	  6.592878183993 	
H	 -0.528683244372 	  9.349110892487 	 16.723434903993 	
H	 14.720719285628 	  3.165555552487 	  6.621010943993 	
H	 14.152175155628 	  3.165558362487 	 16.751567663993 	
H	 14.720688185628 	  9.349117312487 	  6.621008113993 	
H	 14.152144055628 	  9.349120122487 	 16.751564833993 	
H	 13.729557767841 	  6.250296324466 	  8.691272986374 	
H	 13.161013637841 	  6.250299134466 	 18.821829706374 	
H	 13.729526667841 	 12.433858084466 	  8.691270156374 	
H	 13.160982537841 	 12.433860894466 	 18.821826876374 	
H	 28.410385067841 	  6.250305554466 	  8.719402916374 	
H	 27.841840937841 	  6.250308364466 	 18.849959636374 	
H	 28.410353967841 	 12.433867314466 	  8.719400086374 	
H	 27.841809837841 	 12.433870124466 	 18.849956806374 	
H	 14.029665607027 	  3.011221796125 	  3.616106063722 	
H	 13.461121477027 	  3.011224606125 	 13.746662783722 	
H	 14.029634507027 	  9.194783556125 	  3.616103233722 	
H	 13.461090377027 	  9.194786366125 	 13.746659953722 	
H	 28.710492907027 	  3.011231026125 	  3.644235993722 	
H	 28.141948777027 	  3.011233836125 	 13.774792713722 	
H	 28.710461807027 	  9.194792786125 	  3.644233163722 	
H	 28.141917677027 	  9.194795596125 	 13.774789883722 	
H	  0.340000584648 	 -0.073527970859 	  1.517713312212 	
H	 -0.228543545352 	 -0.073525160859 	 11.648270032212 	
H	  0.339969484648 	  6.110033789141 	  1.517710482212 	
H	 -0.228574645352 	  6.110036599141 	 11.648267202212 	
H	 15.020827884648 	 -0.073518740859 	  1.545843242212 	
H	 14.452283754648 	 -0.073515930859 	 11.676399962212 	
H	 15.020796784648 	  6.110043019141 	  1.545840412212 	
H	 14.452252654648 	  6.110045829141 	 11.676397132212 	
C	  1.556870435762 	  1.212788299058 	  6.245842231025 	
C	  0.988326305762 	  1.212791109058 	 16.376398951025 	
C	  1.556839335762 	  7.396350059058 	  6.245839401025 	
C	  0.988295205762 	  7.396352869058 	 16.376396121025 	
C	 16.237697735762 	  1.212797529058 	  6.273972161025 	
C	 15.669153605762 	  1.212800339058 	 16.404528881025 	
C	 16.237666635762 	  7.396359289058 	  6.273969331025 	
C	 15.669122505762 	  7.396362099058 	 16.404526051025 	
C	 12.232812432610 	  4.306202483412 	  9.049926927863 	
C	 11.664268302610 	  4.306205293412 	 19.180483647863 	
C	 12.232781332610 	 10.489764243412 	  9.049924097863 	
C	 11.664237202610 	 10.489767053412 	 19.180480817863 	
C	 26.913639732610 	  4.306211713412 	  9.078056857863 	
C	 26.345095602610 	  4.306214523412 	 19.208613577863 	
C	 26.913608632610 	 10.489773473412 	  9.078054027863 	
C	 26.345064502610 	 10.489776283412 	 19.208610747863 	
C	 12.512687291631 	  4.963980720049 	  3.963143957690 	
C	 11.944143161631 	  4.963983530049 	 14.093700677690 	
C	 12.512656191631 	 11.147542480049 	  3.963141127690 	
C	 11.944112061631 	 11.147545290049 	 14.093697847690 	
C	 27.193514591631 	  4.963989950049 	  3.991273887690 	
C	 26.624970461631 	  4.963992760049 	 14.121830607690 	
C	 27.193483491631 	 11.147551710049 	  3.991271057690 	
C	 26.624939361631 	 11.147554520049 	 14.121827777690 	
C	  1.836745629467 	  1.870566179569 	  1.159059788738 	
C	  1.268201499467 	  1.870568989569 	 11.289616508738 	
C	  1.836714529467 	  8.054127939569 	  1.159056958738 	
C	  1.268170399467 	  8.054130749569 	 11.289613678738 	
C	 16.517572929467 	  1.870575409569 	  1.187189718738 	
C	 15.949028799467 	  1.870578219569 	 11.317746438738 	
C	 16.517541829467 	  8.054137169569 	  1.187186888738 	
C	 15.948997699467 	  8.054139979569 	 11.317743608738 	
H	  0.567654206666 	  1.129280481146 	  5.713055139600 	
H	 -0.000889923334 	  1.129283291146 	 15.843611859600 	
H	  0.567623106666 	  7.312842241146 	  5.713052309600 	
H	 -0.000921023334 	  7.312845051146 	 15.843609029600 	
H	 15.248481506666 	  1.129289711146 	  5.741185069600 	
H	 14.679937376666 	  1.129292521146 	 15.871741789600 	
H	 15.248450406666 	  7.312851471146 	  5.741182239600 	
H	 14.679906276666 	  7.312854281146 	 15.871738959600 	
H	 13.221654500065 	  4.219499408713 	  9.582774801657 	
H	 12.653110370065 	  4.219502218713 	 19.713331521657 	
H	 13.221623400065 	 10.403061168713 	  9.582771971657 	
H	 12.653079270065 	 10.403063978713 	 19.713328691657 	
H	 27.902481800065 	  4.219508638713 	  9.610904731657 	
H	 27.333937670065 	  4.219511448713 	 19.741461451657 	
H	 27.902450700065 	 10.403070398713 	  9.610901901657 	
H	 27.333906570065 	 10.403073208713 	 19.741458621657 	
H	 13.501903467468 	  5.047488300140 	  4.495931139981 	
H	 12.933359337468 	  5.047491110140 	 14.626487859981 	
H	 13.501872367468 	 11.231050060140 	  4.495928309981 	
H	 12.933328237468 	 11.231052870140 	 14.626485029981 	
H	 28.182730767468 	  5.047497530140 	  4.524061069981 	
H	 27.614186637468 	  5.047500340140 	 14.654617789981 	
H	 28.182699667468 	 11.231059290140 	  4.524058239981 	
H	 27.614155537468 	 11.231062100140 	 14.654614959981 	
H	  0.847903572793 	  1.957269199979 	  0.626211886301 	
H	  0.279359442793 	  1.957272009979 	 10.756768606301 	
H	  0.847872472793 	  8.140830959979 	  0.626209056301 	
H	  0.279328342793 	  8.140833769979 	 10.756765776301 	
H	 15.528730872793 	  1.957278429979 	  0.654341816301 	
H	 14.960186742793 	  1.957281239979 	 10.784898536301 	
H	 15.528699772793 	  8.140840189979 	  0.654338986301 	
H	 14.960155642793 	  8.140842999979 	 10.784895706301 	
H	  1.399810629195 	  0.532531689035 	  7.140560873270 	
H	  0.831266499195 	  0.532534499035 	 17.271117593270 	
H	  1.399779529195 	  6.716093449035 	  7.140558043270 	
H	  0.831235399195 	  6.716096259035 	 17.271114763270 	
H	 16.080637929195 	  0.532540919035 	  7.168690803270 	
H	 15.512093799195 	  0.532543729035 	 17.299247523270 	
H	 16.080606829195 	  6.716102679035 	  7.168687973270 	
H	 15.512062699195 	  6.716105489035 	 17.299244693270 	
H	 12.390446247436 	  3.623025537303 	  8.155746004646 	
H	 11.821902117436 	  3.623028347303 	 18.286302724646 	
H	 12.390415147436 	  9.806587297303 	  8.155743174646 	
H	 11.821871017436 	  9.806590107303 	 18.286299894646 	
H	 27.071273547436 	  3.623034767303 	  8.183875934646 	
H	 26.502729417436 	  3.623037577303 	 18.314432654646 	
H	 27.071242447436 	  9.806596527303 	  8.183873104646 	
H	 26.502698317436 	  9.806599337303 	 18.314429824646 	
H	 12.669747196445 	  5.644236805542 	  3.068424995038 	
H	 12.101203066445 	  5.644239615542 	 13.198981715038 	
H	 12.669716096445 	 11.827798565542 	  3.068422165038 	
H	 12.101171966445 	 11.827801375542 	 13.198978885038 	
H	 27.350574496445 	  5.644246035542 	  3.096554925038 	
H	 26.782030366445 	  5.644248845542 	 13.227111645038 	
H	 27.350543396445 	 11.827807795542 	  3.096552095038 	
H	 26.781999266445 	 11.827810605542 	 13.227108815038 	
H	  1.679111701202 	  2.553742939242 	  2.053240835019 	
H	  1.110567571202 	  2.553745749242 	 12.183797555019 	
H	  1.679080601202 	  8.737304699242 	  2.053238005019 	
H	  1.110536471202 	  8.737307509242 	 12.183794725019 	
H	 16.359939001202 	  2.553752169242 	  2.081370765019 	
H	 15.791394871202 	  2.553754979242 	 12.211927485019 	
H	 16.359907901202 	  8.737313929242 	  2.081367935019 	
H	 15.791363771202 	  8.737316739242 	 12.211924655019 	
H	  2.207253312264 	  0.534869312738 	  5.611215718002 	
H	  1.638709182264 	  0.534872122738 	 15.741772438002 	
H	  2.207222212264 	  6.718431072738 	  5.611212888002 	
H	  1.638678082264 	  6.718433882738 	 15.741769608002 	
H	 16.888080612264 	  0.534878542738 	  5.639345648002 	
H	 16.319536482264 	  0.534881352738 	 15.769902368002 	
H	 16.888049512264 	  6.718440302738 	  5.639342818002 	
H	 16.319505382264 	  6.718443112738 	 15.769899538002 	
H	 11.583452023504 	  3.625430083194 	  9.684281189808 	
H	 11.014907893504 	  3.625432893194 	 19.814837909808 	
H	 11.583420923504 	  9.808991843194 	  9.684278359808 	
H	 11.014876793504 	  9.808994653194 	 19.814835079808 	
H	 26.264279323504 	  3.625439313194 	  9.712411119808 	
H	 25.695735193504 	  3.625442123194 	 19.842967839808 	
H	 26.264248223504 	  9.809001073194 	  9.712408289808 	
H	 25.695704093504 	  9.809003883194 	 19.842965009808 	
H	 11.862304361577 	  5.641899690822 	  4.597770343772 	
H	 11.293760231577 	  5.641902500822 	 14.728327063772 	
H	 11.862273261577 	 11.825461450822 	  4.597767513772 	
H	 11.293729131577 	 11.825464260822 	 14.728324233772 	
H	 26.543131661577 	  5.641908920822 	  4.625900273772 	
H	 25.974587531577 	  5.641911730822 	 14.756456993772 	
H	 26.543100561577 	 11.825470680822 	  4.625897443772 	
H	 25.974556431577 	 11.825473490822 	 14.756454163772 	
H	  2.486106035343 	  2.551338826071 	  0.524705789094 	
H	  1.917561905343 	  2.551341636071 	 10.655262509094 	
H	  2.486074935343 	  8.734900586071 	  0.524702959094 	
H	  1.917530805343 	  8.734903396071 	 10.655259679094 	
H	 17.166933335343 	  2.551348056071 	  0.552835719094 	
H	 16.598389205343 	  2.551350866071 	 10.683392439094 	
H	 17.166902235343 	  8.734909816071 	  0.552832889094 	
H	 16.598358105343 	  8.734912626071 	 10.683389609094 	
768 
Energy: -9.4564409782940004e+01 
S	  8.680615687550 	  1.543638601475 	  0.060648426111 	
S	  8.112071557550 	  1.543641411475 	 10.191205146111 	
S	  8.680584587550 	  7.727200361475 	  0.060645596111 	
S	  8.112040457550 	  7.727203171475 	 10.191202316111 	
S	 23.361442987550 	  1.543647831475 	  0.088778356111 	
S	 22.792898857550 	  1.543650641475 	 10.219335076111 	
S	 23.361411887550 	  7.727209591475 	  0.088775526111 	
S	 22.792867757550 	  7.727212401475 	 10.219332246111 	
S	  5.604754798613 	  4.626958038248 	  5.099451454916 	
S	  5.036210668613 	  4.626960848248 	 15.230008174916 	
S	  5.604723698613 	 10.810519798248 	  5.099448624916 	
S	  5.036179568613 	 10.810522608248 	 15.230005344916 	
S	 20.285582098613 	  4.626967268248 	  5.127581384916 	
S	 19.717037968613 	  4.626970078248 	 15.258138104916 	
S	 20.285550998613 	 10.810529028248 	  5.127578554916 	
S	 19.717006868613 	 10.810531838248 	 15.258135274916 	
S	  5.333866671300 	  4.624350876695 	 10.213228765695 	
S	  4.765322541300 	  4.624353686695 	 20.343785485695 	
S	  5.333835571300 	 10.807912636695 	 10.213225935695 	
S	  4.765291441300 	 10.807915446695 	 20.343782655695 	
S	 20.014693971300 	  4.624360106695 	 10.241358695695 	
S	 19.446149841300 	  4.624362916695 	 20.371915415695 	
S	 20.014662871300 	 10.807921866695 	 10.241355865695 	
S	 19.446118741300 	 10.807924676695 	 20.371912585695 	
S	  8.409728058704 	  1.541032033164 	  5.174425909129 	
S	  7.841183928704 	  1.541034843164 	 15.304982629129 	
S	  8.409696958704 	  7.724593793164 	  5.174423079129 	
S	  7.841152828704 	  7.724596603164 	 15.304979799129 	
S	 23.090555358704 	  1.541041263164 	  5.202555839129 	
S	 22.522011228704 	  1.541044073164 	 15.333112559129 	
S	 23.090524258704 	  7.724603023164 	  5.202553009129 	
S	 22.521980128704 	  7.724605833164 	 15.333109729129 	
C	  6.713293544679 	  2.565328209185 	  9.890713317402 	
C	  6.144749414679 	  2.565331019185 	 20.021270037402 	
C	  6.713262444679 	  8.748889969185 	  9.890710487402 	
C	  6.144718314679 	  8.748892779185 	 20.021267207402 	
C	 21.394120844679 	  2.565337439185 	  9.918843247402 	
C	 20.825576714679 	  2.565340249185 	 20.049399967402 	
C	 21.394089744679 	  8.748899199185 	  9.918840417402 	
C	 20.825545614679 	  8.748902009185 	 20.049397137402 	
C	  7.031229444725 	  5.594055079937 	  5.537971593052 	
C	  6.462685314725 	  5.594057889937 	 15.668528313052 	
C	  7.031198344725 	 11.777616839937 	  5.537968763052 	
C	  6.462654214725 	 11.777619649937 	 15.668525483052 	
C	 21.712056744725 	  5.594064309937 	  5.566101523052 	
C	 21.143512614725 	  5.594067119937 	 15.696658243052 	
C	 21.712025644725 	 11.777626069937 	  5.566098693052 	
C	 21.143481514725 	 11.777628879937 	 15.696655413052 	
C	  7.301188859585 	  3.602661222602 	  0.383163873683 	
C	  6.732644729585 	  3.602664032602 	 10.513720593683 	
C	  7.301157759585 	  9.786222982602 	  0.383161043683 	
C	  6.732613629585 	  9.786225792602 	 10.513717763683 	
C	 21.982016159585 	  3.602670452602 	  0.411293803683 	
C	 21.413472029585 	  3.602673262602 	 10.541850523683 	
C	 21.981985059585 	  9.786232212602 	  0.411290973683 	
C	 21.413440929585 	  9.786235022602 	 10.541847693683 	
C	  6.983253274622 	  0.573935095609 	  4.735905740757 	
C	  6.414709144622 	  0.573937905609 	 14.866462460757 	
C	  6.983222174622 	  6.757496855609 	  4.735902910757 	
C	  6.414678044622 	  6.757499665609 	 14.866459630757 	
C	 21.664080574622 	  0.573944325609 	  4.764035670757 	
C	 21.095536444622 	  0.573947135609 	 14.894592390757 	
C	 21.664049474622 	  6.757506085609 	  4.764032840757 	
C	 21.095505344622 	  6.757508895609 	 14.894589560757 	
C	  5.659278913087 	  2.344595743944 	  8.959032865602 	
C	  5.090734783087 	  2.344598553944 	 19.089589585602 	
C	  5.659247813087 	  8.528157503944 	  8.959030035602 	
C	  5.090703683087 	  8.528160313944 	 19.089586755602 	
C	 20.340106213087 	  2.344604973944 	  8.987162795602 	
C	 19.771562083087 	  2.344607783944 	 19.117719515602 	
C	 20.340075113087 	  8.528166733944 	  8.987159965602 	
C	 19.771530983087 	  8.528169543944 	 19.117716685602 	
C	  8.080139342831 	  5.420987130979 	  6.428312169261 	
C	  7.511595212831 	  5.420989940979 	 16.558868889261 	
C	  8.080108242831 	 11.604548890979 	  6.428309339261 	
C	  7.511564112831 	 11.604551700979 	 16.558866059261 	
C	 22.760966642831 	  5.420996360979 	  6.456442099261 	
C	 22.192422512831 	  5.420999170979 	 16.586998819261 	
C	 22.760935542831 	 11.604558120979 	  6.456439269261 	
C	 22.192391412831 	 11.604560930979 	 16.586995989261 	
C	  8.355203298021 	  3.823393716539 	  1.314844179062 	
C	  7.786659168021 	  3.823396526539 	 11.445400899062 	
C	  8.355172198021 	 10.006955476539 	  1.314841349062 	
C	  7.786628068021 	 10.006958286539 	 11.445398069062 	
C	 23.036030598021 	  3.823402946539 	  1.342974109062 	
C	 22.467486468021 	  3.823405756539 	 11.473530829062 	
C	 23.035999498021 	 10.006964706539 	  1.342971279062 	
C	 22.467455368021 	 10.006967516539 	 11.473527999062 	
C	  5.934343301211 	  0.747003023513 	  3.845565105248 	
C	  5.365799171211 	  0.747005833513 	 13.976121825248 	
C	  5.934312201211 	  6.930564783513 	  3.845562275248 	
C	  5.365768071211 	  6.930567593513 	 13.976118995248 	
C	 20.615170601211 	  0.747012253513 	  3.873695035248 	
C	 20.046626471211 	  0.747015063513 	 14.004251755248 	
C	 20.615139501211 	  6.930574013513 	  3.873692205248 	
C	 20.046595371211 	  6.930576823513 	 14.004248925248 	
C	  4.767155246120 	  3.393676368301 	  8.993853679449 	
C	  4.198611116120 	  3.393679178301 	 19.124410399449 	
C	  4.767124146120 	  9.577238128301 	  8.993850849449 	
C	  4.198580016120 	  9.577240938301 	 19.124407569449 	
C	 19.447982546120 	  3.393685598301 	  9.021983609449 	
C	 18.879438416120 	  3.393688408301 	 19.152540329449 	
C	 19.447951446120 	  9.577247358301 	  9.021980779449 	
C	 18.879407316120 	  9.577250168301 	 19.152537499449 	
C	  8.975903222920 	  0.315790147472 	  6.395108899186 	
C	  8.407359092920 	  0.315792957472 	 16.525665619186 	
C	  8.975872122920 	  6.499351907472 	  6.395106069186 	
C	  8.407327992920 	  6.499354717472 	 16.525662789186 	
C	 23.656730522920 	  0.315799377472 	  6.423238829186 	
C	 23.088186392920 	  0.315802187472 	 16.553795549186 	
C	 23.656699422920 	  6.499361137472 	  6.423235999186 	
C	 23.088155292920 	  6.499363947472 	 16.553792719186 	
C	  9.247326959974 	  2.774313171997 	  1.280023462827 	
C	  8.678782829974 	  2.774315981997 	 11.410580182827 	
C	  9.247295859974 	  8.957874931997 	  1.280020632827 	
C	  8.678751729974 	  8.957877741997 	 11.410577352827 	
C	 23.928154259974 	  2.774322401997 	  1.308153392827 	
C	 23.359610129974 	  2.774325211997 	 11.438710112827 	
C	 23.928123159974 	  8.957884161997 	  1.308150562827 	
C	 23.359579029974 	  8.957886971997 	 11.438707282827 	
C	  5.038579460114 	  5.852199950367 	  3.878768430755 	
C	  4.470035330114 	  5.852202760367 	 14.009325150755 	
C	  5.038548360114 	 12.035761710367 	  3.878765600755 	
C	  4.470004230114 	 12.035764520367 	 14.009322320755 	
C	 19.719406760114 	  5.852209180367 	  3.906898360755 	
C	 19.150862630114 	  5.852211990367 	 14.037455080755 	
C	 19.719375660114 	 12.035770940367 	  3.906895530755 	
C	 19.150831530114 	 12.035773750367 	 14.037452250755 	
C	  3.684887989448 	  3.439914311842 	  8.259853273372 	
C	  3.116343859448 	  3.439917121842 	 18.390409993372 	
C	  3.684856889448 	  9.623476071842 	  8.259850443372 	
C	  3.116312759448 	  9.623478881842 	 18.390407163372 	
C	 18.365715289448 	  3.439923541842 	  8.287983203372 	
C	 17.797171159448 	  3.439926351842 	 18.418539923372 	
C	 18.365684189448 	  9.623485301842 	  8.287980373372 	
C	 17.797140059448 	  9.623488111842 	 18.418537093372 	
C	 10.049504099708 	  0.371501671438 	  7.115178125100 	
C	  9.480959969708 	  0.371504481438 	 17.245734845100 	
C	 10.049472999708 	  6.555063431438 	  7.115175295100 	
C	  9.480928869708 	  6.555066241438 	 17.245732015100 	
C	 24.730331399708 	  0.371510901438 	  7.143308055100 	
C	 24.161787269708 	  0.371513711438 	 17.273864775100 	
C	 24.730300299708 	  6.555072661438 	  7.143305225100 	
C	 24.161756169708 	  6.555075471438 	 17.273861945100 	
C	 10.329594263107 	  2.728075307888 	  2.014024027319 	
C	  9.761050133107 	  2.728078117888 	 12.144580747319 	
C	 10.329563163107 	  8.911637067888 	  2.014021197319 	
C	  9.761019033107 	  8.911639877888 	 12.144577917319 	
C	 25.010421563107 	  2.728084537888 	  2.042153957319 	
C	 24.441877433107 	  2.728087347888 	 12.172710677319 	
C	 25.010390463107 	  8.911646297888 	  2.042151127319 	
C	 24.441846333107 	  8.911649107888 	 12.172707847319 	
C	  3.964978507150 	  5.796488407180 	  3.158699294113 	
C	  3.396434377150 	  5.796491217180 	 13.289256014113 	
C	  3.964947407150 	 11.980050167180 	  3.158696464113 	
C	  3.396403277150 	 11.980052977180 	 13.289253184113 	
C	 18.645805807150 	  5.796497637180 	  3.186829224113 	
C	 18.077261677150 	  5.796500447180 	 13.317385944113 	
C	 18.645774707150 	 11.980059397180 	  3.186826394113 	
C	 18.077230577150 	 11.980062207180 	 13.317383114113 	
H	  2.987072389883 	  4.356534536665 	  8.342445087776 	
H	  2.418528259883 	  4.356537346665 	 18.473001807776 	
H	  2.987041289883 	 10.540096296665 	  8.342442257776 	
H	  2.418497159883 	 10.540099106665 	 18.472998977776 	
H	 17.667899689883 	  4.356543766665 	  8.370575017776 	
H	 17.099355559883 	  4.356546576665 	 18.501131737776 	
H	 17.667868589883 	 10.540105526665 	  8.370572187776 	
H	 17.099324459883 	 10.540108336665 	 18.501128907776 	
H	 10.754954853999 	  1.270563496585 	  7.047234859286 	
H	 10.186410723999 	  1.270566306585 	 17.177791579286 	
H	 10.754923753999 	  7.454125256585 	  7.047232029286 	
H	 10.186379623999 	  7.454128066585 	 17.177788749286 	
H	 25.435782153999 	  1.270572726585 	  7.075364789286 	
H	 24.867238023999 	  1.270575536585 	 17.205921509286 	
H	 25.435751053999 	  7.454134486585 	  7.075361959286 	
H	 24.867206923999 	  7.454137296585 	 17.205918679286 	
H	 11.027409825015 	  1.811455053349 	  1.931432153684 	
H	 10.458865695015 	  1.811457863349 	 12.061988873684 	
H	 11.027378725015 	  7.995016813349 	  1.931429323684 	
H	 10.458834595015 	  7.995019623349 	 12.061986043684 	
H	 25.708237125015 	  1.811464283349 	  1.959562083684 	
H	 25.139692995015 	  1.811467093349 	 12.090118803684 	
H	 25.708206025015 	  7.995026043349 	  1.959559253684 	
H	 25.139661895015 	  7.995028853349 	 12.090115973684 	
H	  3.259527872923 	  4.897426485664 	  3.226642607164 	
H	  2.690983742923 	  4.897429295664 	 13.357199327164 	
H	  3.259496772923 	 11.080988245664 	  3.226639777164 	
H	  2.690952642923 	 11.080991055664 	 13.357196497164 	
H	 17.940355172923 	  4.897435715664 	  3.254772537164 	
H	 17.371811042923 	  4.897438525664 	 13.385329257164 	
H	 17.940324072923 	 11.080997475664 	  3.254769707164 	
H	 17.371779942923 	 11.081000285664 	 13.385326427164 	
C	  3.361869938733 	  2.461278910959 	  7.421446506097 	
C	  2.793325808733 	  2.461281720959 	 17.552003226097 	
C	  3.361838838733 	  8.644840670959 	  7.421443676097 	
C	  2.793294708733 	  8.644843480959 	 17.552000396097 	
C	 18.042697238733 	  2.461288140959 	  7.449576436097 	
C	 17.474153108733 	  2.461290950959 	 17.580133156097 	
C	 18.042666138733 	  8.644849900959 	  7.449573606097 	
C	 17.474122008733 	  8.644852710959 	 17.580130326097 	
C	 10.386179734960 	  5.528672890704 	  7.979363316016 	
C	  9.817635604960 	  5.528675700704 	 18.109920036016 	
C	 10.386148634960 	 11.712234650704 	  7.979360486016 	
C	  9.817604504960 	 11.712237460704 	 18.109917206016 	
C	 25.067007034960 	  5.528682120704 	  8.007493246016 	
C	 24.498462904960 	  5.528684930704 	 18.138049966016 	
C	 25.066975934960 	 11.712243880704 	  8.007490416016 	
C	 24.498431804960 	 11.712246690704 	 18.138047136016 	
C	 10.652612145580 	  3.706710646841 	  2.852430699801 	
C	 10.084068015580 	  3.706713456841 	 12.982987419801 	
C	 10.652581045580 	  9.890272406841 	  2.852427869801 	
C	 10.084036915580 	  9.890275216841 	 12.982984589801 	
C	 25.333439445580 	  3.706719876841 	  2.880560629801 	
C	 24.764895315580 	  3.706722686841 	 13.011117349801 	
C	 25.333408345580 	  9.890281636841 	  2.880557799801 	
C	 24.764864215580 	  9.890284446841 	 13.011114519801 	
C	  3.628302899258 	  0.639317167880 	  2.294514076789 	
C	  3.059758769258 	  0.639319977880 	 12.425070796789 	
C	  3.628271799258 	  6.822878927880 	  2.294511246789 	
C	  3.059727669258 	  6.822881737880 	 12.425067966789 	
C	 18.309130199258 	  0.639326397880 	  2.322644006789 	
C	 17.740586069258 	  0.639329207880 	 12.453200726789 	
C	 18.309099099258 	  6.822888157880 	  2.322641176789 	
C	 17.740554969258 	  6.822890967880 	 12.453197896789 	
C	  4.253809049859 	  1.432031969505 	  7.353779017723 	
C	  3.685264919859 	  1.432034779505 	 17.484335737723 	
C	  4.253777949859 	  7.615593729505 	  7.353776187723 	
C	  3.685233819859 	  7.615596539505 	 17.484332907723 	
C	 18.934636349859 	  1.432041199505 	  7.381908947723 	
C	 18.366092219859 	  1.432044009505 	 17.512465667723 	
C	 18.934605249859 	  7.615602959505 	  7.381906117723 	
C	 18.366061119859 	  7.615605769505 	 17.512462837723 	
C	  9.488691798484 	  4.517935626051 	  8.033309191747 	
C	  8.920147668484 	  4.517938436051 	 18.163865911747 	
C	  9.488660698484 	 10.701497386051 	  8.033306361747 	
C	  8.920116568484 	 10.701500196051 	 18.163863081747 	
C	 24.169519098484 	  4.517944856051 	  8.061439121747 	
C	 23.600974968484 	  4.517947666051 	 18.191995841747 	
C	 24.169487998484 	 10.701506616051 	  8.061436291747 	
C	 23.600943868484 	 10.701509426051 	 18.191993011747 	
C	  9.760672955052 	  4.735957565316 	  2.920098256116 	
C	  9.192128825052 	  4.735960375316 	 13.050654976116 	
C	  9.760641855052 	 10.919519325316 	  2.920095426116 	
C	  9.192097725052 	 10.919522135316 	 13.050652146116 	
C	 24.441500255052 	  4.735966795316 	  2.948228186116 	
C	 23.872956125052 	  4.735969605316 	 13.078784906116 	
C	 24.441469155052 	 10.919528555316 	  2.948225356116 	
C	 23.872925025052 	 10.919531365316 	 13.078782076116 	
C	  4.525790666250 	  1.650054370063 	  2.240568129467 	
C	  3.957246536250 	  1.650057180063 	 12.371124849467 	
C	  4.525759566250 	  7.833616130063 	  2.240565299467 	
C	  3.957215436250 	  7.833618940063 	 12.371122019467 	
C	 19.206617966250 	  1.650063600063 	  2.268698059467 	
C	 18.638073836250 	  1.650066410063 	 12.399254779467 	
C	 19.206586866250 	  7.833625360063 	  2.268695229467 	
C	 18.638042736250 	  7.833628170063 	 12.399251949467 	
H	  4.023841245790 	  0.577964537010 	  6.615371169263 	
H	  3.455297115790 	  0.577967347010 	 16.745927889263 	
H	  4.023810145790 	  6.761526297010 	  6.615368339263 	
H	  3.455266015790 	  6.761529107010 	 16.745925059263 	
H	 18.704668545790 	  0.577973767010 	  6.643501099263 	
H	 18.136124415790 	  0.577976577010 	 16.774057819263 	
H	 18.704637445790 	  6.761535527010 	  6.643498269263 	
H	 18.136093315790 	  6.761538337010 	 16.774054989263 	
H	  9.717949895062 	  3.662703596247 	  8.772266535057 	
H	  9.149405765062 	  3.662706406247 	 18.902823255057 	
H	  9.717918795062 	  9.846265356247 	  8.772263705057 	
H	  9.149374665062 	  9.846268166247 	 18.902820425057 	
H	 24.398777195062 	  3.662712826247 	  8.800396465057 	
H	 23.830233065062 	  3.662715636247 	 18.930953185057 	
H	 24.398746095062 	  9.846274586247 	  8.800393635057 	
H	 23.830201965062 	  9.846277396247 	 18.930950355057 	
H	  9.990640766270 	  5.590024976579 	  3.658506114037 	
H	  9.422096636270 	  5.590027786579 	 13.789062834037 	
H	  9.990609666270 	 11.773586736579 	  3.658503284037 	
H	  9.422065536270 	 11.773589546579 	 13.789060004037 	
H	 24.671468066270 	  5.590034206579 	  3.686636044037 	
H	 24.102923936270 	  5.590037016579 	 13.817192764037 	
H	 24.671436966270 	 11.773595966579 	  3.686633214037 	
H	 24.102892836270 	 11.773598776579 	 13.817189934037 	
H	  4.296532530002 	  2.505286443874 	  1.501610844775 	
H	  3.727988400002 	  2.505289253874 	 11.632167564775 	
H	  4.296501430002 	  8.688848203874 	  1.501608014775 	
H	  3.727957300002 	  8.688851013874 	 11.632164734775 	
H	 18.977359830002 	  2.505295673874 	  1.529740774775 	
H	 18.408815700002 	  2.505298483874 	 11.660297494775 	
H	 18.977328730002 	  8.688857433874 	  1.529737944775 	
H	 18.408784600002 	  8.688860243874 	 11.660294664775 	
C	  5.316422169258 	  1.370487391853 	  8.055436866557 	
C	  4.747878039258 	  1.370490201853 	 18.185993586557 	
C	  5.316391069258 	  7.554049151853 	  8.055434036557 	
C	  4.747846939258 	  7.554051961853 	 18.185990756557 	
C	 19.997249469258 	  1.370496621853 	  8.083566796557 	
C	 19.428705339258 	  1.370499431853 	 18.214123516557 	
C	 19.997218369258 	  7.554058381853 	  8.083563966557 	
C	 19.428674239258 	  7.554061191853 	 18.214120686557 	
C	  8.425851078411 	  4.455972482281 	  7.331339528276 	
C	  7.857306948411 	  4.455975292281 	 17.461896248276 	
C	  8.425819978411 	 10.639534242281 	  7.331336698276 	
C	  7.857275848411 	 10.639537052281 	 17.461893418276 	
C	 23.106678378411 	  4.455981712281 	  7.359469458276 	
C	 22.538134248411 	  4.455984522281 	 17.490026178276 	
C	 23.106647278411 	 10.639543472281 	  7.359466628276 	
C	 22.538103148411 	 10.639546282281 	 17.490023348276 	
C	  8.698059933227 	  4.797502106886 	  2.218440250281 	
C	  8.129515803227 	  4.797504916886 	 12.348996970281 	
C	  8.698028833227 	 10.981063866886 	  2.218437420281 	
C	  8.129484703227 	 10.981066676886 	 12.348994140281 	
C	 23.378887233227 	  4.797511336886 	  2.246570180281 	
C	 22.810343103227 	  4.797514146886 	 12.377126900281 	
C	 23.378856133227 	 10.981073096886 	  2.246567350281 	
C	 22.810312003227 	 10.981075906886 	 12.377124070281 	
C	  5.588631534343 	  1.712017626256 	  2.942537819222 	
C	  5.020087404343 	  1.712020436256 	 13.073094539222 	
C	  5.588600434343 	  7.895579386256 	  2.942534989222 	
C	  5.020056304343 	  7.895582196256 	 13.073091709222 	
C	 20.269458834343 	  1.712026856256 	  2.970667749222 	
C	 19.700914704343 	  1.712029666256 	 13.101224469222 	
C	 20.269427734343 	  7.895588616256 	  2.970664919222 	
C	 19.700883604343 	  7.895591426256 	 13.101221639222 	
H	  6.033984674608 	  0.473628058344 	  7.960405578081 	
H	  5.465440544608 	  0.473630868344 	 18.090962298081 	
H	  6.033953574608 	  6.657189818344 	  7.960402748081 	
H	  5.465409444608 	  6.657192628344 	 18.090959468081 	
H	 20.714811974608 	  0.473637288344 	  7.988535508081 	
H	 20.146267844608 	  0.473640098344 	 18.119092228081 	
H	 20.714780874608 	  6.657199048344 	  7.988532678081 	
H	 20.146236744608 	  6.657201858344 	 18.119089398081 	
H	  7.707881356384 	  3.557960281665 	  7.427318445362 	
H	  7.139337226384 	  3.557963091665 	 17.557875165362 	
H	  7.707850256384 	  9.741522041665 	  7.427315615362 	
H	  7.139306126384 	  9.741524851665 	 17.557872335362 	
H	 22.388708656384 	  3.557969511665 	  7.455448375362 	
H	 21.820164526384 	  3.557972321665 	 17.586005095362 	
H	 22.388677556384 	  9.741531271665 	  7.455445545362 	
H	 21.820133426384 	  9.741534081665 	 17.586002265362 	
H	  7.980497341627 	  5.694361352305 	  2.313471551544 	
H	  7.411953211627 	  5.694364162305 	 12.444028271544 	
H	  7.980466241627 	 11.877923112305 	  2.313468721544 	
H	  7.411922111627 	 11.877925922305 	 12.444025441544 	
H	 22.661324641627 	  5.694370582305 	  2.341601481544 	
H	 22.092780511627 	  5.694373392305 	 12.472158201544 	
H	 22.661293541627 	 11.877932342305 	  2.341598651544 	
H	 22.092749411627 	 11.877935152305 	 12.472155371544 	
H	  6.306601201827 	  2.610029850330 	  2.846558848217 	
H	  5.738057071827 	  2.610032660330 	 12.977115568217 	
H	  6.306570101827 	  8.793591610330 	  2.846556018217 	
H	  5.738025971827 	  8.793594420330 	 12.977112738217 	
H	 20.987428501827 	  2.610039080330 	  2.874688778217 	
H	 20.418884371827 	  2.610041890330 	 13.005245498217 	
H	 20.987397401827 	  8.793600840330 	  2.874685948217 	
H	 20.418853271827 	  8.793603650330 	 13.005242668217 	
C	  1.966932967184 	  2.503243925775 	  6.494242530768 	
C	  1.398388837184 	  2.503246735775 	 16.624799250768 	
C	  1.966901867184 	  8.686805685775 	  6.494239700768 	
C	  1.398357737184 	  8.686808495775 	 16.624796420768 	
C	 16.647760267184 	  2.503253155775 	  6.522372460768 	
C	 16.079216137184 	  2.503255965775 	 16.652929180768 	
C	 16.647729167184 	  8.686814915775 	  6.522369630768 	
C	 16.079185037184 	  8.686817725775 	 16.652926350768 	
C	 11.750297747688 	  5.550615432607 	  8.871723737938 	
C	 11.181753617688 	  5.550618242607 	 19.002280457938 	
C	 11.750266647688 	 11.734177192607 	  8.871720907938 	
C	 11.181722517688 	 11.734180002607 	 19.002277627938 	
C	 26.431125047688 	  5.550624662607 	  8.899853667938 	
C	 25.862580917688 	  5.550627472607 	 19.030410387938 	
C	 26.431093947688 	 11.734186422607 	  8.899850837938 	
C	 25.862549817688 	 11.734189232607 	 19.030407557938 	
C	 12.047548972104 	  3.664745836879 	  3.779634715502 	
C	 11.479004842104 	  3.664748646879 	 13.910191435502 	
C	 12.047517872104 	  9.848307596879 	  3.779631885502 	
C	 11.478973742104 	  9.848310406879 	 13.910188605502 	
C	 26.728376272104 	  3.664755066879 	  3.807764645502 	
C	 26.159832142104 	  3.664757876879 	 13.938321365502 	
C	 26.728345172104 	  9.848316826879 	  3.807761815502 	
C	 26.159801042104 	  9.848319636879 	 13.938318535502 	
C	  2.264184880912 	  0.617374478927 	  1.402153662317 	
C	  1.695640750912 	  0.617377288927 	 11.532710382317 	
C	  2.264153780912 	  6.800936238927 	  1.402150832317 	
C	  1.695609650912 	  6.800939048927 	 11.532707552317 	
C	 16.945012180912 	  0.617383708927 	  1.430283592317 	
C	 16.376468050912 	  0.617386518927 	 11.560840312317 	
C	 16.944981080912 	  6.800945468927 	  1.430280762317 	
C	 16.376436950912 	  6.800948278927 	 11.560837482317 	
C	  2.217293230578 	  2.958638616112 	  5.392025386585 	
C	  1.648749100578 	  2.958641426112 	 15.522582106585 	
C	  2.217262130578 	  9.142200376112 	  5.392022556585 	
C	  1.648718000578 	  9.142203186112 	 15.522579276585 	
C	 16.898120530578 	  2.958647846112 	  5.420155316585 	
C	 16.329576400578 	  2.958650656112 	 15.550712036585 	
C	 16.898089430578 	  9.142209606112 	  5.420152486585 	
C	 16.329545300578 	  9.142212416112 	 15.550709206585 	
C	 11.519780093843 	 -0.111872436987 	  9.932294841525 	
C	 10.951235963843 	 -0.111869626987 	 20.062851561525 	
C	 11.519748993843 	  6.071689323013 	  9.932292011525 	
C	 10.951204863843 	  6.071692133013 	 20.062848731525 	
C	 26.200607393843 	 -0.111863206987 	  9.960424771525 	
C	 25.632063263843 	 -0.111860396987 	 20.090981491525 	
C	 26.200576293843 	  6.071698553013 	  9.960421941525 	
C	 25.632032163843 	  6.071701363013 	 20.090978661525 	
C	 11.797188234944 	  3.209351151001 	  4.881852553029 	
C	 11.228644104944 	  3.209353961001 	 15.012409273029 	
C	 11.797157134944 	  9.392912911001 	  4.881849723029 	
C	 11.228613004944 	  9.392915721001 	 15.012406443029 	
C	 26.478015534944 	  3.209360381001 	  4.909982483029 	
C	 25.909471404944 	  3.209363191001 	 15.040539203029 	
C	 26.477984434944 	  9.392922141001 	  4.909979653029 	
C	 25.909440304944 	  9.392924951001 	 15.040536373029 	
C	  2.494702520566 	  6.279862627241 	  0.341582511357 	
C	  1.926158390566 	  6.279865437241 	 10.472139231357 	
C	  2.494671420566 	 12.463424387241 	  0.341579681357 	
C	  1.926127290566 	 12.463427197241 	 10.472136401357 	
C	 17.175529820566 	  6.279871857241 	  0.369712441357 	
C	 16.606985690566 	  6.279874667241 	 10.500269161357 	
C	 17.175498720566 	 12.463433617241 	  0.369709611357 	
C	 16.606954590566 	 12.463436427241 	 10.500266331357 	
H	  2.726241459908 	  3.981283164627 	  5.331078750544 	
H	  2.157697329908 	  3.981285974627 	 15.461635470544 	
H	  2.726210359908 	 10.164844924627 	  5.331075920544 	
H	  2.157666229908 	 10.164847734627 	 15.461632640544 	
H	 17.407068759908 	  3.981292394627 	  5.359208680544 	
H	 16.838524629908 	  3.981295204627 	 15.489765400544 	
H	 17.407037659908 	 10.164854154627 	  5.359205850544 	
H	 16.838493529908 	 10.164856964627 	 15.489762570544 	
H	 11.010097809543 	  0.880199986320 	 10.061918362656 	
H	 10.441553679543 	  0.880202796320 	 20.192475082656 	
H	 11.010066709543 	  7.063761746320 	 10.061915532656 	
H	 10.441522579543 	  7.063764556320 	 20.192472252656 	
H	 25.690925109543 	  0.880209216320 	 10.090048292656 	
H	 25.122380979543 	  0.880212026320 	 20.220605012656 	
H	 25.690894009543 	  7.063770976320 	 10.090045462656 	
H	 25.122349879543 	  7.063773786320 	 20.220602182656 	
H	 11.288240439909 	  2.186706327624 	  4.942799160862 	
H	 10.719696309909 	  2.186709137624 	 15.073355880862 	
H	 11.288209339909 	  8.370268087624 	  4.942796330862 	
H	 10.719665209909 	  8.370270897624 	 15.073353050862 	
H	 25.969067739909 	  2.186715557624 	  4.970929090862 	
H	 25.400523609909 	  2.186718367624 	 15.101485810862 	
H	 25.969036639909 	  8.370277317624 	  4.970926260862 	
H	 25.400492509909 	  8.370280127624 	 15.101482980862 	
H	  3.004384838316 	  5.287790254224 	  0.211958721218 	
H	  2.435840708316 	  5.287793064224 	 10.342515441218 	
H	  3.004353738316 	 11.471352014224 	  0.211955891218 	
H	  2.435809608316 	 11.471354824224 	 10.342512611218 	
H	 17.685212138316 	  5.287799484224 	  0.240088651218 	
H	 17.116668008316 	  5.287802294224 	 10.370645371218 	
H	 17.685181038316 	 11.471361244224 	  0.240085821218 	
H	 17.116636908316 	 11.471364054224 	 10.370642541218 	
H	  1.411535222285 	  3.094935823170 	  4.603971258941 	
H	  0.842991092285 	  3.094938633170 	 14.734527978941 	
H	  1.411504122285 	  9.278497583170 	  4.603968428941 	
H	  0.842959992285 	  9.278500393170 	 14.734525148941 	
H	 16.092362522285 	  3.094945053170 	  4.632101188941 	
H	 15.523818392285 	  3.094947863170 	 14.762657908941 	
H	 16.092331422285 	  9.278506813170 	  4.632098358941 	
H	 15.523787292285 	  9.278509623170 	 14.762655078941 	
H	 12.937279574845 	  0.022510596250 	  0.610258215931 	
H	 12.368735444845 	  0.022513406250 	 10.740814935931 	
H	 12.937248474845 	  6.206072356250 	  0.610255385931 	
H	 12.368704344845 	  6.206075166250 	 10.740812105931 	
H	 27.618106874845 	  0.022519826250 	  0.638388145931 	
H	 27.049562744845 	  0.022522636250 	 10.768944865931 	
H	 27.618075774845 	  6.206081586250 	  0.638385315931 	
H	 27.049531644845 	  6.206084396250 	 10.768942035931 	
H	 12.602946383355 	  3.073054448436 	  5.669906614473 	
H	 12.034402253355 	  3.073057258436 	 15.800463334473 	
H	 12.602915283355 	  9.256616208436 	  5.669903784473 	
H	 12.034371153355 	  9.256619018436 	 15.800460504473 	
H	 27.283773683355 	  3.073063678436 	  5.698036544473 	
H	 26.715229553355 	  3.073066488436 	 15.828593264473 	
H	 27.283742583355 	  9.256625438436 	  5.698033714473 	
H	 26.715198453355 	  9.256628248436 	 15.828590434473 	
H	  1.077203100508 	  6.145479621304 	  9.663619059954 	
H	  0.508658970508 	  6.145482431304 	 19.794175779954 	
H	  1.077172000508 	 12.329041381304 	  9.663616229954 	
H	  0.508627870508 	 12.329044191304 	 19.794172949954 	
H	 15.758030400508 	  6.145488851304 	  9.691748989954 	
H	 15.189486270508 	  6.145491661304 	 19.822305709954 	
H	 15.757999300508 	 12.329050611304 	  9.691746159954 	
H	 15.189455170508 	 12.329053421304 	 19.822302879954 	
H	  3.011540412464 	  2.443849956452 	  4.748786479971 	
H	  2.442996282464 	  2.443852766452 	 14.879343199971 	
H	  3.011509312464 	  8.627411716452 	  4.748783649971 	
H	  2.442965182464 	  8.627414526452 	 14.879340369971 	
H	 17.692367712464 	  2.443859186452 	  4.776916409971 	
H	 17.123823582464 	  2.443861996452 	 14.907473129971 	
H	 17.692336612464 	  8.627420946452 	  4.776913579971 	
H	 17.123792482464 	  8.627423756452 	 14.907470299971 	
H	 11.220272089118 	  5.527417387836 	  0.448626726748 	
H	 10.651727959118 	  5.527420197836 	 10.579183446748 	
H	 11.220240989118 	 11.710979147836 	  0.448623896748 	
H	 10.651696859118 	 11.710981957836 	 10.579180616748 	
H	 25.901099389118 	  5.527426617836 	  0.476756656748 	
H	 25.332555259118 	  5.527429427836 	 10.607313376748 	
H	 25.901068289118 	 11.710988377836 	  0.476753826748 	
H	 25.332524159118 	 11.710991187836 	 10.607310546748 	
H	 11.002940923786 	  3.724140153244 	  5.525091104794 	
H	 10.434396793786 	  3.724142963244 	 15.655647824794 	
H	 11.002909823786 	  9.907701913244 	  5.525088274794 	
H	 10.434365693786 	  9.907704723244 	 15.655644994794 	
H	 25.683768223786 	  3.724149383244 	  5.553221034794 	
H	 25.115224093786 	  3.724152193244 	 15.683777754794 	
H	 25.683737123786 	  9.907711143244 	  5.553218204794 	
H	 25.115192993786 	  9.907713953244 	 15.683774924794 	
H	  2.794210593170 	  0.640572923066 	  9.825250753056 	
H	  2.225666463170 	  0.640575733066 	 19.955807473056 	
H	  2.794179493170 	  6.824134683066 	  9.825247923056 	
H	  2.225635363170 	  6.824137493066 	 19.955804643056 	
H	 17.475037893170 	  0.640582153066 	  9.853380683056 	
H	 16.906493763170 	  0.640584963066 	 19.983937403056 	
H	 17.475006793170 	  6.824143913066 	  9.853377853056 	
H	 16.906462663170 	  6.824146723066 	 19.983934573056 	
C	  1.132010172045 	  3.203573074075 	  7.025965162968 	
C	  0.563466042045 	  3.203575884075 	 17.156521882968 	
C	  1.131979072045 	  9.387134834075 	  7.025962332968 	
C	  0.563434942045 	  9.387137644075 	 17.156519052968 	
C	 15.812837472045 	  3.203582304075 	  7.054095092968 	
C	 15.244293342045 	  3.203585114075 	 17.184651812968 	
C	 15.812806372045 	  9.387144064075 	  7.054092262968 	
C	 15.244262242045 	  9.387146874075 	 17.184648982968 	
C	 12.654272553828 	  0.146907364248 	  8.365878901194 	
C	 12.085728423828 	  0.146910174248 	 18.496435621194 	
C	 12.654241453828 	  6.330469124248 	  8.365876071194 	
C	 12.085697323828 	  6.330471934248 	 18.496432791194 	
C	 27.335099853828 	  0.146916594248 	  8.394008831194 	
C	 26.766555723828 	  0.146919404248 	 18.524565551194 	
C	 27.335068753828 	  6.330478354248 	  8.394006001194 	
C	 26.766524623828 	  6.330481164248 	 18.524562721194 	
C	 12.882472169819 	  2.964416208162 	  3.247912005870 	
C	 12.313928039819 	  2.964419018162 	 13.378468725870 	
C	 12.882441069819 	  9.147977968162 	  3.247909175870 	
C	 12.313896939819 	  9.147980778162 	 13.378465895870 	
C	 27.563299469819 	  2.964425438162 	  3.276041935870 	
C	 26.994755339819 	  2.964428248162 	 13.406598655870 	
C	 27.563268369819 	  9.147987198162 	  3.276039105870 	
C	 26.994724239819 	  9.147990008162 	 13.406595825870 	
C	  1.360210062176 	  6.021082326143 	  1.907998355328 	
C	  0.791665932176 	  6.021085136143 	 12.038555075328 	
C	  1.360178962176 	 12.204644086143 	  1.907995525328 	
C	  0.791634832176 	 12.204646896143 	 12.038552245328 	
C	 16.041037362176 	  6.021091556143 	  1.936128285328 	
C	 15.472493232176 	  6.021094366143 	 12.066685005328 	
C	 16.041006262176 	 12.204653316143 	  1.936125455328 	
C	 15.472462132176 	 12.204656126143 	 12.066682175328 	
H	  1.354064421652 	  4.308227997898 	  7.240177780507 	
H	  0.785520291652 	  4.308230807898 	 17.370734500507 	
H	  1.354033321652 	 10.491789757898 	  7.240174950507 	
H	  0.785489191652 	 10.491792567898 	 17.370731670507 	
H	 16.034891721652 	  4.308237227898 	  7.268307710507 	
H	 15.466347591652 	  4.308240037898 	 17.398864430507 	
H	 16.034860621652 	 10.491798987898 	  7.268304880507 	
H	 15.466316491652 	 10.491801797898 	 17.398861600507 	
H	 12.396090869308 	  1.216098158194 	  8.142072429742 	
H	 11.827546739308 	  1.216100968194 	 18.272629149742 	
H	 12.396059769308 	  7.399659918194 	  8.142069599742 	
H	 11.827515639308 	  7.399662728194 	 18.272626319742 	
H	 27.076918169308 	  1.216107388194 	  8.170202359742 	
H	 26.508374039308 	  1.216110198194 	 18.300759079742 	
H	 27.076887069308 	  7.399669148194 	  8.170199529742 	
H	 26.508342939308 	  7.399671958194 	 18.300756249742 	
H	 12.660417821461 	  1.859761251649 	  3.033699673172 	
H	 12.091873691461 	  1.859764061649 	 13.164256393172 	
H	 12.660386721461 	  8.043323011649 	  3.033696843172 	
H	 12.091842591461 	  8.043325821649 	 13.164253563172 	
H	 27.341245121461 	  1.859770481649 	  3.061829603172 	
H	 26.772700991461 	  1.859773291649 	 13.192386323172 	
H	 27.341214021461 	  8.043332241649 	  3.061826773172 	
H	 26.772669891461 	  8.043335051649 	 13.192383493172 	
H	  1.618391904694 	  4.951891499380 	  2.131804469318 	
H	  1.049847774694 	  4.951894309380 	 12.262361189318 	
H	  1.618360804694 	 11.135453259380 	  2.131801639318 	
H	  1.049816674694 	 11.135456069380 	 12.262358359318 	
H	 16.299219204694 	  4.951900729380 	  2.159934399318 	
H	 15.730675074694 	  4.951903539380 	 12.290491119318 	
H	 16.299188104694 	 11.135462489380 	  2.159931569318 	
H	 15.730643974694 	 11.135465299380 	 12.290488289318 	
H	  0.807989690131 	  2.988083060566 	  8.102700377303 	
H	  0.239445560131 	  2.988085870566 	 18.233257097303 	
H	  0.807958590131 	  9.171644820566 	  8.102697547303 	
H	  0.239414460131 	  9.171647630566 	 18.233254267303 	
H	 15.488816990131 	  2.988092290566 	  8.130830307303 	
H	 14.920272860131 	  2.988095100566 	 18.261387027303 	
H	 15.488785890131 	  9.171654050566 	  8.130827477303 	
H	 14.920241760131 	  9.171656860566 	 18.261384197303 	
H	 12.931587031492 	  6.075105345284 	  7.285150367874 	
H	 12.363042901492 	  6.075108155284 	 17.415707087874 	
H	 12.931555931492 	 12.258667105284 	  7.285147537874 	
H	 12.363011801492 	 12.258669915284 	 17.415704257874 	
H	 27.612414331492 	  6.075114575284 	  7.313280297874 	
H	 27.043870201492 	  6.075117385284 	 17.443837017874 	
H	 27.612383231492 	 12.258676335284 	  7.313277467874 	
H	 27.043839101492 	 12.258679145284 	 17.443834187874 	
H	 13.206493048096 	  3.179906379958 	  2.171176965897 	
H	 12.637948918096 	  3.179909189958 	 12.301733685897 	
H	 13.206461948096 	  9.363468139958 	  2.171174135897 	
H	 12.637917818096 	  9.363470949958 	 12.301730855897 	
H	 27.887320348096 	  3.179915609958 	  2.199306895897 	
H	 27.318776218096 	  3.179918419958 	 12.329863615897 	
H	 27.887289248096 	  9.363477369958 	  2.199304065897 	
H	 27.318745118096 	  9.363480179958 	 12.329860785897 	
H	  1.082895641728 	  0.092884082353 	  2.988726908023 	
H	  0.514351511728 	  0.092886892353 	 13.119283628023 	
H	  1.082864541728 	  6.276445842353 	  2.988724078023 	
H	  0.514320411728 	  6.276448652353 	 13.119280798023 	
H	 15.763722941728 	  0.092893312353 	  3.016856838023 	
H	 15.195178811728 	  0.092896122353 	 13.147413558023 	
H	 15.763691841728 	  6.276455072353 	  3.016854008023 	
H	 15.195147711728 	  6.276457882353 	 13.147410728023 	
H	  0.125973944354 	  3.295831471783 	  6.510447126667 	
H	 -0.442570185646 	  3.295834281783 	 16.641003846667 	
H	  0.125942844354 	  9.479393231783 	  6.510444296667 	
H	 -0.442601285646 	  9.479396041783 	 16.641001016667 	
H	 14.806801244354 	  3.295840701783 	  6.538577056667 	
H	 14.238257114354 	  3.295843511783 	 16.669133776667 	
H	 14.806770144354 	  9.479402461783 	  6.538574226667 	
H	 14.238226014354 	  9.479405271783 	 16.669130946667 	
H	 13.594052293669 	  6.372149950679 	  8.864933931803 	
H	 13.025508163669 	  6.372152760679 	 18.995490651803 	
H	 13.594021193669 	 12.555711710679 	  8.864931101803 	
H	 13.025477063669 	 12.555714520679 	 18.995487821803 	
H	 28.274879593669 	  6.372159180679 	  8.893063861803 	
H	 27.706335463669 	  6.372161990679 	 19.023620581803 	
H	 28.274848493669 	 12.555720940679 	  8.893061031803 	
H	 27.706304363669 	 12.555723750679 	 19.023617751803 	
H	 13.888508170756 	  2.872157987976 	  3.763430504433 	
H	 13.319964040756 	  2.872160797976 	 13.893987224433 	
H	 13.888477070756 	  9.055719747976 	  3.763427674433 	
H	 13.319932940756 	  9.055722557976 	 13.893984394433 	
H	 28.569335470756 	  2.872167217976 	  3.791560434433 	
H	 28.000791340756 	  2.872170027976 	 13.922117154433 	
H	 28.569304370756 	  9.055728977976 	  3.791557604433 	
H	 28.000760240756 	  9.055731787976 	 13.922114324433 	
H	  0.420430321112 	 -0.204160345217 	  1.408943342823 	
H	 -0.148113808888 	 -0.204157535217 	 11.539500062823 	
H	  0.420399221112 	  5.979401414783 	  1.408940512823 	
H	 -0.148144908888 	  5.979404224783 	 11.539497232823 	
H	 15.101257621112 	 -0.204151115217 	  1.437073272823 	
H	 14.532713491112 	 -0.204148305217 	 11.567629992823 	
H	 15.101226521112 	  5.979410644783 	  1.437070442823 	
H	 14.532682391112 	  5.979413454783 	 11.567627162823 	
C	  1.499131917973 	  1.395926284604 	  6.360039689970 	
C	  0.930587787973 	  1.395929094604 	 16.490596409970 	
C	  1.499100817973 	  7.579488044604 	  6.360036859970 	
C	  0.930556687973 	  7.579490854604 	 16.490593579970 	
C	 16.179959217973 	  1.395935514604 	  6.388169619970 	
C	 15.611415087973 	  1.395938324604 	 16.518726339970 	
C	 16.179928117973 	  7.579497274604 	  6.388166789970 	
C	 15.611383987973 	  7.579500084604 	 16.518723509970 	
C	 12.241381020802 	  4.487583901797 	  9.028758912256 	
C	 11.672836890802 	  4.487586711797 	 19.159315632256 	
C	 12.241349920802 	 10.671145661797 	  9.028756082256 	
C	 11.672805790802 	 10.671148471797 	 19.159312802256 	
C	 26.922208320802 	  4.487593131797 	  9.056888842256 	
C	 26.353664190802 	  4.487595941797 	 19.187445562256 	
C	 26.922177220802 	 10.671154891797 	  9.056886012256 	
C	 26.353633090802 	 10.671157701797 	 19.187442732256 	
C	 12.515350133195 	  4.772064350215 	  3.913837269137 	
C	 11.946806003195 	  4.772067160215 	 14.044393989137 	
C	 12.515319033195 	 10.955626110215 	  3.913834439137 	
C	 11.946774903195 	 10.955628920215 	 14.044391159137 	
C	 27.196177433195 	  4.772073580215 	  3.941967199137 	
C	 26.627633303195 	  4.772076390215 	 14.072523919137 	
C	 27.196146333195 	 10.955635340215 	  3.941964369137 	
C	 26.627602203195 	 10.955638150215 	 14.072521089137 	
C	  1.773101379735 	  1.680405940755 	  1.245118704530 	
C	  1.204557249735 	  1.680408750755 	 11.375675424530 	
C	  1.773070279735 	  7.863967700755 	  1.245115874530 	
C	  1.204526149735 	  7.863970510755 	 11.375672594530 	
C	 16.453928679735 	  1.680415170755 	  1.273248634530 	
C	 15.885384549735 	  1.680417980755 	 11.403805354530 	
C	 16.453897579735 	  7.863976930755 	  1.273245804530 	
C	 15.885353449735 	  7.863979740755 	 11.403802524530 	
H	  0.505849368296 	  1.257538536081 	  5.831854079169 	
H	 -0.062694761704 	  1.257541346081 	 15.962410799169 	
H	  0.505818268296 	  7.441100296081 	  5.831851249169 	
H	 -0.062725861704 	  7.441103106081 	 15.962407969169 	
H	 15.186676668296 	  1.257547766081 	  5.859984009169 	
H	 14.618132538296 	  1.257550576081 	 15.990540729169 	
H	 15.186645568296 	  7.441109526081 	  5.859981179169 	
H	 14.618101438296 	  7.441112336081 	 15.990537899169 	
H	 13.234312531012 	  4.343810766322 	  9.556187706005 	
H	 12.665768401012 	  4.343813576322 	 19.686744426005 	
H	 13.234281431012 	 10.527372526322 	  9.556184876005 	
H	 12.665737301012 	 10.527375336322 	 19.686741596005 	
H	 27.915139831012 	  4.343819996322 	  9.584317636005 	
H	 27.346595701012 	  4.343822806322 	 19.714874356005 	
H	 27.915108731012 	 10.527381756322 	  9.584314806005 	
H	 27.346564601012 	 10.527384566322 	 19.714871526005 	
H	 13.508632659848 	  4.910451748616 	  4.442023021449 	
H	 12.940088529848 	  4.910454558616 	 14.572579741449 	
H	 13.508601559848 	 11.094013508616 	  4.442020191449 	
H	 12.940057429848 	 11.094016318616 	 14.572576911449 	
H	 28.189459959848 	  4.910460978616 	  4.470152951449 	
H	 27.620915829848 	  4.910463788616 	 14.600709671449 	
H	 28.189428859848 	 11.094022738616 	  4.470150121449 	
H	 27.620884729848 	 11.094025548616 	 14.600706841449 	
H	  0.780169852938 	  1.824179027709 	  0.717689938798 	
H	  0.211625722938 	  1.824181837709 	 10.848246658798 	
H	  0.780138752938 	  8.007740787709 	  0.717687108798 	
H	  0.211594622938 	  8.007743597709 	 10.848243828798 	
H	 15.460997152938 	  1.824188257709 	  0.745819868798 	
H	 14.892453022938 	  1.824191067709 	 10.876376588798 	
H	 15.460966052938 	  8.007750017709 	  0.745817038798 	
H	 14.892421922938 	  8.007752827709 	 10.876373758798 	
H	  1.325573214818 	  0.749225074344 	  7.291382751316 	
H	  0.757029084818 	  0.749227884344 	 17.421939471316 	
H	  1.325542114818 	  6.932786834344 	  7.291379921316 	
H	  0.756997984818 	  6.932789644344 	 17.421936641316 	
H	 16.006400514818 	  0.749234304344 	  7.319512681316 	
H	 15.437856384818 	  0.749237114344 	 17.450069401316 	
H	 16.006369414818 	  6.932796064344 	  7.319509851316 	
H	 15.437825284818 	  6.932798874344 	 17.450066571316 	
H	 12.415876386211 	  3.835775397556 	  8.097613897820 	
H	 11.847332256211 	  3.835778207556 	 18.228170617820 	
H	 12.415845286211 	 10.019337157556 	  8.097611067820 	
H	 11.847301156211 	 10.019339967556 	 18.228167787820 	
H	 27.096703686211 	  3.835784627556 	  8.125743827820 	
H	 26.528159556211 	  3.835787437556 	 18.256300547820 	
H	 27.096672586211 	 10.019346387556 	  8.125740997820 	
H	 26.528128456211 	 10.019349197556 	 18.256297717820 	
H	 12.688908974827 	  5.418765076766 	  2.982493893007 	
H	 12.120364844827 	  5.418767886766 	 13.113050613007 	
H	 12.688877874827 	 11.602326836766 	  2.982491063007 	
H	 12.120333744827 	 11.602329646766 	 13.113047783007 	
H	 27.369736274827 	  5.418774306766 	  3.010623823007 	
H	 26.801192144827 	  5.418777116766 	 13.141180543007 	
H	 27.369705174827 	 11.602336066766 	  3.010620993007 	
H	 26.801161044827 	 11.602338876766 	 13.141177713007 	
H	  1.598605932903 	  2.332214248735 	  2.176263831723 	
H	  1.030061802903 	  2.332217058735 	 12.306820551723 	
H	  1.598574832903 	  8.515776008735 	  2.176261001723 	
H	  1.030030702903 	  8.515778818735 	 12.306817721723 	
H	 16.279433232903 	  2.332223478735 	  2.204393761723 	
H	 15.710889102903 	  2.332226288735 	 12.334950481723 	
H	 16.279402132903 	  8.515785238735 	  2.204390931723 	
H	 15.710858002903 	  8.515788048735 	 12.334947651723 	
H	  2.102234082040 	  0.589073908668 	  5.817437167127 	
H	  1.533689952040 	  0.589076718668 	 15.947993887127 	
H	  2.102202982040 	  6.772635668668 	  5.817434337127 	
H	  1.533658852040 	  6.772638478668 	 15.947991057127 	
H	 16.783061382040 	  0.589083138668 	  5.845567097127 	
H	 16.214517252040 	  0.589085948668 	 15.976123817127 	
H	 16.783030282040 	  6.772644898668 	  5.845564267127 	
H	 16.214486152040 	  6.772647708668 	 15.976120987127 	
H	 11.639898003102 	  3.675998052971 	  9.570500247906 	
H	 11.071353873102 	  3.676000862971 	 19.701056967906 	
H	 11.639866903102 	  9.859559812971 	  9.570497417906 	
H	 11.071322773102 	  9.859562622971 	 19.701054137906 	
H	 26.320725303102 	  3.676007282971 	  9.598630177906 	
H	 25.752181173102 	  3.676010092971 	 19.729186897906 	
H	 26.320694203102 	  9.859569042971 	  9.598627347906 	
H	 25.752150073102 	  9.859571852971 	 19.729184067906 	
H	 11.912247772244 	  5.578916529353 	  4.456440014272 	
H	 11.343703642244 	  5.578919339353 	 14.586996734272 	
H	 11.912216672244 	 11.762478289353 	  4.456437184272 	
H	 11.343672542244 	 11.762481099353 	 14.586993904272 	
H	 26.593075072244 	  5.578925759353 	  4.484569944272 	
H	 26.024530942244 	  5.578928569353 	 14.615126664272 	
H	 26.593043972244 	 11.762487519353 	  4.484567114272 	
H	 26.024499842244 	 11.762490329353 	 14.615123834272 	
H	  2.374584362237 	  2.491992024929 	  0.703377696468 	
H	  1.806040232237 	  2.491994834929 	 10.833934416468 	
H	  2.374553262237 	  8.675553784929 	  0.703374866468 	
H	  1.806009132237 	  8.675556594929 	 10.833931586468 	
H	 17.055411662237 	  2.492001254929 	  0.731507626468 	
H	 16.486867532237 	  2.492004064929 	 10.862064346468 	
H	 17.055380562237 	  8.675563014929 	  0.731504796468 	
H	 16.486836432237 	  8.675565824929 	 10.862061516468 	
768 
Energy: -9.7899294387439994e+01 
S	  8.632698042549 	  1.528038734765 	  0.070203851738 	
S	  8.064153912549 	  1.528041544765 	 10.200760571738 	
S	  8.632666942549 	  7.711600494765 	  0.070201021738 	
S	  8.064122812549 	  7.711603304765 	 10.200757741738 	
S	 23.313525342549 	  1.528047964765 	  0.098333781738 	
S	 22.744981212549 	  1.528050774765 	 10.228890501738 	
S	 23.313494242549 	  7.711609724765 	  0.098330951738 	
S	 22.744950112549 	  7.711612534765 	 10.228887671738 	
S	  5.590184746415 	  4.606756652949 	  5.127999082998 	
S	  5.021640616415 	  4.606759462949 	 15.258555802998 	
S	  5.590153646415 	 10.790318412949 	  5.127996252998 	
S	  5.021609516415 	 10.790321222949 	 15.258552972998 	
S	 20.271012046415 	  4.606765882949 	  5.156129012998 	
S	 19.702467916415 	  4.606768692949 	 15.286685732998 	
S	 20.270980946415 	 10.790327642949 	  5.156126182998 	
S	 19.702436816415 	 10.790330452949 	 15.286682902998 	
S	  5.325770312498 	  4.631022418911 	 10.269669727391 	
S	  4.757226182498 	  4.631025228911 	 20.400226447391 	
S	  5.325739212498 	 10.814584178911 	 10.269666897391 	
S	  4.757195082498 	 10.814586988911 	 20.400223617391 	
S	 20.006597612498 	  4.631031648911 	 10.297799657391 	
S	 19.438053482498 	  4.631034458911 	 20.428356377391 	
S	 20.006566512498 	 10.814593408911 	 10.297796827391 	
S	 19.438022382498 	 10.814596218911 	 20.428353547391 	
S	  8.368284228570 	  1.552305012753 	  5.211874588478 	
S	  7.799740098570 	  1.552307822753 	 15.342431308478 	
S	  8.368253128570 	  7.735866772753 	  5.211871758478 	
S	  7.799708998570 	  7.735869582753 	 15.342428478478 	
S	 23.049111528570 	  1.552314242753 	  5.240004518478 	
S	 22.480567398570 	  1.552317052753 	 15.370561238478 	
S	 23.049080428570 	  7.735876002753 	  5.240001688478 	
S	 22.480536298570 	  7.735878812753 	 15.370558408478 	
C	  6.689736936801 	  2.561729539026 	  9.949700037703 	
C	  6.121192806801 	  2.561732349026 	 20.080256757703 	
C	  6.689705836801 	  8.745291299026 	  9.949697207703 	
C	  6.121161706801 	  8.745294109026 	 20.080253927703 	
C	 21.370564236801 	  2.561738769026 	  9.977829967703 	
C	 20.802020106801 	  2.561741579026 	 20.108386687703 	
C	 21.370533136801 	  8.745300529026 	  9.977827137703 	
C	 20.801989006801 	  8.745303339026 	 20.108383857703 	
C	  7.004877119699 	  5.592663917506 	  5.566867366165 	
C	  6.436332989699 	  5.592666727506 	 15.697424086165 	
C	  7.004846019699 	 11.776225677506 	  5.566864536165 	
C	  6.436301889699 	 11.776228487506 	 15.697421256165 	
C	 21.685704419699 	  5.592673147506 	  5.594997296165 	
C	 21.117160289699 	  5.592675957506 	 15.725554016165 	
C	 21.685673319699 	 11.776234907506 	  5.594994466165 	
C	 21.117129189699 	 11.776237717506 	 15.725551186165 	
C	  7.268731457787 	  3.597331573147 	  0.390173516351 	
C	  6.700187327787 	  3.597334383147 	 10.520730236351 	
C	  7.268700357787 	  9.780893333147 	  0.390170686351 	
C	  6.700156227787 	  9.780896143147 	 10.520727406351 	
C	 21.949558757787 	  3.597340803147 	  0.418303446351 	
C	 21.381014627787 	  3.597343613147 	 10.548860166351 	
C	 21.949527657787 	  9.780902563147 	  0.418300616351 	
C	 21.380983527787 	  9.780905373147 	 10.548857336351 	
C	  6.953591714566 	  0.566397845360 	  4.773006256314 	
C	  6.385047584566 	  0.566400655360 	 14.903562976314 	
C	  6.953560614566 	  6.749959605360 	  4.773003426314 	
C	  6.385016484566 	  6.749962415360 	 14.903560146314 	
C	 21.634419014566 	  0.566407075360 	  4.801136186314 	
C	 21.065874884566 	  0.566409885360 	 14.931692906314 	
C	 21.634387914566 	  6.749968835360 	  4.801133356314 	
C	 21.065843784566 	  6.749971645360 	 14.931690076314 	
C	  5.641048543875 	  2.353063834321 	  9.010342223548 	
C	  5.072504413875 	  2.353066644321 	 19.140898943548 	
C	  5.641017443875 	  8.536625594321 	  9.010339393548 	
C	  5.072473313875 	  8.536628404321 	 19.140896113548 	
C	 20.321875843875 	  2.353073064321 	  9.038472153548 	
C	 19.753331713875 	  2.353075874321 	 19.169028873548 	
C	 20.321844743875 	  8.536634824321 	  9.038469323548 	
C	 19.753300613875 	  8.536637634321 	 19.169026043548 	
C	  8.051784951803 	  5.427232737371 	  6.470829766326 	
C	  7.483240821803 	  5.427235547371 	 16.601386486326 	
C	  8.051753851803 	 11.610794497371 	  6.470826936326 	
C	  7.483209721803 	 11.610797307371 	 16.601383656326 	
C	 22.732612251803 	  5.427241967371 	  6.498959696326 	
C	 22.164068121803 	  5.427244777371 	 16.629516416326 	
C	 22.732581151803 	 11.610803727371 	  6.498956866326 	
C	 22.164037021803 	 11.610806537371 	 16.629513586326 	
C	  8.317419679361 	  3.805997314032 	  1.329531198848 	
C	  7.748875549361 	  3.806000124032 	 11.460087918848 	
C	  8.317388579361 	  9.989559074032 	  1.329528368848 	
C	  7.748844449361 	  9.989561884032 	 11.460085088848 	
C	 22.998246979361 	  3.806006544032 	  1.357661128848 	
C	 22.429702849361 	  3.806009354032 	 11.488217848848 	
C	 22.998215879361 	  9.989568304032 	  1.357658298848 	
C	 22.429671749361 	  9.989571114032 	 11.488215018848 	
C	  5.906683786183 	  0.731829014754 	  3.869043839651 	
C	  5.338139656183 	  0.731831824754 	 13.999600559651 	
C	  5.906652686183 	  6.915390774754 	  3.869041009651 	
C	  5.338108556183 	  6.915393584754 	 13.999597729651 	
C	 20.587511086183 	  0.731838244754 	  3.897173769651 	
C	 20.018966956183 	  0.731841054754 	 14.027730489651 	
C	 20.587479986183 	  6.915400004754 	  3.897170939651 	
C	 20.018935856183 	  6.915402814754 	 14.027727659651 	
C	  4.757551923840 	  3.409085854451 	  9.042768583656 	
C	  4.189007793840 	  3.409088664451 	 19.173325303656 	
C	  4.757520823840 	  9.592647614451 	  9.042765753656 	
C	  4.188976693840 	  9.592650424451 	 19.173322473656 	
C	 19.438379223840 	  3.409095084451 	  9.070898513656 	
C	 18.869835093840 	  3.409097894451 	 19.201455233656 	
C	 19.438348123840 	  9.592656844451 	  9.070895683656 	
C	 18.869803993840 	  9.592659654451 	 19.201452403656 	
C	  8.933405550695 	  0.333536210904 	  6.440122280212 	
C	  8.364861420695 	  0.333539020904 	 16.570679000212 	
C	  8.933374450695 	  6.517097970904 	  6.440119450212 	
C	  8.364830320695 	  6.517100780904 	 16.570676170212 	
C	 23.614232850695 	  0.333545440904 	  6.468252210212 	
C	 23.045688720695 	  0.333548250904 	 16.598808930212 	
C	 23.614201750695 	  6.517107200904 	  6.468249380212 	
C	 23.045657620695 	  6.517110010904 	 16.598806100212 	
C	  9.200916293279 	  2.749975353386 	  1.297104924912 	
C	  8.632372163279 	  2.749978163386 	 11.427661644912 	
C	  9.200885193279 	  8.933537113386 	  1.297102094912 	
C	  8.632341063279 	  8.933539923386 	 11.427658814912 	
C	 23.881743593279 	  2.749984583386 	  1.325234854912 	
C	 23.313199463279 	  2.749987393386 	 11.455791574912 	
C	 23.881712493279 	  8.933546343386 	  1.325232024912 	
C	 23.313168363279 	  8.933549153386 	 11.455788744912 	
C	  5.025063231927 	  5.825525489980 	  3.899751404503 	
C	  4.456519101927 	  5.825528299980 	 14.030308124503 	
C	  5.025032131927 	 12.009087249980 	  3.899748574503 	
C	  4.456488001927 	 12.009090059980 	 14.030305294503 	
C	 19.705890531927 	  5.825534719980 	  3.927881334503 	
C	 19.137346401927 	  5.825537529980 	 14.058438054503 	
C	 19.705859431927 	 12.009096479980 	  3.927878504503 	
C	 19.137315301927 	 12.009099289980 	 14.058435224503 	
C	  3.682392057468 	  3.467893259022 	  8.300837980875 	
C	  3.113847927468 	  3.467896069022 	 18.431394700875 	
C	  3.682360957468 	  9.651455019022 	  8.300835150875 	
C	  3.113816827468 	  9.651457829022 	 18.431391870875 	
C	 18.363219357468 	  3.467902489022 	  8.328967910875 	
C	 17.794675227468 	  3.467905299022 	 18.459524630875 	
C	 18.363188257468 	  9.651464249022 	  8.328965080875 	
C	 17.794644127468 	  9.651467059022 	 18.459521800875 	
C	 10.004193896200 	  0.400765424015 	  7.172036318166 	
C	  9.435649766200 	  0.400768234015 	 17.302593038166 	
C	 10.004162796200 	  6.584327184015 	  7.172033488166 	
C	  9.435618666200 	  6.584329994015 	 17.302590208166 	
C	 24.685021196200 	  0.400774654015 	  7.200166248166 	
C	 24.116477066200 	  0.400777464015 	 17.330722968166 	
C	 24.684990096200 	  6.584336414015 	  7.200163418166 	
C	 24.116445966200 	  6.584339224015 	 17.330720138166 	
C	 10.276076200452 	  2.691168041642 	  2.039035695225 	
C	  9.707532070452 	  2.691170851642 	 12.169592415225 	
C	 10.276045100452 	  8.874729801642 	  2.039032865225 	
C	  9.707500970452 	  8.874732611642 	 12.169589585225 	
C	 24.956903500452 	  2.691177271642 	  2.067165625225 	
C	 24.388359370452 	  2.691180081642 	 12.197722345225 	
C	 24.956872400452 	  8.874739031642 	  2.067162795225 	
C	 24.388328270452 	  8.874741841642 	 12.197719515225 	
C	  3.954274754553 	  5.758296274088 	  3.167837507932 	
C	  3.385730624553 	  5.758299084088 	 13.298394227932 	
C	  3.954243654553 	 11.941858034088 	  3.167834677932 	
C	  3.385699524553 	 11.941860844088 	 13.298391397932 	
C	 18.635102054553 	  5.758305504088 	  3.195967437932 	
C	 18.066557924553 	  5.758308314088 	 13.326524157932 	
C	 18.635070954553 	 11.941867264088 	  3.195964607932 	
C	 18.066526824553 	 11.941870074088 	 13.326521327932 	
H	  2.991855414785 	  4.389984654681 	  8.381294754804 	
H	  2.423311284785 	  4.389987464681 	 18.511851474804 	
H	  2.991824314785 	 10.573546414681 	  8.381291924804 	
H	  2.423280184785 	 10.573549224681 	 18.511848644804 	
H	 17.672682714785 	  4.389993884681 	  8.409424684804 	
H	 17.104138584785 	  4.389996694681 	 18.539981404804 	
H	 17.672651614785 	 10.573555644681 	  8.409421854804 	
H	 17.104107484785 	 10.573558454681 	 18.539978574804 	
H	 10.700882818725 	  1.308644343282 	  7.102183470884 	
H	 10.132338688725 	  1.308647153282 	 17.232740190884 	
H	 10.700851718725 	  7.492206103282 	  7.102180640884 	
H	 10.132307588725 	  7.492208913282 	 17.232737360884 	
H	 25.381710118725 	  1.308653573282 	  7.130313400884 	
H	 24.813165988725 	  1.308656383282 	 17.260870120884 	
H	 25.381679018725 	  7.492215333282 	  7.130310570884 	
H	 24.813134888725 	  7.492218143282 	 17.260867290884 	
H	 10.966612799125 	  1.769076602978 	  1.958578900769 	
H	 10.398068669125 	  1.769079412978 	 12.089135620769 	
H	 10.966581699125 	  7.952638362978 	  1.958576070769 	
H	 10.398037569125 	  7.952641172978 	 12.089132790769 	
H	 25.647440099125 	  1.769085832978 	  1.986708830769 	
H	 25.078895969125 	  1.769088642978 	 12.117265550769 	
H	 25.647408999125 	  7.952647592978 	  1.986706000769 	
H	 25.078864869125 	  7.952650402978 	 12.117262720769 	
H	  3.257585957249 	  4.850417261437 	  3.237690429445 	
H	  2.689041827249 	  4.850420071437 	 13.368247149445 	
H	  3.257554857249 	 11.033979021437 	  3.237687599445 	
H	  2.689010727249 	 11.033981831437 	 13.368244319445 	
H	 17.938413257249 	  4.850426491437 	  3.265820359445 	
H	 17.369869127249 	  4.850429301437 	 13.396377079445 	
H	 17.938382157249 	 11.033988251437 	  3.265817529445 	
H	 17.369838027249 	 11.033991061437 	 13.396374249445 	
C	  3.358217594148 	  2.497169766866 	  7.454561591490 	
C	  2.789673464148 	  2.497172576866 	 17.585118311490 	
C	  3.358186494148 	  8.680731526866 	  7.454558761490 	
C	  2.789642364148 	  8.680734336866 	 17.585115481490 	
C	 18.039044894148 	  2.497178996866 	  7.482691521490 	
C	 17.470500764148 	  2.497181806866 	 17.613248241490 	
C	 18.039013794148 	  8.680740756866 	  7.482688691490 	
C	 17.470469664148 	  8.680743566866 	 17.613245411490 	
C	 10.339561057507 	  5.563113763795 	  8.036603741152 	
C	  9.771016927507 	  5.563116573795 	 18.167160461152 	
C	 10.339529957507 	 11.746675523795 	  8.036600911152 	
C	  9.770985827507 	 11.746678333795 	 18.167157631152 	
C	 25.020388357507 	  5.563122993795 	  8.064733671152 	
C	 24.451844227507 	  5.563125803795 	 18.195290391152 	
C	 25.020357257507 	 11.746684753795 	  8.064730841152 	
C	 24.451813127507 	 11.746687563795 	 18.195287561152 	
C	 10.600250489872 	  3.661891498584 	  2.885311954410 	
C	 10.031706359872 	  3.661894308584 	 13.015868674410 	
C	 10.600219389872 	  9.845453258584 	  2.885309124410 	
C	 10.031675259872 	  9.845456068584 	 13.015865844410 	
C	 25.281077789872 	  3.661900728584 	  2.913441884410 	
C	 24.712533659872 	  3.661903538584 	 13.043998604410 	
C	 25.281046689872 	  9.845462488584 	  2.913439054410 	
C	 24.712502559872 	  9.845465298584 	 13.043995774410 	
C	  3.618907559033 	  0.595947933044 	  2.303270099485 	
C	  3.050363429033 	  0.595950743044 	 12.433826819485 	
C	  3.618876459033 	  6.779509693044 	  2.303267269485 	
C	  3.050332329033 	  6.779512503044 	 12.433823989485 	
C	 18.299734859033 	  0.595957163044 	  2.331400029485 	
C	 17.731190729033 	  0.595959973044 	 12.461956749485 	
C	 18.299703759033 	  6.779518923044 	  2.331397199485 	
C	 17.731159629033 	  6.779521733044 	 12.461953919485 	
C	  4.241662601528 	  1.460505885506 	  7.389865696154 	
C	  3.673118471528 	  1.460508695506 	 17.520422416154 	
C	  4.241631501528 	  7.644067645506 	  7.389862866154 	
C	  3.673087371528 	  7.644070455506 	 17.520419586154 	
C	 18.922489901528 	  1.460515115506 	  7.417995626154 	
C	 18.353945771528 	  1.460517925506 	 17.548552346154 	
C	 18.922458801528 	  7.644076875506 	  7.417992796154 	
C	 18.353914671528 	  7.644079685506 	 17.548549516154 	
C	  9.451316989542 	  4.541663805361 	  8.090891100594 	
C	  8.882772859542 	  4.541666615361 	 18.221447820594 	
C	  9.451285889542 	 10.725225565361 	  8.090888270594 	
C	  8.882741759542 	 10.725228375361 	 18.221444990594 	
C	 24.132144289542 	  4.541673035361 	  8.119021030594 	
C	 23.563600159542 	  4.541675845361 	 18.249577750594 	
C	 24.132113189542 	 10.725234795361 	  8.119018200594 	
C	 23.563569059542 	 10.725237605361 	 18.249574920594 	
C	  9.716805441631 	  4.698555368570 	  2.950007894230 	
C	  9.148261311631 	  4.698558178570 	 13.080564614230 	
C	  9.716774341631 	 10.882117128570 	  2.950005064230 	
C	  9.148230211631 	 10.882119938570 	 13.080561784230 	
C	 24.397632741631 	  4.698564598570 	  2.978137824230 	
C	 23.829088611631 	  4.698567408570 	 13.108694544230 	
C	 24.397601641631 	 10.882126358570 	  2.978134994230 	
C	 23.829057511631 	 10.882129168570 	 13.108691714230 	
C	  4.507151473584 	  1.617397822841 	  2.248982628115 	
C	  3.938607343584 	  1.617400632841 	 12.379539348115 	
C	  4.507120373584 	  7.800959582841 	  2.248979798115 	
C	  3.938576243584 	  7.800962392841 	 12.379536518115 	
C	 19.187978773584 	  1.617407052841 	  2.277112558115 	
C	 18.619434643584 	  1.617409862841 	 12.407669278115 	
C	 19.187947673584 	  7.800968812841 	  2.277109728115 	
C	 18.619403543584 	  7.800971622841 	 12.407666448115 	
H	  4.011210118076 	  0.611965838627 	  6.645810363574 	
H	  3.442665988076 	  0.611968648627 	 16.776367083574 	
H	  4.011179018076 	  6.795527598627 	  6.645807533574 	
H	  3.442634888076 	  6.795530408627 	 16.776364253574 	
H	 18.692037418076 	  0.611975068627 	  6.673940293574 	
H	 18.123493288076 	  0.611977878627 	 16.804497013574 	
H	 18.692006318076 	  6.795536828627 	  6.673937463574 	
H	 18.123462188076 	  6.795539638627 	 16.804494183574 	
H	  9.681185609500 	  3.692300075589 	  8.835766915420 	
H	  9.112641479500 	  3.692302885589 	 18.966323635420 	
H	  9.681154509500 	  9.875861835589 	  8.835764085420 	
H	  9.112610379500 	  9.875864645589 	 18.966320805420 	
H	 24.362012909500 	  3.692309305589 	  8.863896845420 	
H	 23.793468779500 	  3.692312115589 	 18.994453565420 	
H	 24.361981809500 	  9.875871065589 	  8.863894015420 	
H	 23.793437679500 	  9.875873875589 	 18.994450735420 	
H	  9.947257952837 	  5.547095423555 	  3.694063202491 	
H	  9.378713822837 	  5.547098233555 	 13.824619922491 	
H	  9.947226852837 	 11.730657183555 	  3.694060372491 	
H	  9.378682722837 	 11.730659993555 	 13.824617092491 	
H	 24.628085252837 	  5.547104653555 	  3.722193132491 	
H	 24.059541122837 	  5.547107463555 	 13.852749852491 	
H	 24.628054152837 	 11.730666413555 	  3.722190302491 	
H	 24.059510022837 	 11.730669223555 	 13.852747022491 	
H	  4.277282769031 	  2.466761611352 	  1.504106901152 	
H	  3.708738639031 	  2.466764421352 	 11.634663621152 	
H	  4.277251669031 	  8.650323371352 	  1.504104071152 	
H	  3.708707539031 	  8.650326181352 	 11.634660791152 	
H	 18.958110069031 	  2.466770841352 	  1.532236831152 	
H	 18.389565939031 	  2.466773651352 	 11.662793551152 	
H	 18.958078969031 	  8.650332601352 	  1.532234001152 	
H	 18.389534839031 	  8.650335411352 	 11.662790721152 	
C	  5.296548240237 	  1.385657245720 	  8.099787228715 	
C	  4.728004110237 	  1.385660055720 	 18.230343948715 	
C	  5.296517140237 	  7.569219005720 	  8.099784398715 	
C	  4.727973010237 	  7.569221815720 	 18.230341118715 	
C	 19.977375540237 	  1.385666475720 	  8.127917158715 	
C	 19.408831410237 	  1.385669285720 	 18.258473878715 	
C	 19.977344440237 	  7.569228235720 	  8.127914328715 	
C	 19.408800310237 	  7.569231045720 	 18.258471048715 	
C	  8.396146723781 	  4.466568820489 	  7.380858202554 	
C	  7.827602593781 	  4.466571630489 	 17.511414922554 	
C	  8.396115623781 	 10.650130580489 	  7.380855372554 	
C	  7.827571493781 	 10.650133390489 	 17.511412092554 	
C	 23.076974023781 	  4.466578050489 	  7.408988132554 	
C	 22.508429893781 	  4.466580860489 	 17.539544852554 	
C	 23.076942923781 	 10.650139810489 	  7.408985302554 	
C	 22.508398793781 	 10.650142620489 	 17.539542022554 	
C	  8.661919888649 	  4.773403959788 	  2.240086223088 	
C	  8.093375758649 	  4.773406769788 	 12.370642943088 	
C	  8.661888788649 	 10.956965719788 	  2.240083393088 	
C	  8.093344658649 	 10.956968529788 	 12.370640113088 	
C	 23.342747188649 	  4.773413189788 	  2.268216153088 	
C	 22.774203058649 	  4.773415999788 	 12.398772873088 	
C	 23.342716088649 	 10.956974949788 	  2.268213323088 	
C	 22.774171958649 	 10.956977759788 	 12.398770043088 	
C	  5.562321922387 	  1.692492900371 	  2.959015493803 	
C	  4.993777792387 	  1.692495710371 	 13.089572213803 	
C	  5.562290822387 	  7.876054660371 	  2.959012663803 	
C	  4.993746692387 	  7.876057470371 	 13.089569383803 	
C	 20.243149222387 	  1.692502130371 	  2.987145423803 	
C	 19.674605092387 	  1.692504940371 	 13.117702143803 	
C	 20.243118122387 	  7.876063890371 	  2.987142593803 	
C	 19.674573992387 	  7.876066700371 	 13.117699313803 	
H	  6.007333008418 	  0.483224964816 	  8.006030670973 	
H	  5.438788878418 	  0.483227774816 	 18.136587390973 	
H	  6.007301908418 	  6.666786724816 	  8.006027840973 	
H	  5.438757778418 	  6.666789534816 	 18.136584560973 	
H	 20.688160308418 	  0.483234194816 	  8.034160600973 	
H	 20.119616178418 	  0.483237004816 	 18.164717320973 	
H	 20.688129208418 	  6.666795954816 	  8.034157770973 	
H	 20.119585078418 	  6.666798764816 	 18.164714490973 	
H	  7.685015103152 	  3.563075097462 	  7.475532868221 	
H	  7.116470973152 	  3.563077907462 	 17.606089588221 	
H	  7.684984003152 	  9.746636857462 	  7.475530038221 	
H	  7.116439873152 	  9.746639667462 	 17.606086758221 	
H	 22.365842403152 	  3.563084327462 	  7.503662798221 	
H	 21.797298273152 	  3.563087137462 	 17.634219518221 	
H	 22.365811303152 	  9.746646087462 	  7.503659968221 	
H	 21.797267173152 	  9.746648897462 	 17.634216688221 	
H	  7.951135046140 	  5.675836169616 	  2.333842754968 	
H	  7.382590916140 	  5.675838979616 	 12.464399474968 	
H	  7.951103946140 	 11.859397929616 	  2.333839924968 	
H	  7.382559816140 	 11.859400739616 	 12.464396644968 	
H	 22.631962346140 	  5.675845399616 	  2.361972684968 	
H	 22.063418216140 	  5.675848209616 	 12.492529404968 	
H	 22.631931246140 	 11.859407159616 	  2.361969854968 	
H	 22.063387116140 	 11.859409969616 	 12.492526574968 	
H	  6.273453493064 	  2.595986640463 	  2.864340752736 	
H	  5.704909363064 	  2.595989450463 	 12.994897472736 	
H	  6.273422393064 	  8.779548400463 	  2.864337922736 	
H	  5.704878263064 	  8.779551210463 	 12.994894642736 	
H	 20.954280793064 	  2.595995870463 	  2.892470682736 	
H	 20.385736663064 	  2.595998680463 	 13.023027402736 	
H	 20.954249693064 	  8.779557630463 	  2.892467852736 	
H	 20.385705563064 	  8.779560440463 	 13.023024572736 	
C	  1.968045963512 	  2.554032908613 	  6.519725352616 	
C	  1.399501833512 	  2.554035718613 	 16.650282072616 	
C	  1.968014863512 	  8.737594668613 	  6.519722522616 	
C	  1.399470733512 	  8.737597478613 	 16.650279242616 	
C	 16.648873263512 	  2.554042138613 	  6.547855282616 	
C	 16.080329133512 	  2.554044948613 	 16.678412002616 	
C	 16.648842163512 	  8.737603898613 	  6.547852452616 	
C	 16.080298033512 	  8.737606708613 	 16.678409172616 	
C	 11.665826201413 	  5.583221609527 	  8.917797913980 	
C	 11.097282071413 	  5.583224419527 	 19.048354633980 	
C	 11.665795101413 	 11.766783369527 	  8.917795083980 	
C	 11.097250971413 	 11.766786179527 	 19.048351803980 	
C	 26.346653501413 	  5.583230839527 	  8.945927843980 	
C	 25.778109371413 	  5.583233649527 	 19.076484563980 	
C	 26.346622401413 	 11.766792599527 	  8.945925013980 	
C	 25.778078271413 	 11.766795409527 	 19.076481733980 	
C	 11.990422290225 	  3.605028641410 	  3.820148527322 	
C	 11.421878160225 	  3.605031451410 	 13.950705247322 	
C	 11.990391190225 	  9.788590401410 	  3.820145697322 	
C	 11.421847060225 	  9.788593211410 	 13.950702417322 	
C	 26.671249590225 	  3.605037871410 	  3.848278457322 	
C	 26.102705460225 	  3.605040681410 	 13.978835177322 	
C	 26.671218490225 	  9.788599631410 	  3.848275627322 	
C	 26.102674360225 	  9.788602441410 	 13.978832347322 	
C	  2.292642313573 	  0.575839933189 	  1.422076002691 	
C	  1.724098183573 	  0.575842743189 	 11.552632722691 	
C	  2.292611213573 	  6.759401693189 	  1.422073172691 	
C	  1.724067083573 	  6.759404503189 	 11.552629892691 	
C	 16.973469613573 	  0.575849163189 	  1.450205932691 	
C	 16.404925483573 	  0.575851973189 	 11.580762652691 	
C	 16.973438513573 	  6.759410923189 	  1.450203102691 	
C	 16.404894383573 	  6.759413733189 	 11.580759822691 	
C	  2.182147097937 	  2.876002307116 	  5.444338301562 	
C	  1.613602967937 	  2.876005117116 	 15.574895021562 	
C	  2.182115997937 	  9.059564067116 	  5.444335471562 	
C	  1.613571867937 	  9.059566877116 	 15.574892191562 	
C	 16.862974397937 	  2.876011537116 	  5.472468231562 	
C	 16.294430267937 	  2.876014347116 	 15.603024951562 	
C	 16.862943297937 	  9.059573297116 	  5.472465401562 	
C	 16.294399167937 	  9.059576107116 	 15.603022121562 	
C	 11.508486515656 	 -0.187306847759 	  9.987574850375 	
C	 10.939942385656 	 -0.187304037759 	 20.118131570375 	
C	 11.508455415656 	  5.996254912241 	  9.987572020375 	
C	 10.939911285656 	  5.996257722241 	 20.118128740375 	
C	 26.189313815656 	 -0.187297617759 	 10.015704780375 	
C	 25.620769685656 	 -0.187294807759 	 20.146261500375 	
C	 26.189282715656 	  5.996264142241 	 10.015701950375 	
C	 25.620738585656 	  5.996266952241 	 20.146258670375 	
C	 11.776320104947 	  3.283059033867 	  4.895536073642 	
C	 11.207775974947 	  3.283061843867 	 15.026092793642 	
C	 11.776289004947 	  9.466620793867 	  4.895533243642 	
C	 11.207744874947 	  9.466623603867 	 15.026089963642 	
C	 26.457147404947 	  3.283068263867 	  4.923666003642 	
C	 25.888603274947 	  3.283071073867 	 15.054222723642 	
C	 26.457116304947 	  9.466630023867 	  4.923663173642 	
C	 25.888572174947 	  9.466632833867 	 15.054219893642 	
C	  2.449981943073 	  6.346368662897 	  0.352299045510 	
C	  1.881437813073 	  6.346371472897 	 10.482855765510 	
C	  2.449950843073 	 12.529930422897 	  0.352296215510 	
C	  1.881406713073 	 12.529933232897 	 10.482852935510 	
C	 17.130809243073 	  6.346377892897 	  0.380428975510 	
C	 16.562265113073 	  6.346380702897 	 10.510985695510 	
C	 17.130778143073 	 12.529939652897 	  0.380426145510 	
C	 16.562234013073 	 12.529942462897 	 10.510982865510 	
H	  2.793910809005 	  3.808670245940 	  5.266024373041 	
H	  2.225366679005 	  3.808673055940 	 15.396581093041 	
H	  2.793879709005 	  9.992232005940 	  5.266021543041 	
H	  2.225335579005 	  9.992234815940 	 15.396578263041 	
H	 17.474738109005 	  3.808679475940 	  5.294154303041 	
H	 16.906193979005 	  3.808682285940 	 15.424711023041 	
H	 17.474707009005 	  9.992241235940 	  5.294151473041 	
H	 16.906162879005 	  9.992244045940 	 15.424708193041 	
H	 10.895018047857 	  0.714498004252 	 10.219565682159 	
H	 10.326473917857 	  0.714500814252 	 20.350122402159 	
H	 10.894986947857 	  6.898059764252 	 10.219562852159 	
H	 10.326442817857 	  6.898062574252 	 20.350119572159 	
H	 25.575845347857 	  0.714507234252 	 10.247695612159 	
H	 25.007301217857 	  0.714510044252 	 20.378252332159 	
H	 25.575814247857 	  6.898068994252 	 10.247692782159 	
H	 25.007270117857 	  6.898071804252 	 20.378249502159 	
H	 11.164557142576 	  2.350390160271 	  5.073849521454 	
H	 10.596013012576 	  2.350392970271 	 15.204406241454 	
H	 11.164526042576 	  8.533951920271 	  5.073846691454 	
H	 10.595981912576 	  8.533954730271 	 15.204403411454 	
H	 25.845384442576 	  2.350399390271 	  5.101979451454 	
H	 25.276840312576 	  2.350402200271 	 15.232536171454 	
H	 25.845353342576 	  8.533961150271 	  5.101976621454 	
H	 25.276809212576 	  8.533963960271 	 15.232533341454 	
H	  3.063450415888 	  5.444563903316 	  0.120307896554 	
H	  2.494906285888 	  5.444566713316 	 10.250864616554 	
H	  3.063419315888 	 11.628125663316 	  0.120305066554 	
H	  2.494875185888 	 11.628128473316 	 10.250861786554 	
H	 17.744277715888 	  5.444573133316 	  0.148437826554 	
H	 17.175733585888 	  5.444575943316 	 10.278994546554 	
H	 17.744246615888 	 11.628134893316 	  0.148434996554 	
H	 17.175702485888 	 11.628137703316 	 10.278991716554 	
H	  1.412091675348 	  3.017087854701 	  4.627299400083 	
H	  0.843547545348 	  3.017090664701 	 14.757856120083 	
H	  1.412060575348 	  9.200649614701 	  4.627296570083 	
H	  0.843516445348 	  9.200652424701 	 14.757853290083 	
H	 16.092918975348 	  3.017097084701 	  4.655429330083 	
H	 15.524374845348 	  3.017099894701 	 14.785986050083 	
H	 16.092887875348 	  9.200658844701 	  4.655426500083 	
H	 15.524343745348 	  9.200661654701 	 14.785983220083 	
H	 12.876299285478 	 -0.049224147928 	  0.634935271766 	
H	 12.307755155478 	 -0.049221337928 	 10.765491991766 	
H	 12.876268185478 	  6.134337612072 	  0.634932441766 	
H	 12.307724055478 	  6.134340422072 	 10.765489161766 	
H	 27.557126585478 	 -0.049214917928 	  0.663065201766 	
H	 26.988582455478 	 -0.049212107928 	 10.793621921766 	
H	 27.557095485478 	  6.134346842072 	  0.663062371766 	
H	 26.988551355478 	  6.134349652072 	 10.793619091766 	
H	 12.546375907897 	  3.141973982428 	  5.712574878999 	
H	 11.977831777897 	  3.141976792428 	 15.843131598999 	
H	 12.546344807897 	  9.325535742428 	  5.712572048999 	
H	 11.977800677897 	  9.325538552428 	 15.843128768999 	
H	 27.227203207897 	  3.141983212428 	  5.740704808999 	
H	 26.658659077897 	  3.141986022428 	 15.871261528999 	
H	 27.227172107897 	  9.325544972428 	  5.740701978999 	
H	 26.658627977897 	  9.325547782428 	 15.871258698999 	
H	  1.082169181959 	  6.208286011671 	  9.704938602869 	
H	  0.513625051959 	  6.208288821671 	 19.835495322869 	
H	  1.082138081959 	 12.391847771671 	  9.704935772869 	
H	  0.513593951959 	 12.391850581671 	 19.835492492869 	
H	 15.762996481959 	  6.208295241671 	  9.733068532869 	
H	 15.194452351959 	  6.208298051671 	 19.863625252869 	
H	 15.762965381959 	 12.391857001671 	  9.733065702869 	
H	 15.194421251959 	 12.391859811671 	 19.863622422869 	
H	  2.943014390405 	  2.305831667920 	  4.833188317321 	
H	  2.374470260405 	  2.305834477920 	 14.963745037321 	
H	  2.942983290405 	  8.489393427920 	  4.833185487321 	
H	  2.374439160405 	  8.489396237920 	 14.963742207321 	
H	 17.623841690405 	  2.305840897920 	  4.861318247321 	
H	 17.055297560405 	  2.305843707920 	 14.991874967321 	
H	 17.623810590405 	  8.489402657920 	  4.861315417321 	
H	 17.055266460405 	  8.489405467920 	 14.991872137321 	
H	 11.215485677451 	  5.375038457472 	  0.414566456496 	
H	 10.646941547451 	  5.375041267472 	 10.545123176496 	
H	 11.215454577451 	 11.558600217472 	  0.414563626496 	
H	 10.646910447451 	 11.558603027472 	 10.545120346496 	
H	 25.896312977451 	  5.375047687472 	  0.442696386496 	
H	 25.327768847451 	  5.375050497472 	 10.573253106496 	
H	 25.896281877451 	 11.558609447472 	  0.442693556496 	
H	 25.327737747451 	 11.558612257472 	 10.573250276496 	
H	 11.015452656204 	  3.853230408169 	  5.506685742907 	
H	 10.446908526204 	  3.853233218169 	 15.637242462907 	
H	 11.015421556204 	 10.036792168169 	  5.506682912907 	
H	 10.446877426204 	 10.036794978169 	 15.637239632907 	
H	 25.696279956204 	  3.853239638169 	  5.534815672907 	
H	 25.127735826204 	  3.853242448169 	 15.665372392907 	
H	 25.696248856204 	 10.036801398169 	  5.534812842907 	
H	 25.127704726204 	 10.036804208169 	 15.665369562907 	
H	  2.742982842593 	  0.784023473536 	  9.925307574833 	
H	  2.174438712593 	  0.784026283536 	 20.055864294833 	
H	  2.742951742593 	  6.967585233536 	  9.925304744833 	
H	  2.174407612593 	  6.967588043536 	 20.055861464833 	
H	 17.423810142593 	  0.784032703536 	  9.953437504833 	
H	 16.855266012593 	  0.784035513536 	 20.083994224833 	
H	 17.423779042593 	  6.967594463536 	  9.953434674833 	
H	 16.855234912593 	  6.967597273536 	 20.083991394833 	
C	  1.209192446448 	  3.297577898716 	  6.945474767546 	
C	  0.640648316448 	  3.297580708716 	 17.076031487546 	
C	  1.209161346448 	  9.481139658716 	  6.945471937546 	
C	  0.640617216448 	  9.481142468716 	 17.076028657546 	
C	 15.890019746448 	  3.297587128716 	  6.973604697546 	
C	 15.321475616448 	  3.297589938716 	 17.104161417546 	
C	 15.889988646448 	  9.481148888716 	  6.973601867546 	
C	 15.321444516448 	  9.481151698716 	 17.104158587546 	
C	 12.560458498558 	  0.262277527097 	  8.519607271712 	
C	 11.991914368558 	  0.262280337097 	 18.650163991712 	
C	 12.560427398558 	  6.445839287097 	  8.519604441712 	
C	 11.991883268558 	  6.445842097097 	 18.650161161712 	
C	 27.241285798558 	  0.262286757097 	  8.547737201712 	
C	 26.672741668558 	  0.262289567097 	 18.678293921712 	
C	 27.241254698558 	  6.445848517097 	  8.547734371712 	
C	 26.672710568558 	  6.445851327097 	 18.678291091712 	
C	 12.749275907634 	  2.861483178983 	  3.394398592253 	
C	 12.180731777634 	  2.861485988983 	 13.524955312253 	
C	 12.749244807634 	  9.045044938983 	  3.394395762253 	
C	 12.180700677634 	  9.045047748983 	 13.524952482253 	
C	 27.430103207634 	  2.861492408983 	  3.422528522253 	
C	 26.861559077634 	  2.861495218983 	 13.553085242253 	
C	 27.430072107634 	  9.045054168983 	  3.422525692253 	
C	 26.861527977634 	  9.045056978983 	 13.553082412253 	
C	  1.398010035525 	  5.896783827144 	  1.820266511761 	
C	  0.829465905525 	  5.896786637144 	 11.950823231761 	
C	  1.397978935525 	 12.080345587144 	  1.820263681761 	
C	  0.829434805525 	 12.080348397144 	 11.950820401761 	
C	 16.078837335525 	  5.896793057144 	  1.848396441761 	
C	 15.510293205525 	  5.896795867144 	 11.978953161761 	
C	 16.078806235525 	 12.080354817144 	  1.848393611761 	
C	 15.510262105525 	 12.080357627144 	 11.978950331761 	
H	  1.498537682657 	  4.385249527338 	  7.113327982974 	
H	  0.929993552657 	  4.385252337338 	 17.243884702974 	
H	  1.498506582657 	 10.568811287338 	  7.113325152974 	
H	  0.929962452657 	 10.568814097338 	 17.243881872974 	
H	 16.179364982657 	  4.385258757338 	  7.141457912974 	
H	 15.610820852657 	  4.385261567338 	 17.272014632974 	
H	 16.179333882657 	 10.568820517338 	  7.141455082974 	
H	 15.610789752657 	 10.568823327338 	 17.272011802974 	
H	 12.198741570494 	  1.306936404568 	  8.361441036592 	
H	 11.630197440494 	  1.306939214568 	 18.491997756592 	
H	 12.198710470494 	  7.490498164568 	  8.361438206592 	
H	 11.630166340494 	  7.490500974568 	 18.491994926592 	
H	 26.879568870494 	  1.306945634568 	  8.389570966592 	
H	 26.311024740494 	  1.306948444568 	 18.520127686592 	
H	 26.879537770494 	  7.490507394568 	  8.389568136592 	
H	 26.310993640494 	  7.490510204568 	 18.520124856592 	
H	 12.459930651516 	  1.773811292891 	  3.226545640054 	
H	 11.891386521516 	  1.773814102891 	 13.357102360054 	
H	 12.459899551516 	  7.957373052891 	  3.226542810054 	
H	 11.891355421516 	  7.957375862891 	 13.357099530054 	
H	 27.140757951516 	  1.773820522891 	  3.254675570054 	
H	 26.572213821516 	  1.773823332891 	 13.385232290054 	
H	 27.140726851516 	  7.957382282891 	  3.254672740054 	
H	 26.572182721516 	  7.957385092891 	 13.385229460054 	
H	  1.759727080398 	  4.852124943750 	  1.978432364621 	
H	  1.191182950398 	  4.852127753750 	 12.108989084621 	
H	  1.759695980398 	 11.035686703750 	  1.978429534621 	
H	  1.191151850398 	 11.035689513750 	 12.108986254621 	
H	 16.440554380398 	  4.852134173750 	  2.006562294621 	
H	 15.872010250398 	  4.852136983750 	 12.137119014621 	
H	 16.440523280398 	 11.035695933750 	  2.006559464621 	
H	 15.871979150398 	 11.035698743750 	 12.137116184621 	
H	  0.884032089647 	  3.220937248362 	  8.033868429121 	
H	  0.315487959647 	  3.220940058362 	 18.164425149121 	
H	  0.884000989647 	  9.404499008362 	  8.033865599121 	
H	  0.315456859647 	  9.404501818362 	 18.164422319121 	
H	 15.564859389647 	  3.220946478362 	  8.061998359121 	
H	 14.996315259647 	  3.220949288362 	 18.192555079121 	
H	 15.564828289647 	  9.404508238362 	  8.061995529121 	
H	 14.996284159647 	  9.404511048362 	 18.192552249121 	
H	 12.804613150486 	  6.297407740834 	  7.451508509560 	
H	 12.236069020486 	  6.297410550834 	 17.582065229560 	
H	 12.804582050486 	 12.480969500834 	  7.451505679560 	
H	 12.236037920486 	 12.480972310834 	 17.582062399560 	
H	 27.485440450486 	  6.297416970834 	  7.479638439560 	
H	 26.916896320486 	  6.297419780834 	 17.610195159560 	
H	 27.485409350486 	 12.480978730834 	  7.479635609560 	
H	 26.916865220486 	 12.480981540834 	 17.610192329560 	
H	 13.074436910242 	  2.938124281090 	  2.306004979982 	
H	 12.505892780242 	  2.938127091090 	 12.436561699982 	
H	 13.074405810242 	  9.121686041090 	  2.306002149982 	
H	 12.505861680242 	  9.121688851090 	 12.436558869982 	
H	 27.755264210242 	  2.938133511090 	  2.334134909982 	
H	 27.186720080242 	  2.938136321090 	 12.464691629982 	
H	 27.755233110242 	  9.121695271090 	  2.334132079982 	
H	 27.186688980242 	  9.121698081090 	 12.464688799982 	
H	  1.153855509082 	 -0.138346589076 	  2.888365315861 	
H	  0.585311379082 	 -0.138343779076 	 13.018922035861 	
H	  1.153824409082 	  6.045215170924 	  2.888362485861 	
H	  0.585280279082 	  6.045217980924 	 13.018919205861 	
H	 15.834682809082 	 -0.138337359076 	  2.916495245861 	
H	 15.266138679082 	 -0.138334549076 	 13.047051965861 	
H	 15.834651709082 	  6.045224400924 	  2.916492415861 	
H	 15.266107579082 	  6.045227210924 	 13.047049135861 	
H	  0.212717675409 	  3.428070917341 	  6.427082234064 	
H	 -0.355826454591 	  3.428073727341 	 16.557638954064 	
H	  0.212686575409 	  9.611632677341 	  6.427079404064 	
H	 -0.355857554591 	  9.611635487341 	 16.557636124064 	
H	 14.893544975409 	  3.428080147341 	  6.455212164064 	
H	 14.325000845409 	  3.428082957341 	 16.585768884064 	
H	 14.893513875409 	  9.611641907341 	  6.455209334064 	
H	 14.324969745409 	  9.611644717341 	 16.585766054064 	
H	 13.464462244085 	  6.500019694460 	  9.044906988707 	
H	 12.895918114085 	  6.500022504460 	 19.175463708707 	
H	 13.464431144085 	 12.683581454460 	  9.044904158707 	
H	 12.895887014085 	 12.683584264460 	 19.175460878707 	
H	 28.145289544085 	  6.500028924460 	  9.073036918707 	
H	 27.576745414085 	  6.500031734460 	 19.203593638707 	
H	 28.145258444085 	 12.683590684460 	  9.073034088707 	
H	 27.576714314085 	 12.683593494460 	 19.203590808707 	
H	 13.745750568446 	  2.730990309683 	  3.912791574646 	
H	 13.177206438446 	  2.730993119683 	 14.043348294646 	
H	 13.745719468446 	  8.914552069683 	  3.912788744646 	
H	 13.177175338446 	  8.914554879683 	 14.043345464646 	
H	 28.426577868446 	  2.730999539683 	  3.940921504646 	
H	 27.858033738446 	  2.731002349683 	 14.071478224646 	
H	 28.426546768446 	  8.914561299683 	  3.940918674646 	
H	 27.858002638446 	  8.914564109683 	 14.071475394646 	
H	  0.494006239759 	 -0.340958410756 	  1.294966889609 	
H	 -0.074537890241 	 -0.340955600756 	 11.425523609609 	
H	  0.493975139759 	  5.842603349244 	  1.294964059609 	
H	 -0.074568990241 	  5.842606159244 	 11.425520779609 	
H	 15.174833539759 	 -0.340949180756 	  1.323096819609 	
H	 14.606289409759 	 -0.340946370756 	 11.453653539609 	
H	 15.174802439759 	  5.842612579244 	  1.323093989609 	
H	 14.606258309759 	  5.842615389244 	 11.453650709609 	
C	  1.438503754361 	  1.544680279883 	  6.463794754632 	
C	  0.869959624361 	  1.544683089883 	 16.594351474632 	
C	  1.438472654361 	  7.728242039883 	  6.463791924632 	
C	  0.869928524361 	  7.728244849883 	 16.594348644632 	
C	 16.119331054361 	  1.544689509883 	  6.491924684632 	
C	 15.550786924361 	  1.544692319883 	 16.622481404632 	
C	 16.119299954361 	  7.728251269883 	  6.491921854632 	
C	 15.550755824361 	  7.728254079883 	 16.622478574632 	
C	 12.254526596863 	  4.628641355453 	  9.020091610402 	
C	 11.685982466863 	  4.628644165453 	 19.150648330402 	
C	 12.254495496863 	 10.812203115453 	  9.020088780402 	
C	 11.685951366863 	 10.812205925453 	 19.150645500402 	
C	 26.935353896863 	  4.628650585453 	  9.048221540402 	
C	 26.366809766863 	  4.628653395453 	 19.178778260402 	
C	 26.935322796863 	 10.812212345453 	  9.048218710402 	
C	 26.366778666863 	 10.812215155453 	 19.178775430402 	
C	 12.519964169958 	  4.614382244866 	  3.876078518907 	
C	 11.951420039958 	  4.614385054866 	 14.006635238907 	
C	 12.519933069958 	 10.797944004866 	  3.876075688907 	
C	 11.951388939958 	 10.797946814866 	 14.006632408907 	
C	 27.200791469958 	  4.614391474866 	  3.904208448907 	
C	 26.632247339958 	  4.614394284866 	 14.034765168907 	
C	 27.200760369958 	 10.797953234866 	  3.904205618907 	
C	 26.632216239958 	 10.797956044866 	 14.034762338907 	
C	  1.703941740603 	  1.530420091779 	  1.319782541343 	
C	  1.135397610603 	  1.530422901779 	 11.450339261343 	
C	  1.703910640603 	  7.713981851779 	  1.319779711343 	
C	  1.135366510603 	  7.713984661779 	 11.450336431343 	
C	 16.384769040603 	  1.530429321779 	  1.347912471343 	
C	 15.816224910603 	  1.530432131779 	 11.478469191343 	
C	 16.384737940603 	  7.713991081779 	  1.347909641343 	
C	 15.816193810603 	  7.713993891779 	 11.478466361343 	
H	  0.444117991250 	  1.386924133639 	  5.952168447140 	
H	 -0.124426138750 	  1.386926943639 	 16.082725167140 	
H	  0.444086891250 	  7.570485893639 	  5.952165617140 	
H	 -0.124457238750 	  7.570488703639 	 16.082722337140 	
H	 15.124945291250 	  1.386933363639 	  5.980298377140 	
H	 14.556401161250 	  1.386936173639 	 16.110855097140 	
H	 15.124914191250 	  7.570495123639 	  5.980295547140 	
H	 14.556370061250 	  7.570497933639 	 16.110852267140 	
H	 13.246885329894 	  4.468611406195 	  9.530333566502 	
H	 12.678341199894 	  4.468614216195 	 19.660890286502 	
H	 13.246854229894 	 10.652173166195 	  9.530330736502 	
H	 12.678310099894 	 10.652175976195 	 19.660887456502 	
H	 27.927712629894 	  4.468620636195 	  9.558463496502 	
H	 27.359168499894 	  4.468623446195 	 19.689020216502 	
H	 27.927681529894 	 10.652182396195 	  9.558460666502 	
H	 27.359137399894 	 10.652185206195 	 19.689017386502 	
H	 13.514350000885 	  4.772138074009 	  4.387705099378 	
H	 12.945805870885 	  4.772140884009 	 14.518261819378 	
H	 13.514318900885 	 10.955699834009 	  4.387702269378 	
H	 12.945774770885 	 10.955702644009 	 14.518258989378 	
H	 28.195177300885 	  4.772147304009 	  4.415835029378 	
H	 27.626633170885 	  4.772150114009 	 14.546391749378 	
H	 28.195146200885 	 10.955709064009 	  4.415832199378 	
H	 27.626602070885 	 10.955711874009 	 14.546388919378 	
H	  0.711582973167 	  1.690449997062 	  0.809540662055 	
H	  0.143038843167 	  1.690452807062 	 10.940097382055 	
H	  0.711551873167 	  7.874011757062 	  0.809537832055 	
H	  0.143007743167 	  7.874014567062 	 10.940094552055 	
H	 15.392410273167 	  1.690459227062 	  0.837670592055 	
H	 14.823866143167 	  1.690462037062 	 10.968227312055 	
H	 15.392379173167 	  7.874020987062 	  0.837667762055 	
H	 14.823835043167 	  7.874023797062 	 10.968224482055 	
H	  1.254270940656 	  0.970610032194 	  7.426909910657 	
H	  0.685726810656 	  0.970612842194 	 17.557466630657 	
H	  1.254239840656 	  7.154171792194 	  7.426907080657 	
H	  0.685695710656 	  7.154174602194 	 17.557463800657 	
H	 15.935098240656 	  0.970619262194 	  7.455039840657 	
H	 15.366554110656 	  0.970622072194 	 17.585596560657 	
H	 15.935067140656 	  7.154181022194 	  7.455037010657 	
H	 15.366523010656 	  7.154183832194 	 17.585593730657 	
H	 12.437579857768 	  4.052285278352 	  8.055987204499 	
H	 11.869035727768 	  4.052288088352 	 18.186543924499 	
H	 12.437548757768 	 10.235847038352 	  8.055984374499 	
H	 11.869004627768 	 10.235849848352 	 18.186541094499 	
H	 27.118407157768 	  4.052294508352 	  8.084117134499 	
H	 26.549863027768 	  4.052297318352 	 18.214673854499 	
H	 27.118376057768 	 10.235856268352 	  8.084114304499 	
H	 26.549831927768 	 10.235859078352 	 18.214671024499 	
H	 12.704197280290 	  5.188452113792 	  2.912962902129 	
H	 12.135653150290 	  5.188454923792 	 13.043519622129 	
H	 12.704166180290 	 11.372013873792 	  2.912960072129 	
H	 12.135622050290 	 11.372016683792 	 13.043516792129 	
H	 27.385024580290 	  5.188461343792 	  2.941092832129 	
H	 26.816480450290 	  5.188464153792 	 13.071649552129 	
H	 27.384993480290 	 11.372023103792 	  2.941090002129 	
H	 26.816449350290 	 11.372025913792 	 13.071646722129 	
H	  1.520888447471 	  2.106775980620 	  2.283887019892 	
H	  0.952344317471 	  2.106778790620 	 12.414443739892 	
H	  1.520857347471 	  8.290337740620 	  2.283884189892 	
H	  0.952313217471 	  8.290340550620 	 12.414440909892 	
H	 16.201715747471 	  2.106785210620 	  2.312016949892 	
H	 15.633171617471 	  2.106788020620 	 12.442573669892 	
H	 16.201684647471 	  8.290346970620 	  2.312014119892 	
H	 15.633140517471 	  8.290349780620 	 12.442570839892 	
H	  1.978391481910 	  0.644480546779 	  6.045160468033 	
H	  1.409847351910 	  0.644483356779 	 16.175717188033 	
H	  1.978360381910 	  6.828042306779 	  6.045157638033 	
H	  1.409816251910 	  6.828045116779 	 16.175714358033 	
H	 16.659218781910 	  0.644489776779 	  6.073290398033 	
H	 16.090674651910 	  0.644492586779 	 16.203847118033 	
H	 16.659187681910 	  6.828051536779 	  6.073287568033 	
H	 16.090643551910 	  6.828054346779 	 16.203844288033 	
H	 11.713749140334 	  3.727256065758 	  9.436786653861 	
H	 11.145205010334 	  3.727258875758 	 19.567343373861 	
H	 11.713718040334 	  9.910817825758 	  9.436783823861 	
H	 11.145173910334 	  9.910820635758 	 19.567340543861 	
H	 26.394576440334 	  3.727265295758 	  9.464916583861 	
H	 25.826032310334 	  3.727268105758 	 19.595473303861 	
H	 26.394545340334 	  9.910827055758 	  9.464913753861 	
H	 25.826001210334 	  9.910829865758 	 19.595470473861 	
H	 11.980075980688 	  5.514581684074 	  4.294713707133 	
H	 11.411531850688 	  5.514584494074 	 14.425270427133 	
H	 11.980044880688 	 11.698143444074 	  4.294710877133 	
H	 11.411500750688 	 11.698146254074 	 14.425267597133 	
H	 26.660903280688 	  5.514590914074 	  4.322843637133 	
H	 26.092359150688 	  5.514593724074 	 14.453400357133 	
H	 26.660872180688 	 11.698152674074 	  4.322840807133 	
H	 26.092328050688 	 11.698155484074 	 14.453397527133 	
H	  2.244719125252 	  2.431805594847 	  0.903087899292 	
H	  1.676174995252 	  2.431808404847 	 11.033644619292 	
H	  2.244688025252 	  8.615367354847 	  0.903085069292 	
H	  1.676143895252 	  8.615370164847 	 11.033641789292 	
H	 16.925546425252 	  2.431814824847 	  0.931217829292 	
H	 16.357002295252 	  2.431817634847 	 11.061774549292 	
H	 16.925515325252 	  8.615376584847 	  0.931214999292 	
H	 16.356971195252 	  8.615379394847 	 11.061771719292 	
768 
Energy: -1.0031084855950000e+02 
S	  8.584595575402 	  1.512493719596 	  0.079767257442 	
S	  8.016051445402 	  1.512496529596 	 10.210323977442 	
S	  8.584564475402 	  7.696055479596 	  0.079764427442 	
S	  8.016020345402 	  7.696058289596 	 10.210321147442 	
S	 23.265422875402 	  1.512502949596 	  0.107897187442 	
S	 22.696878745402 	  1.512505759596 	 10.238453907442 	
S	 23.265391775402 	  7.696064709596 	  0.107894357442 	
S	 22.696847645402 	  7.696067519596 	 10.238451077442 	
S	  5.575643369611 	  4.586539251171 	  5.156548822919 	
S	  5.007099239611 	  4.586542061171 	 15.287105542919 	
S	  5.575612269611 	 10.770101011171 	  5.156545992919 	
S	  5.007068139611 	 10.770103821171 	 15.287102712919 	
S	 20.256470669611 	  4.586548481171 	  5.184678752919 	
S	 19.687926539611 	  4.586551291171 	 15.315235472919 	
S	 20.256439569611 	 10.770110241171 	  5.184675922919 	
S	 19.687895439611 	 10.770113051171 	 15.315232642919 	
S	  5.317814030273 	  4.637631977244 	 10.326155428909 	
S	  4.749269900273 	  4.637634787244 	 20.456712148909 	
S	  5.317782930273 	 10.821193737244 	 10.326152598909 	
S	  4.749238800273 	 10.821196547244 	 20.456709318909 	
S	 19.998641330273 	  4.637641207244 	 10.354285358909 	
S	 19.430097200273 	  4.637644017244 	 20.484842078909 	
S	 19.998610230273 	 10.821202967244 	 10.354282528909 	
S	 19.430066100273 	 10.821205777244 	 20.484839248909 	
S	  8.326766977632 	  1.563586876713 	  5.249373875789 	
S	  7.758222847632 	  1.563589686713 	 15.379930595789 	
S	  8.326735877632 	  7.747148636713 	  5.249371045789 	
S	  7.758191747632 	  7.747151446713 	 15.379927765789 	
S	 23.007594277632 	  1.563596106713 	  5.277503805789 	
S	 22.439050147632 	  1.563598916713 	 15.408060525789 	
S	 23.007563177632 	  7.747157866713 	  5.277500975789 	
S	 22.439019047632 	  7.747160676713 	 15.408057695789 	
C	  6.666172713662 	  2.558453133216 	 10.008971787920 	
C	  6.097628583662 	  2.558455943216 	 20.139528507920 	
C	  6.666141613662 	  8.742014893216 	 10.008968957920 	
C	  6.097597483662 	  8.742017703216 	 20.139525677920 	
C	 21.347000013662 	  2.558462363216 	 10.037101717920 	
C	 20.778455883662 	  2.558465173216 	 20.167658437920 	
C	 21.346968913662 	  8.742024123216 	 10.037098887920 	
C	 20.778424783662 	  8.742026933216 	 20.167655607920 	
C	  6.978424756361 	  5.592070437081 	  5.595053128734 	
C	  6.409880626361 	  5.592073247081 	 15.725609848734 	
C	  6.978393656361 	 11.775632197081 	  5.595050298734 	
C	  6.409849526361 	 11.775635007081 	 15.725607018734 	
C	 21.659252056361 	  5.592079667081 	  5.623183058734 	
C	 21.090707926361 	  5.592082477081 	 15.753739778734 	
C	 21.659220956361 	 11.775641427081 	  5.623180228734 	
C	 21.090676826361 	 11.775644237081 	 15.753736948734 	
C	  7.236236925626 	  3.591672527292 	  0.396950848815 	
C	  6.667692795626 	  3.591675337292 	 10.527507568815 	
C	  7.236205825626 	  9.775234287292 	  0.396948018815 	
C	  6.667661695626 	  9.775237097292 	 10.527504738815 	
C	 21.917064225626 	  3.591681757292 	  0.425080778815 	
C	 21.348520095626 	  3.591684567292 	 10.555637498815 	
C	 21.917033125626 	  9.775243517292 	  0.425077948815 	
C	 21.348488995626 	  9.775246327292 	 10.555634668815 	
C	  6.923985447031 	  0.558055780802 	  4.810869501901 	
C	  6.355441317031 	  0.558058590802 	 14.941426221901 	
C	  6.923954347031 	  6.741617540802 	  4.810866671901 	
C	  6.355410217031 	  6.741620350802 	 14.941423391901 	
C	 21.604812747031 	  0.558065010802 	  4.838999431901 	
C	 21.036268617031 	  0.558067820802 	 14.969556151901 	
C	 21.604781647031 	  6.741626770802 	  4.838996601901 	
C	 21.036237517031 	  6.741629580802 	 14.969553321901 	
C	  5.622778200572 	  2.361530747748 	  9.061670210833 	
C	  5.054234070572 	  2.361533557748 	 19.192226930833 	
C	  5.622747100572 	  8.545092507748 	  9.061667380833 	
C	  5.054202970572 	  8.545095317748 	 19.192224100833 	
C	 20.303605500572 	  2.361539977748 	  9.089800140833 	
C	 19.735061370572 	  2.361542787748 	 19.220356860833 	
C	 20.303574400572 	  8.545101737748 	  9.089797310833 	
C	 19.735030270572 	  8.545104547748 	 19.220354030833 	
C	  8.023272169260 	  5.433713162533 	  6.513407322107 	
C	  7.454728039260 	  5.433715972533 	 16.643964042107 	
C	  8.023241069260 	 11.617274922533 	  6.513404492107 	
C	  7.454696939260 	 11.617277732533 	 16.643961212107 	
C	 22.704099469260 	  5.433722392533 	  6.541537252107 	
C	 22.135555339260 	  5.433725202533 	 16.672093972107 	
C	 22.704068369260 	 11.617284152533 	  6.541534422107 	
C	 22.135524239260 	 11.617286962533 	 16.672091142107 	
C	  8.279631289253 	  3.788594956375 	  1.344252309414 	
C	  7.711087159253 	  3.788597766375 	 11.474809029414 	
C	  8.279600189253 	  9.972156716375 	  1.344249479414 	
C	  7.711056059253 	  9.972159526375 	 11.474806199414 	
C	 22.960458589253 	  3.788604186375 	  1.372382239414 	
C	 22.391914459253 	  3.788606996375 	 11.502938959414 	
C	 22.960427489253 	  9.972165946375 	  1.372379409414 	
C	 22.391883359253 	  9.972168756375 	 11.502936129414 	
C	  5.879137915818 	  0.716413053892 	  3.892515335568 	
C	  5.310593785818 	  0.716415863892 	 14.023072055568 	
C	  5.879106815818 	  6.899974813892 	  3.892512505568 	
C	  5.310562685818 	  6.899977623892 	 14.023069225568 	
C	 20.559965215818 	  0.716422283892 	  3.920645265568 	
C	 19.991421085818 	  0.716425093892 	 14.051201985568 	
C	 20.559934115818 	  6.899984043892 	  3.920642435568 	
C	 19.991389985818 	  6.899986853892 	 14.051199155568 	
C	  4.748003404296 	  3.424529502930 	  9.091773053990 	
C	  4.179459274296 	  3.424532312930 	 19.222329773990 	
C	  4.747972304296 	  9.608091262930 	  9.091770223990 	
C	  4.179428174296 	  9.608094072930 	 19.222326943990 	
C	 19.428830704296 	  3.424538732930 	  9.119902983990 	
C	 18.860286574296 	  3.424541542930 	 19.250459703990 	
C	 19.428799604296 	  9.608100492930 	  9.119900153990 	
C	 18.860255474296 	  9.608103302930 	 19.250456873990 	
C	  8.890818478917 	  0.351068937510 	  6.485080230184 	
C	  8.322274348917 	  0.351071747510 	 16.615636950184 	
C	  8.890787378917 	  6.534630697510 	  6.485077400184 	
C	  8.322243248917 	  6.534633507510 	 16.615634120184 	
C	 23.571645778917 	  0.351078167510 	  6.513210160184 	
C	 23.003101648917 	  0.351080977510 	 16.643766880184 	
C	 23.571614678917 	  6.534639927510 	  6.513207330184 	
C	 23.003070548917 	  6.534642737510 	 16.643764050184 	
C	  9.154406078186 	  2.725596240197 	  1.314149540719 	
C	  8.585861948186 	  2.725599050197 	 11.444706260719 	
C	  9.154374978186 	  8.909158000197 	  1.314146710719 	
C	  8.585830848186 	  8.909160810197 	 11.444703430719 	
C	 23.835233378186 	  2.725605470197 	  1.342279470719 	
C	 23.266689248186 	  2.725608280197 	 11.472836190719 	
C	 23.835202278186 	  8.909167230197 	  1.342276640719 	
C	 23.266658148186 	  8.909170040197 	 11.472833360719 	
C	  5.011591658714 	  5.799057235268 	  3.920842528622 	
C	  4.443047528714 	  5.799060045268 	 14.051399248622 	
C	  5.011560558714 	 11.982618995268 	  3.920839698622 	
C	  4.443016428714 	 11.982621805268 	 14.051396418622 	
C	 19.692418958714 	  5.799066465268 	  3.948972458622 	
C	 19.123874828714 	  5.799069275268 	 14.079529178622 	
C	 19.692387858714 	 11.982628225268 	  3.948969628622 	
C	 19.123843728714 	 11.982631035268 	 14.079526348622 	
C	  3.679918737079 	  3.495931083150 	  8.341842791333 	
C	  3.111374607079 	  3.495933893150 	 18.472399511333 	
C	  3.679887637079 	  9.679492843150 	  8.341839961333 	
C	  3.111343507079 	  9.679495653150 	 18.472396681333 	
C	 18.360746037079 	  3.495940313150 	  8.369972721333 	
C	 17.792201907079 	  3.495943123150 	 18.500529441333 	
C	 18.360714937079 	  9.679502073150 	  8.369969891333 	
C	 17.792170807079 	  9.679504883150 	 18.500526611333 	
C	  9.959128829649 	  0.429915031963 	  7.229288785960 	
C	  9.390584699649 	  0.429917841963 	 17.359845505960 	
C	  9.959097729649 	  6.613476791963 	  7.229285955960 	
C	  9.390553599649 	  6.613479601963 	 17.359842675960 	
C	 24.639956129649 	  0.429924261963 	  7.257418715960 	
C	 24.071411999649 	  0.429927071963 	 17.387975435960 	
C	 24.639925029649 	  6.613486021963 	  7.257415885960 	
C	 24.071380899649 	  6.613488831963 	 17.387972605960 	
C	 10.222490780745 	  2.654194766606 	  2.064079980174 	
C	  9.653946650745 	  2.654197576606 	 12.194636700174 	
C	 10.222459680745 	  8.837756526606 	  2.064077150174 	
C	  9.653915550745 	  8.837759336606 	 12.194633870174 	
C	 24.903318080745 	  2.654203996606 	  2.092209910174 	
C	 24.334773950745 	  2.654206806606 	 12.222766630174 	
C	 24.903286980745 	  8.837765756606 	  2.092207080174 	
C	 24.334742850745 	  8.837768566606 	 12.222763800174 	
C	  3.943281118514 	  5.720211153439 	  3.176634167090 	
C	  3.374736988514 	  5.720213963439 	 13.307190887090 	
C	  3.943250018514 	 11.903772913439 	  3.176631337090 	
C	  3.374705888514 	 11.903775723439 	 13.307188057090 	
C	 18.624108418514 	  5.720220383439 	  3.204764097090 	
C	 18.055564288514 	  5.720223193439 	 13.335320817090 	
C	 18.624077318514 	 11.903782143439 	  3.204761267090 	
C	 18.055533188514 	 11.903784953439 	 13.335317987090 	
H	  2.997071405475 	  4.423669728470 	  8.420656277562 	
H	  2.428527275475 	  4.423672538470 	 18.551212997562 	
H	  2.997040305475 	 10.607231488470 	  8.420653447562 	
H	  2.428496175475 	 10.607234298470 	 18.551210167562 	
H	 17.677898705475 	  4.423678958470 	  8.448786207562 	
H	 17.109354575475 	  4.423681768470 	 18.579342927562 	
H	 17.677867605475 	 10.607240718470 	  8.448783377562 	
H	 17.109323475475 	 10.607243528470 	 18.579340097562 	
H	 10.646191070473 	  1.347085714458 	  7.156451226952 	
H	 10.077646940473 	  1.347088524458 	 17.287007946952 	
H	 10.646159970473 	  7.530647474458 	  7.156448396952 	
H	 10.077615840473 	  7.530650284458 	 17.287005116952 	
H	 25.327018370473 	  1.347094944458 	  7.184581156952 	
H	 24.758474240473 	  1.347097754458 	 17.315137876952 	
H	 25.326987270473 	  7.530656704458 	  7.184578326952 	
H	 24.758443140473 	  7.530659514458 	 17.315135046952 	
H	 10.905338060218 	  1.726456063934 	  1.985266513287 	
H	 10.336793930218 	  1.726458873934 	 12.115823233287 	
H	 10.905306960218 	  7.910017823934 	  1.985263683287 	
H	 10.336762830218 	  7.910020633934 	 12.115820403287 	
H	 25.586165360218 	  1.726465293934 	  2.013396443287 	
H	 25.017621230218 	  1.726468103934 	 12.143953163287 	
H	 25.586134260218 	  7.910027053934 	  2.013393613287 	
H	 25.017590130218 	  7.910029863934 	 12.143950333287 	
H	  3.256219005689 	  4.803040381524 	  3.249471825001 	
H	  2.687674875689 	  4.803043191524 	 13.380028545001 	
H	  3.256187905689 	 10.986602141524 	  3.249468995001 	
H	  2.687643775689 	 10.986604951524 	 13.380025715001 	
H	 17.937046305689 	  4.803049611524 	  3.277601755001 	
H	 17.368502175689 	  4.803052421524 	 13.408158475001 	
H	 17.937015205689 	 10.986611371524 	  3.277598925001 	
H	 17.368471075689 	 10.986614181524 	 13.408155645001 	
C	  3.353753759624 	  2.533161243987 	  7.487200331128 	
C	  2.785209629624 	  2.533164053987 	 17.617757051128 	
C	  3.353722659624 	  8.716723003987 	  7.487197501128 	
C	  2.785178529624 	  8.716725813987 	 17.617754221128 	
C	 18.034581059624 	  2.533170473987 	  7.515330261128 	
C	 17.466036929624 	  2.533173283987 	 17.645886981128 	
C	 18.034549959624 	  8.716732233987 	  7.515327431128 	
C	 17.466005829624 	  8.716735043987 	 17.645884151128 	
C	 10.293562307189 	  5.598087672685 	  8.094066243212 	
C	  9.725018177189 	  5.598090482685 	 18.224622963212 	
C	 10.293531207189 	 11.781649432685 	  8.094063413212 	
C	  9.724987077189 	 11.781652242685 	 18.224620133212 	
C	 24.974389607189 	  5.598096902685 	  8.122196173212 	
C	 24.405845477189 	  5.598099712685 	 18.252752893212 	
C	 24.974358507189 	 11.781658662685 	  8.122193343212 	
C	 24.405814377189 	 11.781661472685 	 18.252750063212 	
C	 10.548655562144 	  3.616964598123 	  2.918722264747 	
C	  9.980111432144 	  3.616967408123 	 13.049278984747 	
C	 10.548624462144 	  9.800526358123 	  2.918719434747 	
C	  9.980080332144 	  9.800529168123 	 13.049276154747 	
C	 25.229482862144 	  3.616973828123 	  2.946852194747 	
C	 24.660938732144 	  3.616976638123 	 13.077408914747 	
C	 25.229451762144 	  9.800535588123 	  2.946849364747 	
C	 24.660907632144 	  9.800538398123 	 13.077406084747 	
C	  3.608847546761 	  0.552038529268 	  2.311856765829 	
C	  3.040303416761 	  0.552041339268 	 12.442413485829 	
C	  3.608816446761 	  6.735600289268 	  2.311853935829 	
C	  3.040272316761 	  6.735603099268 	 12.442410655829 	
C	 18.289674846761 	  0.552047759268 	  2.339986695829 	
C	 17.721130716761 	  0.552050569268 	 12.470543415829 	
C	 18.289643746761 	  6.735609519268 	  2.339983865829 	
C	 17.721099616761 	  6.735612329268 	 12.470540585829 	
C	  4.229375241918 	  1.488641526636 	  7.426395469125 	
C	  3.660831111918 	  1.488644336636 	 17.556952189125 	
C	  4.229344141918 	  7.672203286636 	  7.426392639125 	
C	  3.660800011918 	  7.672206096636 	 17.556949359125 	
C	 18.910202541918 	  1.488650756636 	  7.454525399125 	
C	 18.341658411918 	  1.488653566636 	 17.585082119125 	
C	 18.910171441918 	  7.672212516636 	  7.454522569125 	
C	 18.341627311918 	  7.672215326636 	 17.585079289125 	
C	  9.414081676540 	  4.565214946501 	  8.148390958533 	
C	  8.845537546540 	  4.565217756501 	 18.278947678533 	
C	  9.414050576540 	 10.748776706501 	  8.148388128533 	
C	  8.845506446540 	 10.748779516501 	 18.278944848533 	
C	 24.094908976540 	  4.565224176501 	  8.176520888533 	
C	 23.526364846540 	  4.565226986501 	 18.307077608533 	
C	 24.094877876540 	 10.748785936501 	  8.176518058533 	
C	 23.526333746540 	 10.748788746501 	 18.307074778533 	
C	  9.673034093391 	  4.661484314094 	  2.979527156871 	
C	  9.104489963391 	  4.661487124094 	 13.110083876871 	
C	  9.673002993391 	 10.845046074094 	  2.979524326871 	
C	  9.104458863391 	 10.845048884094 	 13.110081046871 	
C	 24.353861393391 	  4.661493544094 	  3.007657086871 	
C	 23.785317263391 	  4.661496354094 	 13.138213806871 	
C	 24.353830293391 	 10.845055304094 	  3.007654256871 	
C	 23.785286163391 	 10.845058114094 	 13.138210976871 	
C	  4.488328040074 	  1.584911181618 	  2.257531898155 	
C	  3.919783910074 	  1.584913991618 	 12.388088618155 	
C	  4.488296940074 	  7.768472941618 	  2.257529068155 	
C	  3.919752810074 	  7.768475751618 	 12.388085788155 	
C	 19.169155340074 	  1.584920411618 	  2.285661828155 	
C	 18.600611210074 	  1.584923221618 	 12.416218548155 	
C	 19.169124240074 	  7.768482171618 	  2.285658998155 	
C	 18.600580110074 	  7.768484981618 	 12.416215718155 	
H	  3.999321932709 	  0.645926310180 	  6.676045637878 	
H	  3.430777802709 	  0.645929120180 	 16.806602357878 	
H	  3.999290832709 	  6.829488070180 	  6.676042807878 	
H	  3.430746702709 	  6.829490880180 	 16.806599527878 	
H	 18.680149232709 	  0.645935540180 	  6.704175567878 	
H	 18.111605102709 	  0.645938350180 	 16.834732287878 	
H	 18.680118132709 	  6.829497300180 	  6.704172737878 	
H	 18.111574002709 	  6.829500110180 	 16.834729457878 	
H	  9.643618270196 	  3.721856354029 	  8.899617443816 	
H	  9.075074140196 	  3.721859164029 	 19.030174163816 	
H	  9.643587170196 	  9.905418114029 	  8.899614613816 	
H	  9.075043040196 	  9.905420924029 	 19.030171333816 	
H	 24.324445570196 	  3.721865584029 	  8.927747373816 	
H	 23.755901440196 	  3.721868394029 	 19.058304093816 	
H	 24.324414470196 	  9.905427344029 	  8.927744543816 	
H	 23.755870340196 	  9.905430154029 	 19.058301263816 	
H	  9.903087452612 	  5.504199567851 	  3.729876930488 	
H	  9.334543322612 	  5.504202377851 	 13.860433650488 	
H	  9.903056352612 	 11.687761327851 	  3.729874100488 	
H	  9.334512222612 	 11.687764137851 	 13.860430820488 	
H	 24.583914752612 	  5.504208797851 	  3.758006860488 	
H	 24.015370622612 	  5.504211607851 	 13.888563580488 	
H	 24.583883652612 	 11.687770557851 	  3.758004030488 	
H	 24.015339522612 	 11.687773367851 	 13.888560750488 	
H	  4.258791316215 	  2.428269847503 	  1.506305528751 	
H	  3.690247186215 	  2.428272657503 	 11.636862248751 	
H	  4.258760216215 	  8.611831607503 	  1.506302698751 	
H	  3.690216086215 	  8.611834417503 	 11.636859418751 	
H	 18.939618616215 	  2.428279077503 	  1.534435458751 	
H	 18.371074486215 	  2.428281887503 	 11.664992178751 	
H	 18.939587516215 	  8.611840837503 	  1.534432628751 	
H	 18.371043386215 	  8.611843647503 	 11.664989348751 	
C	  5.276722678393 	  1.400805142087 	  8.144218235062 	
C	  4.708178548393 	  1.400807952087 	 18.274774955062 	
C	  5.276691578393 	  7.584366902087 	  8.144215405062 	
C	  4.708147448393 	  7.584369712087 	 18.274772125062 	
C	 19.957549978393 	  1.400814372087 	  8.172348165062 	
C	 19.389005848393 	  1.400817182087 	 18.302904885062 	
C	 19.957518878393 	  7.584376132087 	  8.172345335062 	
C	 19.388974748393 	  7.584378942087 	 18.302902055062 	
C	  8.366385525736 	  4.477139223633 	  7.430396519766 	
C	  7.797841395736 	  4.477142033633 	 17.560953239766 	
C	  8.366354425736 	 10.660700983633 	  7.430393689766 	
C	  7.797810295736 	 10.660703793633 	 17.560950409766 	
C	 23.047212825736 	  4.477148453633 	  7.458526449766 	
C	 22.478668695736 	  4.477151263633 	 17.589083169766 	
C	 23.047181725736 	 10.660710213633 	  7.458523619766 	
C	 22.478637595736 	 10.660713023633 	 17.589080339766 	
C	  8.625686731338 	  4.749320638086 	  2.261704271552 	
C	  8.057142601338 	  4.749323448086 	 12.392260991552 	
C	  8.625655631338 	 10.932882398086 	  2.261701441552 	
C	  8.057111501338 	 10.932885208086 	 12.392258161552 	
C	 23.306514031338 	  4.749329868086 	  2.289834201552 	
C	 22.737969901338 	  4.749332678086 	 12.420390921552 	
C	 23.306482931338 	 10.932891628086 	  2.289831371552 	
C	 22.737938801338 	 10.932894438086 	 12.420388091552 	
C	  5.536024407674 	  1.672986977253 	  2.975526244773 	
C	  4.967480277674 	  1.672989787253 	 13.106082964773 	
C	  5.535993307674 	  7.856548737253 	  2.975523414773 	
C	  4.967449177674 	  7.856551547253 	 13.106080134773 	
C	 20.216851707674 	  1.672996207253 	  3.003656174773 	
C	 19.648307577674 	  1.672999017253 	 13.134212894773 	
C	 20.216820607674 	  7.856557967253 	  3.003653344773 	
C	 19.648276477674 	  7.856560777253 	 13.134210064773 	
H	  5.980663320125 	  0.492839676294 	  8.051692355173 	
H	  5.412119190125 	  0.492842486294 	 18.182249075173 	
H	  5.980632220125 	  6.676401436294 	  8.051689525173 	
H	  5.412088090125 	  6.676404246294 	 18.182246245173 	
H	 20.661490620125 	  0.492848906294 	  8.079822285173 	
H	 20.092946490125 	  0.492851716294 	 18.210379005173 	
H	 20.661459520125 	  6.676410666294 	  8.079819455173 	
H	 20.092915390125 	  6.676413476294 	 18.210376175173 	
H	  7.662139091783 	  3.568210265820 	  7.523784864389 	
H	  7.093594961783 	  3.568213075820 	 17.654341584389 	
H	  7.662107991783 	  9.751772025820 	  7.523782034389 	
H	  7.093563861783 	  9.751774835820 	 17.654338754389 	
H	 22.342966391783 	  3.568219495820 	  7.551914794389 	
H	 21.774422261783 	  3.568222305820 	 17.682471514389 	
H	 22.342935291783 	  9.751781255820 	  7.551911964389 	
H	 21.774391161783 	  9.751784065820 	 17.682468684389 	
H	  7.921746027426 	  5.657286049494 	  2.354230086822 	
H	  7.353201897426 	  5.657288859494 	 12.484786806822 	
H	  7.921714927426 	 11.840847809494 	  2.354227256822 	
H	  7.353170797426 	 11.840850619494 	 12.484783976822 	
H	 22.602573327426 	  5.657295279494 	  2.382360016822 	
H	 22.034029197426 	  5.657298089494 	 12.512916736822 	
H	 22.602542227426 	 11.840857039494 	  2.382357186822 	
H	 22.033998097426 	 11.840859849494 	 12.512913906822 	
H	  6.240270796713 	  2.581915945732 	  2.882137803721 	
H	  5.671726666713 	  2.581918755732 	 13.012694523721 	
H	  6.240239696713 	  8.765477705732 	  2.882134973721 	
H	  5.671695566713 	  8.765480515732 	 13.012691693721 	
H	 20.921098096713 	  2.581925175732 	  2.910267733721 	
H	 20.352553966713 	  2.581927985732 	 13.040824453721 	
H	 20.921066996713 	  8.765486935732 	  2.910264903721 	
H	 20.352522866713 	  8.765489745732 	 13.040821623721 	
C	  1.992917747656 	  2.604073440284 	  6.567798675330 	
C	  1.424373617656 	  2.604076250284 	 16.698355395330 	
C	  1.992886647656 	  8.787635200284 	  6.567795845330 	
C	  1.424342517656 	  8.787638010284 	 16.698352565330 	
C	 16.673745047656 	  2.604082670284 	  6.595928605330 	
C	 16.105200917656 	  2.604085480284 	 16.726485325330 	
C	 16.673713947656 	  8.787644430284 	  6.595925775330 	
C	 16.105169817656 	  8.787647240284 	 16.726482495330 	
C	 11.575798854497 	  5.629180250233 	  8.957535463500 	
C	 11.007254724497 	  5.629183060233 	 19.088092183500 	
C	 11.575767754497 	 11.812742010233 	  8.957532633500 	
C	 11.007223624497 	 11.812744820233 	 19.088089353500 	
C	 26.256626154497 	  5.629189480233 	  8.985665393500 	
C	 25.688082024497 	  5.629192290233 	 19.116222113500 	
C	 26.256595054497 	 11.812751240233 	  8.985662563500 	
C	 25.688050924497 	 11.812754050233 	 19.116219283500 	
C	 11.909492327436 	  3.546052754368 	  3.838124892270 	
C	 11.340948197436 	  3.546055564368 	 13.968681612270 	
C	 11.909461227436 	  9.729614514368 	  3.838122062270 	
C	 11.340917097436 	  9.729617324368 	 13.968678782270 	
C	 26.590319627436 	  3.546061984368 	  3.866254822270 	
C	 26.021775497436 	  3.546064794368 	 13.996811542270 	
C	 26.590288527436 	  9.729623744368 	  3.866251992270 	
C	 26.021744397436 	  9.729626554368 	 13.996808712270 	
C	  2.326610817104 	  0.520945782325 	  1.448387680137 	
C	  1.758066687104 	  0.520948592325 	 11.578944400137 	
C	  2.326579717104 	  6.704507542325 	  1.448384850137 	
C	  1.758035587104 	  6.704510352325 	 11.578941570137 	
C	 17.007438117104 	  0.520955012325 	  1.476517610137 	
C	 16.438893987104 	  0.520957822325 	 11.607074330137 	
C	 17.007407017104 	  6.704516772325 	  1.476514780137 	
C	 16.438862887104 	  6.704519582325 	 11.607071500137 	
C	  2.151268981583 	  2.806552937331 	  5.485651303016 	
C	  1.582724851583 	  2.806555747331 	 15.616208023016 	
C	  2.151237881583 	  8.990114697331 	  5.485648473016 	
C	  1.582693751583 	  8.990117507331 	 15.616205193016 	
C	 16.832096281583 	  2.806562167331 	  5.513781233016 	
C	 16.263552151583 	  2.806564977331 	 15.644337953016 	
C	 16.832065181583 	  8.990123927331 	  5.513778403016 	
C	 16.263521051583 	  8.990126737331 	 15.644335123016 	
C	 11.492813823806 	 -0.265165048777 	 10.033700117407 	
C	 10.924269693806 	 -0.265162238777 	 20.164256837407 	
C	 11.492782723806 	  5.918396711223 	 10.033697287407 	
C	 10.924238593806 	  5.918399521223 	 20.164254007407 	
C	 26.173641123806 	 -0.265155818777 	 10.061830047407 	
C	 25.605096993806 	 -0.265153008777 	 20.192386767407 	
C	 26.173610023806 	  5.918405941223 	 10.061827217407 	
C	 25.605065893806 	  5.918408751223 	 20.192383937407 	
C	 11.751139054627 	  3.343572896223 	  4.920272381858 	
C	 11.182594924627 	  3.343575706223 	 15.050829101858 	
C	 11.751107954627 	  9.527134656223 	  4.920269551858 	
C	 11.182563824627 	  9.527137466223 	 15.050826271858 	
C	 26.431966354627 	  3.343582126223 	  4.948402311858 	
C	 25.863422224627 	  3.343584936223 	 15.078959031858 	
C	 26.431935254627 	  9.527143886223 	  4.948399481858 	
C	 25.863391124627 	  9.527146696223 	 15.078956201858 	
C	  2.409595744708 	  6.415291332585 	  0.372223033091 	
C	  1.841051614708 	  6.415294142585 	 10.502779753091 	
C	  2.409564644708 	 12.598853092585 	  0.372220203091 	
C	  1.841020514708 	 12.598855902585 	 10.502776923091 	
C	 17.090423044708 	  6.415300562585 	  0.400352963091 	
C	 16.521878914708 	  6.415303372585 	 10.530909683091 	
C	 17.090391944708 	 12.598862322585 	  0.400350133091 	
C	 16.521847814708 	 12.598865132585 	 10.530906853091 	
H	  2.859423391547 	  3.615472459488 	  5.190853931563 	
H	  2.290879261547 	  3.615475269488 	 15.321410651563 	
H	  2.859392291547 	  9.799034219488 	  5.190851101563 	
H	  2.290848161547 	  9.799037029488 	 15.321407821563 	
H	 17.540250691547 	  3.615481689488 	  5.218983861563 	
H	 16.971706561547 	  3.615484499488 	 15.349540581563 	
H	 17.540219591547 	  9.799043449488 	  5.218981031563 	
H	 16.971675461547 	  9.799046259488 	 15.349537751563 	
H	 10.789931909400 	  0.535117297753 	 10.378982147213 	
H	 10.221387779400 	  0.535120107753 	 20.509538867213 	
H	 10.789900809400 	  6.718679057753 	 10.378979317213 	
H	 10.221356679400 	  6.718681867753 	 20.509536037213 	
H	 25.470759209400 	  0.535126527753 	 10.407112077213 	
H	 24.902215079400 	  0.535129337753 	 20.537668797213 	
H	 25.470728109400 	  6.718688287753 	 10.407109247213 	
H	 24.902183979400 	  6.718691097753 	 20.537665967213 	
H	 11.042985862093 	  2.534651414389 	  5.215068447550 	
H	 10.474441732093 	  2.534654224389 	 15.345625167550 	
H	 11.042954762093 	  8.718213174389 	  5.215065617550 	
H	 10.474410632093 	  8.718215984389 	 15.345622337550 	
H	 25.723813162093 	  2.534660644389 	  5.243198377550 	
H	 25.155269032093 	  2.534663454389 	 15.373755097550 	
H	 25.723782062093 	  8.718222404389 	  5.243195547550 	
H	 25.155237932093 	  8.718225214389 	 15.373752267550 	
H	  3.112477628028 	  5.615009120013 	  0.026940655200 	
H	  2.543933498028 	  5.615011930013 	 10.157497375200 	
H	  3.112446528028 	 11.798570880013 	  0.026937825200 	
H	  2.543902398028 	 11.798573690013 	 10.157494545200 	
H	 17.793304928028 	  5.615018350013 	  0.055070585200 	
H	 17.224760798028 	  5.615021160013 	 10.185627305200 	
H	 17.793273828028 	 11.798580110013 	  0.055067755200 	
H	 17.224729698028 	 11.798582920013 	 10.185624475200 	
H	  1.413897097458 	  2.939836391252 	  4.650271172505 	
H	  0.845352967458 	  2.939839201252 	 14.780827892505 	
H	  1.413865997458 	  9.123398151252 	  4.650268342505 	
H	  0.845321867458 	  9.123400961252 	 14.780825062505 	
H	 16.094724397458 	  2.939845621252 	  4.678401102505 	
H	 15.526180267458 	  2.939848431252 	 14.808957822505 	
H	 16.094693297458 	  9.123407381252 	  4.678398272505 	
H	 15.526149167458 	  9.123410191252 	 14.808954992505 	
H	 12.807711899291 	 -0.121476006781 	  0.654775925750 	
H	 12.239167769291 	 -0.121473196781 	 10.785332645750 	
H	 12.807680799291 	  6.062085753219 	  0.654773095750 	
H	 12.239136669291 	  6.062088563219 	 10.785329815750 	
H	 27.488539199291 	 -0.121466776781 	  0.682905855750 	
H	 26.919995069291 	 -0.121463966781 	 10.813462575750 	
H	 27.488508099291 	  6.062094983219 	  0.682903025750 	
H	 26.919963969291 	  6.062097793219 	 10.813459745750 	
H	 12.488511704417 	  3.210289883975 	  5.755652213728 	
H	 11.919967574417 	  3.210292693975 	 15.886208933728 	
H	 12.488480604417 	  9.393851643975 	  5.755649383728 	
H	 11.919936474417 	  9.393854453975 	 15.886206103728 	
H	 27.169339004417 	  3.210299113975 	  5.783782143728 	
H	 26.600794874417 	  3.210301923975 	 15.914338863728 	
H	 27.169307904417 	  9.393860873975 	  5.783779313728 	
H	 26.600763774417 	  9.393863683975 	 15.914336033728 	
H	  1.094697607316 	  6.271602383119 	  9.751147261512 	
H	  0.526153477316 	  6.271605193119 	 19.881703981512 	
H	  1.094666507316 	 12.455164143119 	  9.751144431512 	
H	  0.526122377316 	 12.455166953119 	 19.881701151512 	
H	 15.775524907316 	  6.271611613119 	  9.779277191512 	
H	 15.206980777316 	  6.271614423119 	 19.909833911512 	
H	 15.775493807316 	 12.455173373119 	  9.779274361512 	
H	 15.206949677316 	 12.455176183119 	 19.909831081512 	
H	  2.876507132965 	  2.185182268734 	  4.909843087877 	
H	  2.307963002965 	  2.185185078734 	 15.040399807877 	
H	  2.876476032965 	  8.368744028734 	  4.909840257877 	
H	  2.307931902965 	  8.368746838734 	 15.040396977877 	
H	 17.557334432965 	  2.185191498734 	  4.937973017877 	
H	 16.988790302965 	  2.185194308734 	 15.068529737877 	
H	 17.557303332965 	  8.368753258734 	  4.937970187877 	
H	 16.988759202965 	  8.368756068734 	 15.068526907877 	
H	 11.214586302465 	  5.239697283123 	  0.389372513289 	
H	 10.646042172465 	  5.239700093123 	 10.519929233289 	
H	 11.214555202465 	 11.423259043123 	  0.389369683289 	
H	 10.646011072465 	 11.423261853123 	 10.519926403289 	
H	 25.895413602465 	  5.239706513123 	  0.417502443289 	
H	 25.326869472465 	  5.239709323123 	 10.548059163289 	
H	 25.895382502465 	 11.423268273123 	  0.417499613289 	
H	 25.326838372465 	 11.423271083123 	 10.548056333289 	
H	 11.025901055652 	  3.964944907386 	  5.496079933343 	
H	 10.457356925652 	  3.964947717386 	 15.626636653343 	
H	 11.025869955652 	 10.148506667386 	  5.496077103343 	
H	 10.457325825652 	 10.148509477386 	 15.626633823343 	
H	 25.706728355652 	  3.964954137386 	  5.524209863343 	
H	 25.138184225652 	  3.964956947386 	 15.654766583343 	
H	 25.706697255652 	 10.148515897386 	  5.524207033343 	
H	 25.138153125652 	 10.148518707386 	 15.654763753343 	
H	  2.687823305097 	  0.910429179147 	 10.016550789023 	
H	  2.119279175097 	  0.910431989147 	 20.147107509023 	
H	  2.687792205097 	  7.093990939147 	 10.016547959023 	
H	  2.119248075097 	  7.093993749147 	 20.147104679023 	
H	 17.368650605097 	  0.910438409147 	 10.044680719023 	
H	 16.800106475097 	  0.910441219147 	 20.175237439023 	
H	 17.368619505097 	  7.094000169147 	 10.044677889023 	
H	 16.800075375097 	  7.094002979147 	 20.175234609023 	
C	  1.274683913283 	  3.401918342218 	  6.876941228129 	
C	  0.706139783283 	  3.401921152218 	 17.007497948129 	
C	  1.274652813283 	  9.585480102218 	  6.876938398129 	
C	  0.706108683283 	  9.585482912218 	 17.007495118129 	
C	 15.955511213283 	  3.401927572218 	  6.905071158129 	
C	 15.386967083283 	  3.401930382218 	 17.035627878129 	
C	 15.955480113283 	  9.585489332218 	  6.905068328129 	
C	 15.386935983283 	  9.585492142218 	 17.035625048129 	
C	 12.457780156147 	  0.382925171913 	  8.676265888063 	
C	 11.889236026147 	  0.382927981913 	 18.806822608063 	
C	 12.457749056147 	  6.566486931913 	  8.676263058063 	
C	 11.889204926147 	  6.566489741913 	 18.806819778063 	
C	 27.138607456147 	  0.382934401913 	  8.704395818063 	
C	 26.570063326147 	  0.382937211913 	 18.834952538063 	
C	 27.138576356147 	  6.566496161913 	  8.704392988063 	
C	 26.570032226147 	  6.566498971913 	 18.834949708063 	
C	 12.627725690068 	  2.748207361004 	  3.528980987501 	
C	 12.059181560068 	  2.748210171004 	 13.659537707501 	
C	 12.627694590068 	  8.931769121004 	  3.528978157501 	
C	 12.059150460068 	  8.931771931004 	 13.659534877501 	
C	 27.308552990068 	  2.748216591004 	  3.557110917501 	
C	 26.740008860068 	  2.748219401004 	 13.687667637501 	
C	 27.308521890068 	  8.931778351004 	  3.557108087501 	
C	 26.739977760068 	  8.931781161004 	 13.687664807501 	
C	  1.444629547270 	  5.767200726336 	  1.729657149426 	
C	  0.876085417270 	  5.767203536336 	 11.860213869426 	
C	  1.444598447270 	 11.950762486336 	  1.729654319426 	
C	  0.876054317270 	 11.950765296336 	 11.860211039426 	
C	 16.125456847270 	  5.767209956336 	  1.757787079426 	
C	 15.556912717270 	  5.767212766336 	 11.888343799426 	
C	 16.125425747270 	 11.950771716336 	  1.757784249426 	
C	 15.556881617270 	 11.950774526336 	 11.888340969426 	
H	  1.636441912556 	  4.460475033844 	  6.989709530002 	
H	  1.067897782556 	  4.460477843844 	 17.120266250002 	
H	  1.636410812556 	 10.644036793844 	  6.989706700002 	
H	  1.067866682556 	 10.644039603844 	 17.120263420002 	
H	 16.317269212556 	  4.460484263844 	  7.017839460002 	
H	 15.748725082556 	  4.460487073844 	 17.148396180002 	
H	 16.317238112556 	 10.644046023844 	  7.017836630002 	
H	 15.748693982556 	 10.644048833844 	 17.148393350002 	
H	 12.004905819690 	  1.395029952792 	  8.580099251506 	
H	 11.436361689690 	  1.395032762792 	 18.710655971506 	
H	 12.004874719690 	  7.578591712792 	  8.580096421506 	
H	 11.436330589690 	  7.578594522792 	 18.710653141506 	
H	 26.685733119690 	  1.395039182792 	  8.608229181506 	
H	 26.117188989690 	  1.395041992792 	 18.738785901506 	
H	 26.685702019690 	  7.578600942792 	  8.608226351506 	
H	 26.117157889690 	  7.578603752792 	 18.738783071506 	
H	 12.265967709740 	  1.689650302890 	  3.416213074921 	
H	 11.697423579740 	  1.689653112890 	 13.546769794921 	
H	 12.265936609740 	  7.873212062890 	  3.416210244921 	
H	 11.697392479740 	  7.873214872890 	 13.546766964921 	
H	 26.946795009740 	  1.689659532890 	  3.444343004921 	
H	 26.378250879740 	  1.689662342890 	 13.574899724921 	
H	 26.946763909740 	  7.873221292890 	  3.444340174921 	
H	 26.378219779740 	  7.873224102890 	 13.574896894921 	
H	  1.897503969614 	  4.755095954013 	  1.825823377227 	
H	  1.328959839614 	  4.755098764013 	 11.956380097227 	
H	  1.897472869614 	 10.938657714013 	  1.825820547227 	
H	  1.328928739614 	 10.938660524013 	 11.956377267227 	
H	 16.578331269614 	  4.755105184013 	  1.853953307227 	
H	 16.009787139614 	  4.755107994013 	 11.984510027227 	
H	 16.578300169614 	 10.938666944013 	  1.853950477227 	
H	 16.009756039614 	 10.938669754013 	 11.984507197227 	
H	  0.962641467947 	  3.460153328770 	  7.957598446820 	
H	  0.394097337947 	  3.460156138770 	 18.088155166820 	
H	  0.962610367947 	  9.643715088770 	  7.957595616820 	
H	  0.394066237947 	  9.643717898770 	 18.088152336820 	
H	 15.643468767947 	  3.460162558770 	  7.985728376820 	
H	 15.074924637947 	  3.460165368770 	 18.116285096820 	
H	 15.643437667947 	  9.643724318770 	  7.985725546820 	
H	 15.074893537947 	  9.643727128770 	 18.116282266820 	
H	 12.675113244524 	  6.521061459576 	  7.623731018773 	
H	 12.106569114524 	  6.521064269576 	 17.754287738773 	
H	 12.675082144524 	 12.704623219576 	  7.623728188773 	
H	 12.106538014524 	 12.704626029576 	 17.754284908773 	
H	 27.355940544524 	  6.521070689576 	  7.651860948773 	
H	 26.787396414524 	  6.521073499576 	 17.782417668773 	
H	 27.355909444524 	 12.704632449576 	  7.651858118773 	
H	 26.787365314524 	 12.704635259576 	 17.782414838773 	
H	 12.939769072654 	  2.689973225572 	  2.448323713553 	
H	 12.371224942654 	  2.689976035572 	 12.578880433553 	
H	 12.939737972654 	  8.873534985572 	  2.448320883553 	
H	 12.371193842654 	  8.873537795572 	 12.578877603553 	
H	 27.620596372654 	  2.689982455572 	  2.476453643553 	
H	 27.052052242654 	  2.689985265572 	 12.607010363553 	
H	 27.620565272654 	  8.873544215572 	  2.476450813553 	
H	 27.052021142654 	  8.873547025572 	 12.607007533553 	
H	  1.227296650610 	 -0.370935722664 	  2.782192074516 	
H	  0.658752520610 	 -0.370932912664 	 12.912748794516 	
H	  1.227265550610 	  5.812626037336 	  2.782189244516 	
H	  0.658721420610 	  5.812628847336 	 12.912745964516 	
H	 15.908123950610 	 -0.370926492664 	  2.810322004516 	
H	 15.339579820610 	 -0.370923682664 	 12.940878724516 	
H	 15.908092850610 	  5.812635267336 	  2.810319174516 	
H	 15.339548720610 	  5.812638077336 	 12.940875894516 	
H	  0.298626496274 	  3.561023125989 	  6.344704227414 	
H	 -0.269917633726 	  3.561025935989 	 16.475260947414 	
H	  0.298595396274 	  9.744584885989 	  6.344701397414 	
H	 -0.269948733726 	  9.744587695989 	 16.475258117414 	
H	 14.979453796274 	  3.561032355989 	  6.372834157414 	
H	 14.410909666274 	  3.561035165989 	 16.503390877414 	
H	 14.979422696274 	  9.744594115989 	  6.372831327414 	
H	 14.410878566274 	  9.744596925989 	 16.503388047414 	
H	 13.335912675255 	  6.629674750185 	  9.224751788700 	
H	 12.767368545255 	  6.629677560185 	 19.355308508700 	
H	 13.335881575255 	 12.813236510185 	  9.224748958700 	
H	 12.767337445255 	 12.813239320185 	 19.355305678700 	
H	 28.016739975255 	  6.629683980185 	  9.252881718700 	
H	 27.448195845255 	  6.629686790185 	 19.383438438700 	
H	 28.016708875255 	 12.813245740185 	  9.252878888700 	
H	 27.448164745255 	 12.813248550185 	 19.383435608700 	
H	 13.603783097935 	  2.589102740157 	  4.061218466255 	
H	 13.035238967935 	  2.589105550157 	 14.191775186255 	
H	 13.603751997935 	  8.772664500157 	  4.061215636255 	
H	 13.035207867935 	  8.772667310157 	 14.191772356255 	
H	 28.284610397935 	  2.589111970157 	  4.089348396255 	
H	 27.716066267935 	  2.589114780157 	 14.219905116255 	
H	 28.284579297935 	  8.772673730157 	  4.089345566255 	
H	 27.716035167935 	  8.772676540157 	 14.219902286255 	
H	  0.566496930036 	 -0.479548918979 	  1.181171413729 	
H	 -0.002047199964 	 -0.479546108979 	 11.311728133729 	
H	  0.566465830036 	  5.704012841021 	  1.181168583729 	
H	 -0.002078299964 	  5.704015651021 	 11.311725303729 	
H	 15.247324230036 	 -0.479539688979 	  1.209301343729 	
H	 14.678780100036 	 -0.479536878979 	 11.339858063729 	
H	 15.247293130036 	  5.704022071021 	  1.209298513729 	
H	 14.678749000036 	  5.704024881021 	 11.339855233729 	
C	  1.376964608616 	  1.676667256498 	  6.562006876516 	
C	  0.808420478616 	  1.676670066498 	 16.692563596516 	
C	  1.376933508616 	  7.860229016498 	  6.562004046516 	
C	  0.808389378616 	  7.860231826498 	 16.692560766516 	
C	 16.057791908616 	  1.676676486498 	  6.590136806516 	
C	 15.489247778616 	  1.676679296498 	 16.720693526516 	
C	 16.057760808616 	  7.860238246498 	  6.590133976516 	
C	 15.489216678616 	  7.860241056498 	 16.720690696516 	
C	 12.265988211326 	  4.758463496233 	  9.017163957404 	
C	 11.697444081326 	  4.758466306233 	 19.147720677404 	
C	 12.265957111326 	 10.942025256233 	  9.017161127404 	
C	 11.697412981326 	 10.942028066233 	 19.147717847404 	
C	 26.946815511326 	  4.758472726233 	  9.045293887404 	
C	 26.378271381326 	  4.758475536233 	 19.175850607404 	
C	 26.946784411326 	 10.942034486233 	  9.045291057404 	
C	 26.378240281326 	 10.942037296233 	 19.175847777404 	
C	 12.525444455677 	  4.473460179189 	  3.843915318790 	
C	 11.956900325677 	  4.473462989189 	 13.974472038790 	
C	 12.525413355677 	 10.657021939189 	  3.843912488790 	
C	 11.956869225677 	 10.657024749189 	 13.974469208790 	
C	 27.206271755677 	  4.473469409189 	  3.872045248790 	
C	 26.637727625677 	  4.473472219189 	 14.002601968790 	
C	 27.206240655677 	 10.657031169189 	  3.872042418790 	
C	 26.637696525677 	 10.657033979189 	 14.002599138790 	
C	  1.636421314124 	  1.391662419808 	  1.388759447821 	
C	  1.067877184124 	  1.391665229808 	 11.519316167821 	
C	  1.636390214124 	  7.575224179808 	  1.388756617821 	
C	  1.067846084124 	  7.575226989808 	 11.519313337821 	
C	 16.317248614124 	  1.391671649808 	  1.416889377821 	
C	 15.748704484124 	  1.391674459808 	 11.547446097821 	
C	 16.317217514124 	  7.575233409808 	  1.416886547821 	
C	 15.748673384124 	  7.575236219808 	 11.547443267821 	
H	  0.382173944887 	  1.514460844822 	  6.072137815218 	
H	 -0.186370185113 	  1.514463654822 	 16.202694535218 	
H	  0.382142844887 	  7.698022604822 	  6.072134985218 	
H	 -0.186401285113 	  7.698025414822 	 16.202691705218 	
H	 15.063001244887 	  1.514470074822 	  6.100267745218 	
H	 14.494457114887 	  1.514472884822 	 16.230824465218 	
H	 15.062970144887 	  7.698031834822 	  6.100264915218 	
H	 14.494426014887 	  7.698034644822 	 16.230821635218 	
H	 13.259862216432 	  4.591352548574 	  9.504833259170 	
H	 12.691318086432 	  4.591355358574 	 19.635389979170 	
H	 13.259831116432 	 10.774914308574 	  9.504830429170 	
H	 12.691286986432 	 10.774917118574 	 19.635387149170 	
H	 27.940689516432 	  4.591361778574 	  9.532963189170 	
H	 27.372145386432 	  4.591364588574 	 19.663519909170 	
H	 27.940658416432 	 10.774923538574 	  9.532960359170 	
H	 27.372114286432 	 10.774926348574 	 19.663517079170 	
H	 13.520235226683 	  4.635666142903 	  4.333784876101 	
H	 12.951691096683 	  4.635668952903 	 14.464341596101 	
H	 13.520204126683 	 10.819227902903 	  4.333782046101 	
H	 12.951659996683 	 10.819230712903 	 14.464338766101 	
H	 28.201062526683 	  4.635675372903 	  4.361914806101 	
H	 27.632518396683 	  4.635678182903 	 14.492471526101 	
H	 28.201031426683 	 10.819237132903 	  4.361911976101 	
H	 27.632487296683 	 10.819239942903 	 14.492468696101 	
H	  0.642547258134 	  1.558773331440 	  0.901090272227 	
H	  0.074003128134 	  1.558776141440 	 11.031646992227 	
H	  0.642516158134 	  7.742335091440 	  0.901087442227 	
H	  0.073972028134 	  7.742337901440 	 11.031644162227 	
H	 15.323374558134 	  1.558782561440 	  0.929220202227 	
H	 14.754830428134 	  1.558785371440 	 11.059776922227 	
H	 15.323343458134 	  7.742344321440 	  0.929217372227 	
H	 14.754799328134 	  7.742347131440 	 11.059774092227 	
H	  1.183640107341 	  1.185254107457 	  7.551874917302 	
H	  0.615095977341 	  1.185256917457 	 17.682431637302 	
H	  1.183609007341 	  7.368815867457 	  7.551872087302 	
H	  0.615064877341 	  7.368818677457 	 17.682428807302 	
H	 15.864467407341 	  1.185263337457 	  7.580004847302 	
H	 15.295923277341 	  1.185266147457 	 17.710561567302 	
H	 15.864436307341 	  7.368825097457 	  7.580002017302 	
H	 15.295892177341 	  7.368827907457 	 17.710558737302 	
H	 12.458570167551 	  4.262347522341 	  8.025224511581 	
H	 11.890026037551 	  4.262350332341 	 18.155781231581 	
H	 12.458539067551 	 10.445909282341 	  8.025221681581 	
H	 11.889994937551 	 10.445912092341 	 18.155778401581 	
H	 27.139397467551 	  4.262356752341 	  8.053354441581 	
H	 26.570853337551 	  4.262359562341 	 18.183911161581 	
H	 27.139366367551 	 10.445918512341 	  8.053351611581 	
H	 26.570822237551 	 10.445921322341 	 18.183908331581 	
H	 12.718769413970 	  4.964872686929 	  2.854046696775 	
H	 12.150225283970 	  4.964875496929 	 12.984603416775 	
H	 12.718738313970 	 11.148434446929 	  2.854043866775 	
H	 12.150194183970 	 11.148437256929 	 12.984600586775 	
H	 27.399596713970 	  4.964881916929 	  2.882176626775 	
H	 26.831052583970 	  4.964884726929 	 13.012733346775 	
H	 27.399565613970 	 11.148443676929 	  2.882173796775 	
H	 26.831021483970 	 11.148446486929 	 13.012730516775 	
H	  1.443839377082 	  1.887778247431 	  2.380698929702 	
H	  0.875295247082 	  1.887781057431 	 12.511255649702 	
H	  1.443808277082 	  8.071340007431 	  2.380696099702 	
H	  0.875264147082 	  8.071342817431 	 12.511252819702 	
H	 16.124666677082 	  1.887787477431 	  2.408828859702 	
H	 15.556122547082 	  1.887790287431 	 12.539385579702 	
H	 16.124635577082 	  8.071349237431 	  2.408826029702 	
H	 15.556091447082 	  8.071352047431 	 12.539382749702 	
H	  1.842505019925 	  0.700737778981 	  6.287180644946 	
H	  1.273960889925 	  0.700740588981 	 16.417737364946 	
H	  1.842473919925 	  6.884299538981 	  6.287177814946 	
H	  1.273929789925 	  6.884302348981 	 16.417734534946 	
H	 16.523332319925 	  0.700747008981 	  6.315310574946 	
H	 15.954788189925 	  0.700749818981 	 16.445867294946 	
H	 16.523301219925 	  6.884308768981 	  6.315307744946 	
H	 15.954757089925 	  6.884311578981 	 16.445864464946 	
H	 11.799765224938 	  3.779287323916 	  9.289133417978 	
H	 11.231221094938 	  3.779290133916 	 19.419690137978 	
H	 11.799734124938 	  9.962849083916 	  9.289130587978 	
H	 11.231189994938 	  9.962851893916 	 19.419687307978 	
H	 26.480592524938 	  3.779296553916 	  9.317263347978 	
H	 25.912048394938 	  3.779299363916 	 19.447820067978 	
H	 26.480561424938 	  9.962858313916 	  9.317260517978 	
H	 25.912017294938 	  9.962861123916 	 19.447817237978 	
H	 12.059903161747 	  5.449389075320 	  4.118743464866 	
H	 11.491359031747 	  5.449391885320 	 14.249300184866 	
H	 12.059872061747 	 11.632950835320 	  4.118740634866 	
H	 11.491327931747 	 11.632953645320 	 14.249297354866 	
H	 26.740730461747 	  5.449398305320 	  4.146873394866 	
H	 26.172186331747 	  5.449401115320 	 14.277430114866 	
H	 26.740699361747 	 11.632960065320 	  4.146870564866 	
H	 26.172155231747 	 11.632962875320 	 14.277427284866 	
H	  2.102644189944 	  2.370838769093 	  1.116790470346 	
H	  1.534100059944 	  2.370841579093 	 11.247347190346 	
H	  2.102613089944 	  8.554400529093 	  1.116787640346 	
H	  1.534068959944 	  8.554403339093 	 11.247344360346 	
H	 16.783471489944 	  2.370847999093 	  1.144920400346 	
H	 16.214927359944 	  2.370850809093 	 11.275477120346 	
H	 16.783440389944 	  8.554409759093 	  1.144917570346 	
H	 16.214896259944 	  8.554412569093 	 11.275474290346 	
768 
Energy: -1.0195187948580001e+02 
S	  8.536210522546 	  1.496846183652 	  0.089369008861 	
S	  7.967666392546 	  1.496848993652 	 10.219925728861 	
S	  8.536179422546 	  7.680407943652 	  0.089366178861 	
S	  7.967635292546 	  7.680410753652 	 10.219922898861 	
S	 23.217037822546 	  1.496855413652 	  0.117498938861 	
S	 22.648493692546 	  1.496858223652 	 10.248055658861 	
S	 23.217006722546 	  7.680417173652 	  0.117496108861 	
S	 22.648462592546 	  7.680419983652 	 10.248052828861 	
S	  5.561096345578 	  4.566312769005 	  5.185250902736 	
S	  4.992552215578 	  4.566315579005 	 15.315807622736 	
S	  5.561065245578 	 10.749874529005 	  5.185248072736 	
S	  4.992521115578 	 10.749877339005 	 15.315804792736 	
S	 20.241923645578 	  4.566321999005 	  5.213380832736 	
S	 19.673379515578 	  4.566324809005 	 15.343937552736 	
S	 20.241892545578 	 10.749883759005 	  5.213378002736 	
S	 19.673348415578 	 10.749886569005 	 15.343934722736 	
S	  5.309804200102 	  4.644290478403 	 10.382998821519 	
S	  4.741260070102 	  4.644293288403 	 20.513555541519 	
S	  5.309773100102 	 10.827852238403 	 10.382995991519 	
S	  4.741228970102 	 10.827855048403 	 20.513552711519 	
S	 19.990631500102 	  4.644299708403 	 10.411128751519 	
S	 19.422087370102 	  4.644302518403 	 20.541685471519 	
S	 19.990600400102 	 10.827861468403 	 10.411125921519 	
S	 19.422056270102 	 10.827864278403 	 20.541682641519 	
S	  8.284919241271 	  1.574824242966 	  5.287116859531 	
S	  7.716375111271 	  1.574827052966 	 15.417673579531 	
S	  8.284888141271 	  7.758386002966 	  5.287114029531 	
S	  7.716344011271 	  7.758388812966 	 15.417670749531 	
S	 22.965746541271 	  1.574833472966 	  5.315246789531 	
S	 22.397202411271 	  1.574836282966 	 15.445803509531 	
S	 22.965715441271 	  7.758395232966 	  5.315243959531 	
S	 22.397171311271 	  7.758398042966 	 15.445800679531 	
C	  6.642383550742 	  2.554923928888 	 10.068739417246 	
C	  6.073839420742 	  2.554926738888 	 20.199296137246 	
C	  6.642352450742 	  8.738485688888 	 10.068736587246 	
C	  6.073808320742 	  8.738488498888 	 20.199293307246 	
C	 21.323210850742 	  2.554933158888 	 10.096869347246 	
C	 20.754666720742 	  2.554935968888 	 20.227426067246 	
C	 21.323179750742 	  8.738494918888 	 10.096866517246 	
C	 20.754635620742 	  8.738497728888 	 20.227423237246 	
C	  6.952146303683 	  5.585990538159 	  5.628472611747 	
C	  6.383602173683 	  5.585993348159 	 15.759029331747 	
C	  6.952115203683 	 11.769552298159 	  5.628469781747 	
C	  6.383571073683 	 11.769555108159 	 15.759026501747 	
C	 21.632973603683 	  5.585999768159 	  5.656602541747 	
C	 21.064429473683 	  5.586002578159 	 15.787159261747 	
C	 21.632942503683 	 11.769561528159 	  5.656599711747 	
C	 21.064398373683 	 11.769564338159 	 15.787156431747 	
C	  7.203631199628 	  3.586212702296 	  0.403628338710 	
C	  6.635087069628 	  3.586215512296 	 10.534185058710 	
C	  7.203600099628 	  9.769774462296 	  0.403625508710 	
C	  6.635055969628 	  9.769777272296 	 10.534182228710 	
C	 21.884458499628 	  3.586221932296 	  0.431758268710 	
C	 21.315914369628 	  3.586224742296 	 10.562314988710 	
C	 21.884427399628 	  9.769783692296 	  0.431755438710 	
C	 21.315883269628 	  9.769786502296 	 10.562312158710 	
C	  6.893869135705 	  0.555146556325 	  4.843895062937 	
C	  6.325325005705 	  0.555149366325 	 14.974451782937 	
C	  6.893838035705 	  6.738708316325 	  4.843892232937 	
C	  6.325293905705 	  6.738711126325 	 14.974448952937 	
C	 21.574696435705 	  0.555155786325 	  4.872024992937 	
C	 21.006152305705 	  0.555158596325 	 15.002581712937 	
C	 21.574665335705 	  6.738717546325 	  4.872022162937 	
C	 21.006121205705 	  6.738720356325 	 15.002578882937 	
C	  5.604377789604 	  2.370020193833 	  9.113289986841 	
C	  5.035833659604 	  2.370023003833 	 19.243846706841 	
C	  5.604346689604 	  8.553581953833 	  9.113287156841 	
C	  5.035802559604 	  8.553584763833 	 19.243843876841 	
C	 20.285205089604 	  2.370029423833 	  9.141419916841 	
C	 19.716660959604 	  2.370032233833 	 19.271976636841 	
C	 20.285173989604 	  8.553591183833 	  9.141417086841 	
C	 19.716629859604 	  8.553593993833 	 19.271973806841 	
C	  7.992036692146 	  5.437618031439 	  6.556197469943 	
C	  7.423492562146 	  5.437620841439 	 16.686754189943 	
C	  7.992005592146 	 11.621179791439 	  6.556194639943 	
C	  7.423461462146 	 11.621182601439 	 16.686751359943 	
C	 22.672863992146 	  5.437627261439 	  6.584327399943 	
C	 22.104319862146 	  5.437630071439 	 16.714884119943 	
C	 22.672832892146 	 11.621189021439 	  6.584324569943 	
C	 22.104288762146 	 11.621191831439 	 16.714881289943 	
C	  8.241636833320 	  3.771116488318 	  1.359077668207 	
C	  7.673092703320 	  3.771119298318 	 11.489634388207 	
C	  8.241605733320 	  9.954678248318 	  1.359074838207 	
C	  7.673061603320 	  9.954681058318 	 11.489631558207 	
C	 22.922464133320 	  3.771125718318 	  1.387207598207 	
C	 22.353920003320 	  3.771128528318 	 11.517764318207 	
C	 22.922433033320 	  9.954687478318 	  1.387204768207 	
C	 22.353888903320 	  9.954690288318 	 11.517761488207 	
C	  5.853978607109 	  0.703519071346 	  3.916170275796 	
C	  5.285434477109 	  0.703521881346 	 14.046726995796 	
C	  5.853947507109 	  6.887080831346 	  3.916167445796 	
C	  5.285403377109 	  6.887083641346 	 14.046724165796 	
C	 20.534805907109 	  0.703528301346 	  3.944300205796 	
C	 19.966261777109 	  0.703531111346 	 14.074856925796 	
C	 20.534774807109 	  6.887090061346 	  3.944297375796 	
C	 19.966230677109 	  6.887092871346 	 14.074854095796 	
C	  4.738465092094 	  3.440107898792 	  9.141108267928 	
C	  4.169920962094 	  3.440110708792 	 19.271664987928 	
C	  4.738433992094 	  9.623669658792 	  9.141105437928 	
C	  4.169889862094 	  9.623672468792 	 19.271662157928 	
C	 19.419292392094 	  3.440117128792 	  9.169238197928 	
C	 18.850748262094 	  3.440119938792 	 19.299794917928 	
C	 19.419261292094 	  9.623678888792 	  9.169235367928 	
C	 18.850717162094 	  9.623681698792 	 19.299792087928 	
C	  8.850298126653 	  0.371180945987 	  6.530199079216 	
C	  8.281753996653 	  0.371183755987 	 16.660755799216 	
C	  8.850267026653 	  6.554742705987 	  6.530196249216 	
C	  8.281722896653 	  6.554745515987 	 16.660752969216 	
C	 23.531125426653 	  0.371190175987 	  6.558329009216 	
C	 22.962581296653 	  0.371192985987 	 16.688885729216 	
C	 23.531094326653 	  6.554751935987 	  6.558326179216 	
C	 22.962550196653 	  6.554754745987 	 16.688882899216 	
C	  9.107549522156 	  2.701028801689 	  1.331259449588 	
C	  8.539005392156 	  2.701031611689 	 11.461816169588 	
C	  9.107518422156 	  8.884590561689 	  1.331256619588 	
C	  8.538974292156 	  8.884593371689 	 11.461813339588 	
C	 23.788376822156 	  2.701038031689 	  1.359389379588 	
C	 23.219832692156 	  2.701040841689 	 11.489946099588 	
C	 23.788345722156 	  8.884599791689 	  1.359386549588 	
C	 23.219801592156 	  8.884602601689 	 11.489943269588 	
C	  4.995717232364 	  5.769956120088 	  3.942168790006 	
C	  4.427173102364 	  5.769958930088 	 14.072725510006 	
C	  4.995686132364 	 11.953517880088 	  3.942165960006 	
C	  4.427142002364 	 11.953520690088 	 14.072722680006 	
C	 19.676544532364 	  5.769965350088 	  3.970298720006 	
C	 19.108000402364 	  5.769968160088 	 14.100855440006 	
C	 19.676513432364 	 11.953527110088 	  3.970295890006 	
C	 19.107969302364 	 11.953529920088 	 14.100852610006 	
C	  3.677444079947 	  3.524231855261 	  8.383118796817 	
C	  3.108899949947 	  3.524234665261 	 18.513675516817 	
C	  3.677412979947 	  9.707793615261 	  8.383115966817 	
C	  3.108868849947 	  9.707796425261 	 18.513672686817 	
C	 18.358271379947 	  3.524241085261 	  8.411248726817 	
C	 17.789727249947 	  3.524243895261 	 18.541805446817 	
C	 18.358240279947 	  9.707802845261 	  8.411245896817 	
C	 17.789696149947 	  9.707805655261 	 18.541802616817 	
C	  9.912264340039 	  0.461850006084 	  7.283945060652 	
C	  9.343720210039 	  0.461852816084 	 17.414501780652 	
C	  9.912233240039 	  6.645411766084 	  7.283942230652 	
C	  9.343689110039 	  6.645414576084 	 17.414498950652 	
C	 24.593091640039 	  0.461859236084 	  7.312074990652 	
C	 24.024547510039 	  0.461862046084 	 17.442631710652 	
C	 24.593060540039 	  6.645420996084 	  7.312072160652 	
C	 24.024516410039 	  6.645423806084 	 17.442628880652 	
C	 10.168570564371 	  2.616904966543 	  2.089249107184 	
C	  9.600026434371 	  2.616907776543 	 12.219805827184 	
C	 10.168539464371 	  8.800466726543 	  2.089246277184 	
C	  9.599995334371 	  8.800469536543 	 12.219802997184 	
C	 24.849397864371 	  2.616914196543 	  2.117379037184 	
C	 24.280853734371 	  2.616917006543 	 12.247935757184 	
C	 24.849366764371 	  8.800475956543 	  2.117376207184 	
C	 24.280822634371 	  8.800478766543 	 12.247932927184 	
C	  3.933750772327 	  5.679287088142 	  3.188423056835 	
C	  3.365206642327 	  5.679289898142 	 13.318979776835 	
C	  3.933719672327 	 11.862848848142 	  3.188420226835 	
C	  3.365175542327 	 11.862851658142 	 13.318976946835 	
C	 18.614578072327 	  5.679296318142 	  3.216552986835 	
C	 18.046033942327 	  5.679299128142 	 13.347109706835 	
C	 18.614546972327 	 11.862858078142 	  3.216550156835 	
C	 18.046002842327 	 11.862860888142 	 13.347106876835 	
H	  3.002456583985 	  4.457542681574 	  8.460634068411 	
H	  2.433912453985 	  4.457545491574 	 18.591190788411 	
H	  3.002425483985 	 10.641104441574 	  8.460631238411 	
H	  2.433881353985 	 10.641107251574 	 18.591187958411 	
H	 17.683283883985 	  4.457551911574 	  8.488763998411 	
H	 17.114739753985 	  4.457554721574 	 18.619320718411 	
H	 17.683252783985 	 10.641113671574 	  8.488761168411 	
H	 17.114708653985 	 10.641116481574 	 18.619317888411 	
H	 10.591099436147 	  1.385575568863 	  7.210968357661 	
H	 10.022555306147 	  1.385578378863 	 17.341525077661 	
H	 10.591068336147 	  7.569137328863 	  7.210965527661 	
H	 10.022524206147 	  7.569140138863 	 17.341522247661 	
H	 25.271926736147 	  1.385584798863 	  7.239098287661 	
H	 24.703382606147 	  1.385587608863 	 17.369655007661 	
H	 25.271895636147 	  7.569146558863 	  7.239095457661 	
H	 24.703351506147 	  7.569149368863 	 17.369652177661 	
H	 10.843557997038 	  1.683594068004 	  2.011733894344 	
H	 10.275013867038 	  1.683596878004 	 12.142290614344 	
H	 10.843526897038 	  7.867155828004 	  2.011731064344 	
H	 10.274982767038 	  7.867158638004 	 12.142287784344 	
H	 25.524385297038 	  1.683603298004 	  2.039863824344 	
H	 24.955841167038 	  1.683606108004 	 12.170420544344 	
H	 25.524354197038 	  7.867165058004 	  2.039860994344 	
H	 24.955810067038 	  7.867167868004 	 12.170417714344 	
H	  3.254915804785 	  4.755561440757 	  3.261399879794 	
H	  2.686371674785 	  4.755564250757 	 13.391956599794 	
H	  3.254884704785 	 10.939123200757 	  3.261397049794 	
H	  2.686340574785 	 10.939126010757 	 13.391953769794 	
H	 17.935743104785 	  4.755570670757 	  3.289529809794 	
H	 17.367198974785 	  4.755573480757 	 13.420086529794 	
H	 17.935712004785 	 10.939132430757 	  3.289526979794 	
H	 17.367167874785 	 10.939135240757 	 13.420083699794 	
C	  3.349217926783 	  2.569441386608 	  7.520003716108 	
C	  2.780673796783 	  2.569444196608 	 17.650560436108 	
C	  3.349186826783 	  8.753003146608 	  7.520000886108 	
C	  2.780642696783 	  8.753005956608 	 17.650557606108 	
C	 18.030045226783 	  2.569450616608 	  7.548133646108 	
C	 17.461501096783 	  2.569453426608 	 17.678690366108 	
C	 18.030014126783 	  8.753012376608 	  7.548130816108 	
C	 17.461469996783 	  8.753015186608 	 17.678687536108 	
C	 10.248505095989 	  5.630583747858 	  8.154771928980 	
C	  9.679960965989 	  5.630586557858 	 18.285328648980 	
C	 10.248473995989 	 11.814145507858 	  8.154769098980 	
C	  9.679929865989 	 11.814148317858 	 18.285325818980 	
C	 24.929332395989 	  5.630592977858 	  8.182901858980 	
C	 24.360788265989 	  5.630595787858 	 18.313458578980 	
C	 24.929301295989 	 11.814154737858 	  8.182899028980 	
C	 24.360757165989 	 11.814157547858 	 18.313455748980 	
C	 10.496796493301 	  3.571695455370 	  2.952363962543 	
C	  9.928252363301 	  3.571698265370 	 13.082920682543 	
C	 10.496765393301 	  9.755257215370 	  2.952361132543 	
C	  9.928221263301 	  9.755260025370 	 13.082917852543 	
C	 25.177623793301 	  3.571704685370 	  2.980493892543 	
C	 24.609079663301 	  3.571707495370 	 13.111050612543 	
C	 25.177592693301 	  9.755266445370 	  2.980491062543 	
C	 24.609048563301 	  9.755269255370 	 13.111047782543 	
C	  3.597509860396 	  0.510553380984 	  2.317596285108 	
C	  3.028965730396 	  0.510556190984 	 12.448153005108 	
C	  3.597478760396 	  6.694115140984 	  2.317593455108 	
C	  3.028934630396 	  6.694117950984 	 12.448150175108 	
C	 18.278337160396 	  0.510562610984 	  2.345726215108 	
C	 17.709793030396 	  0.510565420984 	 12.476282935108 	
C	 18.278306060396 	  6.694124370984 	  2.345723385108 	
C	 17.709761930396 	  6.694127180984 	 12.476280105108 	
C	  4.217275595875 	  1.516744285010 	  7.463101927652 	
C	  3.648731465875 	  1.516747095010 	 17.593658647652 	
C	  4.217244495875 	  7.700306045010 	  7.463099097652 	
C	  3.648700365875 	  7.700308855010 	 17.593655817652 	
C	 18.898102895875 	  1.516753515010 	  7.491231857652 	
C	 18.329558765875 	  1.516756325010 	 17.621788577652 	
C	 18.898071795875 	  7.700315275010 	  7.491229027652 	
C	 18.329527665875 	  7.700318085010 	 17.621785747652 	
C	  9.376539078729 	  4.588953748793 	  8.206233214057 	
C	  8.807994948729 	  4.588956558793 	 18.336789934057 	
C	  9.376507978729 	 10.772515508793 	  8.206230384057 	
C	  8.807963848729 	 10.772518318793 	 18.336787104057 	
C	 24.057366378729 	  4.588962978793 	  8.234363144057 	
C	 23.488822248729 	  4.588965788793 	 18.364919864057 	
C	 24.057335278729 	 10.772524738793 	  8.234360314057 	
C	 23.488791148729 	 10.772527548793 	 18.364917034057 	
C	  9.628738897758 	  4.624392564552 	  3.009265769718 	
C	  9.060194767758 	  4.624395374552 	 13.139822489718 	
C	  9.628707797758 	 10.807954324552 	  3.009262939718 	
C	  9.060163667758 	 10.807957134552 	 13.139819659718 	
C	 24.309566197758 	  4.624401794552 	  3.037395699718 	
C	 23.741022067758 	  4.624404604552 	 13.167952419718 	
C	 24.309535097758 	 10.807963554552 	  3.037392869718 	
C	 23.740990967758 	 10.807966364552 	 13.167949589718 	
C	  4.469475758165 	  1.552183301263 	  2.266134807870 	
C	  3.900931628165 	  1.552186111263 	 12.396691527870 	
C	  4.469444658165 	  7.735745061263 	  2.266131977870 	
C	  3.900900528165 	  7.735747871263 	 12.396688697870 	
C	 19.150303058165 	  1.552192531263 	  2.294264737870 	
C	 18.581758928165 	  1.552195341263 	 12.424821457870 	
C	 19.150271958165 	  7.735754291263 	  2.294261907870 	
C	 18.581727828165 	  7.735757101263 	 12.424818627870 	
H	  3.986623973937 	  0.680146716477 	  6.706285254468 	
H	  3.418079843937 	  0.680149526477 	 16.836841974468 	
H	  3.986592873937 	  6.863708476477 	  6.706282424468 	
H	  3.418048743937 	  6.863711286477 	 16.836839144468 	
H	 18.667451273937 	  0.680155946477 	  6.734415184468 	
H	 18.098907143937 	  0.680158756477 	 16.864971904468 	
H	 18.667420173937 	  6.863717706477 	  6.734412354468 	
H	 18.098876043937 	  6.863720516477 	 16.864969074468 	
H	  9.606467615647 	  3.751781239948 	  8.963895177361 	
H	  9.037923485647 	  3.751784049948 	 19.094451897361 	
H	  9.606436515647 	  9.935342999948 	  8.963892347361 	
H	  9.037892385647 	  9.935345809948 	 19.094449067361 	
H	 24.287294915647 	  3.751790469948 	  8.992025107361 	
H	 23.718750785647 	  3.751793279948 	 19.122581827361 	
H	 24.287263815647 	  9.935352229948 	  8.992022277361 	
H	 23.718719685647 	  9.935355039948 	 19.122578997361 	
H	  9.859390592066 	  5.460990200192 	  3.766082351915 	
H	  9.290846462066 	  5.460993010192 	 13.896639071915 	
H	  9.859359492066 	 11.644551960192 	  3.766079521915 	
H	  9.290815362066 	 11.644554770192 	 13.896636241915 	
H	 24.540217892066 	  5.460999430192 	  3.794212281915 	
H	 23.971673762066 	  5.461002240192 	 13.924769001915 	
H	 24.540186792066 	 11.644561190192 	  3.794209451915 	
H	 23.971642662066 	 11.644564000192 	 13.924766171915 	
H	  4.239547044606 	  2.389355898067 	  1.508472987326 	
H	  3.671002914606 	  2.389358708067 	 11.639029707326 	
H	  4.239515944606 	  8.572917658067 	  1.508470157326 	
H	  3.670971814606 	  8.572920468067 	 11.639026877326 	
H	 18.920374344606 	  2.389365128067 	  1.536602917326 	
H	 18.351830214606 	  2.389367938067 	 11.667159637326 	
H	 18.920343244606 	  8.572926888067 	  1.536600087326 	
H	 18.351799114606 	  8.572929698067 	 11.667156807326 	
C	  5.256860900025 	  1.415979102810 	  8.188944355775 	
C	  4.688316770025 	  1.415981912810 	 18.319501075775 	
C	  5.256829800025 	  7.599540862810 	  8.188941525775 	
C	  4.688285670025 	  7.599543672810 	 18.319498245775 	
C	 19.937688200025 	  1.415988332810 	  8.217074285775 	
C	 19.369144070025 	  1.415991142810 	 18.347631005775 	
C	 19.937657100025 	  7.599550092810 	  8.217071455775 	
C	 19.369112970025 	  7.599552902810 	 18.347628175775 	
C	  8.336421048997 	  4.487860002052 	  7.480090544844 	
C	  7.767876918997 	  4.487862812052 	 17.610647264844 	
C	  8.336389948997 	 10.671421762052 	  7.480087714844 	
C	  7.767845818997 	 10.671424572052 	 17.610644434844 	
C	 23.017248348997 	  4.487869232052 	  7.508220474844 	
C	 22.448704218997 	  4.487872042052 	 17.638777194844 	
C	 23.017217248997 	 10.671430992052 	  7.508217644844 	
C	 22.448673118997 	 10.671433802052 	 17.638774364844 	
C	  8.589153657126 	  4.725157674465 	  2.283423242122 	
C	  8.020609527126 	  4.725160484465 	 12.413979962122 	
C	  8.589122557126 	 10.908719434465 	  2.283420412122 	
C	  8.020578427126 	 10.908722244465 	 12.413977132122 	
C	 23.269980957126 	  4.725166904465 	  2.311553172122 	
C	 22.701436827126 	  4.725169714465 	 12.442109892122 	
C	 23.269949857126 	 10.908728664465 	  2.311550342122 	
C	 22.701405727126 	 10.908731474465 	 12.442107062122 	
C	  5.509594037797 	  1.653277100498 	  2.992277323957 	
C	  4.941049907797 	  1.653279910498 	 13.122834043957 	
C	  5.509562937797 	  7.836838860498 	  2.992274493957 	
C	  4.941018807797 	  7.836841670498 	 13.122831213957 	
C	 20.190421337797 	  1.653286330498 	  3.020407253957 	
C	 19.621877207797 	  1.653289140498 	 13.150963973957 	
C	 20.190390237797 	  7.836848090498 	  3.020404423957 	
C	 19.621846107797 	  7.836850900498 	 13.150961143957 	
H	  5.953844835042 	  0.502528066973 	  8.097623009951 	
H	  5.385300705042 	  0.502530876973 	 18.228179729951 	
H	  5.953813735042 	  6.686089826973 	  8.097620179951 	
H	  5.385269605042 	  6.686092636973 	 18.228176899951 	
H	 20.634672135042 	  0.502537296973 	  8.125752939951 	
H	 20.066128005042 	  0.502540106973 	 18.256309659951 	
H	 20.634641035042 	  6.686099056973 	  8.125750109951 	
H	 20.066096905042 	  6.686101866973 	 18.256306829951 	
H	  7.639150153077 	  3.573427913570 	  7.572314922738 	
H	  7.070606023077 	  3.573430723570 	 17.702871642738 	
H	  7.639119053077 	  9.756989673570 	  7.572312092738 	
H	  7.070574923077 	  9.756992483570 	 17.702868812738 	
H	 22.319977453077 	  3.573437143570 	  7.600444852738 	
H	 21.751433323077 	  3.573439953570 	 17.731001572738 	
H	 22.319946353077 	  9.756998903570 	  7.600442022738 	
H	 21.751402223077 	  9.757001713570 	 17.730998742738 	
H	  7.892169672369 	  5.638608672365 	  2.374744484318 	
H	  7.323625542369 	  5.638611482365 	 12.505301204318 	
H	  7.892138572369 	 11.822170432365 	  2.374741654318 	
H	  7.323594442369 	 11.822173242365 	 12.505298374318 	
H	 22.572996972369 	  5.638617902365 	  2.402874414318 	
H	 22.004452842369 	  5.638620712365 	 12.533431134318 	
H	 22.572965872369 	 11.822179662365 	  2.402871584318 	
H	 22.004421742369 	 11.822182472365 	 12.533428304318 	
H	  6.206864894199 	  2.567709193291 	  2.900052828916 	
H	  5.638320764199 	  2.567712003291 	 13.030609548916 	
H	  6.206833794199 	  8.751270953291 	  2.900049998916 	
H	  5.638289664199 	  8.751273763291 	 13.030606718916 	
H	 20.887692194199 	  2.567718423291 	  2.928182758916 	
H	 20.319148064199 	  2.567721233291 	 13.058739478916 	
H	 20.887661094199 	  8.751280183291 	  2.928179928916 	
H	 20.319116964199 	  8.751282993291 	 13.058736648916 	
C	  2.016795997686 	  2.654949379931 	  6.617840918263 	
C	  1.448251867686 	  2.654952189931 	 16.748397638263 	
C	  2.016764897686 	  8.838511139931 	  6.617838088263 	
C	  1.448220767686 	  8.838513949931 	 16.748394808263 	
C	 16.697623297686 	  2.654958609931 	  6.645970848263 	
C	 16.129079167686 	  2.654961419931 	 16.776527568263 	
C	 16.697592197686 	  8.838520369931 	  6.645968018263 	
C	 16.129048067686 	  8.838523179931 	 16.776524738263 	
C	 11.495123883733 	  5.675286301328 	  9.004599922653 	
C	 10.926579753733 	  5.675289111328 	 19.135156642653 	
C	 11.495092783733 	 11.858848061328 	  9.004597092653 	
C	 10.926548653733 	 11.858850871328 	 19.135153812653 	
C	 26.175951183733 	  5.675295531328 	  9.032729852653 	
C	 25.607407053733 	  5.675298341328 	 19.163286572653 	
C	 26.175920083733 	 11.858857291328 	  9.032727022653 	
C	 25.607375953733 	 11.858860101328 	 19.163283742653 	
C	 11.829219657096 	  3.486187912117 	  3.854528418040 	
C	 11.260675527096 	  3.486190722117 	 13.985085138040 	
C	 11.829188557096 	  9.669749672117 	  3.854525588040 	
C	 11.260644427096 	  9.669752482117 	 13.985082308040 	
C	 26.510046957096 	  3.486197142117 	  3.882658348040 	
C	 25.941502827096 	  3.486199952117 	 14.013215068040 	
C	 26.510015857096 	  9.669758902117 	  3.882655518040 	
C	 25.941471727096 	  9.669761712117 	 14.013212238040 	
C	  2.350890814013 	  0.465850647736 	  1.467768588682 	
C	  1.782346684013 	  0.465853457736 	 11.598325308682 	
C	  2.350859714013 	  6.649412407736 	  1.467765758682 	
C	  1.782315584013 	  6.649415217736 	 11.598322478682 	
C	 17.031718114013 	  0.465859877736 	  1.495898518682 	
C	 16.463173984013 	  0.465862687736 	 11.626455238682 	
C	 17.031687014013 	  6.649421637736 	  1.495895688682 	
C	 16.463142884013 	  6.649424447736 	 11.626452408682 	
C	  2.130568691557 	  2.744856604273 	  5.523956115110 	
C	  1.562024561557 	  2.744859414273 	 15.654512835110 	
C	  2.130537591557 	  8.928418364273 	  5.523953285110 	
C	  1.561993461557 	  8.928421174273 	 15.654510005110 	
C	 16.811395991557 	  2.744865834273 	  5.552086045110 	
C	 16.242851861557 	  2.744868644273 	 15.682642765110 	
C	 16.811364891557 	  8.928427594273 	  5.552083215110 	
C	 16.242820761557 	  8.928430404273 	 15.682639935110 	
C	 11.464623788410 	 -0.348750897671 	 10.071811912450 	
C	 10.896079658410 	 -0.348748087671 	 20.202368632450 	
C	 11.464592688410 	  5.834810862329 	 10.071809082450 	
C	 10.896048558410 	  5.834813672329 	 20.202365802450 	
C	 26.145451088410 	 -0.348741667671 	 10.099941842450 	
C	 25.576906958410 	 -0.348738857671 	 20.230498562450 	
C	 26.145419988410 	  5.834820092329 	 10.099939012450 	
C	 25.576875858410 	  5.834822902329 	 20.230495732450 	
C	 11.715444178695 	  3.396280214429 	  4.948413245614 	
C	 11.146900048695 	  3.396283024429 	 15.078969965614 	
C	 11.715413078695 	  9.579841974429 	  4.948410415614 	
C	 11.146868948695 	  9.579844784429 	 15.078967135614 	
C	 26.396271478695 	  3.396289444429 	  4.976543175614 	
C	 25.827727348695 	  3.396292254429 	 15.107099895614 	
C	 26.396240378695 	  9.579851204429 	  4.976540345614 	
C	 25.827696248695 	  9.579854014429 	 15.107097065614 	
C	  2.381390816924 	  6.489887783666 	  0.400556439110 	
C	  1.812846686924 	  6.489890593666 	 10.531113159110 	
C	  2.381359716924 	 12.673449543666 	  0.400553609110 	
C	  1.812815586924 	 12.673452353666 	 10.531110329110 	
C	 17.062218116924 	  6.489897013666 	  0.428686369110 	
C	 16.493673986924 	  6.489899823666 	 10.559243089110 	
C	 17.062187016924 	 12.673458773666 	  0.428683539110 	
C	 16.493642886924 	 12.673461583666 	 10.559240259110 	
H	  2.914927150130 	  3.416792242260 	  5.120751831765 	
H	  2.346383020130 	  3.416795052260 	 15.251308551765 	
H	  2.914896050130 	  9.600354002260 	  5.120749001765 	
H	  2.346351920130 	  9.600356812260 	 15.251305721765 	
H	 17.595754450130 	  3.416801472260 	  5.148881761765 	
H	 17.027210320130 	  3.416804282260 	 15.279438481765 	
H	 17.595723350130 	  9.600363232260 	  5.148878931765 	
H	 17.027179220130 	  9.600366042260 	 15.279435651765 	
H	 10.709266853983 	  0.364888253896 	 10.528003571797 	
H	 10.140722723983 	  0.364891063896 	 20.658560291797 	
H	 10.709235753983 	  6.548450013896 	 10.528000741797 	
H	 10.140691623983 	  6.548452823896 	 20.658557461797 	
H	 25.390094153983 	  0.364897483896 	 10.556133501797 	
H	 24.821550023983 	  0.364900293896 	 20.686690221797 	
H	 25.390063053983 	  6.548459243896 	 10.556130671797 	
H	 24.821518923983 	  6.548462053896 	 20.686687391797 	
H	 10.931086976561 	  2.724341129465 	  5.351614941909 	
H	 10.362542846561 	  2.724343939465 	 15.482171661909 	
H	 10.931055876561 	  8.907902889465 	  5.351612111909 	
H	 10.362511746561 	  8.907905699465 	 15.482168831909 	
H	 25.611914276561 	  2.724350359465 	  5.379744871909 	
H	 25.043370146561 	  2.724353169465 	 15.510301591909 	
H	 25.611883176561 	  8.907912119465 	  5.379742041909 	
H	 25.043339046561 	  8.907914929465 	 15.510298761909 	
H	  3.136747695181 	  5.776249221299 	 -0.055635609321 	
H	  2.568203565181 	  5.776252031299 	 10.074921110679 	
H	  3.136716595181 	 11.959810981299 	 -0.055638439321 	
H	  2.568172465181 	 11.959813791299 	 10.074918280679 	
H	 17.817574995181 	  5.776258451299 	 -0.027505679321 	
H	 17.249030865181 	  5.776261261299 	 10.103051040679 	
H	 17.817543895181 	 11.959820211299 	 -0.027508509321 	
H	 17.248999765181 	 11.959823021299 	 10.103048210679 	
H	  1.416004269020 	  2.862564033813 	  4.672868477622 	
H	  0.847460139020 	  2.862566843813 	 14.803425197622 	
H	  1.415973169020 	  9.046125793813 	  4.672865647622 	
H	  0.847429039020 	  9.046128603813 	 14.803422367622 	
H	 16.096831569020 	  2.862573263813 	  4.700998407622 	
H	 15.528287439020 	  2.862576073813 	 14.831555127622 	
H	 16.096800469020 	  9.046135023813 	  4.700995577622 	
H	 15.528256339020 	  9.046137833813 	 14.831552297622 	
H	 12.728253242796 	 -0.195325243820 	  0.665652045025 	
H	 12.159709112796 	 -0.195322433820 	 10.796208765025 	
H	 12.728222142796 	  5.988236516180 	  0.665649215025 	
H	 12.159678012796 	  5.988239326180 	 10.796205935025 	
H	 27.409080542796 	 -0.195316013820 	  0.693781975025 	
H	 26.840536412796 	 -0.195313203820 	 10.824338695025 	
H	 27.409049442796 	  5.988245746180 	  0.693779145025 	
H	 26.840505312796 	  5.988248556180 	 10.824335865025 	
H	 12.430009737177 	  3.278573080185 	  5.799500168159 	
H	 11.861465607177 	  3.278575890185 	 15.930056888159 	
H	 12.429978637177 	  9.462134840185 	  5.799497338159 	
H	 11.861434507177 	  9.462137650185 	 15.930054058159 	
H	 27.110837037177 	  3.278582310185 	  5.827630098159 	
H	 26.542292907177 	  3.278585120185 	 15.958186818159 	
H	 27.110805937177 	  9.462144070185 	  5.827627268159 	
H	 26.542261807177 	  9.462146880185 	 15.958183988159 	
H	  1.117761149000 	  6.336462567339 	  9.806716464660 	
H	  0.549217019000 	  6.336465377339 	 19.937273184660 	
H	  1.117730049000 	 12.520024327339 	  9.806713634660 	
H	  0.549185919000 	 12.520027137339 	 19.937270354660 	
H	 15.798588449000 	  6.336471797339 	  9.834846394660 	
H	 15.230044319000 	  6.336474607339 	 19.965403114660 	
H	 15.798557349000 	 12.520033557339 	  9.834843564660 	
H	 15.230013219000 	 12.520036367339 	 19.965400284660 	
H	  2.811475916126 	  2.057570922569 	  4.981172366897 	
H	  2.242931786126 	  2.057573732569 	 15.111729086897 	
H	  2.811444816126 	  8.241132682569 	  4.981169536897 	
H	  2.242900686126 	  8.241135492569 	 15.111726256897 	
H	 17.492303216126 	  2.057580152569 	  5.009302296897 	
H	 16.923759086126 	  2.057582962569 	 15.139859016897 	
H	 17.492272116126 	  8.241141912569 	  5.009299466897 	
H	 16.923727986126 	  8.241144722569 	 15.139856186897 	
H	 11.211334635611 	  5.096650441887 	  0.382531728303 	
H	 10.642790505611 	  5.096653251887 	 10.513088448303 	
H	 11.211303535611 	 11.280212201887 	  0.382528898303 	
H	 10.642759405611 	 11.280215011887 	 10.513085618303 	
H	 25.892161935611 	  5.096659671887 	  0.410661658303 	
H	 25.323617805611 	  5.096662481887 	 10.541218378303 	
H	 25.892130835611 	 11.280221431887 	  0.410658828303 	
H	 25.323586705611 	 11.280224241887 	 10.541215548303 	
H	 11.034537288193 	  4.083567984724 	  5.491195361273 	
H	 10.465993158193 	  4.083570794724 	 15.621752081273 	
H	 11.034506188193 	 10.267129744724 	  5.491192531273 	
H	 10.465962058193 	 10.267132554724 	 15.621749251273 	
H	 25.715364588193 	  4.083577214724 	  5.519325291273 	
H	 25.146820458193 	  4.083580024724 	 15.649882011273 	
H	 25.715333488193 	 10.267138974724 	  5.519322461273 	
H	 25.146789358193 	 10.267141784724 	 15.649879181273 	
H	  2.634679812740 	  1.044487115034 	 10.089836985116 	
H	  2.066135682740 	  1.044489925034 	 20.220393705116 	
H	  2.634648712740 	  7.228048875034 	 10.089834155116 	
H	  2.066104582740 	  7.228051685034 	 20.220390875116 	
H	 17.315507112740 	  1.044496345034 	 10.117966915116 	
H	 16.746962982740 	  1.044499155034 	 20.248523635116 	
H	 17.315476012740 	  7.228058105034 	 10.117964085116 	
H	 16.746931882740 	  7.228060915034 	 20.248520805116 	
C	  1.339694134835 	  3.510635508993 	  6.813826269323 	
C	  0.771150004835 	  3.510638318993 	 16.944382989323 	
C	  1.339663034835 	  9.694197268993 	  6.813823439323 	
C	  0.771118904835 	  9.694200078993 	 16.944380159323 	
C	 16.020521434835 	  3.510644738993 	  6.841956199323 	
C	 15.451977304835 	  3.510647548993 	 16.972512919323 	
C	 16.020490334835 	  9.694206498993 	  6.841953369323 	
C	 15.451946204835 	  9.694209308993 	 16.972510089323 	
C	 12.351452703842 	  0.511525476980 	  8.831510011283 	
C	 11.782908573842 	  0.511528286980 	 18.962066731283 	
C	 12.351421603842 	  6.695087236980 	  8.831507181283 	
C	 11.782877473842 	  6.695090046980 	 18.962063901283 	
C	 27.032280003842 	  0.511534706980 	  8.859639941283 	
C	 26.463735873842 	  0.511537516980 	 18.990196661283 	
C	 27.032248903842 	  6.695096466980 	  8.859637111283 	
C	 26.463704773842 	  6.695099276980 	 18.990193831283 	
C	 12.506320639246 	  2.630501175908 	  3.658540822714 	
C	 11.937776509246 	  2.630503985908 	 13.789097542714 	
C	 12.506289539246 	  8.814062935908 	  3.658537992714 	
C	 11.937745409246 	  8.814065745908 	 13.789094712714 	
C	 27.187147939246 	  2.630510405908 	  3.686670752714 	
C	 26.618603809246 	  2.630513215908 	 13.817227472714 	
C	 27.187116839246 	  8.814072165908 	  3.686667922714 	
C	 26.618572709246 	  8.814074975908 	 13.817224642714 	
C	  1.494562044006 	  5.629611395924 	  1.640858319013 	
C	  0.926017914006 	  5.629614205924 	 11.771415039013 	
C	  1.494530944006 	 11.813173155924 	  1.640855489013 	
C	  0.925986814006 	 11.813175965924 	 11.771412209013 	
C	 16.175389344006 	  5.629620625924 	  1.668988249013 	
C	 15.606845214006 	  5.629623435924 	 11.799544969013 	
C	 16.175358244006 	 11.813182385924 	  1.668985419013 	
C	 15.606814114006 	 11.813185195924 	 11.799542139013 	
H	  1.775387112989 	  4.539089595485 	  6.861396009783 	
H	  1.206842982989 	  4.539092405485 	 16.991952729783 	
H	  1.775356012989 	 10.722651355485 	  6.861393179783 	
H	  1.206811882989 	 10.722654165485 	 16.991949899783 	
H	 16.456214412989 	  4.539098825485 	  6.889525939783 	
H	 15.887670282989 	  4.539101635485 	 17.020082659783 	
H	 16.456183312989 	 10.722660585485 	  6.889523109783 	
H	 15.887639182989 	 10.722663395485 	 17.020079829783 	
H	 11.810253729648 	  1.482419105428 	  8.804354423364 	
H	 11.241709599648 	  1.482421915428 	 18.934911143364 	
H	 11.810222629648 	  7.665980865428 	  8.804351593364 	
H	 11.241678499648 	  7.665983675428 	 18.934908313364 	
H	 26.491081029648 	  1.482428335428 	  8.832484353364 	
H	 25.922536899648 	  1.482431145428 	 18.963041073364 	
H	 26.491049929648 	  7.665990095428 	  8.832481523364 	
H	 25.922505799648 	  7.665992905428 	 18.963038243364 	
H	 12.070627711419 	  1.602046743768 	  3.610971549961 	
H	 11.502083581419 	  1.602049553768 	 13.741528269961 	
H	 12.070596611419 	  7.785608503768 	  3.610968719961 	
H	 11.502052481419 	  7.785611313768 	 13.741525439961 	
H	 26.751455011419 	  1.602055973768 	  3.639101479961 	
H	 26.182910881419 	  1.602058783768 	 13.769658199961 	
H	 26.751423911419 	  7.785617733768 	  3.639098649961 	
H	 26.182879781419 	  7.785620543768 	 13.769655369961 	
H	  2.035761071685 	  4.658717788330 	  1.668013472787 	
H	  1.467216941685 	  4.658720598330 	 11.798570192787 	
H	  2.035729971685 	 10.842279548330 	  1.668010642787 	
H	  1.467185841685 	 10.842282358330 	 11.798567362787 	
H	 16.716588371685 	  4.658727018330 	  1.696143402787 	
H	 16.148044241685 	  4.658729828330 	 11.826700122787 	
H	 16.716557271685 	 10.842288778330 	  1.696140572787 	
H	 16.148013141685 	 10.842291588330 	 11.826697292787 	
H	  1.042733338467 	  3.697082361462 	  7.877803908116 	
H	  0.474189208467 	  3.697085171462 	 18.008360628116 	
H	  1.042702238467 	  9.880644121462 	  7.877801078116 	
H	  0.474158108467 	  9.880646931462 	 18.008357798116 	
H	 15.723560638467 	  3.697091591462 	  7.905933838116 	
H	 15.155016508467 	  3.697094401462 	 18.036490558116 	
H	 15.723529538467 	  9.880653351462 	  7.905931008116 	
H	 15.154985408467 	  9.880656161462 	 18.036487728116 	
H	 12.543394908808 	  6.741421708312 	  7.801792765136 	
H	 11.974850778808 	  6.741424518312 	 17.932349485136 	
H	 12.543363808808 	 12.924983468312 	  7.801789935136 	
H	 11.974819678808 	 12.924986278312 	 17.932346655136 	
H	 27.224222208808 	  6.741430938312 	  7.829922695136 	
H	 26.655678078808 	  6.741433748312 	 17.960479415136 	
H	 27.224191108808 	 12.924992698312 	  7.829919865136 	
H	 26.655646978808 	 12.924995508312 	 17.960476585136 	
H	 12.803282632051 	  2.444055570954 	  2.594563028698 	
H	 12.234738502051 	  2.444058380954 	 12.725119748698 	
H	 12.803251532051 	  8.627617330954 	  2.594560198698 	
H	 12.234707402051 	  8.627620140954 	 12.725116918698 	
H	 27.484109932051 	  2.444064800954 	  2.622692958698 	
H	 26.915565802051 	  2.444067610954 	 12.753249678698 	
H	 27.484078832051 	  8.627626560954 	  2.622690128698 	
H	 26.915534702051 	  8.627629370954 	 12.753246848698 	
H	  1.302620081096 	 -0.600284972640 	  2.670575640001 	
H	  0.734075951096 	 -0.600282162640 	 12.801132360001 	
H	  1.302588981096 	  5.583276787360 	  2.670572810001 	
H	  0.734044851096 	  5.583279597360 	 12.801129530001 	
H	 15.983447381096 	 -0.600275742640 	  2.698705570001 	
H	 15.414903251096 	 -0.600272932640 	 12.829262290001 	
H	 15.983416281096 	  5.583286017360 	  2.698702740001 	
H	 15.414872151096 	  5.583288827360 	 12.829259460001 	
H	  0.384513857010 	  3.695796119298 	  6.262964854292 	
H	 -0.184030272990 	  3.695798929298 	 16.393521574292 	
H	  0.384482757010 	  9.879357879298 	  6.262962024292 	
H	 -0.184061372990 	  9.879360689298 	 16.393518744292 	
H	 15.065341157010 	  3.695805349298 	  6.291094784292 	
H	 14.496797027010 	  3.695808159298 	 16.421651504292 	
H	 15.065310057010 	  9.879367109298 	  6.291091954292 	
H	 14.496765927010 	  9.879369919298 	 16.421648674292 	
H	 13.203969681411 	  6.760177778475 	  9.402849319983 	
H	 12.635425551411 	  6.760180588475 	 19.533406039983 	
H	 13.203938581411 	 12.943739538475 	  9.402846489983 	
H	 12.635394451411 	 12.943742348475 	 19.533403209983 	
H	 27.884796981411 	  6.760187008475 	  9.430979249983 	
H	 27.316252851411 	  6.760189818475 	 19.561535969983 	
H	 27.884765881411 	 12.943748768475 	  9.430976419983 	
H	 27.316221751411 	 12.943751578475 	 19.561533139983 	
H	 13.461500942270 	  2.445340814993 	  4.209402756113 	
H	 12.892956812270 	  2.445343624993 	 14.339959476113 	
H	 13.461469842270 	  8.628902574993 	  4.209399926113 	
H	 12.892925712270 	  8.628905384993 	 14.339956646113 	
H	 28.142328242270 	  2.445350044993 	  4.237532686113 	
H	 27.573784112270 	  2.445352854993 	 14.368089406113 	
H	 28.142297142270 	  8.628911804993 	  4.237529856113 	
H	 27.573753012270 	  8.628914614993 	 14.368086576113 	
H	  0.642044906524 	 -0.619040977105 	  1.069519240806 	
H	  0.073500776524 	 -0.619038167105 	 11.200075960806 	
H	  0.642013806524 	  5.564520782895 	  1.069516410806 	
H	  0.073469676524 	  5.564523592895 	 11.200073130806 	
H	 15.322872206524 	 -0.619031747105 	  1.097649170806 	
H	 14.754328076524 	 -0.619028937105 	 11.228205890806 	
H	 15.322841106524 	  5.564530012895 	  1.097646340806 	
H	 14.754296976524 	  5.564532822895 	 11.228203060806 	
C	  1.319644422195 	  1.798941980173 	  6.660096781829 	
C	  0.751100292195 	  1.798944790173 	 16.790653501829 	
C	  1.319613322195 	  7.982503740173 	  6.660093951829 	
C	  0.751069192195 	  7.982506550173 	 16.790650671829 	
C	 16.000471722195 	  1.798951210173 	  6.688226711829 	
C	 15.431927592195 	  1.798954020173 	 16.818783431829 	
C	 16.000440622195 	  7.982512970173 	  6.688223881829 	
C	 15.431896492195 	  7.982515780173 	 16.818780601829 	
C	 12.270038446684 	  4.880701559213 	  9.016163783770 	
C	 11.701494316684 	  4.880704369213 	 19.146720503770 	
C	 12.270007346684 	 11.064263319213 	  9.016160953770 	
C	 11.701463216684 	 11.064266129213 	 19.146717673770 	
C	 26.950865746684 	  4.880710789213 	  9.044293713770 	
C	 26.382321616684 	  4.880713599213 	 19.174850433770 	
C	 26.950834646684 	 11.064272549213 	  9.044290883770 	
C	 26.382290516684 	 11.064275359213 	 19.174847603770 	
C	 12.526369873224 	  4.342196775868 	  3.812270203230 	
C	 11.957825743224 	  4.342199585868 	 13.942826923230 	
C	 12.526338773224 	 10.525758535868 	  3.812267373230 	
C	 11.957794643224 	 10.525761345868 	 13.942824093230 	
C	 27.207197173224 	  4.342206005868 	  3.840400133230 	
C	 26.638653043224 	  4.342208815868 	 13.970956853230 	
C	 27.207166073224 	 10.525767765868 	  3.840397303230 	
C	 26.638621943224 	 10.525770575868 	 13.970954023230 	
C	  1.575976132021 	  1.260435260490 	  1.456204917878 	
C	  1.007432002021 	  1.260438070490 	 11.586761637878 	
C	  1.575945032021 	  7.443997020490 	  1.456202087878 	
C	  1.007400902021 	  7.443999830490 	 11.586758807878 	
C	 16.256803432021 	  1.260444490490 	  1.484334847878 	
C	 15.688259302021 	  1.260447300490 	 11.614891567878 	
C	 16.256772332021 	  7.444006250490 	  1.484332017878 	
C	 15.688228202021 	  7.444009060490 	 11.614888737878 	
H	  0.319085418499 	  1.641424639767 	  6.192470582070 	
H	 -0.249458711501 	  1.641427449767 	 16.323027302070 	
H	  0.319054318499 	  7.824986399767 	  6.192467752070 	
H	 -0.249489811501 	  7.824989209767 	 16.323024472070 	
H	 14.999912718499 	  1.641433869767 	  6.220600512070 	
H	 14.431368588499 	  1.641436679767 	 16.351157232070 	
H	 14.999881618499 	  7.824995629767 	  6.220597682070 	
H	 14.431337488499 	  7.824998439767 	 16.351154402070 	
H	 13.272783721878 	  4.713579376825 	  9.479151174839 	
H	 12.704239591878 	  4.713582186825 	 19.609707894839 	
H	 13.272752621878 	 10.897141136825 	  9.479148344839 	
H	 12.704208491878 	 10.897143946825 	 19.609705064839 	
H	 27.953611021878 	  4.713588606825 	  9.507281104839 	
H	 27.385066891878 	  4.713591416825 	 19.637837824839 	
H	 27.953579921878 	 10.897150366825 	  9.507278274839 	
H	 27.385035791878 	 10.897153176825 	 19.637834994839 	
H	 13.526928835143 	  4.499713549183 	  4.279897303514 	
H	 12.958384705143 	  4.499716359183 	 14.410454023514 	
H	 13.526897735143 	 10.683275309183 	  4.279894473514 	
H	 12.958353605143 	 10.683278119183 	 14.410451193514 	
H	 28.207756135143 	  4.499722779183 	  4.308027233514 	
H	 27.639212005143 	  4.499725589183 	 14.438583953514 	
H	 28.207725035143 	 10.683284539183 	  4.308024403514 	
H	 27.639180905143 	 10.683287349183 	 14.438581123514 	
H	  0.573230789576 	  1.427557401378 	  0.993217697271 	
H	  0.004686659576 	  1.427560211378 	 11.123774417271 	
H	  0.573199689576 	  7.611119161378 	  0.993214867271 	
H	  0.004655559576 	  7.611121971378 	 11.123771587271 	
H	 15.254058089576 	  1.427566631378 	  1.021347627271 	
H	 14.685513959576 	  1.427569441378 	 11.151904347271 	
H	 15.254026989576 	  7.611128391378 	  1.021344797271 	
H	 14.685482859576 	  7.611131201378 	 11.151901517271 	
H	  1.109636023747 	  1.401166129393 	  7.681979168757 	
H	  0.541091893747 	  1.401168939393 	 17.812535888757 	
H	  1.109604923747 	  7.584727889393 	  7.681976338757 	
H	  0.541060793747 	  7.584730699393 	 17.812533058757 	
H	 15.790463323747 	  1.401175359393 	  7.710109098757 	
H	 15.221919193747 	  1.401178169393 	 17.840665818757 	
H	 15.790432223747 	  7.584737119393 	  7.710106268757 	
H	 15.221888093747 	  7.584739929393 	 17.840662988757 	
H	 12.482206538324 	  4.474282873290 	  7.991196966440 	
H	 11.913662408324 	  4.474285683290 	 18.121753686440 	
H	 12.482175438324 	 10.657844633290 	  7.991194136440 	
H	 11.913631308324 	 10.657847443290 	 18.121750856440 	
H	 27.163033838324 	  4.474292103290 	  8.019326896440 	
H	 26.594489708324 	  4.474294913290 	 18.149883616440 	
H	 27.163002738324 	 10.657853863290 	  8.019324066440 	
H	 26.594458608324 	 10.657856673290 	 18.149880786440 	
H	 12.736378635525 	  4.739971739943 	  2.790387339748 	
H	 12.167834505525 	  4.739974549943 	 12.920944059748 	
H	 12.736347535525 	 10.923533499943 	  2.790384509748 	
H	 12.167803405525 	 10.923536309943 	 12.920941229748 	
H	 27.417205935525 	  4.739980969943 	  2.818517269748 	
H	 26.848661805525 	  4.739983779943 	 12.949073989748 	
H	 27.417174835525 	 10.923542729943 	  2.818514439748 	
H	 26.848630705525 	 10.923545539943 	 12.949071159748 	
H	  1.363808100065 	  1.666853828950 	  2.481171752342 	
H	  0.795263970065 	  1.666856638950 	 12.611728472342 	
H	  1.363777000065 	  7.850415588950 	  2.481168922342 	
H	  0.795232870065 	  7.850418398950 	 12.611725642342 	
H	 16.044635400065 	  1.666863058950 	  2.509301682342 	
H	 15.476091270065 	  1.666865868950 	 12.639858402342 	
H	 16.044604300065 	  7.850424818950 	  2.509298852342 	
H	 15.476060170065 	  7.850427628950 	 12.639855572342 	
H	  1.703993858463 	  0.766406418671 	  6.529239270537 	
H	  1.135449728463 	  0.766409228671 	 16.659795990537 	
H	  1.703962758463 	  6.949968178671 	  6.529236440537 	
H	  1.135418628463 	  6.949970988671 	 16.659793160537 	
H	 16.384821158463 	  0.766415648671 	  6.557369200537 	
H	 15.816277028463 	  0.766418458671 	 16.687925920537 	
H	 16.384790058463 	  6.949977408671 	  6.557366370537 	
H	 15.816245928463 	  6.949980218671 	 16.687923090537 	
H	 11.888552814754 	  3.842143636944 	  9.141694990421 	
H	 11.320008684754 	  3.842146446944 	 19.272251710421 	
H	 11.888521714754 	 10.025705396944 	  9.141692160421 	
H	 11.319977584754 	 10.025708206944 	 19.272248880421 	
H	 26.569380114754 	  3.842152866944 	  9.169824920421 	
H	 26.000835984754 	  3.842155676944 	 19.300381640421 	
H	 26.569349014754 	 10.025714626944 	  9.169822090421 	
H	 26.000804884754 	 10.025717436944 	 19.300378810421 	
H	 12.142018712106 	  5.374731660607 	  3.943130938132 	
H	 11.573474582106 	  5.374734470607 	 14.073687658132 	
H	 12.141987612106 	 11.558293420607 	  3.943128108132 	
H	 11.573443482106 	 11.558296230607 	 14.073684828132 	
H	 26.822846012106 	  5.374740890607 	  3.971260868132 	
H	 26.254301882106 	  5.374743700607 	 14.101817588132 	
H	 26.822814912106 	 11.558302650607 	  3.971258038132 	
H	 26.254270782106 	 11.558305460607 	 14.101814758132 	
H	  1.957461621115 	  2.298993295699 	  1.330674254289 	
H	  1.388917491115 	  2.298996105699 	 11.461230974289 	
H	  1.957430521115 	  8.482555055699 	  1.330671424289 	
H	  1.388886391115 	  8.482557865699 	 11.461228144289 	
H	 16.638288921115 	  2.299002525699 	  1.358804184289 	
H	 16.069744791115 	  2.299005335699 	 11.489360904289 	
H	 16.638257821115 	  8.482564285699 	  1.358801354289 	
H	 16.069713691115 	  8.482567095699 	 11.489358074289 	
768 
Energy: -1.0166326748570000e+02 
S	  8.487468161613 	  1.480984049366 	  0.099141915602 	
S	  7.918924031613 	  1.480986859366 	 10.229698635602 	
S	  8.487437061613 	  7.664545809366 	  0.099139085602 	
S	  7.918892931613 	  7.664548619366 	 10.229695805602 	
S	 23.168295461613 	  1.480993279366 	  0.127271845602 	
S	 22.599751331613 	  1.480996089366 	 10.257828565602 	
S	 23.168264361613 	  7.664555039366 	  0.127269015602 	
S	 22.599720231613 	  7.664557849366 	 10.257825735602 	
S	  5.546446851136 	  4.545898747578 	  5.214187756104 	
S	  4.977902721136 	  4.545901557578 	 15.344744476104 	
S	  5.546415751136 	 10.729460507578 	  5.214184926104 	
S	  4.977871621136 	 10.729463317578 	 15.344741646104 	
S	 20.227274151136 	  4.545907977578 	  5.242317686104 	
S	 19.658730021136 	  4.545910787578 	 15.372874406104 	
S	 20.227243051136 	 10.729469737578 	  5.242314856104 	
S	 19.658698921136 	 10.729472547578 	 15.372871576104 	
S	  5.301674903071 	  4.651087582550 	 10.440232800894 	
S	  4.733130773071 	  4.651090392550 	 20.570789520894 	
S	  5.301643803071 	 10.834649342550 	 10.440229970894 	
S	  4.733099673071 	 10.834652152550 	 20.570786690894 	
S	 19.982502203071 	  4.651096812550 	 10.468362730894 	
S	 19.413958073071 	  4.651099622550 	 20.598919450894 	
S	 19.982471103071 	 10.834658572550 	 10.468359900894 	
S	 19.413926973071 	 10.834661382550 	 20.598916620894 	
S	  8.242697201034 	  1.586173152593 	  5.325186811195 	
S	  7.674153071034 	  1.586175962593 	 15.455743531195 	
S	  8.242666101034 	  7.769734912593 	  5.325183981195 	
S	  7.674121971034 	  7.769737722593 	 15.455740701195 	
S	 22.923524501034 	  1.586182382593 	  5.353316741195 	
S	 22.354980371034 	  1.586185192593 	 15.483873461195 	
S	 22.923493401034 	  7.769744142593 	  5.353313911195 	
S	 22.354949271034 	  7.769746952593 	 15.483870631195 	
C	  6.618625586665 	  2.551319856954 	 10.128478620202 	
C	  6.050081456665 	  2.551322666954 	 20.259035340202 	
C	  6.618594486665 	  8.734881616954 	 10.128475790202 	
C	  6.050050356665 	  8.734884426954 	 20.259032510202 	
C	 21.299452886665 	  2.551329086954 	 10.156608550202 	
C	 20.730908756665 	  2.551331896954 	 20.287165270202 	
C	 21.299421786665 	  8.734890846954 	 10.156605720202 	
C	 20.730877656665 	  8.734893656954 	 20.287162440202 	
C	  6.925780755991 	  5.577755173243 	  5.664485266978 	
C	  6.357236625991 	  5.577757983243 	 15.795041986978 	
C	  6.925749655991 	 11.761316933243 	  5.664482436978 	
C	  6.357205525991 	 11.761319743243 	 15.795039156978 	
C	 21.606608055991 	  5.577764403243 	  5.692615196978 	
C	 21.038063925991 	  5.577767213243 	 15.823171916978 	
C	 21.606576955991 	 11.761326163243 	  5.692612366978 	
C	 21.038032825991 	 11.761328973243 	 15.823169086978 	
C	  7.170517499909 	  3.580751749800 	  0.410895996689 	
C	  6.601973369909 	  3.580754559800 	 10.541452716689 	
C	  7.170486399909 	  9.764313509800 	  0.410893166689 	
C	  6.601942269909 	  9.764316319800 	 10.541449886689 	
C	 21.851344799909 	  3.580760979800 	  0.439025926689 	
C	 21.282800669909 	  3.580763789800 	 10.569582646689 	
C	 21.851313699909 	  9.764322739800 	  0.439023096689 	
C	 21.282769569909 	  9.764325549800 	 10.569579816689 	
C	  6.863363145254 	  0.554316801775 	  4.874889192637 	
C	  6.294819015254 	  0.554319611775 	 15.005445912637 	
C	  6.863332045254 	  6.737878561775 	  4.874886362637 	
C	  6.294787915254 	  6.737881371775 	 15.005443082637 	
C	 21.544190445254 	  0.554326031775 	  4.903019122637 	
C	 20.975646315254 	  0.554328841775 	 15.033575842637 	
C	 21.544159345254 	  6.737887791775 	  4.903016292637 	
C	 20.975615215254 	  6.737890601775 	 15.033573012637 	
C	  5.585826134868 	  2.378583390351 	  9.165332393309 	
C	  5.017282004868 	  2.378586200351 	 19.295889113309 	
C	  5.585795034868 	  8.562145150351 	  9.165329563309 	
C	  5.017250904868 	  8.562147960351 	 19.295886283309 	
C	 20.266653434868 	  2.378592620351 	  9.193462323309 	
C	 19.698109304868 	  2.378595430351 	 19.324019043309 	
C	 20.266622334868 	  8.562154380351 	  9.193459493309 	
C	 19.698078204868 	  8.562157190351 	 19.324016213309 	
C	  7.959716009623 	  5.440850126702 	  6.599396741809 	
C	  7.391171879623 	  5.440852936702 	 16.729953461809 	
C	  7.959684909623 	 11.624411886702 	  6.599393911809 	
C	  7.391140779623 	 11.624414696702 	 16.729950631809 	
C	 22.640543309623 	  5.440859356702 	  6.627526671809 	
C	 22.071999179623 	  5.440862166702 	 16.758083391809 	
C	 22.640512209623 	 11.624421116702 	  6.627523841809 	
C	 22.071968079623 	 11.624423926702 	 16.758080561809 	
C	  8.203316846429 	  3.753488274710 	  1.374042138736 	
C	  7.634772716429 	  3.753491084710 	 11.504598858736 	
C	  8.203285746429 	  9.937050034710 	  1.374039308736 	
C	  7.634741616429 	  9.937052844710 	 11.504596028736 	
C	 22.884144146429 	  3.753497504710 	  1.402172068736 	
C	 22.315600016429 	  3.753500314710 	 11.532728788736 	
C	 22.884113046429 	  9.937059264710 	  1.402169238736 	
C	 22.315568916429 	  9.937062074710 	 11.532725958736 	
C	  5.829427730532 	  0.691221867199 	  3.939977833594 	
C	  5.260883600532 	  0.691224677199 	 14.070534553594 	
C	  5.829396630532 	  6.874783627199 	  3.939975003594 	
C	  5.260852500532 	  6.874786437199 	 14.070531723594 	
C	 20.510255030532 	  0.691231097199 	  3.968107763594 	
C	 19.941710900532 	  0.691233907199 	 14.098664483594 	
C	 20.510223930532 	  6.874792857199 	  3.968104933594 	
C	 19.941679800532 	  6.874795667199 	 14.098661653594 	
C	  4.728862377824 	  3.455793566033 	  9.191033946086 	
C	  4.160318247824 	  3.455796376033 	 19.321590666086 	
C	  4.728831277824 	  9.639355326033 	  9.191031116086 	
C	  4.160287147824 	  9.639358136033 	 19.321587836086 	
C	 19.409689677824 	  3.455802796033 	  9.219163876086 	
C	 18.841145547824 	  3.455805606033 	 19.349720596086 	
C	 19.409658577824 	  9.639364556033 	  9.219161046086 	
C	 18.841114447824 	  9.639367366033 	 19.349717766086 	
C	  8.810230070280 	  0.392157351422 	  6.575564502682 	
C	  8.241685940280 	  0.392160161422 	 16.706121222682 	
C	  8.810198970280 	  6.575719111422 	  6.575561672682 	
C	  8.241654840280 	  6.575721921422 	 16.706118392682 	
C	 23.491057370280 	  0.392166581422 	  6.603694432682 	
C	 22.922513240280 	  0.392169391422 	 16.734251152682 	
C	 23.491026270280 	  6.575728341422 	  6.603691602682 	
C	 22.922482140280 	  6.575731151422 	 16.734248322682 	
C	  9.060280593325 	  2.676278096411 	  1.348340635946 	
C	  8.491736463325 	  2.676280906411 	 11.478897355946 	
C	  9.060249493325 	  8.859839856411 	  1.348337805946 	
C	  8.491705363325 	  8.859842666411 	 11.478894525946 	
C	 23.741107893325 	  2.676287326411 	  1.376470565946 	
C	 23.172563763325 	  2.676290136411 	 11.507027285946 	
C	 23.741076793325 	  8.859849086411 	  1.376467735946 	
C	 23.172532663325 	  8.859851896411 	 11.507024455946 	
C	  4.978913734869 	  5.739914611386 	  3.963810218431 	
C	  4.410369604869 	  5.739917421386 	 14.094366938431 	
C	  4.978882634869 	 11.923476371386 	  3.963807388431 	
C	  4.410338504869 	 11.923479181386 	 14.094364108431 	
C	 19.659741034869 	  5.739923841386 	  3.991940148431 	
C	 19.091196904869 	  5.739926651386 	 14.122496868431 	
C	 19.659709934869 	 11.923485601386 	  3.991937318431 	
C	 19.091165804869 	 11.923488411386 	 14.122494038431 	
C	  3.674907638285 	  3.552954429223 	  8.424812007279 	
C	  3.106363508285 	  3.552957239223 	 18.555368727279 	
C	  3.674876538285 	  9.736516189223 	  8.424809177279 	
C	  3.106332408285 	  9.736518999223 	 18.555365897279 	
C	 18.355734938285 	  3.552963659223 	  8.452941937279 	
C	 17.787190808285 	  3.552966469223 	 18.583498657279 	
C	 18.355703838285 	  9.736525419223 	  8.452939107279 	
C	 17.787159708285 	  9.736528229223 	 18.583495827279 	
C	  9.864464134631 	  0.495231719138 	  7.337514780884 	
C	  9.295920004631 	  0.495234529138 	 17.468071500884 	
C	  9.864433034631 	  6.678793479138 	  7.337511950884 	
C	  9.295888904631 	  6.678796289138 	 17.468068670884 	
C	 24.545291434631 	  0.495240949138 	  7.365644710884 	
C	 23.976747304631 	  0.495243759138 	 17.496201430884 	
C	 24.545260334631 	  6.678802709138 	  7.365641880884 	
C	 23.976716204631 	  6.678805519138 	 17.496198600884 	
C	 10.114235358915 	  2.579117369553 	  2.114562771778 	
C	  9.545691228915 	  2.579120179553 	 12.245119491778 	
C	 10.114204258915 	  8.762679129553 	  2.114559941778 	
C	  9.545660128915 	  8.762681939553 	 12.245116661778 	
C	 24.795062658915 	  2.579126599553 	  2.142692701778 	
C	 24.226518528915 	  2.579129409553 	 12.273249421778 	
C	 24.795031558915 	  8.762688359553 	  2.142689871778 	
C	 24.226487428915 	  8.762691169553 	 12.273246591778 	
C	  3.924679368439 	  5.636840288010 	  3.201860243786 	
C	  3.356135238439 	  5.636843098010 	 13.332416963786 	
C	  3.924648268439 	 11.820402048010 	  3.201857413786 	
C	  3.356104138439 	 11.820404858010 	 13.332414133786 	
C	 18.605506668439 	  5.636849518010 	  3.229990173786 	
C	 18.036962538439 	  5.636852328010 	 13.360546893786 	
C	 18.605475568439 	 11.820411278010 	  3.229987343786 	
C	 18.036931438439 	 11.820414088010 	 13.360544063786 	
H	  3.007758047469 	  4.491727296884 	  8.501447626572 	
H	  2.439213917469 	  4.491730106884 	 18.632004346572 	
H	  3.007726947469 	 10.675289056884 	  8.501444796572 	
H	  2.439182817469 	 10.675291866884 	 18.632001516572 	
H	 17.688585347469 	  4.491736526884 	  8.529577556572 	
H	 17.120041217469 	  4.491739336884 	 18.660134276572 	
H	 17.688554247469 	 10.675298286884 	  8.529574726572 	
H	 17.120010117469 	 10.675301096884 	 18.660131446572 	
H	 10.535524130933 	  1.424464455140 	  7.265408642616 	
H	  9.966980000933 	  1.424467265140 	 17.395965362616 	
H	 10.535493030933 	  7.608026215140 	  7.265405812616 	
H	  9.966948900933 	  7.608029025140 	 17.395962532616 	
H	 25.216351430933 	  1.424473685140 	  7.293538572616 	
H	 24.647807300933 	  1.424476495140 	 17.424095292616 	
H	 25.216320330933 	  7.608035445140 	  7.293535742616 	
H	 24.647776200933 	  7.608038255140 	 17.424092462616 	
H	 10.781384873015 	  1.640344415987 	  2.037927249067 	
H	 10.212840743015 	  1.640347225987 	 12.168483969067 	
H	 10.781353773015 	  7.823906175987 	  2.037924419067 	
H	 10.212809643015 	  7.823908985987 	 12.168481139067 	
H	 25.462212173015 	  1.640353645987 	  2.066057179067 	
H	 24.893668043015 	  1.640356455987 	 12.196613899067 	
H	 25.462181073015 	  7.823915405987 	  2.066054349067 	
H	 24.893636943015 	  7.823918215987 	 12.196611069067 	
H	  3.253619499430 	  4.707607473737 	  3.273966520270 	
H	  2.685075369430 	  4.707610283737 	 13.404523240270 	
H	  3.253588399430 	 10.891169233737 	  3.273963690270 	
H	  2.685044269430 	 10.891172043737 	 13.404520410270 	
H	 17.934446799430 	  4.707616703737 	  3.302096450270 	
H	 17.365902669430 	  4.707619513737 	 13.432653170270 	
H	 17.934415699430 	 10.891178463737 	  3.302093620270 	
H	 17.365871569430 	 10.891181273737 	 13.432650340270 	
C	  3.345941557820 	  2.605933259770 	  7.553858535253 	
C	  2.777397427820 	  2.605936069770 	 17.684415255253 	
C	  3.345910457820 	  8.789495019770 	  7.553855705253 	
C	  2.777366327820 	  8.789497829770 	 17.684412425253 	
C	 18.026768857820 	  2.605942489770 	  7.581988465253 	
C	 17.458224727820 	  2.605945299770 	 17.712545185253 	
C	 18.026737757820 	  8.789504249770 	  7.581985635253 	
C	 17.458193627820 	  8.789507059770 	 17.712542355253 	
C	 10.201557239246 	  5.662296994557 	  8.216153054250 	
C	  9.633013109246 	  5.662299804557 	 18.346709774250 	
C	 10.201526139246 	 11.845858754557 	  8.216150224250 	
C	  9.632982009246 	 11.845861564557 	 18.346706944250 	
C	 24.882384539246 	  5.662306224557 	  8.244282984250 	
C	 24.313840409246 	  5.662309034557 	 18.374839704250 	
C	 24.882353439246 	 11.845867984557 	  8.244280154250 	
C	 24.313809309246 	 11.845870794557 	 18.374836874250 	
C	 10.443201223238 	  3.526138583581 	  2.985515989460 	
C	  9.874657093238 	  3.526141393581 	 13.116072709460 	
C	 10.443170123238 	  9.709700343581 	  2.985513159460 	
C	  9.874625993238 	  9.709703153581 	 13.116069879460 	
C	 25.124028523238 	  3.526147813581 	  3.013645919460 	
C	 24.555484393238 	  3.526150623581 	 13.144202639460 	
C	 25.123997423238 	  9.709709573581 	  3.013643089460 	
C	 24.555453293238 	  9.709712383581 	 13.144199809460 	
C	  3.587586044940 	  0.469775066012 	  2.323222106823 	
C	  3.019041914940 	  0.469777876012 	 12.453778826823 	
C	  3.587554944940 	  6.653336826012 	  2.323219276823 	
C	  3.019010814940 	  6.653339636012 	 12.453775996823 	
C	 18.268413344940 	  0.469784296012 	  2.351352036823 	
C	 17.699869214940 	  0.469787106012 	 12.481908756823 	
C	 18.268382244940 	  6.653346056012 	  2.351349206823 	
C	 17.699838114940 	  6.653348866012 	 12.481905926823 	
C	  4.204783388345 	  1.544996653611 	  7.499895083002 	
C	  3.636239258345 	  1.544999463611 	 17.630451803002 	
C	  4.204752288345 	  7.728558413611 	  7.499892253002 	
C	  3.636208158345 	  7.728561223611 	 17.630448973002 	
C	 18.885610688345 	  1.545005883611 	  7.528025013002 	
C	 18.317066558345 	  1.545008693611 	 17.658581733002 	
C	 18.885579588345 	  7.728567643611 	  7.528022183002 	
C	 18.317035458345 	  7.728570453611 	 17.658578903002 	
C	  9.338853025486 	  4.612744762838 	  8.264703613299 	
C	  8.770308895486 	  4.612747572838 	 18.395260333299 	
C	  9.338821925486 	 10.796306522838 	  8.264700783299 	
C	  8.770277795486 	 10.796309332838 	 18.395257503299 	
C	 24.019680325486 	  4.612753992838 	  8.292833543299 	
C	 23.451136195486 	  4.612756802838 	 18.423390263299 	
C	 24.019649225486 	 10.796315752838 	  8.292830713299 	
C	 23.451105095486 	 10.796318562838 	 18.423387433299 	
C	  9.584359488249 	  4.587075210473 	  3.039479426337 	
C	  9.015815358249 	  4.587078020473 	 13.170036146337 	
C	  9.584328388249 	 10.770636970473 	  3.039476596337 	
C	  9.015784258249 	 10.770639780473 	 13.170033316337 	
C	 24.265186788249 	  4.587084440473 	  3.067609356337 	
C	 23.696642658249 	  4.587087250473 	 13.198166076337 	
C	 24.265155688249 	 10.770646200473 	  3.067606526337 	
C	 23.696611558249 	 10.770649010473 	 13.198163246337 	
C	  4.450290157247 	  1.519327213603 	  2.274671316559 	
C	  3.881746027247 	  1.519330023603 	 12.405228036559 	
C	  4.450259057247 	  7.702888973603 	  2.274668486559 	
C	  3.881714927247 	  7.702891783603 	 12.405225206559 	
C	 19.131117457247 	  1.519336443603 	  2.302801246559 	
C	 18.562573327247 	  1.519339253603 	 12.433357966559 	
C	 19.131086357247 	  7.702898203603 	  2.302798416559 	
C	 18.562542227247 	  7.702901013603 	 12.433355136559 	
H	  3.973080515471 	  0.715005025599 	  6.736150073138 	
H	  3.404536385471 	  0.715007835599 	 16.866706793138 	
H	  3.973049415471 	  6.898566785599 	  6.736147243138 	
H	  3.404505285471 	  6.898569595599 	 16.866703963138 	
H	 18.653907815471 	  0.715014255599 	  6.764280003138 	
H	 18.085363685471 	  0.715017065599 	 16.894836723138 	
H	 18.653876715471 	  6.898576015599 	  6.764277173138 	
H	 18.085332585471 	  6.898578825599 	 16.894833893138 	
H	  9.569631060538 	  3.782141861130 	  9.029402802762 	
H	  9.001086930538 	  3.782144671130 	 19.159959522762 	
H	  9.569599960538 	  9.965703621130 	  9.029399972762 	
H	  9.001055830538 	  9.965706431130 	 19.159956692762 	
H	 24.250458360538 	  3.782151091130 	  9.057532732762 	
H	 23.681914230538 	  3.782153901130 	 19.188089452762 	
H	 24.250427260538 	  9.965712851130 	  9.057529902762 	
H	 23.681883130538 	  9.965715661130 	 19.188086622762 	
H	  9.816062452110 	  5.417066936096 	  3.803224311522 	
H	  9.247518322110 	  5.417069746096 	 13.933781031522 	
H	  9.816031352110 	 11.600628696096 	  3.803221481522 	
H	  9.247487222110 	 11.600631506096 	 13.933778201522 	
H	 24.496889752110 	  5.417076166096 	  3.831354241522 	
H	 23.928345622110 	  5.417078976096 	 13.961910961522 	
H	 24.496858652110 	 11.600637926096 	  3.831351411522 	
H	 23.928314522110 	 11.600640736096 	 13.961908131522 	
H	  4.219511896957 	  2.349930217789 	  1.509972296094 	
H	  3.650967766957 	  2.349933027789 	 11.640529016094 	
H	  4.219480796957 	  8.533491977789 	  1.509969466094 	
H	  3.650936666957 	  8.533494787789 	 11.640526186094 	
H	 18.900339196957 	  2.349939447789 	  1.538102226094 	
H	 18.331795066957 	  2.349942257789 	 11.668658946094 	
H	 18.900308096957 	  8.533501207789 	  1.538099396094 	
H	 18.331763966957 	  8.533504017789 	 11.668656116094 	
C	  5.236943380814 	  1.431241617511 	  8.234111121740 	
C	  4.668399250814 	  1.431244427511 	 18.364667841740 	
C	  5.236912280814 	  7.614803377511 	  8.234108291740 	
C	  4.668368150814 	  7.614806187511 	 18.364665011740 	
C	 19.917770680814 	  1.431250847511 	  8.262241051740 	
C	 19.349226550814 	  1.431253657511 	 18.392797771740 	
C	 19.917739580814 	  7.614812607511 	  8.262238221740 	
C	 19.349195450814 	  7.614815417511 	 18.392794941740 	
C	  8.306110319014 	  4.498638363655 	  7.530147398490 	
C	  7.737566189014 	  4.498641173655 	 17.660704118490 	
C	  8.306079219014 	 10.682200123655 	  7.530144568490 	
C	  7.737535089014 	 10.682202933655 	 17.660701288490 	
C	 22.986937619014 	  4.498647593655 	  7.558277328490 	
C	 22.418393489014 	  4.498650403655 	 17.688834048490 	
C	 22.986906519014 	 10.682209353655 	  7.558274498490 	
C	 22.418362389014 	 10.682212163655 	 17.688831218490 	
C	  8.552199549110 	  4.700830161936 	  2.305263309064 	
C	  7.983655419110 	  4.700832971936 	 12.435820029064 	
C	  8.552168449110 	 10.884391921936 	  2.305260479064 	
C	  7.983624319110 	 10.884394731936 	 12.435817199064 	
C	 23.233026849110 	  4.700839391936 	  2.333393239064 	
C	 22.664482719110 	  4.700842201936 	 12.463949959064 	
C	 23.232995749110 	 10.884401151936 	  2.333390409064 	
C	 22.664451619110 	 10.884403961936 	 12.463947129064 	
C	  5.483033146125 	  1.633433644584 	  3.009227315814 	
C	  4.914489016125 	  1.633436454584 	 13.139784035814 	
C	  5.483002046125 	  7.816995404584 	  3.009224485814 	
C	  4.914457916125 	  7.816998214584 	 13.139781205814 	
C	 20.163860446125 	  1.633442874584 	  3.037357245814 	
C	 19.595316316125 	  1.633445684584 	 13.167913965814 	
C	 20.163829346125 	  7.817004634584 	  3.037354415814 	
C	 19.595285216125 	  7.817007444584 	 13.167911135814 	
H	  5.926800936785 	  0.512309389943 	  8.143947908819 	
H	  5.358256806785 	  0.512312199943 	 18.274504628819 	
H	  5.926769836785 	  6.695871149943 	  8.143945078819 	
H	  5.358225706785 	  6.695873959943 	 18.274501798819 	
H	 20.607628236785 	  0.512318619943 	  8.172077838819 	
H	 20.039084106785 	  0.512321429943 	 18.302634558819 	
H	 20.607597136785 	  6.695880379943 	  8.172075008819 	
H	 20.039053006785 	  6.695883189943 	 18.302631728819 	
H	  7.615965071577 	  3.578698132369 	  7.621249245612 	
H	  7.047420941577 	  3.578700942369 	 17.751805965612 	
H	  7.615933971577 	  9.762259892369 	  7.621246415612 	
H	  7.047389841577 	  9.762262702369 	 17.751803135612 	
H	 22.296792371577 	  3.578707362369 	  7.649379175612 	
H	 21.728248241577 	  3.578710172369 	 17.779935895612 	
H	 22.296761271577 	  9.762269122369 	  7.649376345612 	
H	 21.728217141577 	  9.762271932369 	 17.779933065612 	
H	  7.862341956186 	  5.619762367822 	  2.395426378947 	
H	  7.293797826186 	  5.619765177822 	 12.525983098947 	
H	  7.862310856186 	 11.803324127822 	  2.395423548947 	
H	  7.293766726186 	 11.803326937822 	 12.525980268947 	
H	 22.543169256186 	  5.619771597822 	  2.423556308947 	
H	 21.974625126186 	  5.619774407822 	 12.554113028947 	
H	 22.543138156186 	 11.803333357822 	  2.423553478947 	
H	 21.974594026186 	 11.803336167822 	 12.554110198947 	
H	  6.173178359846 	  2.553373873878 	  2.918125331070 	
H	  5.604634229846 	  2.553376683878 	 13.048682051070 	
H	  6.173147259846 	  8.736935633878 	  2.918122501070 	
H	  5.604603129846 	  8.736938443878 	 13.048679221070 	
H	 20.854005659846 	  2.553383103878 	  2.946255261070 	
H	 20.285461529846 	  2.553385913878 	 13.076811981070 	
H	 20.853974559846 	  8.736944863878 	  2.946252431070 	
H	 20.285430429846 	  8.736947673878 	 13.076809151070 	
C	  2.018227691341 	  2.705426227692 	  6.644803961375 	
C	  1.449683561341 	  2.705429037692 	 16.775360681375 	
C	  2.018196591341 	  8.888987987692 	  6.644801131375 	
C	  1.449652461341 	  8.888990797692 	 16.775357851375 	
C	 16.699054991341 	  2.705435457692 	  6.672933891375 	
C	 16.130510861341 	  2.705438267692 	 16.803490611375 	
C	 16.699023891341 	  8.888997217692 	  6.672931061375 	
C	 16.130479761341 	  8.889000027692 	 16.803487781375 	
C	 11.441393076321 	  5.711313353532 	  9.079981779206 	
C	 10.872848946321 	  5.711316163532 	 19.210538499206 	
C	 11.441361976321 	 11.894875113532 	  9.079978949206 	
C	 10.872817846321 	 11.894877923532 	 19.210535669206 	
C	 26.122220376321 	  5.711322583532 	  9.108111709206 	
C	 25.553676246321 	  5.711325393532 	 19.238668429206 	
C	 26.122189276321 	 11.894884343532 	  9.108108879206 	
C	 25.553645146321 	 11.894887153532 	 19.238665599206 	
C	 11.770916304552 	  3.426646126911 	  3.894572183595 	
C	 11.202372174552 	  3.426648936911 	 14.025128903595 	
C	 11.770885204552 	  9.610207886911 	  3.894569353595 	
C	 11.202341074552 	  9.610210696911 	 14.025126073595 	
C	 26.451743604552 	  3.426655356911 	  3.922702113595 	
C	 25.883199474552 	  3.426658166911 	 14.053258833595 	
C	 26.451712504552 	  9.610217116911 	  3.922699283595 	
C	 25.883168374552 	  9.610219926911 	 14.053256003595 	
C	  2.347749870112 	  0.420758552774 	  1.459393712005 	
C	  1.779205740112 	  0.420761362774 	 11.589950432005 	
C	  2.347718770112 	  6.604320312774 	  1.459390882005 	
C	  1.779174640112 	  6.604323122774 	 11.589947602005 	
C	 17.028577170112 	  0.420767782774 	  1.487523642005 	
C	 16.460033040112 	  0.420770592774 	 11.618080362005 	
C	 17.028546070112 	  6.604329542774 	  1.487520812005 	
C	 16.460001940112 	  6.604332352774 	 11.618077532005 	
C	  2.129330951989 	  2.683852406933 	  5.547153605596 	
C	  1.560786821989 	  2.683855216933 	 15.677710325596 	
C	  2.129299851989 	  8.867414166933 	  5.547150775596 	
C	  1.560755721989 	  8.867416976933 	 15.677707495596 	
C	 16.810158251989 	  2.683861636933 	  5.575283535596 	
C	 16.241614121989 	  2.683864446933 	 15.705840255596 	
C	 16.810127151989 	  8.867423396933 	  5.575280705596 	
C	 16.241583021989 	  8.867426206933 	 15.705837425596 	
C	 11.427551784725 	 -0.402213265478 	 10.122858069229 	
C	 10.859007654725 	 -0.402210455478 	 20.253414789229 	
C	 11.427520684725 	  5.781348494522 	 10.122855239229 	
C	 10.858976554725 	  5.781351304522 	 20.253411959229 	
C	 26.108379084725 	 -0.402204035478 	 10.150987999229 	
C	 25.539834954725 	 -0.402201225478 	 20.281544719229 	
C	 26.108347984725 	  5.781357724522 	 10.150985169229 	
C	 25.539803854725 	  5.781360534522 	 20.281541889229 	
C	 11.659810216694 	  3.448219452851 	  4.992222618760 	
C	 11.091266086694 	  3.448222262851 	 15.122779338760 	
C	 11.659779116694 	  9.631781212851 	  4.992219788760 	
C	 11.091234986694 	  9.631784022851 	 15.122776508760 	
C	 26.340637516694 	  3.448228682851 	  5.020352548760 	
C	 25.772093386694 	  3.448231492851 	 15.150909268760 	
C	 26.340606416694 	  9.631790442851 	  5.020349718760 	
C	 25.772062286694 	  9.631793252851 	 15.150906438760 	
C	  2.361591102879 	  6.534284976807 	  0.416517268265 	
C	  1.793046972879 	  6.534287786807 	 10.547073988265 	
C	  2.361560002879 	 12.717846736807 	  0.416514438265 	
C	  1.793015872879 	 12.717849546807 	 10.547071158265 	
C	 17.042418402879 	  6.534294206807 	  0.444647198265 	
C	 16.473874272879 	  6.534297016807 	 10.575203918265 	
C	 17.042387302879 	 12.717855966807 	  0.444644368265 	
C	 16.473843172879 	 12.717858776807 	 10.575201088265 	
H	  2.961819602274 	  3.245499731744 	  5.076977218136 	
H	  2.393275472274 	  3.245502541744 	 15.207533938136 	
H	  2.961788502274 	  9.429061491744 	  5.076974388136 	
H	  2.393244372274 	  9.429064301744 	 15.207531108136 	
H	 17.642646902274 	  3.245508961744 	  5.105107148136 	
H	 17.074102772274 	  3.245511771744 	 15.235663868136 	
H	 17.642615802274 	  9.429070721744 	  5.105104318136 	
H	 17.074071672274 	  9.429073531744 	 15.235661038136 	
H	 10.619106114049 	  0.205712058359 	 10.663930577033 	
H	 10.050561984049 	  0.205714868359 	 20.794487297033 	
H	 10.619075014049 	  6.389273818359 	 10.663927747033 	
H	 10.050530884049 	  6.389276628359 	 20.794484467033 	
H	 25.299933414049 	  0.205721288359 	 10.692060507033 	
H	 24.731389284049 	  0.205724098359 	 20.822617227033 	
H	 25.299902314049 	  6.389283048359 	 10.692057677033 	
H	 24.731358184049 	  6.389285858359 	 20.822614397033 	
H	 10.827322576602 	  2.886568108872 	  5.462396596453 	
H	 10.258778446602 	  2.886570918872 	 15.592953316453 	
H	 10.827291476602 	  9.070129868872 	  5.462393766453 	
H	 10.258747346602 	  9.070132678872 	 15.592950486453 	
H	 25.508149876602 	  2.886577338872 	  5.490526526453 	
H	 24.939605746602 	  2.886580148872 	 15.621083246453 	
H	 25.508118776602 	  9.070139098872 	  5.490523696453 	
H	 24.939574646602 	  9.070141908872 	 15.621080416453 	
H	  3.170036592105 	  5.926360423925 	 -0.124555607677 	
H	  2.601492462105 	  5.926363233925 	 10.006001112323 	
H	  3.170005492105 	 12.109922183925 	 -0.124558437677 	
H	  2.601461362105 	 12.109924993925 	 10.005998282323 	
H	 17.850863892105 	  5.926369653925 	 -0.096425677677 	
H	 17.282319762105 	  5.926372463925 	 10.034131042323 	
H	 17.850832792105 	 12.109931413925 	 -0.096428507677 	
H	 17.282288662105 	 12.109934223925 	 10.034128212323 	
H	  1.415604160478 	  2.784989185501 	  4.693144078511 	
H	  0.847060030478 	  2.784991995501 	 14.823700798511 	
H	  1.415573060478 	  8.968550945501 	  4.693141248511 	
H	  0.847028930478 	  8.968553755501 	 14.823697968511 	
H	 16.096431460478 	  2.784998415501 	  4.721274008511 	
H	 15.527887330478 	  2.785001225501 	 14.851830728511 	
H	 16.096400360478 	  8.968560175501 	  4.721271178511 	
H	 15.527856230478 	  8.968562985501 	 14.851827898511 	
H	 12.659414007859 	 -0.270730970308 	  0.682260755109 	
H	 12.090869877859 	 -0.270728160308 	 10.812817475109 	
H	 12.659382907859 	  5.912830789692 	  0.682257925109 	
H	 12.090838777859 	  5.912833599692 	 10.812814645109 	
H	 27.340241307859 	 -0.270721740308 	  0.710390685109 	
H	 26.771697177859 	 -0.270718930308 	 10.840947405109 	
H	 27.340210207859 	  5.912840019692 	  0.710387855109 	
H	 26.771666077859 	  5.912842829692 	 10.840944575109 	
H	 12.373538114235 	  3.347082791841 	  5.846231433934 	
H	 11.804993984235 	  3.347085601841 	 15.976788153934 	
H	 12.373507014235 	  9.530644551841 	  5.846228603934 	
H	 11.804962884235 	  9.530647361841 	 15.976785323934 	
H	 27.054365414235 	  3.347092021841 	  5.874361363934 	
H	 26.485821284235 	  3.347094831841 	 16.004918083934 	
H	 27.054334314235 	  9.530653781841 	  5.874358533934 	
H	 26.485790184235 	  9.530656591841 	 16.004915253934 	
H	  1.129728499908 	  6.402803234581 	  9.857114838057 	
H	  0.561184369908 	  6.402806044581 	 19.987671558057 	
H	  1.129697399908 	 12.586364994581 	  9.857112008057 	
H	  0.561153269908 	 12.586367804581 	 19.987668728057 	
H	 15.810555799908 	  6.402812464581 	  9.885244768057 	
H	 15.242011669908 	  6.402815274581 	 20.015801488057 	
H	 15.810524699908 	 12.586374224581 	  9.885241938057 	
H	 15.241980569908 	 12.586377034581 	 20.015798658057 	
H	  2.740127766917 	  1.894489735485 	  5.063492987237 	
H	  2.171583636917 	  1.894492545485 	 15.194049707237 	
H	  2.740096666917 	  8.078051495485 	  5.063490157237 	
H	  2.171552536917 	  8.078054305485 	 15.194046877237 	
H	 17.420955066917 	  1.894498965485 	  5.091622917237 	
H	 16.852410936917 	  1.894501775485 	 15.222179637237 	
H	 17.420923966917 	  8.078060725485 	  5.091620087237 	
H	 16.852379836917 	  8.078063535485 	 15.222176807237 	
H	 11.207986858265 	  4.918005785874 	  0.352041976787 	
H	 10.639442728265 	  4.918008595874 	 10.482598696787 	
H	 11.207955758265 	 11.101567545874 	  0.352039146787 	
H	 10.639411628265 	 11.101570355874 	 10.482595866787 	
H	 25.888814158265 	  4.918015015874 	  0.380171906787 	
H	 25.320270028265 	  4.918017825874 	 10.510728626787 	
H	 25.888783058265 	 11.101576775874 	  0.380169076787 	
H	 25.320238928265 	 11.101579585874 	 10.510725796787 	
H	 11.049013656358 	  4.237583771897 	  5.475881547651 	
H	 10.480469526358 	  4.237586581897 	 15.606438267651 	
H	 11.048982556358 	 10.421145531897 	  5.475878717651 	
H	 10.480438426358 	 10.421148341897 	 15.606435437651 	
H	 25.729840956358 	  4.237593001897 	  5.504011477651 	
H	 25.161296826358 	  4.237595811897 	 15.634568197651 	
H	 25.729809856358 	 10.421154761897 	  5.504008647651 	
H	 25.161265726358 	 10.421157571897 	 15.634565367651 	
H	  2.581155723001 	  1.214066709471 	 10.187333845831 	
H	  2.012611593001 	  1.214069519471 	 20.317890565831 	
H	  2.581124623001 	  7.397628469471 	 10.187331015831 	
H	  2.012580493001 	  7.397631279471 	 20.317887735831 	
H	 17.261983023001 	  1.214075939471 	 10.215463775831 	
H	 16.693438893001 	  1.214078749471 	 20.346020495831 	
H	 17.261951923001 	  7.397637699471 	 10.215460945831 	
H	 16.693407793001 	  7.397640509471 	 20.346017665831 	
C	  1.408410538657 	  3.624502098999 	  6.758246367408 	
C	  0.839866408657 	  3.624504908999 	 16.888803087408 	
C	  1.408379438657 	  9.808063858999 	  6.758243537408 	
C	  0.839835308657 	  9.808066668999 	 16.888800257408 	
C	 16.089237838657 	  3.624511328999 	  6.786376297408 	
C	 15.520693708657 	  3.624514138999 	 16.916933017408 	
C	 16.089206738657 	  9.808073088999 	  6.786373467408 	
C	 15.520662608657 	  9.808075898999 	 16.916930187408 	
C	 12.235514169045 	  0.651690311492 	  8.981764365006 	
C	 11.666970039045 	  0.651693121492 	 19.112321085006 	
C	 12.235483069045 	  6.835252071492 	  8.981761535006 	
C	 11.666938939045 	  6.835254881492 	 19.112318255006 	
C	 26.916341469045 	  0.651699541492 	  9.009894295006 	
C	 26.347797339045 	  0.651702351492 	 19.140451015006 	
C	 26.916310369045 	  6.835261301492 	  9.009891465006 	
C	 26.347766239045 	  6.835264111492 	 19.140448185006 	
C	 12.380732676958 	  2.507569624738 	  3.781127456747 	
C	 11.812188546958 	  2.507572434738 	 13.911684176747 	
C	 12.380701576958 	  8.691131384738 	  3.781124626747 	
C	 11.812157446958 	  8.691134194738 	 13.911681346747 	
C	 27.061559976958 	  2.507578854738 	  3.809257386747 	
C	 26.493015846958 	  2.507581664738 	 13.939814106747 	
C	 27.061528876958 	  8.691140614738 	  3.809254556747 	
C	 26.492984746958 	  8.691143424738 	 13.939811276747 	
C	  1.553628828324 	  5.480381536152 	  1.557611009743 	
C	  0.985084698324 	  5.480384346152 	 11.688167729743 	
C	  1.553597728324 	 11.663943296152 	  1.557608179743 	
C	  0.985053598324 	 11.663946106152 	 11.688164899743 	
C	 16.234456128324 	  5.480390766152 	  1.585740939743 	
C	 15.665911998324 	  5.480393576152 	 11.716297659743 	
C	 16.234425028324 	 11.663952526152 	  1.585738109743 	
C	 15.665880898324 	 11.663955336152 	 11.716294829743 	
H	  1.921606262407 	  4.616825238779 	  6.720771862905 	
H	  1.353062132407 	  4.616828048779 	 16.851328582905 	
H	  1.921575162407 	 10.800386998779 	  6.720769032905 	
H	  1.353031032407 	 10.800389808779 	 16.851325752905 	
H	 16.602433562407 	  4.616834468779 	  6.748901792905 	
H	 16.033889432407 	  4.616837278779 	 16.879458512905 	
H	 16.602402462407 	 10.800396228779 	  6.748898962905 	
H	 16.033858332407 	 10.800399038779 	 16.879455682905 	
H	 11.609543093175 	  1.567879448183 	  9.042149765899 	
H	 11.040998963175 	  1.567882258183 	 19.172706485899 	
H	 11.609511993175 	  7.751441208183 	  9.042146935899 	
H	 11.040967863175 	  7.751444018183 	 19.172703655899 	
H	 26.290370393175 	  1.567888678183 	  9.070279695899 	
H	 25.721826263175 	  1.567891488183 	 19.200836415899 	
H	 26.290339293175 	  7.751450438183 	  9.070276865899 	
H	 25.721795163175 	  7.751453248183 	 19.200833585899 	
H	 11.867537118344 	  1.515246093196 	  3.818602192386 	
H	 11.298992988344 	  1.515248903196 	 13.949158912386 	
H	 11.867506018344 	  7.698807853196 	  3.818599362386 	
H	 11.298961888344 	  7.698810663196 	 13.949156082386 	
H	 26.548364418344 	  1.515255323196 	  3.846732122386 	
H	 25.979820288344 	  1.515258133196 	 13.977288842386 	
H	 26.548333318344 	  7.698817083196 	  3.846729292386 	
H	 25.979789188344 	  7.698819893196 	 13.977286012386 	
H	  2.179599940479 	  4.564192452307 	  1.497225140231 	
H	  1.611055810479 	  4.564195262307 	 11.627781860231 	
H	  2.179568840479 	 10.747754212307 	  1.497222310231 	
H	  1.611024710479 	 10.747757022307 	 11.627779030231 	
H	 16.860427240479 	  4.564201682307 	  1.525355070231 	
H	 16.291883110479 	  4.564204492307 	 11.655911790231 	
H	 16.860396140479 	 10.747763442307 	  1.525352240231 	
H	 16.291852010479 	 10.747766252307 	 11.655908960231 	
H	  1.121178844952 	  3.925662450757 	  7.798643690259 	
H	  0.552634714952 	  3.925665260757 	 17.929200410259 	
H	  1.121147744952 	 10.109224210757 	  7.798640860259 	
H	  0.552603614952 	 10.109227020757 	 17.929197580259 	
H	 15.802006144952 	  3.925671680757 	  7.826773620259 	
H	 15.233462014952 	  3.925674490757 	 17.957330340259 	
H	 15.801975044952 	 10.109233440757 	  7.826770790259 	
H	 15.233430914952 	 10.109236250757 	 17.957327510259 	
H	 12.414641843873 	  6.955876078124 	  7.978780488968 	
H	 11.846097713873 	  6.955878888124 	 18.109337208968 	
H	 12.414610743873 	 13.139437838124 	  7.978777658968 	
H	 11.846066613873 	 13.139440648124 	 18.109334378968 	
H	 27.095469143873 	  6.955885308124 	  8.006910418968 	
H	 26.526925013873 	  6.955888118124 	 18.137467138968 	
H	 27.095438043873 	 13.139447068124 	  8.006907588968 	
H	 26.526893913873 	 13.139449878124 	 18.137464308968 	
H	 12.667965744912 	  2.206410686326 	  2.740729824966 	
H	 12.099421614912 	  2.206413496326 	 12.871286544966 	
H	 12.667934644912 	  8.389972446326 	  2.740726994966 	
H	 12.099390514912 	  8.389975256326 	 12.871283714966 	
H	 27.348793044912 	  2.206419916326 	  2.768859754966 	
H	 26.780248914912 	  2.206422726326 	 12.899416474966 	
H	 27.348761944912 	  8.389981676326 	  2.768856924966 	
H	 26.780217814912 	  8.389984486326 	 12.899413644966 	
H	  1.374501464146 	 -0.823804365340 	  2.560594982452 	
H	  0.805957334146 	 -0.823801555340 	 12.691151702452 	
H	  1.374470364146 	  5.359757394660 	  2.560592152452 	
H	  0.805926234146 	  5.359760204660 	 12.691148872452 	
H	 16.055328764146 	 -0.823795135340 	  2.588724912452 	
H	 15.486784634146 	 -0.823792325340 	 12.719281632452 	
H	 16.055297664146 	  5.359766624660 	  2.588722082452 	
H	 15.486753534146 	  5.359769434660 	 12.719278802452 	
H	  0.472596361533 	  3.832739786418 	  6.182683763405 	
H	 -0.095947768467 	  3.832742596418 	 16.313240483405 	
H	  0.472565261533 	 10.016301546418 	  6.182680933405 	
H	 -0.095978868467 	 10.016304356418 	 16.313237653405 	
H	 15.153423661533 	  3.832749016418 	  6.210813693405 	
H	 14.584879531533 	  3.832751826418 	 16.341370413405 	
H	 15.153392561533 	 10.016310776418 	  6.210810863405 	
H	 14.584848431533 	 10.016313586418 	 16.341367583405 	
H	 13.067426015817 	  6.892100465765 	  9.579322798767 	
H	 12.498881885817 	  6.892103275765 	 19.709879518767 	
H	 13.067394915817 	 13.075662225765 	  9.579319968767 	
H	 12.498850785817 	 13.075665035765 	 19.709876688767 	
H	 27.748253315817 	  6.892109695765 	  9.607452728767 	
H	 27.179709185817 	  6.892112505765 	 19.738009448767 	
H	 27.748222215817 	 13.075671455765 	  9.607449898767 	
H	 27.179678085817 	 13.075674265765 	 19.738006618767 	
H	 13.316546908756 	  2.299332220645 	  4.356690530128 	
H	 12.748002778756 	  2.299335030645 	 14.487247250128 	
H	 13.316515808756 	  8.482893980645 	  4.356687700128 	
H	 12.747971678756 	  8.482896790645 	 14.487244420128 	
H	 27.997374208756 	  2.299341450645 	  4.384820460128 	
H	 27.428830078756 	  2.299344260645 	 14.515377180128 	
H	 27.997343108756 	  8.482903210645 	  4.384817630128 	
H	 27.428798978756 	  8.482906020645 	 14.515374350128 	
H	  0.721716776771 	 -0.760028687290 	  0.960052861779 	
H	  0.153172646771 	 -0.760025877290 	 11.090609581779 	
H	  0.721685676771 	  5.423533072710 	  0.960050031779 	
H	  0.153141546771 	  5.423535882710 	 11.090606751779 	
H	 15.402544076771 	 -0.760019457290 	  0.988182791779 	
H	 14.833999946771 	 -0.760016647290 	 11.118739511779 	
H	 15.402512976771 	  5.423542302710 	  0.988179961779 	
H	 14.833968846771 	  5.423545112710 	 11.118736681779 	
C	  1.263780576381 	  1.907999208926 	  6.771293313310 	
C	  0.695236446381 	  1.908002018926 	 16.901850033310 	
C	  1.263749476381 	  8.091560968926 	  6.771290483310 	
C	  0.695205346381 	  8.091563778926 	 16.901847203310 	
C	 15.944607876381 	  1.908008438926 	  6.799423243310 	
C	 15.376063746381 	  1.908011248926 	 16.929979963310 	
C	 15.944576776381 	  8.091570198926 	  6.799420413310 	
C	 15.376032646381 	  8.091573008926 	 16.929977133310 	
C	 12.275553512508 	  4.983792574124 	  9.000827003185 	
C	 11.707009382508 	  4.983795384124 	 19.131383723185 	
C	 12.275522412508 	 11.167354334124 	  9.000824173185 	
C	 11.706978282508 	 11.167357144124 	 19.131380893185 	
C	 26.956380812508 	  4.983801804124 	  9.028956933185 	
C	 26.387836682508 	  4.983804614124 	 19.159513653185 	
C	 26.956349712508 	 11.167363564124 	  9.028954103185 	
C	 26.387805582508 	 11.167366374124 	 19.159510823185 	
C	 12.525362021738 	  4.224074625578 	  3.768080587194 	
C	 11.956817891738 	  4.224077435578 	 13.898637307194 	
C	 12.525330921738 	 10.407636385578 	  3.768077757194 	
C	 11.956786791738 	 10.407639195578 	 13.898634477194 	
C	 27.206189321738 	  4.224083855578 	  3.796210517194 	
C	 26.637645191738 	  4.224086665578 	 13.926767237194 	
C	 27.206158221738 	 10.407645615578 	  3.796207687194 	
C	 26.637614091738 	 10.407648425578 	 13.926764407194 	
C	  1.513589336671 	  1.148279165704 	  1.538548754886 	
C	  0.945045206671 	  1.148281975704 	 11.669105474886 	
C	  1.513558236671 	  7.331840925704 	  1.538545924886 	
C	  0.945014106671 	  7.331843735704 	 11.669102644886 	
C	 16.194416636671 	  1.148288395704 	  1.566678684886 	
C	 15.625872506671 	  1.148291205704 	 11.697235404886 	
C	 16.194385536671 	  7.331850155704 	  1.566675854886 	
C	 15.625841406671 	  7.331852965704 	 11.697232574886 	
H	  0.255177768601 	  1.768744280264 	  6.314204065994 	
H	 -0.313366361399 	  1.768747090264 	 16.444760785994 	
H	  0.255146668601 	  7.952306040264 	  6.314201235994 	
H	 -0.313397461399 	  7.952308850264 	 16.444757955994 	
H	 14.936005068601 	  1.768753510264 	  6.342333995994 	
H	 14.367460938601 	  1.768756320264 	 16.472890715994 	
H	 14.935973968601 	  7.952315270264 	  6.342331165994 	
H	 14.367429838601 	  7.952318080264 	 16.472887885994 	
H	 13.286606281522 	  4.835860423796 	  9.452909025553 	
H	 12.718062151522 	  4.835863233796 	 19.583465745553 	
H	 13.286575181522 	 11.019422183796 	  9.452906195553 	
H	 12.718031051522 	 11.019424993796 	 19.583462915553 	
H	 27.967433581522 	  4.835869653796 	  9.481038955553 	
H	 27.398889451522 	  4.835872463796 	 19.611595675553 	
H	 27.967402481522 	 11.019431413796 	  9.481036125553 	
H	 27.398858351522 	 11.019434223796 	 19.611592845553 	
H	 13.533964764770 	  4.363329124613 	  4.225170750080 	
H	 12.965420634770 	  4.363331934613 	 14.355727470080 	
H	 13.533933664770 	 10.546890884613 	  4.225167920080 	
H	 12.965389534770 	 10.546893694613 	 14.355724640080 	
H	 28.214792064770 	  4.363338354613 	  4.253300680080 	
H	 27.646247934770 	  4.363341164613 	 14.383857400080 	
H	 28.214760964770 	 10.546900114613 	  4.253297850080 	
H	 27.646216834770 	 10.546902924613 	 14.383854570080 	
H	  0.502536490969 	  1.296211256480 	  1.086466930206 	
H	 -0.066007639031 	  1.296214066480 	 11.217023650206 	
H	  0.502505390969 	  7.479773016480 	  1.086464100206 	
H	 -0.066038739031 	  7.479775826480 	 11.217020820206 	
H	 15.183363790969 	  1.296220486480 	  1.114596860206 	
H	 14.614819660969 	  1.296223296480 	 11.245153580206 	
H	 15.183332690969 	  7.479782246480 	  1.114594030206 	
H	 14.614788560969 	  7.479785056480 	 11.245150750206 	
H	  1.028909286528 	  1.633202222010 	  7.827616993379 	
H	  0.460365156528 	  1.633205032010 	 17.958173713379 	
H	  1.028878186528 	  7.816763982010 	  7.827614163379 	
H	  0.460334056528 	  7.816766792010 	 17.958170883379 	
H	 15.709736586528 	  1.633211452010 	  7.855746923379 	
H	 15.141192456528 	  1.633214262010 	 17.986303643379 	
H	 15.709705486528 	  7.816773212010 	  7.855744093379 	
H	 15.141161356528 	  7.816776022010 	 17.986300813379 	
H	 12.512818067803 	  4.701032579904 	  7.940948449945 	
H	 11.944273937803 	  4.701035389904 	 18.071505169945 	
H	 12.512786967803 	 10.884594339904 	  7.940945619945 	
H	 11.944242837803 	 10.884597149904 	 18.071502339945 	
H	 27.193645367803 	  4.701041809904 	  7.969078379945 	
H	 26.625101237803 	  4.701044619904 	 18.099635099945 	
H	 27.193614267803 	 10.884603569904 	  7.969075549945 	
H	 26.625070137803 	 10.884606379904 	 18.099632269945 	
H	 12.760233579203 	  4.498870979540 	  2.711756587802 	
H	 12.191689449203 	  4.498873789540 	 12.842313307802 	
H	 12.760202479203 	 10.682432739540 	  2.711753757802 	
H	 12.191658349203 	 10.682435549540 	 12.842310477802 	
H	 27.441060879203 	  4.498880209540 	  2.739886517802 	
H	 26.872516749203 	  4.498883019540 	 12.870443237802 	
H	 27.441029779203 	 10.682441969540 	  2.739883687802 	
H	 26.872485649203 	 10.682444779540 	 12.870440407802 	
H	  1.276324876977 	  1.431039022164 	  2.598427316047 	
H	  0.707780746977 	  1.431041832164 	 12.728984036047 	
H	  1.276293776977 	  7.614600782164 	  2.598424486047 	
H	  0.707749646977 	  7.614603592164 	 12.728981206047 	
H	 15.957152176977 	  1.431048252164 	  2.626557246047 	
H	 15.388608046977 	  1.431051062164 	 12.757113966047 	
H	 15.957121076977 	  7.614610012164 	  2.626554416047 	
H	 15.388576946977 	  7.614612822164 	 12.757111136047 	
H	  1.580070387885 	  0.844400161659 	  6.749194912812 	
H	  1.011526257885 	  0.844402971659 	 16.879751632812 	
H	  1.580039287885 	  7.027961921659 	  6.749192082812 	
H	  1.011495157885 	  7.027964731659 	 16.879748802812 	
H	 16.260897687885 	  0.844409391659 	  6.777324842812 	
H	 15.692353557885 	  0.844412201659 	 16.907881562812 	
H	 16.260866587885 	  7.027971151659 	  6.777322012812 	
H	 15.692322457885 	  7.027973961659 	 16.907878732812 	
H	 11.962085943976 	  3.915470926642 	  9.017192016498 	
H	 11.393541813976 	  3.915473736642 	 19.147748736498 	
H	 11.962054843976 	 10.099032686642 	  9.017189186498 	
H	 11.393510713976 	 10.099035496642 	 19.147745906498 	
H	 26.642913243976 	  3.915480156642 	  9.045321946498 	
H	 26.074369113976 	  3.915482966642 	 19.175878666498 	
H	 26.642882143976 	 10.099041916642 	  9.045319116498 	
H	 26.074338013976 	 10.099044726642 	 19.175875836498 	
H	 12.209070374319 	  5.287673414474 	  3.790182432532 	
H	 11.640526244319 	  5.287676224474 	 13.920739152532 	
H	 12.209039274319 	 11.471235174474 	  3.790179602532 	
H	 11.640495144319 	 11.471237984474 	 13.920736322532 	
H	 26.889897674319 	  5.287682644474 	  3.818312362532 	
H	 26.321353544319 	  5.287685454474 	 13.948869082532 	
H	 26.889866574319 	 11.471244404474 	  3.818309532532 	
H	 26.321322444319 	 11.471247214474 	 13.948866252532 	
H	  1.827056768235 	  2.216600859905 	  1.522184284528 	
H	  1.258512638235 	  2.216603669905 	 11.652741004528 	
H	  1.827025668235 	  8.400162619905 	  1.522181454528 	
H	  1.258481538235 	  8.400165429905 	 11.652738174528 	
H	 16.507884068235 	  2.216610089905 	  1.550314214528 	
H	 15.939339938235 	  2.216612899905 	 11.680870934528 	
H	 16.507852968235 	  8.400171849905 	  1.550311384528 	
H	 15.939308838235 	  8.400174659905 	 11.680868104528 	
768 
Energy: -9.9318780761469995e+01 
S	  8.439274143882 	  1.465307617519 	  0.108763745741 	
S	  7.870730013882 	  1.465310427519 	 10.239320465741 	
S	  8.439243043882 	  7.648869377519 	  0.108760915741 	
S	  7.870698913882 	  7.648872187519 	 10.239317635741 	
S	 23.120101443882 	  1.465316847519 	  0.136893675741 	
S	 22.551557313882 	  1.465319657519 	 10.267450395741 	
S	 23.120070343882 	  7.648878607519 	  0.136890845741 	
S	 22.551526213882 	  7.648881417519 	 10.267447565741 	
S	  5.532088756434 	  4.525666619020 	  5.242806359057 	
S	  4.963544626434 	  4.525669429020 	 15.373363079057 	
S	  5.532057656434 	 10.709228379020 	  5.242803529057 	
S	  4.963513526434 	 10.709231189020 	 15.373360249057 	
S	 20.212916056434 	  4.525675849020 	  5.270936289057 	
S	 19.644371926434 	  4.525678659020 	 15.401493009057 	
S	 20.212884956434 	 10.709237609020 	  5.270933459057 	
S	 19.644340826434 	 10.709240419020 	 15.401490179057 	
S	  5.293841814924 	  4.657833601233 	 10.496622795151 	
S	  4.725297684924 	  4.657836411233 	 20.627179515151 	
S	  5.293810714924 	 10.841395361233 	 10.496619965151 	
S	  4.725266584924 	 10.841398171233 	 20.627176685151 	
S	 19.974669114924 	  4.657842831233 	 10.524752725151 	
S	 19.406124984924 	  4.657845641233 	 20.655309445151 	
S	 19.974638014924 	 10.841404591233 	 10.524749895151 	
S	 19.406093884924 	 10.841407401233 	 20.655306615151 	
S	  8.201028310792 	  1.597474787442 	  5.362579952784 	
S	  7.632484180792 	  1.597477597442 	 15.493136672784 	
S	  8.200997210792 	  7.781036547442 	  5.362577122784 	
S	  7.632453080792 	  7.781039357442 	 15.493133842784 	
S	 22.881855610792 	  1.597484017442 	  5.390709882784 	
S	 22.313311480792 	  1.597486827442 	 15.521266602784 	
S	 22.881824510792 	  7.781045777442 	  5.390707052784 	
S	 22.313280380792 	  7.781048587442 	 15.521263772784 	
C	  6.595677212737 	  2.547936694849 	 10.186635951923 	
C	  6.027133082737 	  2.547939504849 	 20.317192671923 	
C	  6.595646112737 	  8.731498454849 	 10.186633121923 	
C	  6.027101982737 	  8.731501264849 	 20.317189841923 	
C	 21.276504512737 	  2.547945924849 	 10.214765881923 	
C	 20.707960382737 	  2.547948734849 	 20.345322601923 	
C	 21.276473412737 	  8.731507684849 	 10.214763051923 	
C	 20.707929282737 	  8.731510494849 	 20.345319771923 	
C	  6.899572924696 	  5.571451845749 	  5.698724513970 	
C	  6.331028794696 	  5.571454655749 	 15.829281233970 	
C	  6.899541824696 	 11.755013605749 	  5.698721683970 	
C	  6.330997694696 	 11.755016415749 	 15.829278403970 	
C	 21.580400224696 	  5.571461075749 	  5.726854443970 	
C	 21.011856094696 	  5.571463885749 	 15.857411163970 	
C	 21.580369124696 	 11.755022835749 	  5.726851613970 	
C	 21.011824994696 	 11.755025645749 	 15.857408333970 	
C	  7.137438762346 	  3.575204504482 	  0.418750464416 	
C	  6.568894632346 	  3.575207314482 	 10.549307184416 	
C	  7.137407662346 	  9.758766264482 	  0.418747634416 	
C	  6.568863532346 	  9.758769074482 	 10.549304354416 	
C	 21.818266062346 	  3.575213734482 	  0.446880394416 	
C	 21.249721932346 	  3.575216544482 	 10.577437114416 	
C	 21.818234962346 	  9.758775494482 	  0.446877564416 	
C	 21.249690832346 	  9.758778304482 	 10.577434284416 	
C	  6.833543988575 	  0.551689628062 	  4.906661670052 	
C	  6.264999858575 	  0.551692438062 	 15.037218390052 	
C	  6.833512888575 	  6.735251388062 	  4.906658840052 	
C	  6.264968758575 	  6.735254198062 	 15.037215560052 	
C	 21.514371288575 	  0.551698858062 	  4.934791600052 	
C	 20.945827158575 	  0.551701668062 	 15.065348320052 	
C	 21.514340188575 	  6.735260618062 	  4.934788770052 	
C	 20.945796058575 	  6.735263428062 	 15.065345490052 	
C	  5.567558083936 	  2.387029167665 	  9.216574625358 	
C	  4.999013953936 	  2.387031977665 	 19.347131345358 	
C	  5.567526983936 	  8.570590927665 	  9.216571795358 	
C	  4.998982853936 	  8.570593737665 	 19.347128515358 	
C	 20.248385383936 	  2.387038397665 	  9.244704555358 	
C	 19.679841253936 	  2.387041207665 	 19.375261275358 	
C	 20.248354283936 	  8.570600157665 	  9.244701725358 	
C	 19.679810153936 	  8.570602967665 	 19.375258445358 	
C	  7.929071445265 	  5.445728754749 	  6.642123774674 	
C	  7.360527315265 	  5.445731564749 	 16.772680494674 	
C	  7.929040345265 	 11.629290514749 	  6.642120944674 	
C	  7.360496215265 	 11.629293324749 	 16.772677664674 	
C	 22.609898745265 	  5.445737984749 	  6.670253704674 	
C	 22.041354615265 	  5.445740794749 	 16.800810424674 	
C	 22.609867645265 	 11.629299744749 	  6.670250874674 	
C	 22.041323515265 	 11.629302554749 	 16.800807594674 	
C	  8.165557807719 	  3.736112097235 	  1.388811722348 	
C	  7.597013677719 	  3.736114907235 	 11.519368442348 	
C	  8.165526707719 	  9.919673857235 	  1.388808892348 	
C	  7.596982577719 	  9.919676667235 	 11.519365612348 	
C	 22.846385107719 	  3.736121327235 	  1.416941652348 	
C	 22.277840977719 	  3.736124137235 	 11.547498372348 	
C	 22.846354007719 	  9.919683087235 	  1.416938822348 	
C	 22.277809877719 	  9.919685897235 	 11.547495542348 	
C	  5.804045285636 	  0.677412747354 	  3.963262570063 	
C	  5.235501155636 	  0.677415557354 	 14.093819290063 	
C	  5.804014185636 	  6.860974507354 	  3.963259740063 	
C	  5.235470055636 	  6.860977317354 	 14.093816460063 	
C	 20.484872585636 	  0.677421977354 	  3.991392500063 	
C	 19.916328455636 	  0.677424787354 	 14.121949220063 	
C	 20.484841485636 	  6.860983737354 	  3.991389670063 	
C	 19.916297355636 	  6.860986547354 	 14.121946390063 	
C	  4.719454583558 	  3.471258870730 	  9.240252635898 	
C	  4.150910453558 	  3.471261680730 	 19.370809355898 	
C	  4.719423483558 	  9.654820630730 	  9.240249805898 	
C	  4.150879353558 	  9.654823440730 	 19.370806525898 	
C	 19.400281883558 	  3.471268100730 	  9.268382565898 	
C	 18.831737753558 	  3.471270910730 	 19.398939285898 	
C	 19.400250783558 	  9.654829860730 	  9.268379735898 	
C	 18.831706653558 	  9.654832670730 	 19.398936455898 	
C	  8.769673329945 	  0.411220947314 	  6.620061804272 	
C	  8.201129199945 	  0.411223757314 	 16.750618524272 	
C	  8.769642229945 	  6.594782707314 	  6.620058974272 	
C	  8.201098099945 	  6.594785517314 	 16.750615694272 	
C	 23.450500629945 	  0.411230177314 	  6.648191734272 	
C	 22.881956499945 	  0.411232987314 	 16.778748454272 	
C	 23.450469529945 	  6.594791937314 	  6.648188904272 	
C	 22.881925399945 	  6.594794747314 	 16.778745624272 	
C	  9.013661296336 	  2.651882370713 	  1.365133749124 	
C	  8.445117166336 	  2.651885180713 	 11.495690469124 	
C	  9.013630196336 	  8.835444130713 	  1.365130919124 	
C	  8.445086066336 	  8.835446940713 	 11.495687639124 	
C	 23.694488596336 	  2.651891600713 	  1.393263679124 	
C	 23.125944466336 	  2.651894410713 	 11.523820399124 	
C	 23.694457496336 	  8.835453360713 	  1.393260849124 	
C	 23.125913366336 	  8.835456170713 	 11.523817569124 	
C	  4.963443472607 	  5.711920531339 	  3.985324707005 	
C	  4.394899342607 	  5.711923341339 	 14.115881427005 	
C	  4.963412372607 	 11.895482291339 	  3.985321877005 	
C	  4.394868242607 	 11.895485101339 	 14.115878597005 	
C	 19.644270772607 	  5.711929761339 	  4.013454637005 	
C	 19.075726642607 	  5.711932571339 	 14.144011357005 	
C	 19.644239672607 	 11.895491521339 	  4.013451807005 	
C	 19.075695542607 	 11.895494331339 	 14.144008527005 	
C	  3.672496775094 	  3.581216338328 	  8.465927514399 	
C	  3.103952645094 	  3.581219148328 	 18.596484234399 	
C	  3.672465675094 	  9.764778098328 	  8.465924684399 	
C	  3.103921545094 	  9.764780908328 	 18.596481404399 	
C	 18.353324075094 	  3.581225568328 	  8.494057444399 	
C	 17.784779945094 	  3.581228378328 	 18.624614164399 	
C	 18.353292975094 	  9.764787328328 	  8.494054614399 	
C	 17.784748845094 	  9.764790138328 	 18.624611334399 	
C	  9.817697967987 	  0.527369894161 	  7.390482202368 	
C	  9.249153837987 	  0.527372704161 	 17.521038922368 	
C	  9.817666867987 	  6.710931654161 	  7.390479372368 	
C	  9.249122737987 	  6.710934464161 	 17.521036092368 	
C	 24.498525267987 	  0.527379124161 	  7.418612132368 	
C	 23.929981137987 	  0.527381934161 	 17.549168852368 	
C	 24.498494167987 	  6.710940884161 	  7.418609302368 	
C	 23.929950037987 	  6.710943694161 	 17.549166022368 	
C	 10.060619127982 	  2.541925054683 	  2.139459078957 	
C	  9.492074997982 	  2.541927864683 	 12.270015798957 	
C	 10.060588027982 	  8.725486814683 	  2.139456248957 	
C	  9.492043897982 	  8.725489624683 	 12.270012968957 	
C	 24.741446427982 	  2.541934284683 	  2.167589008957 	
C	 24.172902297982 	  2.541937094683 	 12.298145728957 	
C	 24.741415327982 	  8.725496044683 	  2.167586178957 	
C	 24.172871197982 	  8.725498854683 	 12.298142898957 	
C	  3.915418476826 	  5.595771643614 	  3.214904667215 	
C	  3.346874346826 	  5.595774453614 	 13.345461387215 	
C	  3.915387376826 	 11.779333403614 	  3.214901837215 	
C	  3.346843246826 	 11.779336213614 	 13.345458557215 	
C	 18.596245776826 	  5.595780873614 	  3.243034597215 	
C	 18.027701646826 	  5.595783683614 	 13.373591317215 	
C	 18.596214676826 	 11.779342633614 	  3.243031767215 	
C	 18.027670546826 	 11.779345443614 	 13.373588487215 	
H	  3.013004926222 	  4.525398597350 	  8.541439219119 	
H	  2.444460796222 	  4.525401407350 	 18.671995939119 	
H	  3.012973826222 	 10.708960357350 	  8.541436389119 	
H	  2.444429696222 	 10.708963167350 	 18.671993109119 	
H	 17.693832226222 	  4.525407827350 	  8.569569149119 	
H	 17.125288096222 	  4.525410637350 	 18.700125869119 	
H	 17.693801126222 	 10.708969587350 	  8.569566319119 	
H	 17.125256996222 	 10.708972397350 	 18.700123039119 	
H	 10.480643076967 	  1.462642290457 	  7.319107233577 	
H	  9.912098946967 	  1.462645100457 	 17.449663953577 	
H	 10.480611976967 	  7.646204050457 	  7.319104403577 	
H	  9.912067846967 	  7.646206860457 	 17.449661123577 	
H	 25.161470376967 	  1.462651520457 	  7.347237163577 	
H	 24.592926246967 	  1.462654330457 	 17.477793883577 	
H	 25.161439276967 	  7.646213280457 	  7.347234333577 	
H	 24.592895146967 	  7.646216090457 	 17.477791053577 	
H	 10.720110886815 	  1.597742698527 	  2.063947506837 	
H	 10.151566756815 	  1.597745508527 	 12.194504226837 	
H	 10.720079786815 	  7.781304458527 	  2.063944676837 	
H	 10.151535656815 	  7.781307268527 	 12.194501396837 	
H	 25.400938186815 	  1.597751928527 	  2.092077436837 	
H	 24.832394056815 	  1.597754738527 	 12.222634156837 	
H	 25.400907086815 	  7.781313688527 	  2.092074606837 	
H	 24.832362956815 	  7.781316498527 	 12.222631326837 	
H	  3.252473494284 	  4.660499174757 	  3.286279793719 	
H	  2.683929364284 	  4.660501984757 	 13.416836513719 	
H	  3.252442394284 	 10.844060934757 	  3.286276963719 	
H	  2.683898264284 	 10.844063744757 	 13.416833683719 	
H	 17.933300794284 	  4.660508404757 	  3.314409723719 	
H	 17.364756664284 	  4.660511214757 	 13.444966443719 	
H	 17.933269694284 	 10.844070164757 	  3.314406893719 	
H	 17.364725564284 	 10.844072974757 	 13.444963613719 	
C	  3.343935906269 	  2.641761127840 	  7.587977905197 	
C	  2.775391776269 	  2.641763937840 	 17.718534625197 	
C	  3.343904806269 	  8.825322887840 	  7.587975075197 	
C	  2.775360676269 	  8.825325697840 	 17.718531795197 	
C	 18.024763206269 	  2.641770357840 	  7.616107835197 	
C	 17.456219076269 	  2.641773167840 	 17.746664555197 	
C	 18.024732106269 	  8.825332117840 	  7.616105005197 	
C	 17.456187976269 	  8.825334927840 	 17.746661725197 	
C	 10.153018753994 	  5.694358200645 	  8.275009318586 	
C	  9.584474623994 	  5.694361010645 	 18.405566038586 	
C	 10.152987653994 	 11.877919960645 	  8.275006488586 	
C	  9.584443523994 	 11.877922770645 	 18.405563208586 	
C	 24.833846053994 	  5.694367430645 	  8.303139248586 	
C	 24.265301923994 	  5.694370240645 	 18.433695968586 	
C	 24.833814953994 	 11.877929190645 	  8.303136418586 	
C	 24.265270823994 	 11.877932000645 	 18.433693138586 	
C	 10.389179822101 	  3.481380328195 	  3.017408425204 	
C	  9.820635692101 	  3.481383138195 	 13.147965145204 	
C	 10.389148722101 	  9.664942088195 	  3.017405595204 	
C	  9.820604592101 	  9.664944898195 	 13.147962315204 	
C	 25.070007122101 	  3.481389558195 	  3.045538355204 	
C	 24.501462992101 	  3.481392368195 	 13.176095075204 	
C	 25.069976022101 	  9.664951318195 	  3.045535525204 	
C	 24.501431892101 	  9.664954128195 	 13.176092245204 	
C	  3.580097409810 	  0.428783408727 	  2.330377725598 	
C	  3.011553279810 	  0.428786218727 	 12.460934445598 	
C	  3.580066309810 	  6.612345168727 	  2.330374895598 	
C	  3.011522179810 	  6.612347978727 	 12.460931615598 	
C	 18.260924709810 	  0.428792638727 	  2.358507655598 	
C	 17.692380579810 	  0.428795448727 	 12.489064375598 	
C	 18.260893609810 	  6.612354398727 	  2.358504825598 	
C	 17.692349479810 	  6.612357208727 	 12.489061545598 	
C	  4.192211535336 	  1.572702193653 	  7.535914762738 	
C	  3.623667405336 	  1.572705003653 	 17.666471482738 	
C	  4.192180435336 	  7.756263953653 	  7.535911932738 	
C	  3.623636305336 	  7.756266763653 	 17.666468652738 	
C	 18.873038835336 	  1.572711423653 	  7.564044692738 	
C	 18.304494705336 	  1.572714233653 	 17.694601412738 	
C	 18.873007735336 	  7.756273183653 	  7.564041862738 	
C	 18.304463605336 	  7.756275993653 	 17.694598582738 	
C	  9.301896072396 	  4.635862418882 	  8.322651933522 	
C	  8.733351942396 	  4.635865228882 	 18.453208653522 	
C	  9.301864972396 	 10.819424178882 	  8.322649103522 	
C	  8.733320842396 	 10.819426988882 	 18.453205823522 	
C	 23.982723372396 	  4.635871648882 	  8.350781863522 	
C	 23.414179242396 	  4.635874458882 	 18.481338583522 	
C	 23.982692272396 	 10.819433408882 	  8.350779033522 	
C	 23.414148142396 	 10.819436218882 	 18.481335753522 	
C	  9.540904274547 	  4.550439301910 	  3.069471497165 	
C	  8.972360144547 	  4.550442111910 	 13.200028217165 	
C	  9.540873174547 	 10.734001061910 	  3.069468667165 	
C	  8.972329044547 	 10.734003871910 	 13.200025387165 	
C	 24.221731574547 	  4.550448531910 	  3.097601427165 	
C	 23.653187444547 	  4.550451341910 	 13.228158147165 	
C	 24.221700474547 	 10.734010291910 	  3.097598597165 	
C	 23.653156344547 	 10.734013101910 	 13.228155317165 	
C	  4.431220008726 	  1.487279101768 	  2.282734842797 	
C	  3.862675878726 	  1.487281911768 	 12.413291562797 	
C	  4.431188908726 	  7.670840861768 	  2.282732012797 	
C	  3.862644778726 	  7.670843671768 	 12.413288732797 	
C	 19.112047308726 	  1.487288331768 	  2.310864772797 	
C	 18.543503178726 	  1.487291141768 	 12.441421492797 	
C	 19.112016208726 	  7.670850091768 	  2.310861942797 	
C	 18.543472078726 	  7.670852901768 	 12.441418662797 	
H	  3.959917986625 	  0.748866914817 	  6.765477865854 	
H	  3.391373856625 	  0.748869724817 	 16.896034585854 	
H	  3.959886886625 	  6.932428674817 	  6.765475035854 	
H	  3.391342756625 	  6.932431484817 	 16.896031755854 	
H	 18.640745286625 	  0.748876144817 	  6.793607795854 	
H	 18.072201156625 	  0.748878954817 	 16.924164515854 	
H	 18.640714186625 	  6.932437904817 	  6.793604965854 	
H	 18.072170056625 	  6.932440714817 	 16.924161685854 	
H	  9.533645542112 	  3.811678206122 	  9.094369544543 	
H	  8.965101412112 	  3.811681016122 	 19.224926264543 	
H	  9.533614442112 	  9.995239966122 	  9.094366714543 	
H	  8.965070312112 	  9.995242776122 	 19.224923434543 	
H	 24.214472842112 	  3.811687436122 	  9.122499474543 	
H	 23.645928712112 	  3.811690246122 	 19.253056194543 	
H	 24.214441742112 	  9.995249196122 	  9.122496644543 	
H	 23.645897612112 	  9.995252006122 	 19.253053364543 	
H	  9.773197929330 	  5.374274708809 	  3.839908236363 	
H	  9.204653799330 	  5.374277518809 	 13.970464956363 	
H	  9.773166829330 	 11.557836468809 	  3.839905406363 	
H	  9.204622699330 	 11.557839278809 	 13.970462126363 	
H	 24.454025229330 	  5.374283938809 	  3.868038166363 	
H	 23.885481099330 	  5.374286748809 	 13.998594886363 	
H	 24.453994129330 	 11.557845698809 	  3.868035336363 	
H	 23.885449999330 	 11.557848508809 	 13.998592056363 	
H	  4.199470264389 	  2.311463431305 	  1.511017426344 	
H	  3.630926134389 	  2.311466241305 	 11.641574146344 	
H	  4.199439164389 	  8.495025191305 	  1.511014596344 	
H	  3.630895034389 	  8.495028001305 	 11.641571316344 	
H	 18.880297564389 	  2.311472661305 	  1.539147356344 	
H	 18.311753434389 	  2.311475471305 	 11.669704076344 	
H	 18.880266464389 	  8.495034421305 	  1.539144526344 	
H	 18.311722334389 	  8.495037231305 	 11.669701246344 	
C	  5.217427054568 	  1.446242217484 	  8.278663494208 	
C	  4.648882924568 	  1.446245027484 	 18.409220214208 	
C	  5.217395954568 	  7.629803977484 	  8.278660664208 	
C	  4.648851824568 	  7.629806787484 	 18.409217384208 	
C	 19.898254354568 	  1.446251447484 	  8.306793424208 	
C	 19.329710224568 	  1.446254257484 	 18.437350144208 	
C	 19.898223254568 	  7.629813207484 	  8.306790594208 	
C	 19.329679124568 	  7.629816017484 	 18.437347314208 	
C	  8.276124772837 	  4.509104687460 	  7.579516816241 	
C	  7.707580642837 	  4.509107497460 	 17.710073536241 	
C	  8.276093672837 	 10.692666447460 	  7.579513986241 	
C	  7.707549542837 	 10.692669257460 	 17.710070706241 	
C	 22.956952072837 	  4.509113917460 	  7.607646746241 	
C	 22.388407942837 	  4.509116727460 	 17.738203466241 	
C	 22.956920972837 	 10.692675677460 	  7.607643916241 	
C	 22.388376842837 	 10.692678487460 	 17.738200636241 	
C	  8.515688799850 	  4.676899180703 	  2.326722708621 	
C	  7.947144669850 	  4.676901990703 	 12.457279428621 	
C	  8.515657699850 	 10.860460940703 	  2.326719878621 	
C	  7.947113569850 	 10.860463750703 	 12.457276598621 	
C	 23.196516099850 	  4.676908410703 	  2.354852638621 	
C	 22.627971969850 	  4.676911220703 	 12.485409358621 	
C	 23.196484999850 	 10.860470170703 	  2.354849808621 	
C	 22.627940869850 	 10.860472980703 	 12.485406528621 	
C	  5.456991621718 	  1.614036844321 	  3.025869681884 	
C	  4.888447491718 	  1.614039654321 	 13.156426401884 	
C	  5.456960521718 	  7.797598604321 	  3.025866851884 	
C	  4.888416391718 	  7.797601414321 	 13.156423571884 	
C	 20.137818921718 	  1.614046074321 	  3.053999611884 	
C	 19.569274791718 	  1.614048884321 	 13.184556331884 	
C	 20.137787821718 	  7.797607834321 	  3.053996781884 	
C	 19.569243691718 	  7.797610644321 	 13.184553501884 	
H	  5.900146333293 	  0.521958902037 	  8.189600244229 	
H	  5.331602203293 	  0.521961712037 	 18.320156964229 	
H	  5.900115233293 	  6.705520662037 	  8.189597414229 	
H	  5.331571103293 	  6.705523472037 	 18.320154134229 	
H	 20.580973633293 	  0.521968132037 	  8.217730174229 	
H	 20.012429503293 	  0.521970942037 	 18.348286894229 	
H	 20.580942533293 	  6.705529892037 	  8.217727344229 	
H	 20.012398403293 	  6.705532702037 	 18.348284064229 	
H	  7.593104145994 	  3.583867915414 	  7.669458707135 	
H	  7.024560015994 	  3.583870725414 	 17.800015427135 	
H	  7.593073045994 	  9.767429675414 	  7.669455877135 	
H	  7.024528915994 	  9.767432485414 	 17.800012597135 	
H	 22.273931445994 	  3.583877145414 	  7.697588637135 	
H	 21.705387315994 	  3.583879955414 	 17.828145357135 	
H	 22.273900345994 	  9.767438905414 	  7.697585807135 	
H	 21.705356215994 	  9.767441715414 	 17.828142527135 	
H	  7.832969496981 	  5.601182490171 	  2.415785776625 	
H	  7.264425366981 	  5.601185300171 	 12.546342496625 	
H	  7.832938396981 	 11.784744250171 	  2.415782946625 	
H	  7.264394266981 	 11.784747060171 	 12.546339666625 	
H	 22.513796796981 	  5.601191720171 	  2.443915706625 	
H	 21.945252666981 	  5.601194530171 	 12.574472426625 	
H	 22.513765696981 	 11.784753480171 	  2.443912876625 	
H	 21.945221566981 	 11.784756290171 	 12.574469596625 	
H	  6.140012221034 	  2.539273608233 	  2.935927633693 	
H	  5.571468091034 	  2.539276418233 	 13.066484353693 	
H	  6.139981121034 	  8.722835368233 	  2.935924803693 	
H	  5.571436991034 	  8.722838178233 	 13.066481523693 	
H	 20.820839521034 	  2.539282838233 	  2.964057563693 	
H	 20.252295391034 	  2.539285648233 	 13.094614283693 	
H	 20.820808421034 	  8.722844598233 	  2.964054733693 	
H	 20.252264291034 	  8.722847408233 	 13.094611453693 	
C	  1.997710351307 	  2.752868103348 	  6.649425100817 	
C	  1.429166221307 	  2.752870913348 	 16.779981820817 	
C	  1.997679251307 	  8.936429863348 	  6.649422270817 	
C	  1.429135121307 	  8.936432673348 	 16.779978990817 	
C	 16.678537651307 	  2.752877333348 	  6.677555030817 	
C	 16.109993521307 	  2.752880143348 	 16.808111750817 	
C	 16.678506551307 	  8.936439093348 	  6.677552200817 	
C	 16.109962421307 	  8.936441903348 	 16.808108920817 	
C	 11.420803949623 	  5.735292826662 	  9.175654473594 	
C	 10.852259819623 	  5.735295636662 	 19.306211193594 	
C	 11.420772849623 	 11.918854586662 	  9.175651643594 	
C	 10.852228719623 	 11.918857396662 	 19.306208363594 	
C	 26.101631249623 	  5.735302056662 	  9.203784403594 	
C	 25.533087119623 	  5.735304866662 	 19.334341123594 	
C	 26.101600149623 	 11.918863816662 	  9.203781573594 	
C	 25.533056019623 	 11.918866626662 	 19.334338293594 	
C	 11.735406066050 	  3.370273804066 	  3.955962153556 	
C	 11.166861936050 	  3.370276614066 	 14.086518873556 	
C	 11.735374966050 	  9.553835564066 	  3.955959323556 	
C	 11.166830836050 	  9.553838374066 	 14.086516043556 	
C	 26.416233366050 	  3.370283034066 	  3.984092083556 	
C	 25.847689236050 	  3.370285844066 	 14.114648803556 	
C	 26.416202266050 	  9.553844794066 	  3.984089253556 	
C	 25.847658136050 	  9.553847604066 	 14.114645973556 	
C	  2.312311801874 	  0.387848666043 	  1.429732892286 	
C	  1.743767671874 	  0.387851476043 	 11.560289612286 	
C	  2.312280701874 	  6.571410426043 	  1.429730062286 	
C	  1.743736571874 	  6.571413236043 	 11.560286782286 	
C	 16.993139101874 	  0.387857896043 	  1.457862822286 	
C	 16.424594971874 	  0.387860706043 	 11.588419542286 	
C	 16.993108001874 	  6.571419656043 	  1.457859992286 	
C	 16.424563871874 	  6.571422466043 	 11.588416712286 	
C	  2.145073342901 	  2.616853201513 	  5.555147194630 	
C	  1.576529212901 	  2.616856011513 	 15.685703914630 	
C	  2.145042242901 	  8.800414961513 	  5.555144364630 	
C	  1.576498112901 	  8.800417771513 	 15.685701084630 	
C	 16.825900642901 	  2.616862431513 	  5.583277124630 	
C	 16.257356512901 	  2.616865241513 	 15.713833844630 	
C	 16.825869542901 	  8.800424191513 	  5.583274294630 	
C	 16.257325412901 	  8.800427001513 	 15.713831014630 	
C	 11.364844024463 	 -0.386103181409 	 10.206765085900 	
C	 10.796299894463 	 -0.386100371409 	 20.337321805900 	
C	 11.364812924463 	  5.797458578591 	 10.206762255900 	
C	 10.796268794463 	  5.797461388591 	 20.337318975900 	
C	 26.045671324463 	 -0.386093951409 	 10.234895015900 	
C	 25.477127194463 	 -0.386091141409 	 20.365451735900 	
C	 26.045640224463 	  5.797467808591 	 10.234892185900 	
C	 25.477096094463 	  5.797470618591 	 20.365448905900 	
C	 11.588040862100 	  3.506288169159 	  5.050240307835 	
C	 11.019496732100 	  3.506290979159 	 15.180797027835 	
C	 11.588009762100 	  9.689849929159 	  5.050237477835 	
C	 11.019465632100 	  9.689852739159 	 15.180794197835 	
C	 26.268868162100 	  3.506297399159 	  5.078370237835 	
C	 25.700324032100 	  3.506300209159 	 15.208926957835 	
C	 26.268837062100 	  9.689859159159 	  5.078367407835 	
C	 25.700292932100 	  9.689861969159 	 15.208924127835 	
C	  2.368271515046 	  6.509244825443 	  0.398622306599 	
C	  1.799727385046 	  6.509247635443 	 10.529179026599 	
C	  2.368240415046 	 12.692806585443 	  0.398619476599 	
C	  1.799696285046 	 12.692809395443 	 10.529176196599 	
C	 17.049098815046 	  6.509254055443 	  0.426752236599 	
C	 16.480554685046 	  6.509256865443 	 10.557308956599 	
C	 17.049067715046 	 12.692815815443 	  0.426749406599 	
C	 16.480523585046 	 12.692818625443 	 10.557306126599 	
H	  3.008278587492 	  3.111485001272 	  5.051541978595 	
H	  2.439734457492 	  3.111487811272 	 15.182098698595 	
H	  3.008247487492 	  9.295046761272 	  5.051539148595 	
H	  2.439703357492 	  9.295049571272 	 15.182095868595 	
H	 17.689105887492 	  3.111494231272 	  5.079671908595 	
H	 17.120561757492 	  3.111497041272 	 15.210228628595 	
H	 17.689074787492 	  9.295055991272 	  5.079669078595 	
H	 17.120530657492 	  9.295058801272 	 15.210225798595 	
H	 10.504723244112 	  0.036585499969 	 10.795410843191 	
H	  9.936179114112 	  0.036588309969 	 20.925967563191 	
H	 10.504692144112 	  6.220147259969 	 10.795408013191 	
H	  9.936148014112 	  6.220150069969 	 20.925964733191 	
H	 25.185550544112 	  0.036594729969 	 10.823540773191 	
H	 24.617006414112 	  0.036597539969 	 20.954097493191 	
H	 25.185519444112 	  6.220156489969 	 10.823537943191 	
H	 24.616975314112 	  6.220159299969 	 20.954094663191 	
H	 10.724836476853 	  3.011653025390 	  5.553844357768 	
H	 10.156292346853 	  3.011655835390 	 15.684401077768 	
H	 10.724805376853 	  9.195214785390 	  5.553841527768 	
H	 10.156261246853 	  9.195217595390 	 15.684398247768 	
H	 25.405663776853 	  3.011662255390 	  5.581974287768 	
H	 24.837119646853 	  3.011665065390 	 15.712531007768 	
H	 25.405632676853 	  9.195224015390 	  5.581971457768 	
H	 24.837088546853 	  9.195226825390 	 15.712528177768 	
H	  3.228392104650 	  6.086556351803 	 -0.190023812813 	
H	  2.659847974650 	  6.086559161803 	  9.940532907187 	
H	  3.228361004650 	 12.270118111803 	 -0.190026642813 	
H	  2.659816874650 	 12.270120921803 	  9.940530077187 	
H	 17.909219404650 	  6.086565581803 	 -0.161893882813 	
H	 17.340675274650 	  6.086568391803 	  9.968662837187 	
H	 17.909188304650 	 12.270127341803 	 -0.161896712813 	
H	 17.340644174650 	 12.270130151803 	  9.968660007187 	
H	  1.412375257302 	  2.708794456063 	  4.710333406558 	
H	  0.843831127302 	  2.708797266063 	 14.840890126558 	
H	  1.412344157302 	  8.892356216063 	  4.710330576558 	
H	  0.843800027302 	  8.892359026063 	 14.840887296558 	
H	 16.093202557302 	  2.708803686063 	  4.738463336558 	
H	 15.524658427302 	  2.708806496063 	 14.869020056558 	
H	 16.093171457302 	  8.892365446063 	  4.738460506558 	
H	 15.524627327302 	  8.892368256063 	 14.869017226558 	
H	 12.610770741003 	 -0.346712951308 	  0.708839394034 	
H	 12.042226611003 	 -0.346710141308 	 10.839396114034 	
H	 12.610739641003 	  5.836848808692 	  0.708836564034 	
H	 12.042195511003 	  5.836851618692 	 10.839393284034 	
H	 27.291598041003 	 -0.346703721308 	  0.736969324034 	
H	 26.723053911003 	 -0.346700911308 	 10.867526044034 	
H	 27.291566941003 	  5.836858038692 	  0.736966494034 	
H	 26.723022811003 	  5.836860848692 	 10.867523214034 	
H	 12.320739680604 	  3.414347030750 	  5.895053773885 	
H	 11.752195550604 	  3.414349840750 	 16.025610493885 	
H	 12.320708580604 	  9.597908790750 	  5.895050943885 	
H	 11.752164450604 	  9.597911600750 	 16.025607663885 	
H	 27.001566980604 	  3.414356260750 	  5.923183703885 	
H	 26.433022850604 	  3.414359070750 	 16.053740423885 	
H	 27.001535880604 	  9.597918020750 	  5.923180873885 	
H	 26.432991750604 	  9.597920830750 	 16.053737593885 	
H	  1.122344475952 	  6.469854756982 	  9.896548257752 	
H	  0.553800345952 	  6.469857566982 	 20.027104977752 	
H	  1.122313375952 	 12.653416516982 	  9.896545427752 	
H	  0.553769245952 	 12.653419326982 	 20.027102147752 	
H	 15.803171775952 	  6.469863986982 	  9.924678187752 	
H	 15.234627645952 	  6.469866796982 	 20.055234907752 	
H	 15.803140675952 	 12.653425746982 	  9.924675357752 	
H	 15.234596545952 	 12.653428556982 	 20.055232077752 	
H	  2.656947400782 	  1.707330475876 	  5.163568275848 	
H	  2.088403270782 	  1.707333285876 	 15.294124995848 	
H	  2.656916300782 	  7.890892235876 	  5.163565445848 	
H	  2.088372170782 	  7.890895045876 	 15.294122165848 	
H	 17.337774700782 	  1.707339705876 	  5.191698205848 	
H	 16.769230570782 	  1.707342515876 	 15.322254925848 	
H	 17.337743600782 	  7.890901465876 	  5.191695375848 	
H	 16.769199470782 	  7.890904275876 	 15.322252095848 	
H	 11.229108782756 	  4.702263088746 	  0.266565343523 	
H	 10.660564652756 	  4.702265898746 	 10.397122063523 	
H	 11.229077682756 	 10.885824848746 	  0.266562513523 	
H	 10.660533552756 	 10.885827658746 	 10.397119233523 	
H	 25.909936082756 	  4.702272318746 	  0.294695273523 	
H	 25.341391952756 	  4.702275128746 	 10.425251993523 	
H	 25.909904982756 	 10.885834078746 	  0.294692443523 	
H	 25.341360852756 	 10.885836888746 	 10.425249163523 	
H	 11.076166515411 	  4.415811355180 	  5.441818676706 	
H	 10.507622385411 	  4.415814165180 	 15.572375396706 	
H	 11.076135415411 	 10.599373115180 	  5.441815846706 	
H	 10.507591285411 	 10.599375925180 	 15.572372566706 	
H	 25.756993815411 	  4.415820585180 	  5.469948606706 	
H	 25.188449685411 	  4.415823395180 	 15.600505326706 	
H	 25.756962715411 	 10.599382345180 	  5.469945776706 	
H	 25.188418585411 	 10.599385155180 	 15.600502496706 	
H	  2.504006677330 	  1.420878771708 	 10.338822299153 	
H	  1.935462547330 	  1.420881581708 	 20.469379019153 	
H	  2.503975577330 	  7.604440531708 	 10.338819469153 	
H	  1.935431447330 	  7.604443341708 	 20.469376189153 	
H	 17.184833977330 	  1.420888001708 	 10.366952229153 	
H	 16.616289847330 	  1.420890811708 	 20.497508949153 	
H	 17.184802877330 	  7.604449761708 	 10.366949399153 	
H	 16.616258747330 	  7.604452571708 	 20.497506119153 	
C	  1.480054753135 	  3.741881409561 	  6.710020360374 	
C	  0.911510623135 	  3.741884219561 	 16.840577080374 	
C	  1.480023653135 	  9.925443169561 	  6.710017530374 	
C	  0.911479523135 	  9.925445979561 	 16.840574250374 	
C	 16.160882053135 	  3.741890639561 	  6.738150290374 	
C	 15.592337923135 	  3.741893449561 	 16.868707010374 	
C	 16.160850953135 	  9.925452399561 	  6.738147460374 	
C	 15.592306823135 	  9.925455209561 	 16.868704180374 	
C	 12.104609791310 	  0.792704264524 	  9.128776281768 	
C	 11.536065661310 	  0.792707074524 	 19.259333001768 	
C	 12.104578691310 	  6.976266024524 	  9.128773451768 	
C	 11.536034561310 	  6.976268834524 	 19.259330171768 	
C	 26.785437091310 	  0.792713494524 	  9.156906211768 	
C	 26.216892961310 	  0.792716304524 	 19.287462931768 	
C	 26.785405991310 	  6.976275254524 	  9.156903381768 	
C	 26.216861861310 	  6.976278064524 	 19.287460101768 	
C	 12.253061519310 	  2.381260038846 	  3.895365220311 	
C	 11.684517389310 	  2.381262848846 	 14.025921940311 	
C	 12.253030419310 	  8.564821798846 	  3.895362390311 	
C	 11.684486289310 	  8.564824608846 	 14.025919110311 	
C	 26.933888819310 	  2.381269268846 	  3.923495150311 	
C	 26.365344689310 	  2.381272078846 	 14.054051870311 	
C	 26.933857719310 	  8.564831028846 	  3.923492320311 	
C	 26.365313589310 	  8.564833838846 	 14.054049040311 	
C	  1.628506005740 	  5.330437177853 	  1.476611065860 	
C	  1.059961875740 	  5.330439987853 	 11.607167785860 	
C	  1.628474905740 	 11.513998937853 	  1.476608235860 	
C	  1.059930775740 	 11.514001747853 	 11.607164955860 	
C	 16.309333305740 	  5.330446407853 	  1.504740995860 	
C	 15.740789175740 	  5.330449217853 	 11.635297715860 	
C	 16.309302205740 	 11.514008167853 	  1.504738165860 	
C	 15.740758075740 	 11.514010977853 	 11.635294885860 	
H	  2.071604689431 	  4.687643271866 	  6.572404676147 	
H	  1.503060559431 	  4.687646081866 	 16.702961396147 	
H	  2.071573589431 	 10.871205031866 	  6.572401846147 	
H	  1.503029459431 	 10.871207841866 	 16.702958566147 	
H	 16.752431989431 	  4.687652501866 	  6.600534606147 	
H	 16.183887859431 	  4.687655311866 	 16.731091326147 	
H	 16.752400889431 	 10.871214261866 	  6.600531776147 	
H	 16.183856759431 	 10.871217071866 	 16.731088496147 	
H	 11.408673108886 	  1.644213641970 	  9.287459425939 	
H	 10.840128978886 	  1.644216451970 	 19.418016145939 	
H	 11.408642008886 	  7.827775401970 	  9.287456595939 	
H	 10.840097878886 	  7.827778211970 	 19.418013315939 	
H	 26.089500408886 	  1.644222871970 	  9.315589355939 	
H	 25.520956278886 	  1.644225681970 	 19.446146075939 	
H	 26.089469308886 	  7.827784631970 	  9.315586525939 	
H	 25.520925178886 	  7.827787441970 	 19.446143245939 	
H	 11.661511900330 	  1.435497595552 	  4.032980656395 	
H	 11.092967770330 	  1.435500405552 	 14.163537376395 	
H	 11.661480800330 	  7.619059355552 	  4.032977826395 	
H	 11.092936670330 	  7.619062165552 	 14.163534546395 	
H	 26.342339200330 	  1.435506825552 	  4.061110586395 	
H	 25.773795070330 	  1.435509635552 	 14.191667306395 	
H	 26.342308100330 	  7.619068585552 	  4.061107756395 	
H	 25.773763970330 	  7.619071395552 	 14.191664476395 	
H	  2.324442697770 	  4.478927886220 	  1.317927433267 	
H	  1.755898567770 	  4.478930696220 	 11.448484153267 	
H	  2.324411597770 	 10.662489646220 	  1.317924603267 	
H	  1.755867467770 	 10.662492456220 	 11.448481323267 	
H	 17.005269997770 	  4.478937116220 	  1.346057363267 	
H	 16.436725867770 	  4.478939926220 	 11.476614083267 	
H	 17.005238897770 	 10.662498876220 	  1.346054533267 	
H	 16.436694767770 	 10.662501686220 	 11.476611253267 	
H	  1.194212214621 	  4.142279565207 	  7.724200047766 	
H	  0.625668084621 	  4.142282375207 	 17.854756767766 	
H	  1.194181114621 	 10.325841325207 	  7.724197217766 	
H	  0.625636984621 	 10.325844135207 	 17.854753937766 	
H	 15.875039514621 	  4.142288795207 	  7.752329977766 	
H	 15.306495384621 	  4.142291605207 	 17.882886697766 	
H	 15.875008414621 	 10.325850555207 	  7.752327147766 	
H	 15.306464284621 	 10.325853365207 	 17.882883867766 	
H	 12.294802166067 	  7.166903192794 	  8.146313257870 	
H	 11.726258036067 	  7.166906002794 	 18.276869977870 	
H	 12.294771066067 	 13.350464952794 	  8.146310427870 	
H	 11.726226936067 	 13.350467762794 	 18.276867147870 	
H	 26.975629466067 	  7.166912422794 	  8.174443187870 	
H	 26.407085336067 	  7.166915232794 	 18.304999907870 	
H	 26.975598366067 	 13.350474182794 	  8.174440357870 	
H	 26.407054236067 	 13.350476992794 	 18.304997077870 	
H	 12.538905463464 	  1.980863249216 	  2.881185088932 	
H	 11.970361333464 	  1.980866059216 	 13.011741808932 	
H	 12.538874363464 	  8.164425009216 	  2.881182258932 	
H	 11.970330233464 	  8.164427819216 	 13.011738978932 	
H	 27.219732763464 	  1.980872479216 	  2.909315018932 	
H	 26.651188633464 	  1.980875289216 	 13.039871738932 	
H	 27.219701663464 	  8.164434239216 	  2.909312188932 	
H	 26.651157533464 	  8.164437049216 	 13.039868908932 	
H	  1.438314019427 	 -1.043761915929 	  2.459074225137 	
H	  0.869769889427 	 -1.043759105929 	 12.589630945137 	
H	  1.438282919427 	  5.139799844071 	  2.459071395137 	
H	  0.869738789427 	  5.139802654071 	 12.589628115137 	
H	 16.119141319427 	 -1.043752685929 	  2.487204155137 	
H	 15.550597189427 	 -1.043749875929 	 12.617760875137 	
H	 16.119110219427 	  5.139809074071 	  2.487201325137 	
H	 15.550566089427 	  5.139811884071 	 12.617758045137 	
H	  0.560846622593 	  3.968707347879 	  6.105544505848 	
H	 -0.007697507407 	  3.968710157879 	 16.236101225848 	
H	  0.560815522593 	 10.152269107879 	  6.105541675848 	
H	 -0.007728607407 	 10.152271917879 	 16.236098395848 	
H	 15.241673922593 	  3.968716577879 	  6.133674435848 	
H	 14.673129792593 	  3.968719387879 	 16.264231155848 	
H	 15.241642822593 	 10.152278337879 	  6.133671605848 	
H	 14.673098692593 	 10.152281147879 	 16.264228325848 	
H	 12.929529300841 	  7.022903422630 	  9.750450893685 	
H	 12.360985170841 	  7.022906232630 	 19.881007613685 	
H	 12.929498200841 	 13.206465182630 	  9.750448063685 	
H	 12.360954070841 	 13.206467992630 	 19.881004783685 	
H	 27.610356600841 	  7.022912652630 	  9.778580823685 	
H	 27.041812470841 	  7.022915462630 	 19.909137543685 	
H	 27.610325500841 	 13.206474412630 	  9.778577993685 	
H	 27.041781370841 	 13.206477222630 	 19.909134713685 	
H	 13.172269704268 	  2.154434345202 	  4.499841438099 	
H	 12.603725574268 	  2.154437155202 	 14.630398158099 	
H	 13.172238604268 	  8.337996105202 	  4.499838608099 	
H	 12.603694474268 	  8.337998915202 	 14.630395328099 	
H	 27.853097004268 	  2.154443575202 	  4.527971368099 	
H	 27.284552874268 	  2.154446385202 	 14.658528088099 	
H	 27.853065904268 	  8.338005335202 	  4.527968538099 	
H	 27.284521774268 	  8.338008145202 	 14.658525258099 	
H	  0.803586247763 	 -0.899762050412 	  0.854936798205 	
H	  0.235042117763 	 -0.899759240412 	 10.985493518205 	
H	  0.803555147763 	  5.283799709588 	  0.854933968205 	
H	  0.235011017763 	  5.283802519588 	 10.985490688205 	
H	 15.484413547763 	 -0.899752820412 	  0.883066728205 	
H	 14.915869417763 	 -0.899750010412 	 11.013623448205 	
H	 15.484382447763 	  5.283808939588 	  0.883063898205 	
H	 14.915838317763 	  5.283811749588 	 11.013620618205 	
C	  1.208178003757 	  2.005870050738 	  6.895900453952 	
C	  0.639633873757 	  2.005872860738 	 17.026457173952 	
C	  1.208146903757 	  8.189431810738 	  6.895897623952 	
C	  0.639602773757 	  8.189434620738 	 17.026454343952 	
C	 15.889005303757 	  2.005879280738 	  6.924030383952 	
C	 15.320461173757 	  2.005882090738 	 17.054587103952 	
C	 15.888974203757 	  8.189441040738 	  6.924027553952 	
C	 15.320430073757 	  8.189443850738 	 17.054584273952 	
C	 12.286405482278 	  5.070630780322 	  8.966351967416 	
C	 11.717861352278 	  5.070633590322 	 19.096908687416 	
C	 12.286374382278 	 11.254192540322 	  8.966349137416 	
C	 11.717830252278 	 11.254195350322 	 19.096905857416 	
C	 26.967232782278 	  5.070640010322 	  8.994481897416 	
C	 26.398688652278 	  5.070642820322 	 19.125038617416 	
C	 26.967201682278 	 11.254201770322 	  8.994479067416 	
C	 26.398657552278 	 11.254204580322 	 19.125035787416 	
C	 12.524937298485 	  4.117273388313 	  3.709485681817 	
C	 11.956393168485 	  4.117276198313 	 13.840042401817 	
C	 12.524906198485 	 10.300835148313 	  3.709482851817 	
C	 11.956362068485 	 10.300837958313 	 13.840039571817 	
C	 27.205764598485 	  4.117282618313 	  3.737615611817 	
C	 26.637220468485 	  4.117285428313 	 13.868172331817 	
C	 27.205733498485 	 10.300844378313 	  3.737612781817 	
C	 26.637189368485 	 10.300847188313 	 13.868169501817 	
C	  1.446710209040 	  1.052510497761 	  1.639035774830 	
C	  0.878166079040 	  1.052513307761 	 11.769592494830 	
C	  1.446679109040 	  7.236072257761 	  1.639032944830 	
C	  0.878134979040 	  7.236075067761 	 11.769589664830 	
C	 16.127537509040 	  1.052519727761 	  1.667165704830 	
C	 15.558993379040 	  1.052522537761 	 11.797722424830 	
C	 16.127506409040 	  7.236081487761 	  1.667162874830 	
C	 15.558962279040 	  7.236084297761 	 11.797719594830 	
H	  0.191695511826 	  1.893748567909 	  6.434649878486 	
H	 -0.376848618174 	  1.893751377909 	 16.565206598486 	
H	  0.191664411826 	  8.077310327909 	  6.434647048486 	
H	 -0.376879718174 	  8.077313137909 	 16.565203768486 	
H	 14.872522811826 	  1.893757797909 	  6.462779808486 	
H	 14.303978681826 	  1.893760607909 	 16.593336528486 	
H	 14.872491711826 	  8.077319557909 	  6.462776978486 	
H	 14.303947581826 	  8.077322367909 	 16.593333698486 	
H	 13.301432885660 	  4.955824606679 	  9.426432105140 	
H	 12.732888755660 	  4.955827416679 	 19.556988825140 	
H	 13.301401785660 	 11.139386366679 	  9.426429275140 	
H	 12.732857655660 	 11.139389176679 	 19.556985995140 	
H	 27.982260185660 	  4.955833836679 	  9.454562035140 	
H	 27.413716055660 	  4.955836646679 	 19.585118755140 	
H	 27.982229085660 	 11.139395596679 	  9.454559205140 	
H	 27.413684955660 	 11.139398406679 	 19.585115925140 	
H	 13.541419839012 	  4.229394676859 	  4.170736800956 	
H	 12.972875709012 	  4.229397486859 	 14.301293520956 	
H	 13.541388739012 	 10.412956436859 	  4.170733970956 	
H	 12.972844609012 	 10.412959246859 	 14.301290690956 	
H	 28.222247139012 	  4.229403906859 	  4.198866730956 	
H	 27.653703009012 	  4.229406716859 	 14.329423450956 	
H	 28.222216039012 	 10.412965666859 	  4.198863900956 	
H	 27.653671909012 	 10.412968476859 	 14.329420620956 	
H	  0.431682704833 	  1.167316593857 	  1.178955869029 	
H	 -0.136861425167 	  1.167319403857 	 11.309512589029 	
H	  0.431651604833 	  7.350878353857 	  1.178953039029 	
H	 -0.136892525167 	  7.350881163857 	 11.309509759029 	
H	 15.112510004833 	  1.167325823857 	  1.207085799029 	
H	 14.543965874833 	  1.167328633857 	 11.337642519029 	
H	 15.112478904833 	  7.350887583857 	  1.207082969029 	
H	 14.543934774833 	  7.350890393857 	 11.337639689029 	
H	  0.946332300870 	  1.879650949481 	  7.979610167671 	
H	  0.377788170870 	  1.879653759481 	 18.110166887671 	
H	  0.946301200870 	  8.063212709481 	  7.979607337671 	
H	  0.377757070870 	  8.063215519481 	 18.110164057671 	
H	 15.627159600870 	  1.879660179481 	  8.007740097671 	
H	 15.058615470870 	  1.879662989481 	 18.138296817671 	
H	 15.627128500870 	  8.063221939481 	  8.007737267671 	
H	 15.058584370870 	  8.063224749481 	 18.138293987671 	
H	 12.546355372290 	  4.942139873167 	  7.880776070781 	
H	 11.977811242290 	  4.942142683167 	 18.011332790781 	
H	 12.546324272290 	 11.125701633167 	  7.880773240781 	
H	 11.977780142290 	 11.125704443167 	 18.011329960781 	
H	 27.227182672290 	  4.942149103167 	  7.908906000781 	
H	 26.658638542290 	  4.942151913167 	 18.039462720781 	
H	 27.227151572290 	 11.125710863167 	  7.908903170781 	
H	 26.658607442290 	 11.125713673167 	 18.039459890781 	
H	 12.786783253001 	  4.243492581390 	  2.625775695270 	
H	 12.218239123001 	  4.243495391390 	 12.756332415270 	
H	 12.786752153001 	 10.427054341390 	  2.625772865270 	
H	 12.218208023001 	 10.427057151390 	 12.756329585270 	
H	 27.467610553001 	  4.243501811390 	  2.653905625270 	
H	 26.899066423001 	  4.243504621390 	 12.784462345270 	
H	 27.467579453001 	 10.427063571390 	  2.653902795270 	
H	 26.899035323001 	 10.427066381390 	 12.784459515270 	
H	  1.186760436367 	  1.181001198271 	  2.724611676022 	
H	  0.618216306367 	  1.181004008271 	 12.855168396022 	
H	  1.186729336367 	  7.364562958271 	  2.724608846022 	
H	  0.618185206367 	  7.364565768271 	 12.855165566022 	
H	 15.867587736367 	  1.181010428271 	  2.752741606022 	
H	 15.299043606367 	  1.181013238271 	 12.883298326022 	
H	 15.867556636367 	  7.364572188271 	  2.752738776022 	
H	 15.299012506367 	  7.364574998271 	 12.883295496022 	
H	  1.473954232009 	  0.922178839299 	  6.942139147410 	
H	  0.905410102009 	  0.922181649299 	 17.072695867410 	
H	  1.473923132009 	  7.105740599299 	  6.942136317410 	
H	  0.905379002009 	  7.105743409299 	 17.072693037410 	
H	 16.154781532009 	  0.922188069299 	  6.970269077410 	
H	 15.586237402009 	  0.922190879299 	 17.100825797410 	
H	 16.154750432009 	  7.105749829299 	  6.970266247410 	
H	 15.586206302009 	  7.105752639299 	 17.100822967410 	
H	 12.018561151133 	  3.986302019107 	  8.917760582402 	
H	 11.450017021133 	  3.986304829107 	 19.048317302402 	
H	 12.018530051133 	 10.169863779107 	  8.917757752402 	
H	 11.449985921133 	 10.169866589107 	 19.048314472402 	
H	 26.699388451133 	  3.986311249107 	  8.945890512402 	
H	 26.130844321133 	  3.986314059107 	 19.076447232402 	
H	 26.699357351133 	 10.169873009107 	  8.945887682402 	
H	 26.130813221133 	 10.169875819107 	 19.076444402402 	
H	 12.259159808934 	  5.200964735518 	  3.663249633271 	
H	 11.690615678934 	  5.200967545518 	 13.793806353271 	
H	 12.259128708934 	 11.384526495518 	  3.663246803271 	
H	 11.690584578934 	 11.384529305518 	 13.793803523271 	
H	 26.939987108934 	  5.200973965518 	  3.691379563271 	
H	 26.371442978934 	  5.200976775518 	 13.821936283271 	
H	 26.939956008934 	 11.384535725518 	  3.691376733271 	
H	 26.371411878934 	 11.384538535518 	 13.821933453271 	
H	  1.714554401151 	  2.136839270894 	  1.687627693211 	
H	  1.146010271151 	  2.136842080894 	 11.818184413211 	
H	  1.714523301151 	  8.320401030894 	  1.687624863211 	
H	  1.145979171151 	  8.320403840894 	 11.818181583211 	
H	 16.395381701151 	  2.136848500894 	  1.715757623211 	
H	 15.826837571151 	  2.136851310894 	 11.846314343211 	
H	 16.395350601151 	  8.320410260894 	  1.715754793211 	
H	 15.826806471151 	  8.320413070894 	 11.846311513211 	
768 
Energy: -9.5752211252099997e+01 
S	  8.391559992351 	  1.449766110352 	  0.118584959495 	
S	  7.823015862351 	  1.449768920352 	 10.249141679495 	
S	  8.391528892351 	  7.633327870352 	  0.118582129495 	
S	  7.822984762351 	  7.633330680352 	 10.249138849495 	
S	 23.072387292351 	  1.449775340352 	  0.146714889495 	
S	 22.503843162351 	  1.449778150352 	 10.277271609495 	
S	 23.072356192351 	  7.633337100352 	  0.146712059495 	
S	 22.503812062351 	  7.633339910352 	 10.277268779495 	
S	  5.517522935790 	  4.505611360823 	  5.271034432172 	
S	  4.948978805790 	  4.505614170823 	 15.401591152172 	
S	  5.517491835790 	 10.689173120823 	  5.271031602172 	
S	  4.948947705790 	 10.689175930823 	 15.401588322172 	
S	 20.198350235790 	  4.505620590823 	  5.299164362172 	
S	 19.629806105790 	  4.505623400823 	 15.429721082172 	
S	 20.198319135790 	 10.689182350823 	  5.299161532172 	
S	 19.629775005790 	 10.689185160823 	 15.429718252172 	
S	  5.285814010511 	  4.664490146605 	 10.552477438552 	
S	  4.717269880511 	  4.664492956605 	 20.683034158552 	
S	  5.285782910511 	 10.848051906605 	 10.552474608552 	
S	  4.717238780511 	 10.848054716605 	 20.683031328552 	
S	 19.966641310511 	  4.664499376605 	 10.580607368552 	
S	 19.398097180511 	  4.664502186605 	 20.711164088552 	
S	 19.966610210511 	 10.848061136605 	 10.580604538552 	
S	 19.398066080511 	 10.848063946605 	 20.711161258552 	
S	  8.159852295610 	  1.608645003687 	  5.400027657293 	
S	  7.591308165610 	  1.608647813687 	 15.530584377293 	
S	  8.159821195610 	  7.792206763687 	  5.400024827293 	
S	  7.591277065610 	  7.792209573687 	 15.530581547293 	
S	 22.840679595610 	  1.608654233687 	  5.428157587293 	
S	 22.272135465610 	  1.608657043687 	 15.558714307293 	
S	 22.840648495610 	  7.792215993687 	  5.428154757293 	
S	 22.272104365610 	  7.792218803687 	 15.558711477293 	
C	  6.572899030630 	  2.544645753642 	 10.244591667563 	
C	  6.004354900630 	  2.544648563642 	 20.375148387563 	
C	  6.572867930630 	  8.728207513642 	 10.244588837563 	
C	  6.004323800630 	  8.728210323642 	 20.375145557563 	
C	 21.253726330630 	  2.544654983642 	 10.272721597563 	
C	 20.685182200630 	  2.544657793642 	 20.403278317563 	
C	 21.253695230630 	  8.728216743642 	 10.272718767563 	
C	 20.685151100630 	  8.728219553642 	 20.403275487563 	
C	  6.873695956544 	  5.562768125721 	  5.734969274441 	
C	  6.305151826544 	  5.562770935721 	 15.865525994441 	
C	  6.873664856544 	 11.746329885721 	  5.734966444441 	
C	  6.305120726544 	 11.746332695721 	 15.865523164441 	
C	 21.554523256544 	  5.562777355721 	  5.763099204441 	
C	 20.985979126544 	  5.562780165721 	 15.893655924441 	
C	 21.554492156544 	 11.746339115721 	  5.763096374441 	
C	 20.985948026544 	 11.746341925721 	 15.893653094441 	
C	  7.104474982984 	  3.569610489697 	  0.426470580939 	
C	  6.535930852984 	  3.569613299697 	 10.557027300939 	
C	  7.104443882984 	  9.753172249697 	  0.426467750939 	
C	  6.535899752984 	  9.753175059697 	 10.557024470939 	
C	 21.785302282984 	  3.569619719697 	  0.454600510939 	
C	 21.216758152984 	  3.569622529697 	 10.585157230939 	
C	 21.785271182984 	  9.753181479697 	  0.454597680939 	
C	 21.216727052984 	  9.753184289697 	 10.585154400939 	
C	  6.803679117884 	  0.551488298656 	  4.936092666932 	
C	  6.235134987884 	  0.551491108656 	 15.066649386932 	
C	  6.803648017884 	  6.735050058656 	  4.936089836932 	
C	  6.235103887884 	  6.735052868656 	 15.066646556932 	
C	 21.484506417884 	  0.551497528656 	  4.964222596932 	
C	 20.915962287884 	  0.551500338656 	 15.094779316932 	
C	 21.484475317884 	  6.735059288656 	  4.964219766932 	
C	 20.915931187884 	  6.735062098656 	 15.094776486932 	
C	  5.549374726393 	  2.395424621044 	  9.267536702117 	
C	  4.980830596393 	  2.395427431044 	 19.398093422117 	
C	  5.549343626393 	  8.578986381044 	  9.267533872117 	
C	  4.980799496393 	  8.578989191044 	 19.398090592117 	
C	 20.230202026393 	  2.395433851044 	  9.295666632117 	
C	 19.661657896393 	  2.395436661044 	 19.426223352117 	
C	 20.230170926393 	  8.578995611044 	  9.295663802117 	
C	 19.661626796393 	  8.578998421044 	 19.426220522117 	
C	  7.897348424363 	  5.449212168216 	  6.684635422336 	
C	  7.328804294363 	  5.449214978216 	 16.815192142336 	
C	  7.897317324363 	 11.632773928216 	  6.684632592336 	
C	  7.328773194363 	 11.632776738216 	 16.815189312336 	
C	 22.578175724363 	  5.449221398216 	  6.712765352336 	
C	 22.009631594363 	  5.449224208216 	 16.843322072336 	
C	 22.578144624363 	 11.632783158216 	  6.712762522336 	
C	 22.009600494363 	 11.632785968216 	 16.843319242336 	
C	  8.127999225681 	  3.718831695184 	  1.403525494339 	
C	  7.559455095681 	  3.718834505184 	 11.534082214339 	
C	  8.127968125681 	  9.902393455184 	  1.403522664339 	
C	  7.559423995681 	  9.902396265184 	 11.534079384339 	
C	 22.808826525681 	  3.718840925184 	  1.431655424339 	
C	 22.240282395681 	  3.718843735184 	 11.562212144339 	
C	 22.808795425681 	  9.902402685184 	  1.431652594339 	
C	 22.240251295681 	  9.902405495184 	 11.562209314339 	
C	  5.780026448219 	  0.665044295091 	  3.986426724785 	
C	  5.211482318219 	  0.665047105091 	 14.116983444785 	
C	  5.779995348219 	  6.848606055091 	  3.986423894785 	
C	  5.211451218219 	  6.848608865091 	 14.116980614785 	
C	 20.460853748219 	  0.665053525091 	  4.014556654785 	
C	 19.892309618219 	  0.665056335091 	 14.145113374785 	
C	 20.460822648219 	  6.848615285091 	  4.014553824785 	
C	 19.892278518219 	  6.848618095091 	 14.145110544785 	
C	  4.710166899656 	  3.486694405308 	  9.289306093288 	
C	  4.141622769656 	  3.486697215308 	 19.419862813288 	
C	  4.710135799656 	  9.670256165308 	  9.289303263288 	
C	  4.141591669656 	  9.670258975308 	 19.419859983288 	
C	 19.390994199656 	  3.486703635308 	  9.317436023288 	
C	 18.822450069656 	  3.486706445308 	 19.447992743288 	
C	 19.390963099656 	  9.670265395308 	  9.317433193288 	
C	 18.822418969656 	  9.670268205308 	 19.447989913288 	
C	  8.730408421569 	  0.431528477557 	  6.664263973079 	
C	  8.161864291569 	  0.431531287557 	 16.794820693079 	
C	  8.730377321569 	  6.615090237557 	  6.664261143079 	
C	  8.161833191569 	  6.615093047557 	 16.794817863079 	
C	 23.411235721569 	  0.431537707557 	  6.692393903079 	
C	 22.842691591569 	  0.431540517557 	 16.822950623079 	
C	 23.411204621569 	  6.615099467557 	  6.692391073079 	
C	 22.842660491569 	  6.615102277557 	 16.822947793079 	
C	  8.967207038868 	  2.627561866454 	  1.381756127478 	
C	  8.398662908868 	  2.627564676454 	 11.512312847478 	
C	  8.967175938868 	  8.811123626454 	  1.381753297478 	
C	  8.398631808868 	  8.811126436454 	 11.512310017478 	
C	 23.648034338868 	  2.627571096454 	  1.409886057478 	
C	 23.079490208868 	  2.627573906454 	 11.540442777478 	
C	 23.648003238868 	  8.811132856454 	  1.409883227478 	
C	 23.079459108868 	  8.811135666454 	 11.540439947478 	
C	  4.946966526049 	  5.682727967381 	  4.006798361110 	
C	  4.378422396049 	  5.682730777381 	 14.137355081110 	
C	  4.946935426049 	 11.866289727381 	  4.006795531110 	
C	  4.378391296049 	 11.866292537381 	 14.137352251110 	
C	 19.627793826049 	  5.682737197381 	  4.034928291110 	
C	 19.059249696049 	  5.682740007381 	 14.165485011110 	
C	 19.627762726049 	 11.866298957381 	  4.034925461110 	
C	 19.059218596049 	 11.866301767381 	 14.165482181110 	
C	  3.669979364125 	  3.609541958638 	  8.506908024940 	
C	  3.101435234125 	  3.609544768638 	 18.637464744940 	
C	  3.669948264125 	  9.793103718638 	  8.506905194940 	
C	  3.101404134125 	  9.793106528638 	 18.637461914940 	
C	 18.350806664125 	  3.609551188638 	  8.535037954940 	
C	 17.782262534125 	  3.609553998638 	 18.665594674940 	
C	 18.350775564125 	  9.793112948638 	  8.535035124940 	
C	 17.782231434125 	  9.793115758638 	 18.665591844940 	
C	  9.770751996121 	  0.560489352001 	  7.442091760344 	
C	  9.202207866121 	  0.560492162001 	 17.572648480344 	
C	  9.770720896121 	  6.744051112001 	  7.442088930344 	
C	  9.202176766121 	  6.744053922001 	 17.572645650344 	
C	 24.451579296121 	  0.560498582001 	  7.470221690344 	
C	 23.883035166121 	  0.560501392001 	 17.600778410344 	
C	 24.451548196121 	  6.744060342001 	  7.470218860344 	
C	 23.883004066121 	  6.744063152001 	 17.600775580344 	
C	 10.007394595554 	  2.504714479705 	  2.164154416076 	
C	  9.438850465554 	  2.504717289705 	 12.294711136076 	
C	 10.007363495554 	  8.688276239705 	  2.164151586076 	
C	  9.438819365554 	  8.688279049705 	 12.294708306076 	
C	 24.688221895554 	  2.504723709705 	  2.192284346076 	
C	 24.119677765554 	  2.504726519705 	 12.322841066076 	
C	 24.688190795554 	  8.688285469705 	  2.192281516076 	
C	 24.119646665554 	  8.688288279705 	 12.322838236076 	
C	  3.906622541320 	  5.553767167953 	  3.228970987263 	
C	  3.338078411320 	  5.553769977953 	 13.359527707263 	
C	  3.906591441320 	 11.737328927953 	  3.228968157263 	
C	  3.338047311320 	 11.737331737953 	 13.359524877263 	
C	 18.587449841320 	  5.553776397953 	  3.257100917263 	
C	 18.018905711320 	  5.553779207953 	 13.387657637263 	
C	 18.587418741320 	 11.737338157953 	  3.257098087263 	
C	 18.018874611320 	 11.737340967953 	 13.387654807263 	
H	  3.018387347395 	  4.559376186710 	  8.581620660663 	
H	  2.449843217395 	  4.559378996710 	 18.712177380663 	
H	  3.018356247395 	 10.742937946710 	  8.581617830663 	
H	  2.449812117395 	 10.742940756710 	 18.712174550663 	
H	 17.699214647395 	  4.559385416710 	  8.609750590663 	
H	 17.130670517395 	  4.559388226710 	 18.740307310663 	
H	 17.699183547395 	 10.742947176710 	  8.609747760663 	
H	 17.130639417395 	 10.742949986710 	 18.740304480663 	
H	 10.425811634864 	  1.501027678214 	  7.372197239417 	
H	  9.857267504864 	  1.501030488214 	 17.502753959417 	
H	 10.425780534864 	  7.684589438214 	  7.372194409417 	
H	  9.857236404864 	  7.684592248214 	 17.502751129417 	
H	 25.106638934864 	  1.501036908214 	  7.400327169417 	
H	 24.538094804864 	  1.501039718214 	 17.530883889417 	
H	 25.106607834864 	  7.684598668214 	  7.400324339417 	
H	 24.538063704864 	  7.684601478214 	 17.530881059417 	
H	 10.658986512812 	  1.554880145576 	  2.089441948159 	
H	 10.090442382812 	  1.554882955576 	 12.219998668159 	
H	 10.658955412812 	  7.738441905576 	  2.089439118159 	
H	 10.090411282812 	  7.738444715576 	 12.219995838159 	
H	 25.339813812812 	  1.554889375576 	  2.117571878159 	
H	 24.771269682812 	  1.554892185576 	 12.248128598159 	
H	 25.339782712812 	  7.738451135576 	  2.117569048159 	
H	 24.771238582812 	  7.738453945576 	 12.248125768159 	
H	  3.251563027592 	  4.613228774819 	  3.298865684878 	
H	  2.683018897592 	  4.613231584819 	 13.429422404878 	
H	  3.251531927592 	 10.796790534819 	  3.298862854878 	
H	  2.682987797592 	 10.796793344819 	 13.429419574878 	
H	 17.932390327592 	  4.613238004819 	  3.326995614878 	
H	 17.363846197592 	  4.613240814819 	 13.457552334878 	
H	 17.932359227592 	 10.796799764819 	  3.326992784878 	
H	 17.363815097592 	 10.796802574819 	 13.457549504878 	
C	  3.341869879309 	  2.677371231372 	  7.621859522103 	
C	  2.773325749309 	  2.677374041372 	 17.752416242103 	
C	  3.341838779309 	  8.860932991372 	  7.621856692103 	
C	  2.773294649309 	  8.860935801372 	 17.752413412103 	
C	 18.022697179309 	  2.677380461372 	  7.649989452103 	
C	 17.454153049309 	  2.677383271372 	 17.780546172103 	
C	 18.022666079309 	  8.860942221372 	  7.649986622103 	
C	 17.454121949309 	  8.860945031372 	 17.780543342103 	
C	 10.105279580547 	  5.725274599883 	  8.334663408824 	
C	  9.536735450547 	  5.725277409883 	 18.465220128824 	
C	 10.105248480547 	 11.908836359883 	  8.334660578824 	
C	  9.536704350547 	 11.908839169883 	 18.465217298824 	
C	 24.786106880547 	  5.725283829883 	  8.362793338824 	
C	 24.217562750547 	  5.725286639883 	 18.493350058824 	
C	 24.786075780547 	 11.908845589883 	  8.362790508824 	
C	 24.217531650547 	 11.908848399883 	 18.493347228824 	
C	 10.335503938680 	  3.436885288075 	  3.049202642901 	
C	  9.766959808680 	  3.436888098075 	 13.179759362901 	
C	 10.335472838680 	  9.620447048075 	  3.049199812901 	
C	  9.766928708680 	  9.620449858075 	 13.179756532901 	
C	 25.016331238680 	  3.436894518075 	  3.077332572901 	
C	 24.447787108680 	  3.436897328075 	 13.207889292901 	
C	 25.016300138680 	  9.620456278075 	  3.077329742901 	
C	 24.447756008680 	  9.620459088075 	 13.207886462901 	
C	  3.572094610944 	  0.388982009660 	  2.336399549418 	
C	  3.003550480944 	  0.388984819660 	 12.466956269418 	
C	  3.572063510944 	  6.572543769660 	  2.336396719418 	
C	  3.003519380944 	  6.572546579660 	 12.466953439418 	
C	 18.252921910944 	  0.388991239660 	  2.364529479418 	
C	 17.684377780944 	  0.388994049660 	 12.495086199418 	
C	 18.252890810944 	  6.572552999660 	  2.364526649418 	
C	 17.684346680944 	  6.572555809660 	 12.495083369418 	
C	  4.179499041839 	  1.600255233574 	  7.571523325687 	
C	  3.610954911839 	  1.600258043574 	 17.702080045687 	
C	  4.179467941839 	  7.783816993574 	  7.571520495687 	
C	  3.610923811839 	  7.783819803574 	 17.702077215687 	
C	 18.860326341839 	  1.600264463574 	  7.599653255687 	
C	 18.291782211839 	  1.600267273574 	 17.730209975687 	
C	 18.860295241839 	  7.783826223574 	  7.599650425687 	
C	 18.291751111839 	  7.783829033574 	 17.730207145687 	
C	  9.265222385655 	  4.658839328598 	  8.380368324668 	
C	  8.696678255655 	  4.658842138598 	 18.510925044668 	
C	  9.265191285655 	 10.842401088598 	  8.380365494668 	
C	  8.696647155655 	 10.842403898598 	 18.510922214668 	
C	 23.946049685655 	  4.658848558598 	  8.408498254668 	
C	 23.377505555655 	  4.658851368598 	 18.539054974668 	
C	 23.946018585655 	 10.842410318598 	  8.408495424668 	
C	 23.377474455655 	 10.842413128598 	 18.539052144668 	
C	  9.497874850818 	  4.514001344680 	  3.099538717910 	
C	  8.929330720818 	  4.514004154680 	 13.230095437910 	
C	  9.497843750818 	 10.697563104680 	  3.099535887910 	
C	  8.929299620818 	 10.697565914680 	 13.230092607910 	
C	 24.178702150818 	  4.514010574680 	  3.127668647910 	
C	 23.610158020818 	  4.514013384680 	 13.258225367910 	
C	 24.178671050818 	 10.697572334680 	  3.127665817910 	
C	 23.610126920818 	 10.697575144680 	 13.258222537910 	
C	  4.412151744474 	  1.455417187874 	  2.290694331481 	
C	  3.843607614474 	  1.455419997874 	 12.421251051481 	
C	  4.412120644474 	  7.638978947874 	  2.290691501481 	
C	  3.843576514474 	  7.638981757874 	 12.421248221481 	
C	 19.092979044474 	  1.455426417874 	  2.318824261481 	
C	 18.524434914474 	  1.455429227874 	 12.449380981481 	
C	 19.092947944474 	  7.638988177874 	  2.318821431481 	
C	 18.524403814474 	  7.638990987874 	 12.449378151481 	
H	  3.945898285911 	  0.783063777901 	  6.794208276721 	
H	  3.377354155911 	  0.783066587901 	 16.924764996721 	
H	  3.945867185911 	  6.966625537901 	  6.794205446721 	
H	  3.377323055911 	  6.966628347901 	 16.924762166721 	
H	 18.626725585911 	  0.783073007901 	  6.822338206721 	
H	 18.058181455911 	  0.783075817901 	 16.952894926721 	
H	 18.626694485911 	  6.966634767901 	  6.822335376721 	
H	 18.058150355911 	  6.966637577901 	 16.952892096721 	
H	  9.498712588041 	  3.841324403650 	  9.159214411186 	
H	  8.930168458041 	  3.841327213650 	 19.289771131186 	
H	  9.498681488041 	 10.024886163650 	  9.159211581186 	
H	  8.930137358041 	 10.024888973650 	 19.289768301186 	
H	 24.179539888041 	  3.841333633650 	  9.187344341186 	
H	 23.610995758041 	  3.841336443650 	 19.317901061186 	
H	 24.179508788041 	 10.024895393650 	  9.187341511186 	
H	 23.610964658041 	 10.024898203650 	 19.317898231186 	
H	  9.731475729436 	  5.331192959132 	  3.876853577520 	
H	  9.162931599436 	  5.331195769132 	 14.007410297520 	
H	  9.731444629436 	 11.514754719132 	  3.876850747520 	
H	  9.162900499436 	 11.514757529132 	 14.007407467520 	
H	 24.412303029436 	  5.331202189132 	  3.904983507520 	
H	 23.843758899436 	  5.331204999132 	 14.035540227520 	
H	 24.412271929436 	 11.514763949132 	  3.904980677520 	
H	 23.843727799436 	 11.514766759132 	 14.035537397520 	
H	  4.178661217541 	  2.272932244125 	  1.511848464713 	
H	  3.610117087541 	  2.272935054125 	 11.642405184713 	
H	  4.178630117541 	  8.456494004125 	  1.511845634713 	
H	  3.610085987541 	  8.456496814125 	 11.642402354713 	
H	 18.859488517541 	  2.272941474125 	  1.539978394713 	
H	 18.290944387541 	  2.272944284125 	 11.670535114713 	
H	 18.859457417541 	  8.456503234125 	  1.539975564713 	
H	 18.290913287541 	  8.456506044125 	 11.670532284713 	
C	  5.198143125270 	  1.461109626614 	  8.323040506994 	
C	  4.629598995270 	  1.461112436614 	 18.453597226994 	
C	  5.198112025270 	  7.644671386614 	  8.323037676994 	
C	  4.629567895270 	  7.644674196614 	 18.453594396994 	
C	 19.878970425270 	  1.461118856614 	  8.351170436994 	
C	 19.310426295270 	  1.461121666614 	 18.481727156994 	
C	 19.878939325270 	  7.644680616614 	  8.351167606994 	
C	 19.310395195270 	  7.644683426614 	 18.481724326994 	
C	  8.246185455189 	  4.519532513431 	  7.628534594088 	
C	  7.677641325189 	  4.519535323431 	 17.759091314088 	
C	  8.246154355189 	 10.703094273431 	  7.628531764088 	
C	  7.677610225189 	 10.703097083431 	 17.759088484088 	
C	 22.927012755189 	  4.519541743431 	  7.656664524088 	
C	 22.358468625189 	  4.519544553431 	 17.787221244088 	
C	 22.926981655189 	 10.703103503431 	  7.656661694088 	
C	 22.358437525189 	 10.703106313431 	 17.787218414088 	
C	  8.479230803537 	  4.653146841485 	  2.348021500938 	
C	  7.910686673537 	  4.653149651485 	 12.478578220938 	
C	  8.479199703537 	 10.836708601485 	  2.348018670938 	
C	  7.910655573537 	 10.836711411485 	 12.478575390938 	
C	 23.160058103537 	  4.653156071485 	  2.376151430938 	
C	 22.591513973537 	  4.653158881485 	 12.506708150938 	
C	 23.160027003537 	 10.836717831485 	  2.376148600938 	
C	 22.591482873537 	 10.836720641485 	 12.506705320938 	
C	  5.431189018093 	  1.594723993412 	  3.042527720244 	
C	  4.862644888093 	  1.594726803412 	 13.173084440244 	
C	  5.431157918093 	  7.778285753412 	  3.042524890244 	
C	  4.862613788093 	  7.778288563412 	 13.173081610244 	
C	 20.112016318093 	  1.594733223412 	  3.070657650244 	
C	 19.543472188093 	  1.594736033412 	 13.201214370244 	
C	 20.111985218093 	  7.778294983412 	  3.070654820244 	
C	 19.543441088093 	  7.778297793412 	 13.201211540244 	
H	  5.873629763323 	  0.531565103161 	  8.235026208866 	
H	  5.305085633323 	  0.531567913161 	 18.365582928866 	
H	  5.873598663323 	  6.715126863161 	  8.235023378866 	
H	  5.305054533323 	  6.715129673161 	 18.365580098866 	
H	 20.554457063323 	  0.531574333161 	  8.263156138866 	
H	 19.985912933323 	  0.531577143161 	 18.393712858866 	
H	 20.554425963323 	  6.715136093161 	  8.263153308866 	
H	 19.985881833323 	  6.715138903161 	 18.393710028866 	
H	  7.570373208057 	  3.589035349479 	  7.717411904947 	
H	  7.001829078057 	  3.589038159479 	 17.847968624947 	
H	  7.570342108057 	  9.772597109479 	  7.717409074947 	
H	  7.001797978057 	  9.772599919479 	 17.847965794947 	
H	 22.251200508057 	  3.589044579479 	  7.745541834947 	
H	 21.682656378057 	  3.589047389479 	 17.876098554947 	
H	 22.251169408057 	  9.772606339479 	  7.745539004947 	
H	 21.682625278057 	  9.772609149479 	 17.876095724947 	
H	  7.803744154257 	  5.582691374370 	  2.436035578220 	
H	  7.235200024257 	  5.582694184370 	 12.566592298220 	
H	  7.803713054257 	 11.766253134370 	  2.436032748220 	
H	  7.235168924257 	 11.766255944370 	 12.566589468220 	
H	 22.484571454257 	  5.582700604370 	  2.464165508220 	
H	 21.916027324257 	  5.582703414370 	 12.594722228220 	
H	 22.484540354257 	 11.766262364370 	  2.464162678220 	
H	 21.915996224257 	 11.766265174370 	 12.594719398220 	
H	  6.107001244312 	  2.525221143234 	  2.953650233013 	
H	  5.538457114312 	  2.525223953234 	 13.084206953013 	
H	  6.106970144312 	  8.708782903234 	  2.953647403013 	
H	  5.538426014312 	  8.708785713234 	 13.084204123013 	
H	 20.787828544312 	  2.525230373234 	  2.981780163013 	
H	 20.219284414312 	  2.525233183234 	 13.112336883013 	
H	 20.787797444312 	  8.708792133234 	  2.981777333013 	
H	 20.219253314312 	  8.708794943234 	 13.112334053013 	
C	  1.977439813600 	  2.800282508897 	  6.656012034520 	
C	  1.408895683600 	  2.800285318897 	 16.786568754520 	
C	  1.977408713600 	  8.983844268897 	  6.656009204520 	
C	  1.408864583600 	  8.983847078897 	 16.786565924520 	
C	 16.658267113600 	  2.800291738897 	  6.684141964520 	
C	 16.089722983600 	  2.800294548897 	 16.814698684520 	
C	 16.658236013600 	  8.983853498897 	  6.684139134520 	
C	 16.089691883600 	  8.983856308897 	 16.814695854520 	
C	 11.408062472412 	  5.759314547109 	  9.280404526073 	
C	 10.839518342412 	  5.759317357109 	 19.410961246073 	
C	 11.408031372412 	 11.942876307109 	  9.280401696073 	
C	 10.839487242412 	 11.942879117109 	 19.410958416073 	
C	 26.088889772412 	  5.759323777109 	  9.308534456073 	
C	 25.520345642412 	  5.759326587109 	 19.439091176073 	
C	 26.088858672412 	 11.942885537109 	  9.308531626073 	
C	 25.520314542412 	 11.942888347109 	 19.439088346073 	
C	 11.699934047016 	  3.313974396170 	  4.015050472963 	
C	 11.131389917016 	  3.313977206170 	 14.145607192963 	
C	 11.699902947016 	  9.497536156170 	  4.015047642963 	
C	 11.131358817016 	  9.497538966170 	 14.145604362963 	
C	 26.380761347016 	  3.313983626170 	  4.043180402963 	
C	 25.812217217016 	  3.313986436170 	 14.173737122963 	
C	 26.380730247016 	  9.497545386170 	  4.043177572963 	
C	 25.812186117016 	  9.497548196170 	 14.173734292963 	
C	  2.269311227483 	  0.354941983005 	  1.390658853958 	
C	  1.700767097483 	  0.354944793005 	 11.521215573958 	
C	  2.269280127483 	  6.538503743005 	  1.390656023958 	
C	  1.700735997483 	  6.538506553005 	 11.521212743958 	
C	 16.950138527483 	  0.354951213005 	  1.418788783958 	
C	 16.381594397483 	  0.354954023005 	 11.549345503958 	
C	 16.950107427483 	  6.538512973005 	  1.418785953958 	
C	 16.381563297483 	  6.538515783005 	 11.549342673958 	
C	  2.168655339482 	  2.541925149922 	  5.559161586133 	
C	  1.600111209482 	  2.541927959922 	 15.689718306133 	
C	  2.168624239482 	  8.725486909922 	  5.559158756133 	
C	  1.600080109482 	  8.725489719922 	 15.689715476133 	
C	 16.849482639482 	  2.541934379922 	  5.587291516133 	
C	 16.280938509482 	  2.541937189922 	 15.717848236133 	
C	 16.849451539482 	  8.725496139922 	  5.587288686133 	
C	 16.280907409482 	  8.725498949922 	 15.717845406133 	
C	 11.277866007747 	 -0.403017027131 	 10.297816382575 	
C	 10.709321877747 	 -0.403014217131 	 20.428373102575 	
C	 11.277834907747 	  5.780544732869 	 10.297813552575 	
C	 10.709290777747 	  5.780547542869 	 20.428370272575 	
C	 25.958693307747 	 -0.403007797131 	 10.325946312575 	
C	 25.390149177747 	 -0.403004987131 	 20.456503032575 	
C	 25.958662207747 	  5.780553962869 	 10.325943482575 	
C	 25.390118077747 	  5.780556772869 	 20.456500202575 	
C	 11.508717136179 	  3.572331058430 	  5.111901550586 	
C	 10.940173006179 	  3.572333868430 	 15.242458270586 	
C	 11.508686036179 	  9.755892818430 	  5.111898720586 	
C	 10.940141906179 	  9.755895628430 	 15.242455440586 	
C	 26.189544436179 	  3.572340288430 	  5.140031480586 	
C	 25.621000306179 	  3.572343098430 	 15.270588200586 	
C	 26.189513336179 	  9.755902048430 	  5.140028650586 	
C	 25.620969206179 	  9.755904858430 	 15.270585370586 	
C	  2.399507429370 	  6.517273725533 	  0.373246985981 	
C	  1.830963299370 	  6.517276535533 	 10.503803705981 	
C	  2.399476329370 	 12.700835485533 	  0.373244155981 	
C	  1.830932199370 	 12.700838295533 	 10.503800875981 	
C	 17.080334729370 	  6.517282955533 	  0.401376915981 	
C	 16.511790599370 	  6.517285765533 	 10.531933635981 	
C	 17.080303629370 	 12.700844715533 	  0.401374085981 	
C	 16.511759499370 	 12.700847525533 	 10.531930805981 	
H	  3.057993249956 	  2.984565659975 	  5.020353177626 	
H	  2.489449119956 	  2.984568469975 	 15.150909897626 	
H	  3.057962149956 	  9.168127419975 	  5.020350347626 	
H	  2.489418019956 	  9.168130229975 	 15.150907067626 	
H	 17.738820549956 	  2.984574889975 	  5.048483107626 	
H	 17.170276419956 	  2.984577699975 	 15.179039827626 	
H	 17.738789449956 	  9.168136649975 	  5.048480277626 	
H	 17.170245319956 	  9.168139459975 	 15.179036997626 	
H	 10.398580349858 	 -0.087662082045 	 10.924343569757 	
H	  9.830036219858 	 -0.087659272045 	 21.054900289757 	
H	 10.398549249858 	  6.095899677955 	 10.924340739757 	
H	  9.830005119858 	  6.095902487955 	 21.054897459757 	
H	 25.079407649858 	 -0.087652852045 	 10.952473499757 	
H	 24.510863519858 	 -0.087650042045 	 21.083030219757 	
H	 25.079376549858 	  6.095908907955 	 10.952470669757 	
H	 24.510832419858 	  6.095911717955 	 21.083027389757 	
H	 10.619379856301 	  3.129687807050 	  5.650709311917 	
H	 10.050835726301 	  3.129690617050 	 15.781266031917 	
H	 10.619348756301 	  9.313249567050 	  5.650706481917 	
H	 10.050804626301 	  9.313252377050 	 15.781263201917 	
H	 25.300207156301 	  3.129697037050 	  5.678839241917 	
H	 24.731663026301 	  3.129699847050 	 15.809395961917 	
H	 25.300176056301 	  9.313258797050 	  5.678836411917 	
H	 24.731631926301 	  9.313261607050 	 15.809393131917 	
H	  3.278792856312 	  6.201918915823 	 -0.253280561763 	
H	  2.710248726312 	  6.201921725823 	  9.877276158237 	
H	  3.278761756312 	 12.385480675823 	 -0.253283391763 	
H	  2.710217626312 	 12.385483485823 	  9.877273328237 	
H	 17.959620156312 	  6.201928145823 	 -0.225150631763 	
H	 17.391076026312 	  6.201930955823 	  9.905406088237 	
H	 17.959589056312 	 12.385489905823 	 -0.225153461763 	
H	 17.391044926312 	 12.385492715823 	  9.905403258237 	
H	  1.409570827978 	  2.633038283500 	  4.725692740759 	
H	  0.841026697978 	  2.633041093500 	 14.856249460759 	
H	  1.409539727978 	  8.816600043500 	  4.725689910759 	
H	  0.840995597978 	  8.816602853500 	 14.856246630759 	
H	 16.090398127978 	  2.633047513500 	  4.753822670759 	
H	 15.521853997978 	  2.633050323500 	 14.884379390759 	
H	 16.090367027978 	  8.816609273500 	  4.753819840759 	
H	 15.521822897978 	  8.816612083500 	 14.884376560759 	
H	 12.557912994671 	 -0.419745189198 	  0.729404766876 	
H	 11.989368864671 	 -0.419742379198 	 10.859961486876 	
H	 12.557881894671 	  5.763816570802 	  0.729401936876 	
H	 11.989337764671 	  5.763819380802 	 10.859958656876 	
H	 27.238740294671 	 -0.419735959198 	  0.757534696876 	
H	 26.670196164671 	 -0.419733149198 	 10.888091416876 	
H	 27.238709194671 	  5.763825800802 	  0.757531866876 	
H	 26.670165064671 	  5.763828610802 	 10.888088586876 	
H	 12.267802037197 	  3.481218150027 	  5.945370244973 	
H	 11.699257907197 	  3.481220960027 	 16.075926964973 	
H	 12.267770937197 	  9.664779910027 	  5.945367414973 	
H	 11.699226807197 	  9.664782720027 	 16.075924134973 	
H	 26.948629337197 	  3.481227380027 	  5.973500174973 	
H	 26.380085207197 	  3.481230190027 	 16.104056894973 	
H	 26.948598237197 	  9.664789140027 	  5.973497344973 	
H	 26.380054107197 	  9.664791950027 	 16.104054064973 	
H	  1.119460061486 	  6.534002001948 	  9.941658950537 	
H	  0.550915931486 	  6.534004811948 	 20.072215670537 	
H	  1.119428961486 	 12.717563761948 	  9.941656120537 	
H	  0.550884831486 	 12.717566571948 	 20.072212840537 	
H	 15.800287361486 	  6.534011231948 	  9.969788880537 	
H	 15.231743231486 	  6.534014041948 	 20.100345600537 	
H	 15.800256261486 	 12.717572991948 	  9.969786050537 	
H	 15.231712131486 	 12.717575801948 	 20.100342770537 	
H	  2.565450036827 	  1.524661195243 	  5.270190922988 	
H	  1.996905906827 	  1.524664005243 	 15.400747642988 	
H	  2.565418936827 	  7.708222955243 	  5.270188092988 	
H	  1.996874806827 	  7.708225765243 	 15.400744812988 	
H	 17.246277336827 	  1.524670425243 	  5.298320852988 	
H	 16.677733206827 	  1.524673235243 	 15.428877572988 	
H	 17.246246236827 	  7.708232185243 	  5.298318022988 	
H	 16.677702106827 	  7.708234995243 	 15.428874742988 	
H	 11.272002056411 	  4.478589560362 	  0.170899379036 	
H	 10.703457926411 	  4.478592370362 	 10.301456099036 	
H	 11.271970956411 	 10.662151320362 	  0.170896549036 	
H	 10.703426826411 	 10.662154130362 	 10.301453269036 	
H	 25.952829356411 	  4.478598790362 	  0.199029309036 	
H	 25.384285226411 	  4.478601600362 	 10.329586029036 	
H	 25.952798256411 	 10.662160550362 	  0.199026479036 	
H	 25.384254126411 	 10.662163360362 	 10.329583199036 	
H	 11.111921307468 	  4.589594849078 	  5.400872459284 	
H	 10.543377177468 	  4.589597659078 	 15.531429179284 	
H	 11.111890207468 	 10.773156609078 	  5.400869629284 	
H	 10.543346077468 	 10.773159419078 	 15.531426349284 	
H	 25.792748607468 	  4.589604079078 	  5.429002389284 	
H	 25.224204477468 	  4.589606889078 	 15.559559109284 	
H	 25.792717507468 	 10.773165839078 	  5.428999559284 	
H	 25.224173377468 	 10.773168649078 	 15.559556279284 	
H	  2.405371311779 	  1.635667265836 	 10.500164261654 	
H	  1.836827181779 	  1.635670075836 	 20.630720981654 	
H	  2.405340211779 	  7.819229025836 	 10.500161431654 	
H	  1.836796081779 	  7.819231835836 	 20.630718151654 	
H	 17.086198611779 	  1.635676495836 	 10.528294191654 	
H	 16.517654481779 	  1.635679305836 	 20.658850911654 	
H	 17.086167511779 	  7.819238255836 	 10.528291361654 	
H	 16.517623381779 	  7.819241065836 	 20.658848081654 	
C	  1.553071029632 	  3.865516227056 	  6.664425230129 	
C	  0.984526899632 	  3.865519037056 	 16.794981950129 	
C	  1.553039929632 	 10.049077987056 	  6.664422400129 	
C	  0.984495799632 	 10.049080797056 	 16.794979120129 	
C	 16.233898329632 	  3.865525457056 	  6.692555160129 	
C	 15.665354199632 	  3.865528267056 	 16.823111880129 	
C	 16.233867229632 	 10.049087217056 	  6.692552330129 	
C	 15.665323099632 	 10.049090027056 	 16.823109050129 	
C	 11.966043633965 	  0.928041933688 	  9.281359954708 	
C	 11.397499503965 	  0.928044743688 	 19.411916674708 	
C	 11.966012533965 	  7.111603693688 	  9.281357124708 	
C	 11.397468403965 	  7.111606503688 	 19.411913844708 	
C	 26.646870933965 	  0.928051163688 	  9.309489884708 	
C	 26.078326803965 	  0.928053973688 	 19.440046604708 	
C	 26.646839833965 	  7.111612923688 	  9.309487054708 	
C	 26.078295703965 	  7.111615733688 	 19.440043774708 	
C	 12.124303508250 	  2.248740329881 	  4.006636111611 	
C	 11.555759378250 	  2.248743139881 	 14.137192831611 	
C	 12.124272408250 	  8.432302089881 	  4.006633281611 	
C	 11.555728278250 	  8.432304899881 	 14.137190001611 	
C	 26.805130808250 	  2.248749559881 	  4.034766041611 	
C	 26.236586678250 	  2.248752369881 	 14.165322761611 	
C	 26.805099708250 	  8.432311319881 	  4.034763211611 	
C	 26.236555578250 	  8.432314129881 	 14.165319931611 	
C	  1.711330115635 	  5.186214557995 	  1.389703394487 	
C	  1.142785985635 	  5.186217367995 	 11.520260114487 	
C	  1.711299015635 	 11.369776317995 	  1.389700564487 	
C	  1.142754885635 	 11.369779127995 	 11.520257284487 	
C	 16.392157415635 	  5.186223787995 	  1.417833324487 	
C	 15.823613285635 	  5.186226597995 	 11.548390044487 	
C	 16.392126315635 	 11.369785547995 	  1.417830494487 	
C	 15.823582185635 	 11.369788357995 	 11.548387214487 	
H	  2.221246807873 	  4.753217518562 	  6.422605610742 	
H	  1.652702677873 	  4.753220328562 	 16.553162330742 	
H	  2.221215707873 	 10.936779278562 	  6.422602780742 	
H	  1.652671577873 	 10.936782088562 	 16.553159500742 	
H	 16.902074107873 	  4.753226748562 	  6.450735540742 	
H	 16.333529977873 	  4.753229558562 	 16.581292260742 	
H	 16.902043007873 	 10.936788508562 	  6.450732710742 	
H	 16.333498877873 	 10.936791318562 	 16.581289430742 	
H	 11.212455351480 	  1.710365956654 	  9.532813163958 	
H	 10.643911221480 	  1.710368766654 	 19.663369883958 	
H	 11.212424251480 	  7.893927716654 	  9.532810333958 	
H	 10.643880121480 	  7.893930526654 	 19.663367053958 	
H	 25.893282651480 	  1.710375186654 	  9.560943093958 	
H	 25.324738521480 	  1.710377996654 	 19.691499813958 	
H	 25.893251551480 	  7.893936946654 	  9.560940263958 	
H	 25.324707421480 	  7.893939756654 	 19.691496983958 	
H	 11.456128156047 	  1.361038283018 	  4.248455022969 	
H	 10.887584026047 	  1.361041093018 	 14.379011742969 	
H	 11.456097056047 	  7.544600043018 	  4.248452192969 	
H	 10.887552926047 	  7.544602853018 	 14.379008912969 	
H	 26.136955456047 	  1.361047513018 	  4.276584952969 	
H	 25.568411326047 	  1.361050323018 	 14.407141672969 	
H	 26.136924356047 	  7.544609273018 	  4.276582122969 	
H	 25.568380226047 	  7.544612083018 	 14.407138842969 	
H	  2.464918366501 	  4.403890641415 	  1.138249695520 	
H	  1.896374236501 	  4.403893451415 	 11.268806415520 	
H	  2.464887266501 	 10.587452401415 	  1.138246865520 	
H	  1.896343136501 	 10.587455211415 	 11.268803585520 	
H	 17.145745666501 	  4.403899871415 	  1.166379625520 	
H	 16.577201536501 	  4.403902681415 	 11.296936345520 	
H	 17.145714566501 	 10.587461631415 	  1.166376795520 	
H	 16.577170436501 	 10.587464441415 	 11.296933515520 	
H	  1.263293417270 	  4.357006099185 	  7.651277413581 	
H	  0.694749287270 	  4.357008909185 	 17.781834133581 	
H	  1.263262317270 	 10.540567859185 	  7.651274583581 	
H	  0.694718187270 	 10.540570669185 	 17.781831303581 	
H	 15.944120717270 	  4.357015329185 	  7.679407343581 	
H	 15.375576587270 	  4.357018139185 	 17.809964063581 	
H	 15.944089617270 	 10.540577089185 	  7.679404513581 	
H	 15.375545487270 	 10.540579899185 	 17.809961233581 	
H	 12.179661021263 	  7.384836616038 	  8.306783108070 	
H	 11.611116891263 	  7.384839426038 	 18.437339828070 	
H	 12.179629921263 	 13.568398376038 	  8.306780278070 	
H	 11.611085791263 	 13.568401186038 	 18.437336998070 	
H	 26.860488321263 	  7.384845846038 	  8.334913038070 	
H	 26.291944191263 	  7.384848656038 	 18.465469758070 	
H	 26.860457221263 	 13.568407606038 	  8.334910208070 	
H	 26.291913091263 	 13.568410416038 	 18.465466928070 	
H	 12.414082442541 	  1.757251835258 	  3.019783439830 	
H	 11.845538312541 	  1.757254645258 	 13.150340159830 	
H	 12.414051342541 	  7.940813595258 	  3.019780609830 	
H	 11.845507212541 	  7.940816405258 	 13.150337329830 	
H	 27.094909742541 	  1.757261065258 	  3.047913369830 	
H	 26.526365612541 	  1.757263875258 	 13.178470089830 	
H	 27.094878642541 	  7.940822825258 	  3.047910539830 	
H	 26.526334512541 	  7.940825635258 	 13.178467259830 	
H	  1.497713206442 	 -1.270580328944 	  2.364280396605 	
H	  0.929169076442 	 -1.270577518944 	 12.494837116605 	
H	  1.497682106442 	  4.912981431056 	  2.364277566605 	
H	  0.929137976442 	  4.912984241056 	 12.494834286605 	
H	 16.178540506442 	 -1.270571098944 	  2.392410326605 	
H	 15.609996376442 	 -1.270568288944 	 12.522967046605 	
H	 16.178509406442 	  4.912990661056 	  2.392407496605 	
H	 15.609965276442 	  4.912993471056 	 12.522964216605 	
H	  0.648823574774 	  4.105814320177 	  6.029526642020 	
H	  0.080279444774 	  4.105817130177 	 16.160083362020 	
H	  0.648792474774 	 10.289376080177 	  6.029523812020 	
H	  0.080248344774 	 10.289378890177 	 16.160080532020 	
H	 15.329650874774 	  4.105823550177 	  6.057656572020 	
H	 14.761106744774 	  4.105826360177 	 16.188213292020 	
H	 15.329619774774 	 10.289385310177 	  6.057653742020 	
H	 14.761075644774 	 10.289388120177 	 16.188210462020 	
H	 12.788762537697 	  7.154007212968 	  9.917944449715 	
H	 12.220218407697 	  7.154010022968 	 20.048501169715 	
H	 12.788731437697 	 13.337568972968 	  9.917941619715 	
H	 12.220187307697 	 13.337571782968 	 20.048498339715 	
H	 27.469589837697 	  7.154016442968 	  9.946074379715 	
H	 26.901045707697 	  7.154019252968 	 20.076631099715 	
H	 27.469558737697 	 13.337578202968 	  9.946071549715 	
H	 26.901014607697 	 13.337581012968 	 20.076628269715 	
H	 13.028550945654 	  2.008442517419 	  4.641534981471 	
H	 12.460006815654 	  2.008445327419 	 14.772091701471 	
H	 13.028519845654 	  8.192004277419 	  4.641532151471 	
H	 12.459975715654 	  8.192007087419 	 14.772088871471 	
H	 27.709378245654 	  2.008451747419 	  4.669664911471 	
H	 27.140834115654 	  2.008454557419 	 14.800221631471 	
H	 27.709347145654 	  8.192013507419 	  4.669662081471 	
H	 27.140803015654 	  8.192016317419 	 14.800218801471 	
H	  0.888610920672 	 -1.039750794632 	  0.753119304290 	
H	  0.320066790672 	 -1.039747984632 	 10.883676024290 	
H	  0.888579820672 	  5.143810965368 	  0.753116474290 	
H	  0.320035690672 	  5.143813775368 	 10.883673194290 	
H	 15.569438220672 	 -1.039741564632 	  0.781249234290 	
H	 15.000894090672 	 -1.039738754632 	 10.911805954290 	
H	 15.569407120672 	  5.143820195368 	  0.781246404290 	
H	 15.000862990672 	  5.143823005368 	 10.911803124290 	
C	  1.152080913597 	  2.098439732904 	  7.027219617699 	
C	  0.583536783597 	  2.098442542904 	 17.157776337699 	
C	  1.152049813597 	  8.282001492904 	  7.027216787699 	
C	  0.583505683597 	  8.282004302904 	 17.157773507699 	
C	 15.832908213597 	  2.098448962904 	  7.055349547699 	
C	 15.264364083597 	  2.098451772904 	 17.185906267699 	
C	 15.832877113597 	  8.282010722904 	  7.055346717699 	
C	 15.264332983597 	  8.282013532904 	 17.185903437699 	
C	 12.293329528346 	  5.155942179627 	  8.926513255251 	
C	 11.724785398346 	  5.155944989627 	 19.057069975251 	
C	 12.293298428346 	 11.339503939627 	  8.926510425251 	
C	 11.724754298346 	 11.339506749627 	 19.057067145251 	
C	 26.974156828346 	  5.155951409627 	  8.954643185251 	
C	 26.405612698346 	  5.155954219627 	 19.085199905251 	
C	 26.974125728346 	 11.339513169627 	  8.954640355251 	
C	 26.405581598346 	 11.339515979627 	 19.085197075251 	
C	 12.525292434704 	  4.015818824962 	  3.643842665825 	
C	 11.956748304704 	  4.015821634962 	 13.774399385825 	
C	 12.525261334704 	 10.199380584962 	  3.643839835825 	
C	 11.956717204704 	 10.199383394962 	 13.774396555825 	
C	 27.206119734704 	  4.015828054962 	  3.671972595825 	
C	 26.637575604704 	  4.015830864962 	 13.802529315825 	
C	 27.206088634704 	 10.199389814962 	  3.671969765825 	
C	 26.637544504704 	 10.199392624962 	 13.802526485825 	
C	  1.384044146097 	  0.958314102966 	  1.744550510906 	
C	  0.815500016097 	  0.958316912966 	 11.875107230906 	
C	  1.384013046097 	  7.141875862966 	  1.744547680906 	
C	  0.815468916097 	  7.141878672966 	 11.875104400906 	
C	 16.064871446097 	  0.958323332966 	  1.772680440906 	
C	 15.496327316097 	  0.958326142966 	 11.903237160906 	
C	 16.064840346097 	  7.141885092966 	  1.772677610906 	
C	 15.496296216097 	  7.141887902966 	 11.903234330906 	
H	  0.127448815555 	  2.017653942480 	  6.554989274139 	
H	 -0.441095314445 	  2.017656752480 	 16.685545994139 	
H	  0.127417715555 	  8.201215702480 	  6.554986444139 	
H	 -0.441126414445 	  8.201218512480 	 16.685543164139 	
H	 14.808276115555 	  2.017663172480 	  6.583119204139 	
H	 14.239731985555 	  2.017665982480 	 16.713675924139 	
H	 14.808245015555 	  8.201224932480 	  6.583116374139 	
H	 14.239700885555 	  8.201227742480 	 16.713673094139 	
H	 13.315988265681 	  5.074991107533 	  9.398965874285 	
H	 12.747444135681 	  5.074993917533 	 19.529522594285 	
H	 13.315957165681 	 11.258552867533 	  9.398963044285 	
H	 12.747413035681 	 11.258555677533 	 19.529519764285 	
H	 27.996815565681 	  5.075000337533 	  9.427095804285 	
H	 27.428271435681 	  5.075003147533 	 19.557652524285 	
H	 27.996784465681 	 11.258562097533 	  9.427092974285 	
H	 27.428240335681 	 11.258564907533 	 19.557649694285 	
H	 13.549924536969 	  4.096604589996 	  4.116073312898 	
H	 12.981380406969 	  4.096607399996 	 14.246630032898 	
H	 13.549893436969 	 10.280166349996 	  4.116070482898 	
H	 12.981349306969 	 10.280169159996 	 14.246627202898 	
H	 28.230751836969 	  4.096613819996 	  4.144203242898 	
H	 27.662207706969 	  4.096616629996 	 14.274759962898 	
H	 28.230720736969 	 10.280175579996 	  4.144200412898 	
H	 27.662176606969 	 10.280178389996 	 14.274757132898 	
H	  0.361385287586 	  1.039265066202 	  1.272098147845 	
H	 -0.207158842414 	  1.039267876202 	 11.402654867845 	
H	  0.361354187586 	  7.222826826202 	  1.272095317845 	
H	 -0.207189942414 	  7.222829636202 	 11.402652037845 	
H	 15.042212587586 	  1.039274296202 	  1.300228077845 	
H	 14.473668457586 	  1.039277106202 	 11.430784797845 	
H	 15.042181487586 	  7.222836056202 	  1.300225247845 	
H	 14.473637357586 	  7.222838866202 	 11.430781967845 	
H	  0.865834869442 	  2.131837657171 	  8.126191741487 	
H	  0.297290739442 	  2.131840467171 	 18.256748461487 	
H	  0.865803769442 	  8.315399417171 	  8.126188911487 	
H	  0.297259639442 	  8.315402227171 	 18.256745631487 	
H	 15.546662169442 	  2.131846887171 	  8.154321671487 	
H	 14.978118039442 	  2.131849697171 	 18.284878391487 	
H	 15.546631069442 	  8.315408647171 	  8.154318841487 	
H	 14.978086939442 	  8.315411457171 	 18.284875561487 	
H	 12.577757596412 	  5.189532533856 	  7.827384234216 	
H	 12.009213466412 	  5.189535343856 	 17.957940954216 	
H	 12.577726496412 	 11.373094293856 	  7.827381404216 	
H	 12.009182366412 	 11.373097103856 	 17.957938124216 	
H	 27.258584896412 	  5.189541763856 	  7.855514164216 	
H	 26.690040766412 	  5.189544573856 	 17.986070884216 	
H	 27.258553796412 	 11.373103523856 	  7.855511334216 	
H	 26.690009666412 	 11.373106333856 	 17.986068054216 	
H	 12.811538612936 	  3.982421805676 	  2.544870272307 	
H	 12.242994482936 	  3.982424615676 	 12.675426992307 	
H	 12.811507512936 	 10.165983565676 	  2.544867442307 	
H	 12.242963382936 	 10.165986375676 	 12.675424162307 	
H	 27.492365912936 	  3.982431035676 	  2.573000202307 	
H	 26.923821782936 	  3.982433845676 	 12.703556922307 	
H	 27.492334812936 	 10.165992795676 	  2.572997372307 	
H	 26.923790682936 	 10.165995605676 	 12.703554092307 	
H	  1.099616234621 	  0.924723435548 	  2.843679519172 	
H	  0.531072104621 	  0.924726245548 	 12.974236239172 	
H	  1.099585134621 	  7.108285195548 	  2.843676689172 	
H	  0.531041004621 	  7.108288005548 	 12.974233409172 	
H	 15.780443534621 	  0.924732665548 	  2.871809449172 	
H	 15.211899404621 	  0.924735475548 	 13.002366169172 	
H	 15.780412434621 	  7.108294425548 	  2.871806619172 	
H	 15.211868304621 	  7.108297235548 	 13.002363339172 	
H	  1.368421405657 	  0.992558706618 	  7.132100439861 	
H	  0.799877275657 	  0.992561516618 	 17.262657159861 	
H	  1.368390305657 	  7.176120466618 	  7.132097609861 	
H	  0.799846175657 	  7.176123276618 	 17.262654329861 	
H	 16.049248705657 	  0.992567936618 	  7.160230369861 	
H	 15.480704575657 	  0.992570746618 	 17.290787089861 	
H	 16.049217605657 	  7.176129696618 	  7.160227539861 	
H	 15.480673475657 	  7.176132506618 	 17.290784259861 	
H	 12.074842394539 	  4.051442337328 	  8.821100423918 	
H	 11.506298264539 	  4.051445147328 	 18.951657143918 	
H	 12.074811294539 	 10.235004097328 	  8.821097593918 	
H	 11.506267164539 	 10.235006907328 	 18.951654313918 	
H	 26.755669694539 	  4.051451567328 	  8.849230353918 	
H	 26.187125564539 	  4.051454377328 	 18.979787073918 	
H	 26.755638594539 	 10.235013327328 	  8.849227523918 	
H	 26.187094464539 	 10.235016137328 	 18.979784243918 	
H	 12.308950883929 	  5.121700125795 	  3.538963946967 	
H	 11.740406753929 	  5.121702935795 	 13.669520666967 	
H	 12.308919783929 	 11.305261885795 	  3.538961116967 	
H	 11.740375653929 	 11.305264695795 	 13.669517836967 	
H	 26.989778183929 	  5.121709355795 	  3.567093876967 	
H	 26.421234053929 	  5.121712165795 	 13.697650596967 	
H	 26.989747083929 	 11.305271115795 	  3.567091046967 	
H	 26.421202953929 	 11.305273925795 	 13.697647766967 	
H	  1.602531139978 	  2.062813932723 	  1.849963868504 	
H	  1.033987009978 	  2.062816742723 	 11.980520588504 	
H	  1.602500039978 	  8.246375692723 	  1.849961038504 	
H	  1.033955909978 	  8.246378502723 	 11.980517758504 	
H	 16.283358439978 	  2.062823162723 	  1.878093798504 	
H	 15.714814309978 	  2.062825972723 	 12.008650518504 	
H	 16.283327339978 	  8.246384922723 	  1.878090968504 	
H	 15.714783209978 	  8.246387732723 	 12.008647688504 	
768 
Energy: -9.1171071663630002e+01 
S	  8.343821117034 	  1.434413328738 	  0.128165346584 	
S	  7.775276987034 	  1.434416138738 	 10.258722066584 	
S	  8.343790017034 	  7.617975088738 	  0.128162516584 	
S	  7.775245887034 	  7.617977898738 	 10.258719236584 	
S	 23.024648417034 	  1.434422558738 	  0.156295276584 	
S	 22.456104287034 	  1.434425368738 	 10.286851996584 	
S	 23.024617317034 	  7.617984318738 	  0.156292446584 	
S	 22.456073187034 	  7.617987128738 	 10.286849166584 	
S	  5.503230777400 	  4.485723333478 	  5.299254280628 	
S	  4.934686647400 	  4.485726143478 	 15.429811000628 	
S	  5.503199677400 	 10.669285093478 	  5.299251450628 	
S	  4.934655547400 	 10.669287903478 	 15.429808170628 	
S	 20.184058077400 	  4.485732563478 	  5.327384210628 	
S	 19.615513947400 	  4.485735373478 	 15.457940930628 	
S	 20.184026977400 	 10.669294323478 	  5.327381380628 	
S	 19.615482847400 	 10.669297133478 	 15.457938100628 	
S	  5.278122860846 	  4.671007686579 	 10.608205387535 	
S	  4.709578730846 	  4.671010496579 	 20.738762107535 	
S	  5.278091760846 	 10.854569446579 	 10.608202557535 	
S	  4.709547630846 	 10.854572256579 	 20.738759277535 	
S	 19.958950160846 	  4.671016916579 	 10.636335317535 	
S	 19.390406030846 	  4.671019726579 	 20.766892037535 	
S	 19.958919060846 	 10.854578676579 	 10.636332487535 	
S	 19.390374930846 	 10.854581486579 	 20.766889207535 	
S	  8.118714548435 	  1.619697709489 	  5.437116065737 	
S	  7.550170418435 	  1.619700519489 	 15.567672785737 	
S	  8.118683448435 	  7.803259469489 	  5.437113235737 	
S	  7.550139318435 	  7.803262279489 	 15.567669955737 	
S	 22.799541848435 	  1.619706939489 	  5.465245995737 	
S	 22.230997718435 	  1.619709749489 	 15.595802715737 	
S	 22.799510748435 	  7.803268699489 	  5.465243165737 	
S	 22.230966618435 	  7.803271509489 	 15.595799885737 	
C	  6.550240156258 	  2.542107541138 	 10.302867371657 	
C	  5.981696026258 	  2.542110351138 	 20.433424091657 	
C	  6.550209056258 	  8.725669301138 	 10.302864541657 	
C	  5.981664926258 	  8.725672111138 	 20.433421261657 	
C	 21.231067456258 	  2.542116771138 	 10.330997301657 	
C	 20.662523326258 	  2.542119581138 	 20.461554021657 	
C	 21.231036356258 	  8.725678531138 	 10.330994471657 	
C	 20.662492226258 	  8.725681341138 	 20.461551191657 	
C	  6.848045851132 	  5.553340814245 	  5.771708805255 	
C	  6.279501721132 	  5.553343624245 	 15.902265525255 	
C	  6.848014751132 	 11.736902574245 	  5.771705975255 	
C	  6.279470621132 	 11.736905384245 	 15.902262695255 	
C	 21.528873151132 	  5.553350044245 	  5.799838735255 	
C	 20.960329021132 	  5.553352854245 	 15.930395455255 	
C	 21.528842051132 	 11.736911804245 	  5.799835905255 	
C	 20.960297921132 	 11.736914614245 	 15.930392625255 	
C	  7.071703827025 	  3.563313466412 	  0.433503188025 	
C	  6.503159697025 	  3.563316276412 	 10.564059908025 	
C	  7.071672727025 	  9.746875226412 	  0.433500358025 	
C	  6.503128597025 	  9.746878036412 	 10.564057078025 	
C	 21.752531127025 	  3.563322696412 	  0.461633118025 	
C	 21.183986997025 	  3.563325506412 	 10.592189838025 	
C	 21.752500027025 	  9.746884456412 	  0.461630288025 	
C	 21.183955897025 	  9.746887266412 	 10.592187008025 	
C	  6.773899314621 	  0.552080281256 	  4.964661372629 	
C	  6.205355184621 	  0.552083091256 	 15.095218092629 	
C	  6.773868214621 	  6.735642041256 	  4.964658542629 	
C	  6.205324084621 	  6.735644851256 	 15.095215262629 	
C	 21.454726614621 	  0.552089511256 	  4.992791302629 	
C	 20.886182484621 	  0.552092321256 	 15.123348022629 	
C	 21.454695514621 	  6.735651271256 	  4.992788472629 	
C	 20.886151384621 	  6.735654081256 	 15.123345192629 	
C	  5.531268937175 	  2.403761273768 	  9.318185091223 	
C	  4.962724807175 	  2.403764083768 	 19.448741811223 	
C	  5.531237837175 	  8.587323033768 	  9.318182261223 	
C	  4.962693707175 	  8.587325843768 	 19.448738981223 	
C	 20.212096237175 	  2.403770503768 	  9.346315021223 	
C	 19.643552107175 	  2.403773313768 	 19.476871741223 	
C	 20.212065137175 	  8.587332263768 	  9.346312191223 	
C	 19.643521007175 	  8.587335073768 	 19.476868911223 	
C	  7.865082833848 	  5.451928405808 	  6.726909028008 	
C	  7.296538703848 	  5.451931215808 	 16.857465748008 	
C	  7.865051733848 	 11.635490165808 	  6.726906198008 	
C	  7.296507603848 	 11.635492975808 	 16.857462918008 	
C	 22.545910133848 	  5.451937635808 	  6.755038958008 	
C	 21.977366003848 	  5.451940445808 	 16.885595678008 	
C	 22.545879033848 	 11.635499395808 	  6.755036128008 	
C	 21.977334903848 	 11.635502205808 	 16.885592848008 	
C	  8.090675006388 	  3.701659813941 	  1.418185433257 	
C	  7.522130876388 	  3.701662623941 	 11.548742153257 	
C	  8.090643906388 	  9.885221573941 	  1.418182603257 	
C	  7.522099776388 	  9.885224383941 	 11.548739323257 	
C	 22.771502306388 	  3.701669043941 	  1.446315363257 	
C	 22.202958176388 	  3.701671853941 	 11.576872083257 	
C	 22.771471206388 	  9.885230803941 	  1.446312533257 	
C	 22.202927076388 	  9.885233613941 	 11.576869253257 	
C	  5.756862112819 	  0.653492741100 	  4.009461400785 	
C	  5.188317982819 	  0.653495551100 	 14.140018120785 	
C	  5.756831012819 	  6.837054501100 	  4.009458570785 	
C	  5.188286882819 	  6.837057311100 	 14.140015290785 	
C	 20.437689412819 	  0.653501971100 	  4.037591330785 	
C	 19.869145282819 	  0.653504781100 	 14.168148050785 	
C	 20.437658312819 	  6.837063731100 	  4.037588500785 	
C	 19.869114182819 	  6.837066541100 	 14.168145220785 	
C	  4.700993926227 	  3.502057803549 	  9.338153042189 	
C	  4.132449796227 	  3.502060613549 	 19.468709762189 	
C	  4.700962826227 	  9.685619563549 	  9.338150212189 	
C	  4.132418696227 	  9.685622373549 	 19.468706932189 	
C	 19.381821226227 	  3.502067033549 	  9.366282972189 	
C	 18.813277096227 	  3.502069843549 	 19.496839692189 	
C	 19.381790126227 	  9.685628793549 	  9.366280142189 	
C	 18.813245996227 	  9.685631603549 	 19.496836862189 	
C	  8.691892737329 	  0.452411943083 	  6.708110636259 	
C	  8.123348607329 	  0.452414753083 	 16.838667356259 	
C	  8.691861637329 	  6.635973703083 	  6.708107806259 	
C	  8.123317507329 	  6.635976513083 	 16.838664526259 	
C	 23.372720037329 	  0.452421173083 	  6.736240566259 	
C	 22.804175907329 	  0.452423983083 	 16.866797286259 	
C	 23.372688937329 	  6.635982933083 	  6.736237736259 	
C	 22.804144807329 	  6.635985743083 	 16.866794456259 	
C	  8.920950001846 	  2.603363218644 	  1.398217493317 	
C	  8.352405871846 	  2.603366028644 	 11.528774213317 	
C	  8.920918901846 	  8.786924978644 	  1.398214663317 	
C	  8.352374771846 	  8.786927788644 	 11.528771383317 	
C	 23.601777301846 	  2.603372448644 	  1.426347423317 	
C	 23.033233171846 	  2.603375258644 	 11.556904143317 	
C	 23.601746201846 	  8.786934208644 	  1.426344593317 	
C	 23.033202071846 	  8.786937018644 	 11.556901313317 	
C	  4.930052283665 	  5.653009186773 	  4.028259999695 	
C	  4.361508153665 	  5.653011996773 	 14.158816719695 	
C	  4.930021183665 	 11.836570946773 	  4.028257169695 	
C	  4.361477053665 	 11.836573756773 	 14.158813889695 	
C	 19.610879583665 	  5.653018416773 	  4.056389929695 	
C	 19.042335453665 	  5.653021226773 	 14.186946649695 	
C	 19.610848483665 	 11.836580176773 	  4.056387099695 	
C	 19.042304353665 	 11.836582986773 	 14.186943819695 	
C	  3.667434228016 	  3.637750806824 	  8.547689167424 	
C	  3.098890098016 	  3.637753616824 	 18.678245887424 	
C	  3.667403128016 	  9.821312566824 	  8.547686337424 	
C	  3.098858998016 	  9.821315376824 	 18.678243057424 	
C	 18.348261528016 	  3.637760036824 	  8.575819097424 	
C	 17.779717398016 	  3.637762846824 	 18.706375817424 	
C	 18.348230428016 	  9.821321796824 	  8.575816267424 	
C	 17.779686298016 	  9.821324606824 	 18.706372987424 	
C	  9.724217048106 	  0.593516234673 	  7.493491842359 	
C	  9.155672918106 	  0.593519044673 	 17.624048562359 	
C	  9.724185948106 	  6.777077994673 	  7.493489012359 	
C	  9.155641818106 	  6.777080804673 	 17.624045732359 	
C	 24.405044348106 	  0.593525464673 	  7.521621772359 	
C	 23.836500218106 	  0.593528274673 	 17.652178492359 	
C	 24.405013248106 	  6.777087224673 	  7.521618942359 	
C	 23.836469118106 	  6.777090034673 	 17.652175662359 	
C	  9.954509719918 	  2.467670396253 	  2.188681600610 	
C	  9.385965589918 	  2.467673206253 	 12.319238320610 	
C	  9.954478619918 	  8.651232156253 	  2.188678770610 	
C	  9.385934489918 	  8.651234966253 	 12.319235490610 	
C	 24.635337019918 	  2.467679626253 	  2.216811530610 	
C	 24.066792889918 	  2.467682436253 	 12.347368250610 	
C	 24.635305919918 	  8.651241386253 	  2.216808700610 	
C	 24.066761789918 	  8.651244196253 	 12.347365420610 	
C	  3.897727513387 	  5.511904987584 	  3.242879262753 	
C	  3.329183383387 	  5.511907797584 	 13.373435982753 	
C	  3.897696413387 	 11.695466747584 	  3.242876432753 	
C	  3.329152283387 	 11.695469557584 	 13.373433152753 	
C	 18.578554813387 	  5.511914217584 	  3.271009192753 	
C	 18.010010683387 	  5.511917027584 	 13.401565912753 	
C	 18.578523713387 	 11.695475977584 	  3.271006362753 	
C	 18.009979583387 	 11.695478787584 	 13.401563082753 	
H	  3.024006696150 	  4.593283207936 	  8.621620151178 	
H	  2.455462566150 	  4.593286017936 	 18.752176871178 	
H	  3.023975596150 	 10.776844967936 	  8.621617321178 	
H	  2.455431466150 	 10.776847777936 	 18.752174041178 	
H	 17.704833996150 	  4.593292437936 	  8.649750081178 	
H	 17.136289866150 	  4.593295247936 	 18.780306801178 	
H	 17.704802896150 	 10.776854197936 	  8.649747251178 	
H	 17.136258766150 	 10.776857007936 	 18.780303971178 	
H	 10.371005031517 	  1.539070647115 	  7.425171700294 	
H	  9.802460901517 	  1.539073457115 	 17.555728420294 	
H	 10.370973931517 	  7.722632407115 	  7.425168870294 	
H	  9.802429801517 	  7.722635217115 	 17.555725590294 	
H	 25.051832331517 	  1.539079877115 	  7.453301630294 	
H	 24.483288201517 	  1.539082687115 	 17.583858350294 	
H	 25.051801231517 	  7.722641637115 	  7.453298800294 	
H	 24.483257101517 	  7.722644447115 	 17.583855520294 	
H	 10.597937148362 	  1.512137882229 	  2.114750822880 	
H	 10.029393018362 	  1.512140692229 	 12.245307542880 	
H	 10.597906048362 	  7.695699642229 	  2.114747992880 	
H	 10.029361918362 	  7.695702452229 	 12.245304712880 	
H	 25.278764448362 	  1.512147112229 	  2.142880752880 	
H	 24.710220318362 	  1.512149922229 	 12.273437472880 	
H	 25.278733348362 	  7.695708872229 	  2.142877922880 	
H	 24.710189218362 	  7.695711682229 	 12.273434642880 	
H	  3.250939652926 	  4.566350513810 	  3.311199600441 	
H	  2.682395522926 	  4.566353323810 	 13.441756320441 	
H	  3.250908552926 	 10.749912273810 	  3.311196770441 	
H	  2.682364422926 	 10.749915083810 	 13.441753490441 	
H	 17.931766952926 	  4.566359743810 	  3.339329530441 	
H	 17.363222822926 	  4.566362553810 	 13.469886250441 	
H	 17.931735852926 	 10.749921503810 	  3.339326700441 	
H	 17.363191722926 	 10.749924313810 	 13.469883420441 	
C	  3.339061751652 	  2.712806502747 	  7.654980272217 	
C	  2.770517621652 	  2.712809312747 	 17.785536992217 	
C	  3.339030651652 	  8.896368262747 	  7.654977442217 	
C	  2.770486521652 	  8.896371072747 	 17.785534162217 	
C	 18.019889051652 	  2.712815732747 	  7.683110202217 	
C	 17.451344921652 	  2.712818542747 	 17.813666922217 	
C	 18.019857951652 	  8.896377492747 	  7.683107372217 	
C	 17.451313821652 	  8.896380302747 	 17.813664092217 	
C	 10.058848453813 	  5.756176254185 	  8.394609556246 	
C	  9.490304323813 	  5.756179064185 	 18.525166276246 	
C	 10.058817353813 	 11.939738014185 	  8.394606726246 	
C	  9.490273223813 	 11.939740824185 	 18.525163446246 	
C	 24.739675753813 	  5.756185484185 	  8.422739486246 	
C	 24.171131623813 	  5.756188294185 	 18.553296206246 	
C	 24.739644653813 	 11.939747244185 	  8.422736656246 	
C	 24.171100523813 	 11.939750054185 	 18.553293376246 	
C	 10.282882070532 	  3.392614801679 	  3.081390196098 	
C	  9.714337940532 	  3.392617611679 	 13.211946916098 	
C	 10.282850970532 	  9.576176561679 	  3.081387366098 	
C	  9.714306840532 	  9.576179371679 	 13.211944086098 	
C	 24.963709370532 	  3.392624031679 	  3.109520126098 	
C	 24.395165240532 	  3.392626841679 	 13.240076846098 	
C	 24.963678270532 	  9.576185791679 	  3.109517296098 	
C	 24.395134140532 	  9.576188601679 	 13.240074016098 	
C	  3.563095696860 	  0.349245075854 	  2.341761794727 	
C	  2.994551566860 	  0.349247885854 	 12.472318514727 	
C	  3.563064596860 	  6.532806835854 	  2.341758964727 	
C	  2.994520466860 	  6.532809645854 	 12.472315684727 	
C	 18.243922996860 	  0.349254305854 	  2.369891724727 	
C	 17.675378866860 	  0.349257115854 	 12.500448444727 	
C	 18.243891896860 	  6.532816065854 	  2.369888894727 	
C	 17.675347766860 	  6.532818875854 	 12.500445614727 	
C	  4.166657310894 	  1.627673743121 	  7.606654656525 	
C	  3.598113180894 	  1.627676553121 	 17.737211376525 	
C	  4.166626210894 	  7.811235503121 	  7.606651826525 	
C	  3.598082080894 	  7.811238313121 	 17.737208546525 	
C	 18.847484610894 	  1.627682973121 	  7.634784586525 	
C	 18.278940480894 	  1.627685783121 	 17.765341306525 	
C	 18.847453510894 	  7.811244733121 	  7.634781756525 	
C	 18.278909380894 	  7.811247543121 	 17.765338476525 	
C	  9.229047051342 	  4.681826752863 	  8.438094787965 	
C	  8.660502921342 	  4.681829562863 	 18.568651507965 	
C	  9.229015951342 	 10.865388512863 	  8.438091957965 	
C	  8.660471821342 	 10.865391322863 	 18.568648677965 	
C	 23.909874351342 	  4.681835982863 	  8.466224717965 	
C	 23.341330221342 	  4.681838792863 	 18.596781437965 	
C	 23.909843251342 	 10.865397742863 	  8.466221887965 	
C	 23.341299121342 	 10.865400552863 	 18.596778607965 	
C	  9.455286595005 	  4.477747637874 	  3.129715649912 	
C	  8.886742465005 	  4.477750447874 	 13.260272369912 	
C	  9.455255495005 	 10.661309397874 	  3.129712819912 	
C	  8.886711365005 	 10.661312207874 	 13.260269539912 	
C	 24.136113895005 	  4.477756867874 	  3.157845579912 	
C	 23.567569765005 	  4.477759677874 	 13.288402299912 	
C	 24.136082795005 	 10.661318627874 	  3.157842749912 	
C	 23.567538665005 	 10.661321437874 	 13.288399469912 	
C	  4.392897059098 	  1.423594479655 	  2.298276227685 	
C	  3.824352929098 	  1.423597289655 	 12.428832947685 	
C	  4.392865959098 	  7.607156239655 	  2.298273397685 	
C	  3.824321829098 	  7.607159049655 	 12.428830117685 	
C	 19.073724359098 	  1.423603709655 	  2.326406157685 	
C	 18.505180229098 	  1.423606519655 	 12.456962877685 	
C	 19.073693259098 	  7.607165469655 	  2.326403327685 	
C	 18.505149129098 	  7.607168279655 	 12.456960047685 	
H	  3.931848430809 	  0.816680032576 	  6.822837349732 	
H	  3.363304300809 	  0.816682842576 	 16.953394069732 	
H	  3.931817330809 	  7.000241792576 	  6.822834519732 	
H	  3.363273200809 	  7.000244602576 	 16.953391239732 	
H	 18.612675730809 	  0.816689262576 	  6.850967279732 	
H	 18.044131600809 	  0.816692072576 	 16.981523999732 	
H	 18.612644630809 	  7.000251022576 	  6.850964449732 	
H	 18.044100500809 	  7.000253832576 	 16.981521169732 	
H	  9.464365994230 	  3.870824002033 	  9.223919270998 	
H	  8.895821864230 	  3.870826812033 	 19.354475990998 	
H	  9.464334894230 	 10.054385762033 	  9.223916440998 	
H	  8.895790764230 	 10.054388572033 	 19.354473160998 	
H	 24.145193294230 	  3.870833232033 	  9.252049200998 	
H	 23.576649164230 	  3.870836042033 	 19.382605920998 	
H	 24.145162194230 	 10.054394992033 	  9.252046370998 	
H	 23.576618064230 	 10.054397802033 	 19.382603090998 	
H	  9.690095617982 	  5.288741536157 	  3.913532739315 	
H	  9.121551487982 	  5.288744346157 	 14.044089459315 	
H	  9.690064517982 	 11.472303296157 	  3.913529909315 	
H	  9.121520387982 	 11.472306106157 	 14.044086629315 	
H	 24.370922917982 	  5.288750766157 	  3.941662669315 	
H	 23.802378787982 	  5.288753576157 	 14.072219389315 	
H	 24.370891817982 	 11.472312526157 	  3.941659839315 	
H	 23.802347687982 	 11.472315336157 	 14.072216559315 	
H	  4.157577742110 	  2.234597377055 	  1.512451989789 	
H	  3.589033612110 	  2.234600187055 	 11.643008709789 	
H	  4.157546642110 	  8.418159137055 	  1.512449159789 	
H	  3.589002512110 	  8.418161947055 	 11.643005879789 	
H	 18.838405042110 	  2.234606607055 	  1.540581919789 	
H	 18.269860912110 	  2.234609417055 	 11.671138639789 	
H	 18.838373942110 	  8.418168367055 	  1.540579089789 	
H	 18.269829812110 	  8.418171177055 	 11.671135809789 	
C	  5.179098963446 	  1.475861222652 	  8.367255247507 	
C	  4.610554833446 	  1.475864032652 	 18.497811967507 	
C	  5.179067863446 	  7.659422982652 	  8.367252417507 	
C	  4.610523733446 	  7.659425792652 	 18.497809137507 	
C	 19.859926263446 	  1.475870452652 	  8.395385177507 	
C	 19.291382133446 	  1.475873262652 	 18.525941897507 	
C	 19.859895163446 	  7.659432212652 	  8.395382347507 	
C	 19.291351033446 	  7.659435022652 	 18.525939067507 	
C	  8.216313935642 	  4.529913999338 	  7.677183454435 	
C	  7.647769805642 	  4.529916809338 	 17.807740174435 	
C	  8.216282835642 	 10.713475759338 	  7.677180624435 	
C	  7.647738705642 	 10.713478569338 	 17.807737344435 	
C	 22.897141235642 	  4.529923229338 	  7.705313384435 	
C	 22.328597105642 	  4.529926039338 	 17.835870104435 	
C	 22.897110135642 	 10.713484989338 	  7.705310554435 	
C	 22.328566005642 	 10.713487799338 	 17.835867274435 	
C	  8.442844970718 	  4.629560035293 	  2.369115044888 	
C	  7.874300840718 	  4.629562845293 	 12.499671764888 	
C	  8.442813870718 	 10.813121795293 	  2.369112214888 	
C	  7.874269740718 	 10.813124605293 	 12.499668934888 	
C	 23.123672270718 	  4.629569265293 	  2.397244974888 	
C	 22.555128140718 	  4.629572075293 	 12.527801694888 	
C	 23.123641170718 	 10.813131025293 	  2.397242144888 	
C	 22.555097040718 	 10.813133835293 	 12.527798864888 	
C	  5.405630546833 	  1.575507202832 	  3.059187154747 	
C	  4.837086416833 	  1.575510012832 	 13.189743874747 	
C	  5.405599446833 	  7.759068962832 	  3.059184324747 	
C	  4.837055316833 	  7.759071772832 	 13.189741044747 	
C	 20.086457846833 	  1.575516432832 	  3.087317084747 	
C	 19.517913716833 	  1.575519242832 	 13.217873804747 	
C	 20.086426746833 	  7.759078192832 	  3.087314254747 	
C	 19.517882616833 	  7.759081002832 	 13.217870974747 	
H	  5.847277844685 	  0.541106141284 	  8.280201333114 	
H	  5.278733714685 	  0.541108951284 	 18.410758053114 	
H	  5.847246744685 	  6.724667901284 	  8.280198503114 	
H	  5.278702614685 	  6.724670711284 	 18.410755223114 	
H	 20.528105144685 	  0.541115371284 	  8.308331263114 	
H	 19.959561014685 	  0.541118181284 	 18.438887983114 	
H	 20.528074044685 	  6.724677131284 	  8.308328433114 	
H	 19.959529914685 	  6.724679941284 	 18.438885153114 	
H	  7.547768848077 	  3.594178078566 	  7.765090115741 	
H	  6.979224718077 	  3.594180888566 	 17.895646835741 	
H	  7.547737748077 	  9.777739838566 	  7.765087285741 	
H	  6.979193618077 	  9.777742648566 	 17.895644005741 	
H	 22.228596148077 	  3.594187308566 	  7.793220045741 	
H	 21.660052018077 	  3.594190118566 	 17.923776765741 	
H	 22.228565048077 	  9.777749068566 	  7.793217215741 	
H	 21.660020918077 	  9.777751878566 	 17.923773935741 	
H	  7.774666091252 	  5.564315141158 	  2.456168699617 	
H	  7.206121961252 	  5.564317951158 	 12.586725419617 	
H	  7.774634991252 	 11.747876901158 	  2.456165869617 	
H	  7.206090861252 	 11.747879711158 	 12.586722589617 	
H	 22.455493391252 	  5.564324371158 	  2.484298629617 	
H	 21.886949261252 	  5.564327181158 	 12.614855349617 	
H	 22.455462291252 	 11.747886131158 	  2.484295799617 	
H	 21.886918161252 	 11.747888941158 	 12.614852519617 	
H	  6.074175620402 	  2.511243103651 	  2.971280298593 	
H	  5.505631490402 	  2.511245913651 	 13.101837018593 	
H	  6.074144520402 	  8.694804863651 	  2.971277468593 	
H	  5.505600390402 	  8.694807673651 	 13.101834188593 	
H	 20.755002920402 	  2.511252333651 	  2.999410228593 	
H	 20.186458790402 	  2.511255143651 	 13.129966948593 	
H	 20.754971820402 	  8.694814093651 	  2.999407398593 	
H	 20.186427690402 	  8.694816903651 	 13.129964118593 	
C	  1.982804881611 	  2.848573082153 	  6.683235083555 	
C	  1.414260751611 	  2.848575892153 	 16.813791803555 	
C	  1.982773781611 	  9.032134842153 	  6.683232253555 	
C	  1.414229651611 	  9.032137652153 	 16.813788973555 	
C	 16.663632181611 	  2.848582312153 	  6.711365013555 	
C	 16.095088051611 	  2.848585122153 	 16.841921733555 	
C	 16.663601081611 	  9.032144072153 	  6.711362183555 	
C	 16.095056951611 	  9.032146882153 	 16.841918903555 	
C	 11.377393507467 	  5.810481372036 	  9.353408850865 	
C	 10.808849377467 	  5.810484182036 	 19.483965570865 	
C	 11.377362407467 	 11.994043132036 	  9.353406020865 	
C	 10.808818277467 	 11.994045942036 	 19.483962740865 	
C	 26.058220807467 	  5.810490602036 	  9.381538780865 	
C	 25.489676677467 	  5.810493412036 	 19.512095500865 	
C	 26.058189707467 	 11.994052362036 	  9.381535950865 	
C	 25.489645577467 	 11.994055172036 	 19.512092670865 	
C	 11.639138626557 	  3.256848601977 	  4.053135503869 	
C	 11.070594496557 	  3.256851411977 	 14.183692223869 	
C	 11.639107526557 	  9.440410361977 	  4.053132673869 	
C	 11.070563396557 	  9.440413171977 	 14.183689393869 	
C	 26.319965926557 	  3.256857831977 	  4.081265433869 	
C	 25.751421796557 	  3.256860641977 	 14.211822153869 	
C	 26.319934826557 	  9.440419591977 	  4.081262603869 	
C	 25.751390696557 	  9.440422401977 	 14.211819323869 	
C	  2.244550086516 	  0.294939875695 	  1.382963052733 	
C	  1.676005956516 	  0.294942685695 	 11.513519772733 	
C	  2.244518986516 	  6.478501635695 	  1.382960222733 	
C	  1.675974856516 	  6.478504445695 	 11.513516942733 	
C	 16.925377386516 	  0.294949105695 	  1.411092982733 	
C	 16.356833256516 	  0.294951915695 	 11.541649702733 	
C	 16.925346286516 	  6.478510865695 	  1.411090152733 	
C	 16.356802156516 	  6.478513675695 	 11.541646872733 	
C	  2.194112968086 	  2.456053935406 	  5.552109417855 	
C	  1.625568838086 	  2.456056745406 	 15.682666137855 	
C	  2.194081868086 	  8.639615695406 	  5.552106587855 	
C	  1.625537738086 	  8.639618505406 	 15.682663307855 	
C	 16.874940268086 	  2.456063165406 	  5.580239347855 	
C	 16.306396138086 	  2.456065975406 	 15.710796067855 	
C	 16.874909168086 	  8.639624925406 	  5.580236517855 	
C	 16.306365038086 	  8.639627735406 	 15.710793237855 	
C	 11.187759856087 	 -0.459533864227 	 10.408034986926 	
C	 10.619215726087 	 -0.459531054227 	 20.538591706926 	
C	 11.187728756087 	  5.724027895773 	 10.408032156926 	
C	 10.619184626087 	  5.724030705773 	 20.538588876926 	
C	 25.868587156087 	 -0.459524634227 	 10.436164916926 	
C	 25.300043026087 	 -0.459521824227 	 20.566721636926 	
C	 25.868556056087 	  5.724037125773 	 10.436162086926 	
C	 25.300011926087 	  5.724039935773 	 20.566718806926 	
C	 11.427829538838 	  3.649366823856 	  5.184261976303 	
C	 10.859285408838 	  3.649369633856 	 15.314818696303 	
C	 11.427798438838 	  9.832928583856 	  5.184259146303 	
C	 10.859254308838 	  9.832931393856 	 15.314815866303 	
C	 26.108656838838 	  3.649376053856 	  5.212391906303 	
C	 25.540112708838 	  3.649378863856 	 15.342948626303 	
C	 26.108625738838 	  9.832937813856 	  5.212389076303 	
C	 25.540081608838 	  9.832940623856 	 15.342945796303 	
C	  2.434183411496 	  6.564955340258 	  0.328336791217 	
C	  1.865639281496 	  6.564958150258 	 10.458893511217 	
C	  2.434152311496 	 12.748517100258 	  0.328333961217 	
C	  1.865608181496 	 12.748519910258 	 10.458890681217 	
C	 17.115010711496 	  6.564964570258 	  0.356466721217 	
C	 16.546466581496 	  6.564967380258 	 10.487023441217 	
C	 17.114979611496 	 12.748526330258 	  0.356463891217 	
C	 16.546435481496 	 12.748529140258 	 10.487020611217 	
H	  3.106619347975 	  2.843126355108 	  4.979268908719 	
H	  2.538075217975 	  2.843129165108 	 15.109825628719 	
H	  3.106588247975 	  9.026688115108 	  4.979266078719 	
H	  2.538044117975 	  9.026690925108 	 15.109822798719 	
H	 17.787446647975 	  2.843135585108 	  5.007398838719 	
H	 17.218902517975 	  2.843138395108 	 15.137955558719 	
H	 17.787415547975 	  9.026697345108 	  5.007396008719 	
H	 17.218871417975 	  9.026700155108 	 15.137952728719 	
H	 10.291290562813 	 -0.215981290963 	 11.061624753353 	
H	  9.722746432813 	 -0.215978480963 	 21.192181473353 	
H	 10.291259462813 	  5.967580469037 	 11.061621923353 	
H	  9.722715332813 	  5.967583279037 	 21.192178643353 	
H	 24.972117862813 	 -0.215972060963 	 11.089754683353 	
H	 24.403573732813 	 -0.215969250963 	 21.220311403353 	
H	 24.972086762813 	  5.967589699037 	 11.089751853353 	
H	 24.403542632813 	  5.967592509037 	 21.220308573353 	
H	 10.515323795129 	  3.262291965479 	  5.757101928817 	
H	  9.946779665129 	  3.262294775479 	 15.887658648817 	
H	 10.515292695129 	  9.445853725479 	  5.757099098817 	
H	  9.946748565129 	  9.445856535479 	 15.887655818817 	
H	 25.196151095129 	  3.262301195479 	  5.785231858817 	
H	 24.627606965129 	  3.262304005479 	 15.915788578817 	
H	 25.196119995129 	  9.445862955479 	  5.785229028817 	
H	 24.627575865129 	  9.445865765479 	 15.915785748817 	
H	  3.330652449988 	  6.321402828626 	 -0.325253298878 	
H	  2.762108319988 	  6.321405638626 	  9.805303421122 	
H	  3.330621349988 	 12.504964588626 	 -0.325256128878 	
H	  2.762077219988 	 12.504967398626 	  9.805300591122 	
H	 18.011479749988 	  6.321412058626 	 -0.297123368878 	
H	 17.442935619988 	  6.321414868626 	  9.833433351122 	
H	 18.011448649988 	 12.504973818626 	 -0.297126198878 	
H	 17.442904519988 	 12.504976628626 	  9.833430521122 	
H	  1.407714379386 	  2.557169185303 	  4.740390485181 	
H	  0.839170249386 	  2.557171995303 	 14.870947205181 	
H	  1.407683279386 	  8.740730945303 	  4.740387655181 	
H	  0.839139149386 	  8.740733755303 	 14.870944375181 	
H	 16.088541679386 	  2.557178415303 	  4.768520415181 	
H	 15.519997549386 	  2.557181225303 	 14.899077135181 	
H	 16.088510579386 	  8.740740175303 	  4.768517585181 	
H	 15.519966449386 	  8.740742985303 	 14.899074305181 	
H	 12.507191728845 	 -0.489553995990 	  0.752182480261 	
H	 11.938647598845 	 -0.489551185990 	 10.882739200261 	
H	 12.507160628845 	  5.694007764010 	  0.752179650261 	
H	 11.938616498845 	  5.694010574010 	 10.882736370261 	
H	 27.188019028845 	 -0.489544765990 	  0.780312410261 	
H	 26.619474898845 	 -0.489541955990 	 10.910869130261 	
H	 27.187987928845 	  5.694016994010 	  0.780309580261 	
H	 26.619443798845 	  5.694019804010 	 10.910866300261 	
H	 12.214228338361 	  3.548251915383 	  5.995980766017 	
H	 11.645684208361 	  3.548254725383 	 16.126537486017 	
H	 12.214197238361 	  9.731813675383 	  5.995977936017 	
H	 11.645653108361 	  9.731816485383 	 16.126534656017 	
H	 26.895055638361 	  3.548261145383 	  6.024110696017 	
H	 26.326511508361 	  3.548263955383 	 16.154667416017 	
H	 26.895024538361 	  9.731822905383 	  6.024107866017 	
H	 26.326480408361 	  9.731825715383 	 16.154664586017 	
H	  1.114751092974 	  6.594975537654 	  9.984189776668 	
H	  0.546206962974 	  6.594978347654 	 20.114746496668 	
H	  1.114719992974 	 12.778537297654 	  9.984186946668 	
H	  0.546175862974 	 12.778540107654 	 20.114743666668 	
H	 15.795578392974 	  6.594984767654 	 10.012319706668 	
H	 15.227034262974 	  6.594987577654 	 20.142876426668 	
H	 15.795547292974 	 12.778546527654 	 10.012316876668 	
H	 15.227003162974 	 12.778549337654 	 20.142873596668 	
H	  2.476689044960 	  1.362628876275 	  5.369841039422 	
H	  1.908144914960 	  1.362631686275 	 15.500397759422 	
H	  2.476657944960 	  7.546190636275 	  5.369838209422 	
H	  1.908113814960 	  7.546193446275 	 15.500394929422 	
H	 17.157516344960 	  1.362638106275 	  5.397970969422 	
H	 16.588972214960 	  1.362640916275 	 15.528527689422 	
H	 17.157485244960 	  7.546199866275 	  5.397968139422 	
H	 16.588941114960 	  7.546202676275 	 15.528524859422 	
H	 11.315441815667 	  4.285554491860 	  0.080992551639 	
H	 10.746897685667 	  4.285557301860 	 10.211549271639 	
H	 11.315410715667 	 10.469116251860 	  0.080989721639 	
H	 10.746866585667 	 10.469119061860 	 10.211546441639 	
H	 25.996269115667 	  4.285563721860 	  0.109122481639 	
H	 25.427724985667 	  4.285566531860 	 10.239679201639 	
H	 25.996238015667 	 10.469125481860 	  0.109119651639 	
H	 25.427693885667 	 10.469128291860 	 10.239676371639 	
H	 11.145251768269 	  4.742791398482 	  5.366531079982 	
H	 10.576707638269 	  4.742794208482 	 15.497087799982 	
H	 11.145220668269 	 10.926353158482 	  5.366528249982 	
H	 10.576676538269 	 10.926355968482 	 15.497084969982 	
H	 25.826079068269 	  4.742800628482 	  5.394661009982 	
H	 25.257534938269 	  4.742803438482 	 15.525217729982 	
H	 25.826047968269 	 10.926362388482 	  5.394658179982 	
H	 25.257503838269 	 10.926365198482 	 15.525214899982 	
H	  2.306501378408 	  1.819867043673 	 10.655379576541 	
H	  1.737957248408 	  1.819869853673 	 20.785936296541 	
H	  2.306470278408 	  8.003428803673 	 10.655376746541 	
H	  1.737926148408 	  8.003431613673 	 20.785933466541 	
H	 16.987328678408 	  1.819876273673 	 10.683509506541 	
H	 16.418784548408 	  1.819879083673 	 20.814066226541 	
H	 16.987297578408 	  8.003438033673 	 10.683506676541 	
H	 16.418753448408 	  8.003440843673 	 20.814063396541 	
C	  1.624311416237 	  4.008997672322 	  6.618121413310 	
C	  1.055767286237 	  4.009000482322 	 16.748678133310 	
C	  1.624280316237 	 10.192559432322 	  6.618118583310 	
C	  1.055736186237 	 10.192562242322 	 16.748675303310 	
C	 16.305138716237 	  4.009006902322 	  6.646251343310 	
C	 15.736594586237 	  4.009009712322 	 16.776808063310 	
C	 16.305107616237 	 10.192568662322 	  6.646248513310 	
C	 15.736563486237 	 10.192571472322 	 16.776805233310 	
C	 11.826525840159 	  1.059884872252 	  9.433483004542 	
C	 11.257981710159 	  1.059887682252 	 19.564039724542 	
C	 11.826494740159 	  7.243446632252 	  9.433480174542 	
C	 11.257950610159 	  7.243449442252 	 19.564036894542 	
C	 26.507353140159 	  1.059894102252 	  9.461612934542 	
C	 25.938809010159 	  1.059896912252 	 19.592169654542 	
C	 26.507322040159 	  7.243455862252 	  9.461610104542 	
C	 25.938777910159 	  7.243458672252 	 19.592166824542 	
C	 11.997633307712 	  2.096423670243 	  4.118248102867 	
C	 11.429089177712 	  2.096426480243 	 14.248804822867 	
C	 11.997602207712 	  8.279985430243 	  4.118245272867 	
C	 11.429058077712 	  8.279988240243 	 14.248801992867 	
C	 26.678460607712 	  2.096432900243 	  4.146378032867 	
C	 26.109916477712 	  2.096435710243 	 14.276934752867 	
C	 26.678429507712 	  8.279994660243 	  4.146375202867 	
C	 26.109885377712 	  8.279997470243 	 14.276931922867 	
C	  1.795417792717 	  5.045536360959 	  1.302888855632 	
C	  1.226873662717 	  5.045539170959 	 11.433445575632 	
C	  1.795386692717 	 11.229098120959 	  1.302886025632 	
C	  1.226842562717 	 11.229100930959 	 11.433442745632 	
C	 16.476245092717 	  5.045545590959 	  1.331018785632 	
C	 15.907700962717 	  5.045548400959 	 11.461575505632 	
C	 16.476213992717 	 11.229107350959 	  1.331015955632 	
C	 15.907669862717 	 11.229110160959 	 11.461572675632 	
H	  2.362031100098 	  4.816595327332 	  6.280130136926 	
H	  1.793486970098 	  4.816598137332 	 16.410686856926 	
H	  2.362000000098 	 11.000157087332 	  6.280127306926 	
H	  1.793455870098 	 11.000159897332 	 16.410684026926 	
H	 17.042858400098 	  4.816604557332 	  6.308260066926 	
H	 16.474314270098 	  4.816607367332 	 16.438816786926 	
H	 17.042827300098 	 11.000166317332 	  6.308257236926 	
H	 16.474283170098 	 11.000169127332 	 16.438813956926 	
H	 11.028183732559 	  1.770906396279 	  9.768000843570 	
H	 10.459639602559 	  1.770909206279 	 19.898557563570 	
H	 11.028152632559 	  7.954468156279 	  9.767998013570 	
H	 10.459608502559 	  7.954470966279 	 19.898554733570 	
H	 25.709011032559 	  1.770915626279 	  9.796130773570 	
H	 25.140466902559 	  1.770918436279 	 19.926687493570 	
H	 25.708979932559 	  7.954477386279 	  9.796127943570 	
H	 25.140435802559 	  7.954480196279 	 19.926684663570 	
H	 11.259914111487 	  1.288825168923 	  4.456238377110 	
H	 10.691369981487 	  1.288827978923 	 14.586795097110 	
H	 11.259883011487 	  7.472386928923 	  4.456235547110 	
H	 10.691338881487 	  7.472389738923 	 14.586792267110 	
H	 25.940741411487 	  1.288834398923 	  4.484368307110 	
H	 25.372197281487 	  1.288837208923 	 14.614925027110 	
H	 25.940710311487 	  7.472396158923 	  4.484365477110 	
H	 25.372166181487 	  7.472398968923 	 14.614922197110 	
H	  2.593759824863 	  4.334514978791 	  0.968370507027 	
H	  2.025215694863 	  4.334517788791 	 11.098927227027 	
H	  2.593728724863 	 10.518076738791 	  0.968367677027 	
H	  2.025184594863 	 10.518079548791 	 11.098924397027 	
H	 17.274587124863 	  4.334524208791 	  0.996500437027 	
H	 16.706042994863 	  4.334527018791 	 11.127057157027 	
H	 17.274556024863 	 10.518085968791 	  0.996497607027 	
H	 16.706011894863 	 10.518088778791 	 11.127054327027 	
H	  1.332574889097 	  4.573816340614 	  7.571800136835 	
H	  0.764030759097 	  4.573819150614 	 17.702356856835 	
H	  1.332543789097 	 10.757378100614 	  7.571797306835 	
H	  0.763999659097 	 10.757380910614 	 17.702354026835 	
H	 16.013402189097 	  4.573825570614 	  7.599930066835 	
H	 15.444858059097 	  4.573828380614 	 17.730486786835 	
H	 16.013371089097 	 10.757387330614 	  7.599927236835 	
H	 15.444826959097 	 10.757390140614 	 17.730483956835 	
H	 12.061977656606 	  7.605212521952 	  8.478595545822 	
H	 11.493433526606 	  7.605215331952 	 18.609152265822 	
H	 12.061946556606 	 13.788774281952 	  8.478592715822 	
H	 11.493402426606 	 13.788777091952 	 18.609149435822 	
H	 26.742804956606 	  7.605221751952 	  8.506725475822 	
H	 26.174260826606 	  7.605224561952 	 18.637282195822 	
H	 26.742773856606 	 13.788783511952 	  8.506722645822 	
H	 26.174229726606 	 13.788786321952 	 18.637279365822 	
H	 12.289371078186 	  1.531606527418 	  3.164568892357 	
H	 11.720826948186 	  1.531609337418 	 13.295125612357 	
H	 12.289339978186 	  7.715168287418 	  3.164566062357 	
H	 11.720795848186 	  7.715171097418 	 13.295122782357 	
H	 26.970198378186 	  1.531615757418 	  3.192698822357 	
H	 26.401654248186 	  1.531618567418 	 13.323255542357 	
H	 26.970167278186 	  7.715177517418 	  3.192695992357 	
H	 26.401623148186 	  7.715180327418 	 13.323252712357 	
H	  1.559966552036 	 -1.499791463786 	  2.257776412027 	
H	  0.991422422036 	 -1.499788653786 	 12.388333132027 	
H	  1.559935452036 	  4.683770296214 	  2.257773582027 	
H	  0.991391322036 	  4.683773106214 	 12.388330302027 	
H	 16.240793852036 	 -1.499782233786 	  2.285906342027 	
H	 15.672249722036 	 -1.499779423786 	 12.416463062027 	
H	 16.240762752036 	  4.683779526214 	  2.285903512027 	
H	 15.672218622036 	  4.683782336214 	 12.416460232027 	
H	  0.736276897906 	  4.243074481487 	  5.953627179348 	
H	  0.167732767906 	  4.243077291487 	 16.084183899348 	
H	  0.736245797906 	 10.426636241487 	  5.953624349348 	
H	  0.167701667906 	 10.426639051487 	 16.084181069348 	
H	 15.417104197906 	  4.243083711487 	  5.981757109348 	
H	 14.848560067906 	  4.243086521487 	 16.112313829348 	
H	 15.417073097906 	 10.426645471487 	  5.981754279348 	
H	 14.848528967906 	 10.426648281487 	 16.112310999348 	
H	 12.645126085465 	  7.285118142997 	 10.081250476450 	
H	 12.076581955465 	  7.285120952997 	 20.211807196450 	
H	 12.645094985465 	 13.468679902997 	 10.081247646450 	
H	 12.076550855465 	 13.468682712997 	 20.211804366450 	
H	 27.325953385465 	  7.285127372997 	 10.109380406450 	
H	 26.757409255465 	  7.285130182997 	 20.239937126450 	
H	 27.325922285465 	 13.468689132997 	 10.109377576450 	
H	 26.757378155465 	 13.468691942997 	 20.239934296450 	
H	 12.885667723471 	  1.862347232309 	  4.782742586149 	
H	 12.317123593471 	  1.862350042309 	 14.913299306149 	
H	 12.885636623471 	  8.045908992309 	  4.782739756149 	
H	 12.317092493471 	  8.045911802309 	 14.913296476149 	
H	 27.566495023471 	  1.862356462309 	  4.810872516149 	
H	 26.997950893471 	  1.862359272309 	 14.941429236149 	
H	 27.566463923471 	  8.045918222309 	  4.810869686149 	
H	 26.997919793471 	  8.045921032309 	 14.941426406149 	
H	  0.976817218524 	 -1.179696957684 	  0.655121817751 	
H	  0.408273088524 	 -1.179694147684 	 10.785678537751 	
H	  0.976786118524 	  5.003864802316 	  0.655118987751 	
H	  0.408241988524 	  5.003867612316 	 10.785675707751 	
H	 15.657644518524 	 -1.179687727684 	  0.683251747751 	
H	 15.089100388524 	 -1.179684917684 	 10.813808467751 	
H	 15.657613418524 	  5.003874032316 	  0.683248917751 	
H	 15.089069288524 	  5.003876842316 	 10.813805637751 	
C	  1.083646642983 	  2.183262094564 	  7.168698089898 	
C	  0.515102512983 	  2.183264904564 	 17.299254809898 	
C	  1.083615542983 	  8.366823854564 	  7.168695259898 	
C	  0.515071412983 	  8.366826664564 	 17.299251979898 	
C	 15.764473942983 	  2.183271324564 	  7.196828019898 	
C	 15.195929812983 	  2.183274134564 	 17.327384739898 	
C	 15.764442842983 	  8.366833084564 	  7.196825189898 	
C	 15.195898712983 	  8.366835894564 	 17.327381909898 	
C	 12.309409165103 	  5.237575344679 	  8.878531807865 	
C	 11.740865035103 	  5.237578154679 	 19.009088527865 	
C	 12.309378065103 	 11.421137104679 	  8.878528977865 	
C	 11.740833935103 	 11.421139914679 	 19.009085697865 	
C	 26.990236465103 	  5.237584574679 	  8.906661737865 	
C	 26.421692335103 	  5.237587384679 	 19.037218457865 	
C	 26.990205365103 	 11.421146334679 	  8.906658907865 	
C	 26.421661235103 	 11.421149144679 	 19.037215627865 	
C	 12.538296689758 	  3.922161436243 	  3.567672693893 	
C	 11.969752559758 	  3.922164246243 	 13.698229413893 	
C	 12.538265589758 	 10.105723196243 	  3.567669863893 	
C	 11.969721459758 	 10.105726006243 	 13.698226583893 	
C	 27.219123989758 	  3.922170666243 	  3.595802623893 	
C	 26.650579859758 	  3.922173476243 	 13.726359343893 	
C	 27.219092889758 	 10.105732426243 	  3.595799793893 	
C	 26.650548759758 	 10.105735236243 	 13.726356513893 	
C	  1.312534415483 	  0.867845662922 	  1.857840463263 	
C	  0.743990285483 	  0.867848472922 	 11.988397183263 	
C	  1.312503315483 	  7.051407422922 	  1.857837633263 	
C	  0.743959185483 	  7.051410232922 	 11.988394353263 	
C	 15.993361715483 	  0.867854892922 	  1.885970393263 	
C	 15.424817585483 	  0.867857702922 	 12.016527113263 	
C	 15.993330615483 	  7.051416652922 	  1.885967563263 	
C	 15.424786485483 	  7.051419462922 	 12.016524283263 	
H	  0.062658811249 	  2.140671930267 	  6.675739973573 	
H	 -0.505885318751 	  2.140674740267 	 16.806296693573 	
H	  0.062627711249 	  8.324233690267 	  6.675737143573 	
H	 -0.505916418751 	  8.324236500267 	 16.806293863573 	
H	 14.743486111249 	  2.140681160267 	  6.703869903573 	
H	 14.174941981249 	  2.140683970267 	 16.834426623573 	
H	 14.743455011249 	  8.324242920267 	  6.703867073573 	
H	 14.174910881249 	  8.324245730267 	 16.834423793573 	
H	 13.331498358856 	  5.193424057923 	  9.370451037635 	
H	 12.762954228856 	  5.193426867923 	 19.501007757635 	
H	 13.331467258856 	 11.376985817923 	  9.370448207635 	
H	 12.762923128856 	 11.376988627923 	 19.501004927635 	
H	 28.012325658856 	  5.193433287923 	  9.398580967635 	
H	 27.443781528856 	  5.193436097923 	 19.529137687635 	
H	 28.012294558856 	 11.376995047923 	  9.398578137635 	
H	 27.443750428856 	 11.376997857923 	 19.529134857635 	
H	 13.559284432403 	  3.964751604370 	  4.060630984685 	
H	 12.990740302403 	  3.964754414370 	 14.191187704685 	
H	 13.559253332403 	 10.148313364370 	  4.060628154685 	
H	 12.990709202403 	 10.148316174370 	 14.191184874685 	
H	 28.240111732403 	  3.964760834370 	  4.088760914685 	
H	 27.671567602403 	  3.964763644370 	 14.219317634685 	
H	 28.240080632403 	 10.148322594370 	  4.088758084685 	
H	 27.671536502403 	 10.148325404370 	 14.219314804685 	
H	  0.290445086030 	  0.911996810404 	  1.365921509199 	
H	 -0.278099043970 	  0.911999620404 	 11.496478229199 	
H	  0.290413986030 	  7.095558570404 	  1.365918679199 	
H	 -0.278130143970 	  7.095561380404 	 11.496475399199 	
H	 14.971272386030 	  0.912006040404 	  1.394051439199 	
H	 14.402728256030 	  0.912008850404 	 11.524608159199 	
H	 14.971241286030 	  7.095567800404 	  1.394048609199 	
H	 14.402697156030 	  7.095570610404 	 11.524605329199 	
H	  0.787989188511 	  2.373034128049 	  8.258722086031 	
H	  0.219445058511 	  2.373036938049 	 18.389278806031 	
H	  0.787958088511 	  8.556595888049 	  8.258719256031 	
H	  0.219413958511 	  8.556598698049 	 18.389275976031 	
H	 15.468816488511 	  2.373043358049 	  8.286852016031 	
H	 14.900272358511 	  2.373046168049 	 18.417408736031 	
H	 15.468785388511 	  8.556605118049 	  8.286849186031 	
H	 14.900241258511 	  8.556607928049 	 18.417405906031 	
H	 12.606510784996 	  5.426355624337 	  7.787635871768 	
H	 12.037966654996 	  5.426358434337 	 17.918192591768 	
H	 12.606479684996 	 11.609917384337 	  7.787633041768 	
H	 12.037935554996 	 11.609920194337 	 17.918189761768 	
H	 27.287338084996 	  5.426364854337 	  7.815765801768 	
H	 26.718793954996 	  5.426367664337 	 17.946322521768 	
H	 27.287306984996 	 11.609926614337 	  7.815762971768 	
H	 26.718762854996 	 11.609929424337 	 17.946319691768 	
H	 12.833954186739 	  3.732390823578 	  2.477648443521 	
H	 12.265410056739 	  3.732393633578 	 12.608205163521 	
H	 12.833923086739 	  9.915952583578 	  2.477645613521 	
H	 12.265378956739 	  9.915955393578 	 12.608202333521 	
H	 27.514781486739 	  3.732400053578 	  2.505778373521 	
H	 26.946237356739 	  3.732402863578 	 12.636335093521 	
H	 27.514750386739 	  9.915961813578 	  2.505775543521 	
H	 26.946206256739 	  9.915964623578 	 12.636332263521 	
H	  1.015433001184 	  0.679064977389 	  2.948736369112 	
H	  0.446888871184 	  0.679067787389 	 13.079293089112 	
H	  1.015401901184 	  6.862626737389 	  2.948733539112 	
H	  0.446857771184 	  6.862629547389 	 13.079290259112 	
H	 15.696260301184 	  0.679074207389 	  2.976866299112 	
H	 15.127716171184 	  0.679077017389 	 13.107423019112 	
H	 15.696229201184 	  6.862635967389 	  2.976863469112 	
H	 15.127685071184 	  6.862638777389 	 13.107420189112 	
H	  1.254113713009 	  1.062716619867 	  7.331906151685 	
H	  0.685569583009 	  1.062719429867 	 17.462462871685 	
H	  1.254082613009 	  7.246278379867 	  7.331903321685 	
H	  0.685538483009 	  7.246281189867 	 17.462460041685 	
H	 15.934941013009 	  1.062725849867 	  7.360036081685 	
H	 15.366396883009 	  1.062728659867 	 17.490592801685 	
H	 15.934909913009 	  7.246287609867 	  7.360033251685 	
H	 15.366365783009 	  7.246290419867 	 17.490589971685 	
H	 12.140247067313 	  4.116922605472 	  8.714238496810 	
H	 11.571702937313 	  4.116925415472 	 18.844795216810 	
H	 12.140215967313 	 10.300484365472 	  8.714235666810 	
H	 11.571671837313 	 10.300487175472 	 18.844792386810 	
H	 26.821074367313 	  4.116931835472 	  8.742368426810 	
H	 26.252530237313 	  4.116934645472 	 18.872925146810 	
H	 26.821043267313 	 10.300493595472 	  8.742365596810 	
H	 26.252499137313 	 10.300496405472 	 18.872922316810 	
H	 12.367828591073 	  5.042707073421 	  3.404466567530 	
H	 11.799284461073 	  5.042709883421 	 13.535023287530 	
H	 12.367797491073 	 11.226268833421 	  3.404463737530 	
H	 11.799253361073 	 11.226271643421 	 13.535020457530 	
H	 27.048655891073 	  5.042716303421 	  3.432596497530 	
H	 26.480111761073 	  5.042719113421 	 13.563153217530 	
H	 27.048624791073 	 11.226278063421 	  3.432593667530 	
H	 26.480080661073 	 11.226280873421 	 13.563150387530 	
H	  1.481696371835 	  1.988498359161 	  2.022134300625 	
H	  0.913152241835 	  1.988501169161 	 12.152691020625 	
H	  1.481665271835 	  8.172060119161 	  2.022131470625 	
H	  0.913121141835 	  8.172062929161 	 12.152688190625 	
H	 16.162523671835 	  1.988507589161 	  2.050264230625 	
H	 15.593979541835 	  1.988510399161 	 12.180820950625 	
H	 16.162492571835 	  8.172069349161 	  2.050261400625 	
H	 15.593948441835 	  8.172072159161 	 12.180818120625 	
768 
Energy: -8.6037624179150001e+01 
S	  8.298911594851 	  1.416058638232 	  0.136308228154 	
S	  7.730367464851 	  1.416061448232 	 10.266864948154 	
S	  8.298880494851 	  7.599620398232 	  0.136305398154 	
S	  7.730336364851 	  7.599623208232 	 10.266862118154 	
S	 22.979738894851 	  1.416067868232 	  0.164438158154 	
S	 22.411194764851 	  1.416070678232 	 10.294994878154 	
S	 22.979707794851 	  7.599629628232 	  0.164435328154 	
S	 22.411163664851 	  7.599632438232 	 10.294992048154 	
S	  5.488184544756 	  4.463151420688 	  5.327745127928 	
S	  4.919640414756 	  4.463154230688 	 15.458301847928 	
S	  5.488153444756 	 10.646713180688 	  5.327742297928 	
S	  4.919609314756 	 10.646715990688 	 15.458299017928 	
S	 20.169011844756 	  4.463160650688 	  5.355875057928 	
S	 19.600467714756 	  4.463163460688 	 15.486431777928 	
S	 20.168980744756 	 10.646722410688 	  5.355872227928 	
S	 19.600436614756 	 10.646725220688 	 15.486428947928 	
S	  5.269320104215 	  4.680800934625 	 10.663346970214 	
S	  4.700775974215 	  4.680803744625 	 20.793903690214 	
S	  5.269289004215 	 10.864362694625 	 10.663344140214 	
S	  4.700744874215 	 10.864365504625 	 20.793900860214 	
S	 19.950147404215 	  4.680810164625 	 10.691476900214 	
S	 19.381603274215 	  4.680812974625 	 20.822033620214 	
S	 19.950116304215 	 10.864371924625 	 10.691474070214 	
S	 19.381572174215 	 10.864374734625 	 20.822030790214 	
S	  8.080048618509 	  1.633708100746 	  5.471909606399 	
S	  7.511504488509 	  1.633710910746 	 15.602466326399 	
S	  8.080017518509 	  7.817269860746 	  5.471906776399 	
S	  7.511473388509 	  7.817272670746 	 15.602463496399 	
S	 22.760875918509 	  1.633717330746 	  5.500039536399 	
S	 22.192331788509 	  1.633720140746 	 15.630596256399 	
S	 22.760844818509 	  7.817279090746 	  5.500036706399 	
S	 22.192300688509 	  7.817281900746 	 15.630593426399 	
C	  6.532833770954 	  2.534201613354 	 10.360027846656 	
C	  5.964289640954 	  2.534204423354 	 20.490584566656 	
C	  6.532802670954 	  8.717763373354 	 10.360025016656 	
C	  5.964258540954 	  8.717766183354 	 20.490581736656 	
C	 21.213661070954 	  2.534210843354 	 10.388157776656 	
C	 20.645116940954 	  2.534213653354 	 20.518714496656 	
C	 21.213629970954 	  8.717772603354 	 10.388154946656 	
C	 20.645085840954 	  8.717775413354 	 20.518711666656 	
C	  6.817628523753 	  5.545612739731 	  5.798986712946 	
C	  6.249084393753 	  5.545615549731 	 15.929543432946 	
C	  6.817597423753 	 11.729174499731 	  5.798983882946 	
C	  6.249053293753 	 11.729177309731 	 15.929540602946 	
C	 21.498455823753 	  5.545621969731 	  5.827116642946 	
C	 20.929911693753 	  5.545624779731 	 15.957673362946 	
C	 21.498424723753 	 11.729183729731 	  5.827113812946 	
C	 20.929880593753 	 11.729186539731 	 15.957670532946 	
C	  7.035397930032 	  3.562657956998 	  0.439627153551 	
C	  6.466853800032 	  3.562660766998 	 10.570183873551 	
C	  7.035366830032 	  9.746219716998 	  0.439624323551 	
C	  6.466822700032 	  9.746222526998 	 10.570181043551 	
C	 21.716225230032 	  3.562667186998 	  0.467757083551 	
C	 21.147681100032 	  3.562669996998 	 10.598313803551 	
C	 21.716194130032 	  9.746228946998 	  0.467754253551 	
C	 21.147650000032 	  9.746231756998 	 10.598310973551 	
C	  6.750604480384 	  0.551246829641 	  5.000667831547 	
C	  6.182060350384 	  0.551249639641 	 15.131224551547 	
C	  6.750573380384 	  6.734808589641 	  5.000665001547 	
C	  6.182029250384 	  6.734811399641 	 15.131221721547 	
C	 21.431431780384 	  0.551256059641 	  5.028797761547 	
C	 20.862887650384 	  0.551258869641 	 15.159354481547 	
C	 21.431400680384 	  6.734817819641 	  5.028794931547 	
C	 20.862856550384 	  6.734820629641 	 15.159351651547 	
C	  5.515577859243 	  2.410404580931 	  9.368277232199 	
C	  4.947033729243 	  2.410407390931 	 19.498833952199 	
C	  5.515546759243 	  8.593966340931 	  9.368274402199 	
C	  4.947002629243 	  8.593969150931 	 19.498831122199 	
C	 20.196405159243 	  2.410413810931 	  9.396407162199 	
C	 19.627861029243 	  2.410416620931 	 19.526963882199 	
C	 20.196374059243 	  8.593975570931 	  9.396404332199 	
C	 19.627829929243 	  8.593978380931 	 19.526961052199 	
C	  7.835372776593 	  5.456825769017 	  6.766816747313 	
C	  7.266828646593 	  5.456828579017 	 16.897373467313 	
C	  7.835341676593 	 11.640387529017 	  6.766813917313 	
C	  7.266797546593 	 11.640390339017 	 16.897370637313 	
C	 22.516200076593 	  5.456834999017 	  6.794946677313 	
C	 21.947655946593 	  5.456837809017 	 16.925503397313 	
C	 22.516168976593 	 11.640396759017 	  6.794943847313 	
C	 21.947624846593 	 11.640399569017 	 16.925500567313 	
C	  8.052653823493 	  3.686455072955 	  1.431377750078 	
C	  7.484109693493 	  3.686457882955 	 11.561934470078 	
C	  8.052622723493 	  9.870016832955 	  1.431374920078 	
C	  7.484078593493 	  9.870019642955 	 11.561931640078 	
C	 22.733481123493 	  3.686464302955 	  1.459507680078 	
C	 22.164936993493 	  3.686467112955 	 11.590064400078 	
C	 22.733450023493 	  9.870026062955 	  1.459504850078 	
C	 22.164905893493 	  9.870028872955 	 11.590061570078 	
C	  5.732859985767 	  0.640033862034 	  4.032838091769 	
C	  5.164315855767 	  0.640036672034 	 14.163394811769 	
C	  5.732828885767 	  6.823595622034 	  4.032835261769 	
C	  5.164284755767 	  6.823598432034 	 14.163391981769 	
C	 20.413687285767 	  0.640043092034 	  4.060968021769 	
C	 19.845143155767 	  0.640045902034 	 14.191524741769 	
C	 20.413656185767 	  6.823604852034 	  4.060965191769 	
C	 19.845112055767 	  6.823607662034 	 14.191521911769 	
C	  4.694907653778 	  3.522476986924 	  9.391668963692 	
C	  4.126363523778 	  3.522479796924 	 19.522225683692 	
C	  4.694876553778 	  9.706038746924 	  9.391666133692 	
C	  4.126332423778 	  9.706041556924 	 19.522222853692 	
C	 19.375734953778 	  3.522486216924 	  9.419798893692 	
C	 18.807190823778 	  3.522489026924 	 19.550355613692 	
C	 19.375703853778 	  9.706047976924 	  9.419796063692 	
C	 18.807159723778 	  9.706050786924 	 19.550352783692 	
C	  8.648236339473 	  0.474628234748 	  6.744205544640 	
C	  8.079692209473 	  0.474631044748 	 16.874762264640 	
C	  8.648205239473 	  6.658189994748 	  6.744202714640 	
C	  8.079661109473 	  6.658192804748 	 16.874759434640 	
C	 23.329063639473 	  0.474637464748 	  6.772335474640 	
C	 22.760519509473 	  0.474640274748 	 16.902892194640 	
C	 23.329032539473 	  6.658199224748 	  6.772332644640 	
C	 22.760488409473 	  6.658202034748 	 16.902889364640 	
C	  8.873324013449 	  2.574382585577 	  1.407986017715 	
C	  8.304779883449 	  2.574385395577 	 11.538542737715 	
C	  8.873292913449 	  8.757944345577 	  1.407983187715 	
C	  8.304748783449 	  8.757947155577 	 11.538539907715 	
C	 23.554151313449 	  2.574391815577 	  1.436115947715 	
C	 22.985607183449 	  2.574394625577 	 11.566672667715 	
C	 23.554120213449 	  8.757953575577 	  1.436113117715 	
C	 22.985576083449 	  8.757956385577 	 11.566669837715 	
C	  4.919996505344 	  5.622231383186 	  4.055449515972 	
C	  4.351452375344 	  5.622234193186 	 14.186006235972 	
C	  4.919965405344 	 11.805793143186 	  4.055446685972 	
C	  4.351421275344 	 11.805795953186 	 14.186003405972 	
C	 19.600823805344 	  5.622240613186 	  4.083579445972 	
C	 19.032279675344 	  5.622243423186 	 14.214136165972 	
C	 19.600792705344 	 11.805802373186 	  4.083576615972 	
C	 19.032248575344 	 11.805805183186 	 14.214133335972 	
C	  3.659879850204 	  3.672639967486 	  8.587912419316 	
C	  3.091335720204 	  3.672642777486 	 18.718469139316 	
C	  3.659848750204 	  9.856201727486 	  8.587909589316 	
C	  3.091304620204 	  9.856204537486 	 18.718466309316 	
C	 18.340707150204 	  3.672649197486 	  8.616042349316 	
C	 17.772163020204 	  3.672652007486 	 18.746599069316 	
C	 18.340676050204 	  9.856210957486 	  8.616039519316 	
C	 17.772131920204 	  9.856213767486 	 18.746596239316 	
C	  9.686392431043 	  0.629629385342 	  7.547346290952 	
C	  9.117848301043 	  0.629632195342 	 17.677903010952 	
C	  9.686361331043 	  6.813191145342 	  7.547343460952 	
C	  9.117817201043 	  6.813193955342 	 17.677900180952 	
C	 24.367219731043 	  0.629638615342 	  7.575476220952 	
C	 23.798675601043 	  0.629641425342 	 17.706032940952 	
C	 24.367188631043 	  6.813200375342 	  7.575473390952 	
C	 23.798644501043 	  6.813203185342 	 17.706030110952 	
C	  9.908351833194 	  2.424219789815 	  2.211742802364 	
C	  9.339807703194 	  2.424222599815 	 12.342299522364 	
C	  9.908320733194 	  8.607781549815 	  2.211739972364 	
C	  9.339776603194 	  8.607784359815 	 12.342296692364 	
C	 24.589179133194 	  2.424229019815 	  2.239872732364 	
C	 24.020635003194 	  2.424231829815 	 12.370429452364 	
C	 24.589148033194 	  8.607790779815 	  2.239869902364 	
C	 24.020603903194 	  8.607793589815 	 12.370426622364 	
C	  3.881839898204 	  5.467230342822 	  3.252309301888 	
C	  3.313295768204 	  5.467233152822 	 13.382866021888 	
C	  3.881808798204 	 11.650792102822 	  3.252306471888 	
C	  3.313264668204 	 11.650794912822 	 13.382863191888 	
C	 18.562667198204 	  5.467239572822 	  3.280439231888 	
C	 17.994123068204 	  5.467242382822 	 13.410995951888 	
C	 18.562636098204 	 11.650801332822 	  3.280436401888 	
C	 17.994091968204 	 11.650804142822 	 13.410993121888 	
H	  3.029001511232 	  4.628591132047 	  8.661757912179 	
H	  2.460457381232 	  4.628593942047 	 18.792314632179 	
H	  3.028970411232 	 10.812152892047 	  8.661755082179 	
H	  2.460426281232 	 10.812155702047 	 18.792311802179 	
H	 17.709828811232 	  4.628600362047 	  8.689887842179 	
H	 17.141284681232 	  4.628603172047 	 18.820444562179 	
H	 17.709797711232 	 10.812162122047 	  8.689885012179 	
H	 17.141253581232 	 10.812164932047 	 18.820441732179 	
H	 10.318412754879 	  1.578332583842 	  7.474785741020 	
H	  9.749868624879 	  1.578335393842 	 17.605342461020 	
H	 10.318381654879 	  7.761894343842 	  7.474782911020 	
H	  9.749837524879 	  7.761897153842 	 17.605339631020 	
H	 24.999240054879 	  1.578341813842 	  7.502915671020 	
H	 24.430695924879 	  1.578344623842 	 17.633472391020 	
H	 24.999208954879 	  7.761903573842 	  7.502912841020 	
H	 24.430664824879 	  7.761906383842 	 17.633469561020 	
H	 10.539230063272 	  1.468268519211 	  2.137897561776 	
H	  9.970685933272 	  1.468271329211 	 12.268454281776 	
H	 10.539198963272 	  7.651830279211 	  2.137894731776 	
H	  9.970654833272 	  7.651833089211 	 12.268451451776 	
H	 25.220057363272 	  1.468277749211 	  2.166027491776 	
H	 24.651513233272 	  1.468280559211 	 12.296584211776 	
H	 25.220026263272 	  7.651839509211 	  2.166024661776 	
H	 24.651482133272 	  7.651842319211 	 12.296581381776 	
H	  3.249819698609 	  4.518527086179 	  3.324870068144 	
H	  2.681275568609 	  4.518529896179 	 13.455426788144 	
H	  3.249788598609 	 10.702088846179 	  3.324867238144 	
H	  2.681244468609 	 10.702091656179 	 13.455423958144 	
H	 17.930646998609 	  4.518536316179 	  3.352999998144 	
H	 17.362102868609 	  4.518539126179 	 13.483556718144 	
H	 17.930615898609 	 10.702098076179 	  3.352997168144 	
H	 17.362071768609 	 10.702100886179 	 13.483553888144 	
C	  3.331286666419 	  2.747352895924 	  7.682532906549 	
C	  2.762742536419 	  2.747355705924 	 17.813089626549 	
C	  3.331255566419 	  8.930914655924 	  7.682530076549 	
C	  2.762711436419 	  8.930917465924 	 17.813086796549 	
C	 18.012113966419 	  2.747362125924 	  7.710662836549 	
C	 17.443569836419 	  2.747364935924 	 17.841219556549 	
C	 18.012082866419 	  8.930923885924 	  7.710660006549 	
C	 17.443538736419 	  8.930926695924 	 17.841216726549 	
C	 10.017080013050 	  5.790178732654 	  8.452573844689 	
C	  9.448535883050 	  5.790181542654 	 18.583130564689 	
C	 10.017048913050 	 11.973740492654 	  8.452571014689 	
C	  9.448504783050 	 11.973743302654 	 18.583127734689 	
C	 24.697907313050 	  5.790187962654 	  8.480703774689 	
C	 24.129363183050 	  5.790190772654 	 18.611260494689 	
C	 24.697876213050 	 11.973749722654 	  8.480700944689 	
C	 24.129332083050 	 11.973752532654 	 18.611257664689 	
C	 10.236944895460 	  3.349506995624 	  3.117121988923 	
C	  9.668400765460 	  3.349509805624 	 13.247678708923 	
C	 10.236913795460 	  9.533068755624 	  3.117119158923 	
C	  9.668369665460 	  9.533071565624 	 13.247675878923 	
C	 24.917772195460 	  3.349516225624 	  3.145251918923 	
C	 24.349228065460 	  3.349519035624 	 13.275808638923 	
C	 24.917741095460 	  9.533077985624 	  3.145249088923 	
C	 24.349196965460 	  9.533080795624 	 13.275805808923 	
C	  3.551151842535 	  0.306681115845 	  2.347082030986 	
C	  2.982607712535 	  0.306683925845 	 12.477638750986 	
C	  3.551120742535 	  6.490242875845 	  2.347079200986 	
C	  2.982576612535 	  6.490245685845 	 12.477635920986 	
C	 18.231979142535 	  0.306690345845 	  2.375211960986 	
C	 17.663435012535 	  0.306693155845 	 12.505768680986 	
C	 18.231948042535 	  6.490252105845 	  2.375209130986 	
C	 17.663403912535 	  6.490254915845 	 12.505765850986 	
C	  4.151539913167 	  1.648563777060 	  7.634290463238 	
C	  3.582995783167 	  1.648566587060 	 17.764847183238 	
C	  4.151508813167 	  7.832125537060 	  7.634287633238 	
C	  3.582964683167 	  7.832128347060 	 17.764844353238 	
C	 18.832367213167 	  1.648573007060 	  7.662420393238 	
C	 18.263823083167 	  1.648575817060 	 17.792977113238 	
C	 18.832336113167 	  7.832134767060 	  7.662417563238 	
C	 18.263791983167 	  7.832137577060 	 17.792974283238 	
C	  9.196453476547 	  4.698244450893 	  8.500575138493 	
C	  8.627909346547 	  4.698247260893 	 18.631131858493 	
C	  9.196422376547 	 10.881806210893 	  8.500572308493 	
C	  8.627878246547 	 10.881809020893 	 18.631129028493 	
C	 23.877280776547 	  4.698253680893 	  8.528705068493 	
C	 23.308736646547 	  4.698256490893 	 18.659261788493 	
C	 23.877249676547 	 10.881815440893 	  8.528702238493 	
C	 23.308705546547 	 10.881818250893 	 18.659258958493 	
C	  9.416691753292 	  4.448296209789 	  3.165364237688 	
C	  8.848147623292 	  4.448299019789 	 13.295920957688 	
C	  9.416660653292 	 10.631857969789 	  3.165361407688 	
C	  8.848116523292 	 10.631860779789 	 13.295918127688 	
C	 24.097519053292 	  4.448305439789 	  3.193494167688 	
C	 23.528974923292 	  4.448308249789 	 13.324050887688 	
C	 24.097487953292 	 10.631867199789 	  3.193491337688 	
C	 23.528943823292 	 10.631870009789 	 13.324048057688 	
C	  4.371778358908 	  1.398615302200 	  2.299080364694 	
C	  3.803234228908 	  1.398618112200 	 12.429637084694 	
C	  4.371747258908 	  7.582177062200 	  2.299077534694 	
C	  3.803203128908 	  7.582179872200 	 12.429634254694 	
C	 19.052605658908 	  1.398624532200 	  2.327210294694 	
C	 18.484061528908 	  1.398627342200 	 12.457767014694 	
C	 19.052574558908 	  7.582186292200 	  2.327207464694 	
C	 18.484030428908 	  7.582189102200 	 12.457764184694 	
H	  3.918452511894 	  0.846650457546 	  6.849152801903 	
H	  3.349908381894 	  0.846653267546 	 16.979709521903 	
H	  3.918421411894 	  7.030212217546 	  6.849149971903 	
H	  3.349877281894 	  7.030215027546 	 16.979706691903 	
H	 18.599279811894 	  0.846659687546 	  6.877282731903 	
H	 18.030735681894 	  0.846662497546 	 17.007839451903 	
H	 18.599248711894 	  7.030221447546 	  6.877279901903 	
H	 18.030704581894 	  7.030224257546 	 17.007836621903 	
H	  9.430428275577 	  3.896385690385 	  9.287475328705 	
H	  8.861884145577 	  3.896388500385 	 19.418032048705 	
H	  9.430397175577 	 10.079947450385 	  9.287472498705 	
H	  8.861853045577 	 10.079950260385 	 19.418029218705 	
H	 24.111255575577 	  3.896394920385 	  9.315605258705 	
H	 23.542711445577 	  3.896397730385 	 19.446161978705 	
H	 24.111224475577 	 10.079956680385 	  9.315602428705 	
H	 23.542680345577 	 10.079959490385 	 19.446159148705 	
H	  9.649779318636 	  5.250209739034 	  3.950501650863 	
H	  9.081235188636 	  5.250212549034 	 14.081058370863 	
H	  9.649748218636 	 11.433771499034 	  3.950498820863 	
H	  9.081204088636 	 11.433774309034 	 14.081055540863 	
H	 24.330606618636 	  5.250218969034 	  3.978631580863 	
H	 23.762062488636 	  5.250221779034 	 14.109188300863 	
H	 24.330575518636 	 11.433780729034 	  3.978628750863 	
H	 23.762031388636 	 11.433783539034 	 14.109185470863 	
H	  4.137803141664 	  2.200474218974 	  1.512180447911 	
H	  3.569259011664 	  2.200477028974 	 11.642737167911 	
H	  4.137772041664 	  8.384035978974 	  1.512177617911 	
H	  3.569227911664 	  8.384038788974 	 11.642734337911 	
H	 18.818630441664 	  2.200483448974 	  1.540310377911 	
H	 18.250086311664 	  2.200486258974 	 11.670867097911 	
H	 18.818599341664 	  8.384045208974 	  1.540307547911 	
H	 18.250055211664 	  8.384048018974 	 11.670864267911 	
C	  5.166889461290 	  1.482879628754 	  8.410790079731 	
C	  4.598345331290 	  1.482882438754 	 18.541346799731 	
C	  5.166858361290 	  7.666441388754 	  8.410787249731 	
C	  4.598314231290 	  7.666444198754 	 18.541343969731 	
C	 19.847716761290 	  1.482888858754 	  8.438920009731 	
C	 19.279172631290 	  1.482891668754 	 18.569476729731 	
C	 19.847685661290 	  7.666450618754 	  8.438917179731 	
C	 19.279141531290 	  7.666453428754 	 18.569473899731 	
C	  8.180999900044 	  4.532545894301 	  7.723860698807 	
C	  7.612455770044 	  4.532548704301 	 17.854417418807 	
C	  8.180968800044 	 10.716107654301 	  7.723857868807 	
C	  7.612424670044 	 10.716110464301 	 17.854414588807 	
C	 22.861827200044 	  4.532555124301 	  7.751990628807 	
C	 22.293283070044 	  4.532557934301 	 17.882547348807 	
C	 22.861796100044 	 10.716116884301 	  7.751987798807 	
C	 22.293251970044 	 10.716119694301 	 17.882544518807 	
C	  8.401342225662 	  4.613980218276 	  2.388864626528 	
C	  7.832798095662 	  4.613983028276 	 12.519421346528 	
C	  8.401311125662 	 10.797541978276 	  2.388861796528 	
C	  7.832766995662 	 10.797544788276 	 12.519418516528 	
C	 23.082169525662 	  4.613989448276 	  2.416994556528 	
C	 22.513625395662 	  4.613992258276 	 12.547551276528 	
C	 23.082138425662 	 10.797551208276 	  2.416991726528 	
C	 22.513594295662 	 10.797554018276 	 12.547548446528 	
C	  5.387232337218 	  1.564313802040 	  3.075794333176 	
C	  4.818688207218 	  1.564316612040 	 13.206351053176 	
C	  5.387201237218 	  7.747875562040 	  3.075791503176 	
C	  4.818657107218 	  7.747878372040 	 13.206348223176 	
C	 20.068059637218 	  1.564323032040 	  3.103924263176 	
C	 19.499515507218 	  1.564325842040 	 13.234480983176 	
C	 20.068028537218 	  7.747884792040 	  3.103921433176 	
C	 19.499484407218 	  7.747887602040 	 13.234478153176 	
H	  5.823766785889 	  0.547619701006 	  8.323975252505 	
H	  5.255222655889 	  0.547622511006 	 18.454531972505 	
H	  5.823735685889 	  6.731181461006 	  8.323972422505 	
H	  5.255191555889 	  6.731184271006 	 18.454529142505 	
H	 20.504594085889 	  0.547628931006 	  8.352105182505 	
H	 19.936049955889 	  0.547631741006 	 18.482661902505 	
H	 20.504562985889 	  6.731190691006 	  8.352102352505 	
H	 19.936018855889 	  6.731193501006 	 18.482659072505 	
H	  7.523841990950 	  3.596416816463 	  7.811293883067 	
H	  6.955297860950 	  3.596419626463 	 17.941850603067 	
H	  7.523810890950 	  9.779978576463 	  7.811291053067 	
H	  6.955266760950 	  9.779981386463 	 17.941847773067 	
H	 22.204669290950 	  3.596426046463 	  7.839423813067 	
H	 21.636125160950 	  3.596428856463 	 17.969980533067 	
H	 22.204638190950 	  9.779987806463 	  7.839420983067 	
H	 21.636094060950 	  9.779990616463 	 17.969977703067 	
H	  7.744464913905 	  5.549240185704 	  2.475679156828 	
H	  7.175920783905 	  5.549242995704 	 12.606235876828 	
H	  7.744433813905 	 11.732801945704 	  2.475676326828 	
H	  7.175889683905 	 11.732804755704 	 12.606233046828 	
H	 22.425292213905 	  5.549249415704 	  2.503809086828 	
H	 21.856748083905 	  5.549252225704 	 12.634365806828 	
H	 22.425261113905 	 11.732811175704 	  2.503806256828 	
H	 21.856716983905 	 11.732813985704 	 12.634362976828 	
H	  6.044390240326 	  2.500442857773 	  2.988360937596 	
H	  5.475846110326 	  2.500445667773 	 13.118917657596 	
H	  6.044359140326 	  8.684004617773 	  2.988358107596 	
H	  5.475815010326 	  8.684007427773 	 13.118914827596 	
H	 20.725217540326 	  2.500452087773 	  3.016490867596 	
H	 20.156673410326 	  2.500454897773 	 13.147047587596 	
H	 20.725186440326 	  8.684013847773 	  3.016488037596 	
H	 20.156642310326 	  8.684016657773 	 13.147044757596 	
C	  2.015643356982 	  2.892141564612 	  6.728712019663 	
C	  1.447099226982 	  2.892144374612 	 16.859268739663 	
C	  2.015612256982 	  9.075703324612 	  6.728709189663 	
C	  1.447068126982 	  9.075706134612 	 16.859265909663 	
C	 16.696470656982 	  2.892150794612 	  6.756841949663 	
C	 16.127926526982 	  2.892153604612 	 16.887398669663 	
C	 16.696439556982 	  9.075712554612 	  6.756839119663 	
C	 16.127895426982 	  9.075715364612 	 16.887395839663 	
C	 11.326066990744 	  5.915913524575 	  9.396263978315 	
C	 10.757522860744 	  5.915916334575 	 19.526820698315 	
C	 11.326035890744 	 12.099475284575 	  9.396261148315 	
C	 10.757491760744 	 12.099478094575 	 19.526817868315 	
C	 26.006894290744 	  5.915922754575 	  9.424393908315 	
C	 25.438350160744 	  5.915925564575 	 19.554950628315 	
C	 26.006863190744 	 12.099484514575 	  9.424391078315 	
C	 25.438319060744 	 12.099487324575 	 19.554947798315 	
C	 11.552587917773 	  3.204718717599 	  4.070943033456 	
C	 10.984043787773 	  3.204721527599 	 14.201499753456 	
C	 11.552556817773 	  9.388280477599 	  4.070940203456 	
C	 10.984012687773 	  9.388283287599 	 14.201496923456 	
C	 26.233415217773 	  3.204727947599 	  4.099072963456 	
C	 25.664871087773 	  3.204730757599 	 14.229629683456 	
C	 26.233384117773 	  9.388289707599 	  4.099070133456 	
C	 25.664839987773 	  9.388292517599 	 14.229626853456 	
C	  2.242164270411 	  0.180946262475 	  1.403392510109 	
C	  1.673620140411 	  0.180949072475 	 11.533949230109 	
C	  2.242133170411 	  6.364508022475 	  1.403389680109 	
C	  1.673589040411 	  6.364510832475 	 11.533946400109 	
C	 16.922991570411 	  0.180955492475 	  1.431522440109 	
C	 16.354447440411 	  0.180958302475 	 11.562079160109 	
C	 16.922960470411 	  6.364517252475 	  1.431519610109 	
C	 16.354416340411 	  6.364520062475 	 11.562076330109 	
C	  2.226399207459 	  2.350122901144 	  5.520232567864 	
C	  1.657855077459 	  2.350125711144 	 15.650789287864 	
C	  2.226368107459 	  8.533684661144 	  5.520229737864 	
C	  1.657823977459 	  8.533687471144 	 15.650786457864 	
C	 16.907226507459 	  2.350132131144 	  5.548362497864 	
C	 16.338682377459 	  2.350134941144 	 15.678919217864 	
C	 16.907195407459 	  8.533693891144 	  5.548359667864 	
C	 16.338651277459 	  8.533696701144 	 15.678916387864 	
C	 11.093002579236 	 -0.565354981901 	 10.561064207165 	
C	 10.524458449236 	 -0.565352171901 	 20.691620927165 	
C	 11.092971479236 	  5.618206778099 	 10.561061377165 	
C	 10.524427349236 	  5.618209588099 	 20.691618097165 	
C	 25.773829879236 	 -0.565345751901 	 10.589194137165 	
C	 25.205285749236 	 -0.565342941901 	 20.719750857165 	
C	 25.773798779236 	  5.618216008099 	 10.589191307165 	
C	 25.205254649236 	  5.618218818099 	 20.719748027165 	
C	 11.341831000529 	  3.746736115371 	  5.279423170431 	
C	 10.773286870529 	  3.746738925371 	 15.409979890431 	
C	 11.341799900529 	  9.930297875371 	  5.279420340431 	
C	 10.773255770529 	  9.930300685371 	 15.409977060431 	
C	 26.022658300529 	  3.746745345371 	  5.307553100431 	
C	 25.454114170529 	  3.746748155371 	 15.438109820431 	
C	 26.022627200529 	  9.930307105371 	  5.307550270431 	
C	 25.454083070529 	  9.930309915371 	 15.438106990431 	
C	  2.475228233202 	  6.662215020631 	  0.238592156112 	
C	  1.906684103202 	  6.662217830631 	 10.369148876112 	
C	  2.475197133202 	 12.845776780631 	  0.238589326112 	
C	  1.906653003202 	 12.845779590631 	 10.369146046112 	
C	 17.156055533202 	  6.662224250631 	  0.266722086112 	
C	 16.587511403202 	  6.662227060631 	 10.397278806112 	
C	 17.156024433202 	 12.845786010631 	  0.266719256112 	
C	 16.587480303202 	 12.845788820631 	 10.397275976112 	
H	  3.141863342453 	  2.686231153387 	  4.939863917246 	
H	  2.573319212453 	  2.686233963387 	 15.070420637246 	
H	  3.141832242453 	  8.869792913387 	  4.939861087246 	
H	  2.573288112453 	  8.869795723387 	 15.070417807246 	
H	 17.822690642453 	  2.686240383387 	  4.967993847246 	
H	 17.254146512453 	  2.686243193387 	 15.098550567246 	
H	 17.822659542453 	  8.869802143387 	  4.967991017246 	
H	 17.254115412453 	  8.869804953387 	 15.098547737246 	
H	 10.197389945826 	 -0.361853487053 	 11.198346080727 	
H	  9.628845815826 	 -0.361850677053 	 21.328902800727 	
H	 10.197358845826 	  5.821708272947 	 11.198343250727 	
H	  9.628814715826 	  5.821711082947 	 21.328899970727 	
H	 24.878217245826 	 -0.361844257053 	 11.226476010727 	
H	 24.309673115826 	 -0.361841447053 	 21.357032730727 	
H	 24.878186145826 	  5.821717502947 	 11.226473180727 	
H	 24.309642015826 	  5.821720312947 	 21.357029900727 	
H	 10.426367470530 	  3.410625498715 	  5.859791317416 	
H	  9.857823340530 	  3.410628308715 	 15.990348037416 	
H	 10.426336370530 	  9.594187258715 	  5.859788487416 	
H	  9.857792240530 	  9.594190068715 	 15.990345207416 	
H	 25.107194770530 	  3.410634728715 	  5.887921247416 	
H	 24.538650640530 	  3.410637538715 	 16.018477967416 	
H	 25.107163670530 	  9.594196488715 	  5.887918417416 	
H	 24.538619540530 	  9.594199298715 	 16.018475137416 	
H	  3.370840617581 	  6.458713549970 	 -0.398690043642 	
H	  2.802296487581 	  6.458716359970 	  9.731866676358 	
H	  3.370809517581 	 12.642275309970 	 -0.398692873642 	
H	  2.802265387581 	 12.642278119970 	  9.731863846358 	
H	 18.051667917581 	  6.458722779970 	 -0.370560113642 	
H	 17.483123787581 	  6.458725589970 	  9.759996606358 	
H	 18.051636817581 	 12.642284539970 	 -0.370562943642 	
H	 17.483092687581 	 12.642287349970 	  9.759993776358 	
H	  1.408173986555 	  2.482609375599 	  4.756106957441 	
H	  0.839629856555 	  2.482612185599 	 14.886663677441 	
H	  1.408142886555 	  8.666171135599 	  4.756104127441 	
H	  0.839598756555 	  8.666173945599 	 14.886660847441 	
H	 16.089001286555 	  2.482618605599 	  4.784236887441 	
H	 15.520457156555 	  2.482621415599 	 14.914793607441 	
H	 16.088970186555 	  8.666180365599 	  4.784234057441 	
H	 15.520426056555 	  8.666183175599 	 14.914790777441 	
H	 12.448494311020 	 -0.558370083522 	  0.765519186231 	
H	 11.879950181020 	 -0.558367273522 	 10.896075906231 	
H	 12.448463211020 	  5.625191676478 	  0.765516356231 	
H	 11.879919081020 	  5.625194486478 	 10.896073076231 	
H	 27.129321611020 	 -0.558360853522 	  0.793649116231 	
H	 26.560777481020 	 -0.558358043522 	 10.924205836231 	
H	 27.129290511020 	  5.625200906478 	  0.793646286231 	
H	 26.560746381020 	  5.625203716478 	 10.924203006231 	
H	 12.160056367591 	  3.614250184298 	  6.043548706546 	
H	 11.591512237591 	  3.614252994298 	 16.174105426546 	
H	 12.160025267591 	  9.797811944298 	  6.043545876546 	
H	 11.591481137591 	  9.797814754298 	 16.174102596546 	
H	 26.840883667591 	  3.614259414298 	  6.071678636546 	
H	 26.272339537591 	  3.614262224298 	 16.202235356546 	
H	 26.840852567591 	  9.797821174298 	  6.071675806546 	
H	 26.272308437591 	  9.797823984298 	 16.202232526546 	
H	  1.119736049752 	  6.655230157404 	 10.034137737543 	
H	  0.551191919752 	  6.655232967404 	 20.164694457543 	
H	  1.119704949752 	 12.838791917404 	 10.034134907543 	
H	  0.551160819752 	 12.838794727404 	 20.164691627543 	
H	 15.800563349752 	  6.655239387404 	 10.062267667543 	
H	 15.232019219752 	  6.655242197404 	 20.192824387543 	
H	 15.800532249752 	 12.838801147404 	 10.062264837543 	
H	 15.231988119752 	 12.838803957404 	 20.192821557543 	
H	  2.396213250946 	  1.230879011617 	  5.455740189643 	
H	  1.827669120946 	  1.230881821617 	 15.586296909643 	
H	  2.396182150946 	  7.414440771617 	  5.455737359643 	
H	  1.827638020946 	  7.414443581617 	 15.586294079643 	
H	 17.077040550946 	  1.230888241617 	  5.483870119643 	
H	 16.508496420946 	  1.230891051617 	 15.614426839643 	
H	 17.077009450946 	  7.414450001617 	  5.483867289643 	
H	 16.508465320946 	  7.414452811617 	 15.614424009643 	
H	 11.359196601642 	  4.140733163906 	  0.007460966578 	
H	 10.790652471642 	  4.140735973906 	 10.138017686578 	
H	 11.359165501642 	 10.324294923906 	  0.007458136578 	
H	 10.790621371642 	 10.324297733906 	 10.138014856578 	
H	 26.040023901642 	  4.140742393906 	  0.035590896578 	
H	 25.471479771642 	  4.140745203906 	 10.166147616578 	
H	 26.039992801642 	 10.324304153906 	  0.035588066578 	
H	 25.471448671642 	 10.324306963906 	 10.166144786578 	
H	 11.172014955758 	  4.865979604172 	  5.343916575634 	
H	 10.603470825758 	  4.865982414172 	 15.474473295634 	
H	 11.171983855758 	 11.049541364172 	  5.343913745634 	
H	 10.603439725758 	 11.049544174172 	 15.474470465634 	
H	 25.852842255758 	  4.865988834172 	  5.372046505634 	
H	 25.284298125758 	  4.865991644172 	 15.502603225634 	
H	 25.852811155758 	 11.049550594172 	  5.372043675634 	
H	 25.284267025758 	 11.049553404172 	 15.502600395634 	
H	  2.209034164460 	  1.956126859580 	 10.792195762328 	
H	  1.640490034460 	  1.956129669580 	 20.922752482328 	
H	  2.209003064460 	  8.139688619580 	 10.792192932328 	
H	  1.640458934460 	  8.139691429580 	 20.922749652328 	
H	 16.889861464460 	  1.956136089580 	 10.820325692328 	
H	 16.321317334460 	  1.956138899580 	 20.950882412328 	
H	 16.889830364460 	  8.139697849580 	 10.820322862328 	
H	 16.321286234460 	  8.139700659580 	 20.950879582328 	
C	  1.692992510984 	  4.185816472727 	  6.566391968335 	
C	  1.124448380984 	  4.185819282727 	 16.696948688335 	
C	  1.692961410984 	 10.369378232727 	  6.566389138335 	
C	  1.124417280984 	 10.369381042727 	 16.696945858335 	
C	 16.373819810984 	  4.185825702727 	  6.594521898335 	
C	 15.805275680984 	  4.185828512727 	 16.725078618335 	
C	 16.373788710984 	 10.369387462727 	  6.594519068335 	
C	 15.805244580984 	 10.369390272727 	 16.725075788335 	
C	 11.687659376556 	  1.193098939329 	  9.564358404889 	
C	 11.119115246556 	  1.193101749329 	 19.694915124889 	
C	 11.687628276556 	  7.376660699329 	  9.564355574889 	
C	 11.119084146556 	  7.376663509329 	 19.694912294889 	
C	 26.368486676556 	  1.193108169329 	  9.592488334889 	
C	 25.799942546556 	  1.193110979329 	 19.723045054889 	
C	 26.368455576556 	  7.376669929329 	  9.592485504889 	
C	 25.799911446556 	  7.376672739329 	 19.723042224889 	
C	 11.875240138466 	  1.911043657918 	  4.233261797458 	
C	 11.306696008466 	  1.911046467918 	 14.363818517458 	
C	 11.875209038466 	  8.094605417918 	  4.233258967458 	
C	 11.306664908466 	  8.094608227918 	 14.363815687458 	
C	 26.556067438466 	  1.911052887918 	  4.261391727458 	
C	 25.987523308466 	  1.911055697918 	 14.391948447458 	
C	 26.556036338466 	  8.094614647918 	  4.261388897458 	
C	 25.987492208466 	  8.094617457918 	 14.391945617458 	
C	  1.880571912135 	  4.903760839290 	  1.235298071802 	
C	  1.312027782135 	  4.903763649290 	 11.365854791802 	
C	  1.880540812135 	 11.087322599290 	  1.235295241802 	
C	  1.311996682135 	 11.087325409290 	 11.365851961802 	
C	 16.561399212135 	  4.903770069290 	  1.263428001802 	
C	 15.992855082135 	  4.903772879290 	 11.393984721802 	
C	 16.561368112135 	 11.087331829290 	  1.263425171802 	
C	 15.992823982135 	 11.087334639290 	 11.393981891802 	
H	  2.487933727172 	  4.876477202851 	  6.150413664866 	
H	  1.919389597172 	  4.876480012851 	 16.280970384866 	
H	  2.487902627172 	 11.060038962851 	  6.150410834866 	
H	  1.919358497172 	 11.060041772851 	 16.280967554866 	
H	 17.168761027172 	  4.876486432851 	  6.178543594866 	
H	 16.600216897172 	  4.876489242851 	 16.309100314866 	
H	 17.168729927172 	 11.060048192851 	  6.178540764866 	
H	 16.600185797172 	 11.060051002851 	 16.309097484866 	
H	 10.861860848615 	  1.827382694823 	  9.984497505105 	
H	 10.293316718615 	  1.827385504823 	 20.115054225105 	
H	 10.861829748615 	  8.010944454823 	  9.984494675105 	
H	 10.293285618615 	  8.010947264823 	 20.115051395105 	
H	 25.542688148615 	  1.827391924823 	 10.012627435105 	
H	 24.974144018615 	  1.827394734823 	 20.143184155105 	
H	 25.542657048615 	  8.010953684823 	 10.012624605105 	
H	 24.974112918615 	  8.010956494823 	 20.143181325105 	
H	 11.080299363239 	  1.220381805567 	  4.649238981477 	
H	 10.511755233239 	  1.220384615567 	 14.779795701477 	
H	 11.080268263239 	  7.403943565567 	  4.649236151477 	
H	 10.511724133239 	  7.403946375567 	 14.779792871477 	
H	 25.761126663239 	  1.220391035567 	  4.677368911477 	
H	 25.192582533239 	  1.220393845567 	 14.807925631477 	
H	 25.761095563239 	  7.403952795567 	  4.677366081477 	
H	 25.192551433239 	  7.403955605567 	 14.807922801477 	
H	  2.706370311155 	  4.269477247406 	  0.815158459534 	
H	  2.137826181155 	  4.269480057406 	 10.945715179534 	
H	  2.706339211155 	 10.453039007406 	  0.815155629534 	
H	  2.137795081155 	 10.453041817406 	 10.945712349534 	
H	 17.387197611155 	  4.269486477406 	  0.843288389534 	
H	 16.818653481155 	  4.269489287406 	 10.973845109534 	
H	 17.387166511155 	 10.453048237406 	  0.843285559534 	
H	 16.818622381155 	 10.453051047406 	 10.973842279534 	
H	  1.402492843551 	  4.783244928567 	  7.484688155434 	
H	  0.833948713551 	  4.783247738567 	 17.615244875434 	
H	  1.402461743551 	 10.966806688567 	  7.484685325434 	
H	  0.833917613551 	 10.966809498567 	 17.615242045434 	
H	 16.083320143551 	  4.783254158567 	  7.512818085434 	
H	 15.514776013551 	  4.783256968567 	 17.643374805434 	
H	 16.083289043551 	 10.966815918567 	  7.512815255434 	
H	 15.514744913551 	 10.966818728567 	 17.643371975434 	
H	 11.939436590232 	  7.805651848132 	  8.673153268346 	
H	 11.370892460232 	  7.805654658132 	 18.803709988346 	
H	 11.939405490232 	 13.989213608132 	  8.673150438346 	
H	 11.370861360232 	 13.989216418132 	 18.803707158346 	
H	 26.620263890232 	  7.805661078132 	  8.701283198346 	
H	 26.051719760232 	  7.805663888132 	 18.831839918346 	
H	 26.620232790232 	 13.989222838132 	  8.701280368346 	
H	 26.051688660232 	 13.989225648132 	 18.831837088346 	
H	 12.165741015280 	  1.313616702111 	  3.314965067075 	
H	 11.597196885280 	  1.313619512111 	 13.445521787075 	
H	 12.165709915280 	  7.497178462111 	  3.314962237075 	
H	 11.597165785280 	  7.497181272111 	 13.445518957075 	
H	 26.846568315280 	  1.313625932111 	  3.343094997075 	
H	 26.278024185280 	  1.313628742111 	 13.473651717075 	
H	 26.846537215280 	  7.497187692111 	  3.343092167075 	
H	 26.277993085280 	  7.497190502111 	 13.473648887075 	
H	  1.628795319484 	 -1.708792209621 	  2.126503289691 	
H	  1.060251189484 	 -1.708789399621 	 12.257060009691 	
H	  1.628764219484 	  4.474769550379 	  2.126500459691 	
H	  1.060220089484 	  4.474772360379 	 12.257057179691 	
H	 16.309622619484 	 -1.708782979621 	  2.154633219691 	
H	 15.741078489484 	 -1.708780169621 	 12.285189939691 	
H	 16.309591519484 	  4.474778780379 	  2.154630389691 	
H	 15.741047389484 	  4.474781590379 	 12.285187109691 	
H	  0.820675833831 	  4.377119744201 	  5.879429003700 	
H	  0.252131703831 	  4.377122554201 	 16.009985723700 	
H	  0.820644733831 	 10.560681504201 	  5.879426173700 	
H	  0.252100603831 	 10.560684314201 	 16.009982893700 	
H	 15.501503133831 	  4.377128974201 	  5.907558933700 	
H	 14.932959003831 	  4.377131784201 	 16.038115653700 	
H	 15.501472033831 	 10.560690734201 	  5.907556103700 	
H	 14.932927903831 	 10.560693544201 	 16.038112823700 	
H	 12.505384425382 	  7.414765843956 	 10.238857837156 	
H	 11.936840295382 	  7.414768653956 	 20.369414557156 	
H	 12.505353325382 	 13.598327603956 	 10.238855007156 	
H	 11.936809195382 	 13.598330413956 	 20.369411727156 	
H	 27.186211725382 	  7.414775073956 	 10.266987767156 	
H	 26.617667595382 	  7.414777883956 	 20.397544487156 	
H	 27.186180625382 	 13.598336833956 	 10.266984937156 	
H	 26.617636495382 	 13.598339643956 	 20.397541657156 	
H	 12.747556636547 	  1.719740648624 	  4.920225036826 	
H	 12.179012506547 	  1.719743458624 	 15.050781756826 	
H	 12.747525536547 	  7.903302408624 	  4.920222206826 	
H	 12.178981406547 	  7.903305218624 	 15.050778926826 	
H	 27.428383936547 	  1.719749878624 	  4.948354966826 	
H	 26.859839806547 	  1.719752688624 	 15.078911686826 	
H	 27.428352836547 	  7.903311638624 	  4.948352136826 	
H	 26.859808706547 	  7.903314448624 	 15.078908856826 	
H	  1.062846473063 	 -1.317906093824 	  0.560799115145 	
H	  0.494302343063 	 -1.317903283824 	 10.691355835145 	
H	  1.062815373063 	  4.865655666176 	  0.560796285145 	
H	  0.494271243063 	  4.865658476176 	 10.691353005145 	
H	 15.743673773063 	 -1.317896863824 	  0.588929045145 	
H	 15.175129643063 	 -1.317894053824 	 10.719485765145 	
H	 15.743642673063 	  4.865664896176 	  0.588926215145 	
H	 15.175098543063 	  4.865667706176 	 10.719482935145 	
C	  0.993053461173 	  2.251951588100 	  7.329241530353 	
C	  0.424509331173 	  2.251954398100 	 17.459798250353 	
C	  0.993022361173 	  8.435513348100 	  7.329238700353 	
C	  0.424478231173 	  8.435516158100 	 17.459795420353 	
C	 15.673880761173 	  2.251960818100 	  7.357371460353 	
C	 15.105336631173 	  2.251963628100 	 17.487928180353 	
C	 15.673849661173 	  8.435522578100 	  7.357368630353 	
C	 15.105305531173 	  8.435525388100 	 17.487925350353 	
C	 12.353251917310 	  5.301821343196 	  8.807115182143 	
C	 11.784707787310 	  5.301824153196 	 18.937671902143 	
C	 12.353220817310 	 11.485383103196 	  8.807112352143 	
C	 11.784676687310 	 11.485385913196 	 18.937669072143 	
C	 27.034079217310 	  5.301830573196 	  8.835245112143 	
C	 26.465535087310 	  5.301833383196 	 18.965801832143 	
C	 27.034048117310 	 11.485392333196 	  8.835242282143 	
C	 26.465503987310 	 11.485395143196 	 18.965799002143 	
C	 12.575177435731 	  3.844910691912 	  3.470413969980 	
C	 12.006633305731 	  3.844913501912 	 13.600970689980 	
C	 12.575146335731 	 10.028472451912 	  3.470411139980 	
C	 12.006602205731 	 10.028475261912 	 13.600967859980 	
C	 27.256004735731 	  3.844919921912 	  3.498543899980 	
C	 26.687460605731 	  3.844922731912 	 13.629100619980 	
C	 27.255973635731 	 10.028481681912 	  3.498541069980 	
C	 26.687429505731 	 10.028484491912 	 13.629097789980 	
C	  1.214979320450 	  0.795038167424 	  1.992541737870 	
C	  0.646435190450 	  0.795040977424 	 12.123098457870 	
C	  1.214948220450 	  6.978599927424 	  1.992538907870 	
C	  0.646404090450 	  6.978602737424 	 12.123095627870 	
C	 15.895806620450 	  0.795047397424 	  2.020671667870 	
C	 15.327262490450 	  0.795050207424 	 12.151228387870 	
C	 15.895775520450 	  6.978609157424 	  2.020668837870 	
C	 15.327231390450 	  6.978611967424 	 12.151225557870 	
H	  0.001064703953 	  2.260185304809 	  6.794168034973 	
H	 -0.567479426047 	  2.260188114809 	 16.924724754973 	
H	  0.001033603953 	  8.443747064809 	  6.794165204973 	
H	 -0.567510526047 	  8.443749874809 	 16.924721924973 	
H	 14.681892003953 	  2.260194534809 	  6.822297964973 	
H	 14.113347873953 	  2.260197344809 	 16.952854684973 	
H	 14.681860903953 	  8.443756294809 	  6.822295134973 	
H	 14.113316773953 	  8.443759104809 	 16.952851854973 	
H	 13.346033312979 	  5.308915451006 	  9.341554462088 	
H	 12.777489182979 	  5.308918261006 	 19.472111182088 	
H	 13.346002212979 	 11.492477211006 	  9.341551632088 	
H	 12.777458082979 	 11.492480021006 	 19.472108352088 	
H	 28.026860612979 	  5.308924681006 	  9.369684392088 	
H	 27.458316482979 	  5.308927491006 	 19.500241112088 	
H	 28.026829512979 	 11.492486441006 	  9.369681562088 	
H	 27.458285382979 	 11.492489251006 	 19.500238282088 	
H	 13.567166187764 	  3.836677021403 	  4.005487435722 	
H	 12.998622057764 	  3.836679831403 	 14.136044155722 	
H	 13.567135087764 	 10.020238781403 	  4.005484605722 	
H	 12.998590957764 	 10.020241591403 	 14.136041325722 	
H	 28.247993487764 	  3.836686251403 	  4.033617365722 	
H	 27.679449357764 	  3.836689061403 	 14.164174085722 	
H	 28.247962387764 	 10.020248011403 	  4.033614535722 	
H	 27.679418257764 	 10.020250821403 	 14.164171255722 	
H	  0.222197779809 	  0.787943914648 	  1.458102734400 	
H	 -0.346346350191 	  0.787946724648 	 11.588659454400 	
H	  0.222166679809 	  6.971505674648 	  1.458099904400 	
H	 -0.346377450191 	  6.971508484648 	 11.588656624400 	
H	 14.903025079809 	  0.787953144648 	  1.486232664400 	
H	 14.334480949809 	  0.787955954648 	 11.616789384400 	
H	 14.902993979809 	  6.971514904648 	  1.486229834400 	
H	 14.334449849809 	  6.971517714648 	 11.616786554400 	
H	  0.715315930583 	  2.592032910362 	  8.373008515208 	
H	  0.146771800583 	  2.592035720362 	 18.503565235208 	
H	  0.715284830583 	  8.775594670362 	  8.373005685208 	
H	  0.146740700583 	  8.775597480362 	 18.503562405208 	
H	 15.396143230583 	  2.592042140362 	  8.401138445208 	
H	 14.827599100583 	  2.592044950362 	 18.531695165208 	
H	 15.396112130583 	  8.775603900362 	  8.401135615208 	
H	 14.827568000583 	  8.775606710362 	 18.531692335208 	
H	 12.631867503589 	  5.641281053735 	  7.762920218761 	
H	 12.063323373589 	  5.641283863735 	 17.893476938761 	
H	 12.631836403589 	 11.824842813735 	  7.762917388761 	
H	 12.063292273589 	 11.824845623735 	 17.893474108761 	
H	 27.312694803589 	  5.641290283735 	  7.791050148761 	
H	 26.744150673589 	  5.641293093735 	 17.921606868761 	
H	 27.312663703589 	 11.824852043735 	  7.791047318761 	
H	 26.744119573589 	 11.824854853735 	 17.921604038761 	
H	 12.852915101475 	  3.504831076423 	  2.426646506890 	
H	 12.284370971475 	  3.504833886423 	 12.557203226890 	
H	 12.852884001475 	  9.688392836423 	  2.426643676890 	
H	 12.284339871475 	  9.688395646423 	 12.557200396890 	
H	 27.533742401475 	  3.504840306423 	  2.454776436890 	
H	 26.965198271475 	  3.504843116423 	 12.585333156890 	
H	 27.533711301475 	  9.688402066423 	  2.454773606890 	
H	 26.965167171475 	  9.688404876423 	 12.585330326890 	
H	  0.936363982281 	  0.455578014041 	  3.036736623295 	
H	  0.367819852281 	  0.455580824041 	 13.167293343295 	
H	  0.936332882281 	  6.639139774041 	  3.036733793295 	
H	  0.367788752281 	  6.639142584041 	 13.167290513295 	
H	 15.617191282281 	  0.455587244041 	  3.064866553295 	
H	 15.048647152281 	  0.455590054041 	 13.195423273295 	
H	 15.617160182281 	  6.639149004041 	  3.064863723295 	
H	 15.048616052281 	  6.639151814041 	 13.195420443295 	
H	  1.133640612807 	  1.144546227844 	  7.533635452172 	
H	  0.565096482807 	  1.144549037844 	 17.664192172172 	
H	  1.133609512807 	  7.328107987844 	  7.533632622172 	
H	  0.565065382807 	  7.328110797844 	 17.664189342172 	
H	 15.814467912807 	  1.144555457844 	  7.561765382172 	
H	 15.245923782807 	  1.144558267844 	 17.692322102172 	
H	 15.814436812807 	  7.328117217844 	  7.561762552172 	
H	 15.245892682807 	  7.328120027844 	 17.692319272172 	
H	 12.213484824462 	  4.193961527558 	  8.602264955171 	
H	 11.644940694462 	  4.193964337558 	 18.732821675171 	
H	 12.213453724462 	 10.377523287558 	  8.602262125171 	
H	 11.644909594462 	 10.377526097558 	 18.732818845171 	
H	 26.894312124462 	  4.193970757558 	  8.630394885171 	
H	 26.325767994462 	  4.193973567558 	 18.760951605171 	
H	 26.894281024462 	 10.377532517558 	  8.630392055171 	
H	 26.325736894462 	 10.377535327558 	 18.760948775171 	
H	 12.434589301843 	  4.952316229936 	  3.266021907077 	
H	 11.866045171843 	  4.952319039936 	 13.396578627077 	
H	 12.434558201843 	 11.135877989936 	  3.266019077077 	
H	 11.866014071843 	 11.135880799936 	 13.396575797077 	
H	 27.115416601843 	  4.952325459936 	  3.294151837077 	
H	 26.546872471843 	  4.952328269936 	 13.424708557077 	
H	 27.115385501843 	 11.135887219936 	  3.294149007077 	
H	 26.546841371843 	 11.135890029936 	 13.424705727077 	
H	  1.354746267880 	  1.902897909757 	  2.197392471701 	
H	  0.786202137880 	  1.902900719757 	 12.327949191701 	
H	  1.354715167880 	  8.086459669757 	  2.197389641701 	
H	  0.786171037880 	  8.086462479757 	 12.327946361701 	
H	 16.035573567880 	  1.902907139757 	  2.225522401701 	
H	 15.467029437880 	  1.902909949757 	 12.356079121701 	
H	 16.035542467880 	  8.086468899757 	  2.225519571701 	
H	 15.466998337880 	  8.086471709757 	 12.356076291701 	
768 
Energy: -7.3846297469649997e+01 
S	  8.274226964800 	  1.377175302200 	  0.134797036600 	
S	  7.705682834800 	  1.377178112200 	 10.265353756600 	
S	  8.274195864800 	  7.560737062200 	  0.134794206600 	
S	  7.705651734800 	  7.560739872200 	 10.265350926600 	
S	 22.955054264800 	  1.377184532200 	  0.162926966600 	
S	 22.386510134800 	  1.377187342200 	 10.293483686600 	
S	 22.955023164800 	  7.560746292200 	  0.162924136600 	
S	 22.386479034800 	  7.560749102200 	 10.293480856600 	
S	  5.468105551400 	  4.422280389300 	  5.357839294400 	
S	  4.899561421400 	  4.422283199300 	 15.488396014400 	
S	  5.468074451400 	 10.605842149300 	  5.357836464400 	
S	  4.899530321400 	 10.605844959300 	 15.488393184400 	
S	 20.148932851400 	  4.422289619300 	  5.385969224400 	
S	 19.580388721400 	  4.422292429300 	 15.516525944400 	
S	 20.148901751400 	 10.605851379300 	  5.385966394400 	
S	 19.580357621400 	 10.605854189300 	 15.516523114400 	
S	  5.252181867800 	  4.713017932400 	 10.714134363300 	
S	  4.683637737800 	  4.713020742400 	 20.844691083300 	
S	  5.252150767800 	 10.896579692400 	 10.714131533300 	
S	  4.683606637800 	 10.896582502400 	 20.844688253300 	
S	 19.933009167800 	  4.713027162400 	 10.742264293300 	
S	 19.364465037800 	  4.713029972400 	 20.872821013300 	
S	 19.932978067800 	 10.896588922400 	 10.742261463300 	
S	 19.364433937800 	 10.896591732400 	 20.872818183300 	
S	  8.058304838100 	  1.667912723500 	  5.491091585000 	
S	  7.489760708100 	  1.667915533500 	 15.621648305000 	
S	  8.058273738100 	  7.851474483500 	  5.491088755000 	
S	  7.489729608100 	  7.851477293500 	 15.621645475000 	
S	 22.739132138100 	  1.667921953500 	  5.519221515000 	
S	 22.170588008100 	  1.667924763500 	 15.649778235000 	
S	 22.739101038100 	  7.851483713500 	  5.519218685000 	
S	 22.170556908100 	  7.851486523500 	 15.649775405000 	
C	  6.549448319000 	  2.468400911100 	 10.397561804200 	
C	  5.980904189000 	  2.468403721100 	 20.528118524200 	
C	  6.549417219000 	  8.651962671100 	 10.397558974200 	
C	  5.980873089000 	  8.651965481100 	 20.528115694200 	
C	 21.230275619000 	  2.468410141100 	 10.425691734200 	
C	 20.661731489000 	  2.468412951100 	 20.556248454200 	
C	 21.230244519000 	  8.651971901100 	 10.425688904200 	
C	 20.661700389000 	  8.651974711100 	 20.556245624200 	
C	  6.761044788800 	  5.513514746100 	  5.807719306500 	
C	  6.192500658800 	  5.513517556100 	 15.938276026500 	
C	  6.761013688800 	 11.697076506100 	  5.807716476500 	
C	  6.192469558800 	 11.697079316100 	 15.938273196500 	
C	 21.441872088800 	  5.513523976100 	  5.835849236500 	
C	 20.873327958800 	  5.513526786100 	 15.966405956500 	
C	 21.441840988800 	 11.697085736100 	  5.835846406500 	
C	 20.873296858800 	 11.697088546100 	 15.966403126500 	
C	  6.976960522100 	  3.621792323500 	  0.451369381500 	
C	  6.408416392100 	  3.621795133500 	 10.581926101500 	
C	  6.976929422100 	  9.805354083500 	  0.451366551500 	
C	  6.408385292100 	  9.805356893500 	 10.581923271500 	
C	 21.657787822100 	  3.621801553500 	  0.479499311500 	
C	 21.089243692100 	  3.621804363500 	 10.610056031500 	
C	 21.657756722100 	  9.805363313500 	  0.479496481500 	
C	 21.089212592100 	  9.805366123500 	 10.610053201500 	
C	  6.765365469800 	  0.576678427600 	  5.041211357200 	
C	  6.196821339800 	  0.576681237600 	 15.171768077200 	
C	  6.765334369800 	  6.760240187600 	  5.041208527200 	
C	  6.196790239800 	  6.760242997600 	 15.171765247200 	
C	 21.446192769800 	  0.576687657600 	  5.069341287200 	
C	 20.877648639800 	  0.576690467600 	 15.199898007200 	
C	 21.446161669800 	  6.760249417600 	  5.069338457200 	
C	 20.877617539800 	  6.760252227600 	 15.199895177200 	
C	  5.514830661500 	  2.406236873400 	  9.413614614800 	
C	  4.946286531500 	  2.406239683400 	 19.544171334800 	
C	  5.514799561500 	  8.589798633400 	  9.413611784800 	
C	  4.946255431500 	  8.589801443400 	 19.544168504800 	
C	 20.195657961500 	  2.406246103400 	  9.441744544800 	
C	 19.627113831500 	  2.406248913400 	 19.572301264800 	
C	 20.195626861500 	  8.589807863400 	  9.441741714800 	
C	 19.627082731500 	  8.589810673400 	 19.572298434800 	
C	  7.795666071200 	  5.451341527800 	  6.791658665300 	
C	  7.227121941200 	  5.451344337800 	 16.922215385300 	
C	  7.795634971200 	 11.634903287800 	  6.791655835300 	
C	  7.227090841200 	 11.634906097800 	 16.922212555300 	
C	 22.476493371200 	  5.451350757800 	  6.819788595300 	
C	 21.907949241200 	  5.451353567800 	 16.950345315300 	
C	 22.476462271200 	 11.634912517800 	  6.819785765300 	
C	 21.907918141200 	 11.634915327800 	 16.950342485300 	
C	  8.011578179700 	  3.683956422100 	  1.435316571000 	
C	  7.443034049700 	  3.683959232100 	 11.565873291000 	
C	  8.011547079700 	  9.867518182100 	  1.435313741000 	
C	  7.443002949700 	  9.867520992100 	 11.565870461000 	
C	 22.692405479700 	  3.683965652100 	  1.463446501000 	
C	 22.123861349700 	  3.683968462100 	 11.594003221000 	
C	 22.692374379700 	  9.867527412100 	  1.463443671000 	
C	 22.123830249700 	  9.867530222100 	 11.594000391000 	
C	  5.730743895300 	  0.638851706800 	  4.057272317100 	
C	  5.162199765300 	  0.638854516800 	 14.187829037100 	
C	  5.730712795300 	  6.822413466800 	  4.057269487100 	
C	  5.162168665300 	  6.822416276800 	 14.187826207100 	
C	 20.411571195300 	  0.638860936800 	  4.085402247100 	
C	 19.843027065300 	  0.638863746800 	 14.215958967100 	
C	 20.411540095300 	  6.822422696800 	  4.085399417100 	
C	 19.842995965300 	  6.822425506800 	 14.215956137100 	
C	  4.708186547100 	  3.575057243500 	  9.473887592500 	
C	  4.139642417100 	  3.575060053500 	 19.604444312500 	
C	  4.708155447100 	  9.758619003500 	  9.473884762500 	
C	  4.139611317100 	  9.758621813500 	 19.604441482500 	
C	 19.389013847100 	  3.575066473500 	  9.502017522500 	
C	 18.820469717100 	  3.575069283500 	 19.632574242500 	
C	 19.388982747100 	  9.758628233500 	  9.502014692500 	
C	 18.820438617100 	  9.758631043500 	 19.632571412500 	
C	  8.602283030900 	  0.529944629900 	  6.731329322300 	
C	  8.033738900900 	  0.529947439900 	 16.861886042300 	
C	  8.602251930900 	  6.713506389900 	  6.731326492300 	
C	  8.033707800900 	  6.713509199900 	 16.861883212300 	
C	 23.283110330900 	  0.529953859900 	  6.759459252300 	
C	 22.714566200900 	  0.529956669900 	 16.890015972300 	
C	 23.283079230900 	  6.713515619900 	  6.759456422300 	
C	 22.714535100900 	  6.713518429900 	 16.890013142300 	
C	  8.818222294000 	  2.515135991100 	  1.375043593200 	
C	  8.249678164000 	  2.515138801100 	 11.505600313200 	
C	  8.818191194000 	  8.698697751100 	  1.375040763200 	
C	  8.249647064000 	  8.698700561100 	 11.505597483200 	
C	 23.499049594000 	  2.515145221100 	  1.403173523200 	
C	 22.930505464000 	  2.515148031100 	 11.533730243200 	
C	 23.499018494000 	  8.698706981100 	  1.403170693200 	
C	 22.930474364000 	  8.698709791100 	 11.533727413200 	
C	  4.924127066500 	  5.560248604700 	  4.117601875700 	
C	  4.355582936500 	  5.560251414700 	 14.248158595700 	
C	  4.924095966500 	 11.743810364700 	  4.117599045700 	
C	  4.355551836500 	 11.743813174700 	 14.248155765700 	
C	 19.604954366500 	  5.560257834700 	  4.145731805700 	
C	 19.036410236500 	  5.560260644700 	 14.276288525700 	
C	 19.604923266500 	 11.743819594700 	  4.145728975700 	
C	 19.036379136500 	 11.743822404700 	 14.276285695700 	
C	  3.616380389000 	  3.755832070100 	  8.624223372800 	
C	  3.047836259000 	  3.755834880100 	 18.754780092800 	
C	  3.616349289000 	  9.939393830100 	  8.624220542800 	
C	  3.047805159000 	  9.939396640100 	 18.754777262800 	
C	 18.297207689000 	  3.755841300100 	  8.652353302800 	
C	 17.728663559000 	  3.755844110100 	 18.782910022800 	
C	 18.297176589000 	  9.939403060100 	  8.652350472800 	
C	 17.728632459000 	  9.939405870100 	 18.782907192800 	
C	  9.694110263800 	  0.710702205100 	  7.580976645800 	
C	  9.125566133800 	  0.710705015100 	 17.711533365800 	
C	  9.694079163800 	  6.894263965100 	  7.580973815800 	
C	  9.125535033800 	  6.894266775100 	 17.711530535800 	
C	 24.374937563800 	  0.710711435100 	  7.609106575800 	
C	 23.806393433800 	  0.710714245100 	 17.739663295800 	
C	 24.374906463800 	  6.894273195100 	  7.609103745800 	
C	 23.806362333800 	  6.894276005100 	 17.739660465800 	
C	  9.910028443500 	  2.334361286300 	  2.224708027200 	
C	  9.341484313500 	  2.334364096300 	 12.355264747200 	
C	  9.909997343500 	  8.517923046300 	  2.224705197200 	
C	  9.341453213500 	  8.517925856300 	 12.355261917200 	
C	 24.590855743500 	  2.334370516300 	  2.252837957200 	
C	 24.022311613500 	  2.334373326300 	 12.383394677200 	
C	 24.590824643500 	  8.517932276300 	  2.252835127200 	
C	 24.022280513500 	  8.517935086300 	 12.383391847200 	
C	  3.832299249400 	  5.379491151300 	  3.267955189500 	
C	  3.263755119400 	  5.379493961300 	 13.398511909500 	
C	  3.832268149400 	 11.563052911300 	  3.267952359500 	
C	  3.263724019400 	 11.563055721300 	 13.398509079500 	
C	 18.513126549400 	  5.379500381300 	  3.296085119500 	
C	 17.944582419400 	  5.379503191300 	 13.426641839500 	
C	 18.513095449400 	 11.563062141300 	  3.296082289500 	
C	 17.944551319400 	 11.563064951300 	 13.426639009500 	
H	  3.030192363400 	  4.667840350300 	  8.698825072800 	
H	  2.461648233400 	  4.667843160300 	 18.829381792800 	
H	  3.030161263400 	 10.851402110300 	  8.698822242800 	
H	  2.461617133400 	 10.851404920300 	 18.829378962800 	
H	 17.711019663400 	  4.667849580300 	  8.726955002800 	
H	 17.142475533400 	  4.667852390300 	 18.857511722800 	
H	 17.710988563400 	 10.851411340300 	  8.726952172800 	
H	 17.142444433400 	 10.851414150300 	 18.857508892800 	
H	 10.280332020700 	  1.622693456600 	  7.506360722100 	
H	  9.711787890700 	  1.622696266600 	 17.636917442100 	
H	 10.280300920700 	  7.806255216600 	  7.506357892100 	
H	  9.711756790700 	  7.806258026600 	 17.636914612100 	
H	 24.961159320700 	  1.622702686600 	  7.534490652100 	
H	 24.392615190700 	  1.622705496600 	 17.665047372100 	
H	 24.961128220700 	  7.806264446600 	  7.534487822100 	
H	 24.392584090700 	  7.806267256600 	 17.665044542100 	
H	 10.496216316600 	  1.422353006100 	  2.150106647200 	
H	  9.927672186600 	  1.422355816100 	 12.280663367200 	
H	 10.496185216600 	  7.605914766100 	  2.150103817200 	
H	  9.927641086600 	  7.605917576100 	 12.280660537200 	
H	 25.177043616600 	  1.422362236100 	  2.178236577200 	
H	 24.608499486600 	  1.422365046100 	 12.308793297200 	
H	 25.177012516600 	  7.605923996100 	  2.178233747200 	
H	 24.608468386600 	  7.605926806100 	 12.308790467200 	
H	  3.246077623500 	  4.467499838900 	  3.342571328800 	
H	  2.677533493500 	  4.467502648900 	 13.473128048800 	
H	  3.246046523500 	 10.651061598900 	  3.342568498800 	
H	  2.677502393500 	 10.651064408900 	 13.473125218800 	
H	 17.926904923500 	  4.467509068900 	  3.370701258800 	
H	 17.358360793500 	  4.467511878900 	 13.501257978800 	
H	 17.926873823500 	 10.651070828900 	  3.370698428800 	
H	 17.358329693500 	 10.651073638900 	 13.501255148800 	
C	  3.297673659000 	  2.774949442900 	  7.678024848600 	
C	  2.729129529000 	  2.774952252900 	 17.808581568600 	
C	  3.297642559000 	  8.958511202900 	  7.678022018600 	
C	  2.729098429000 	  8.958514012900 	 17.808578738600 	
C	 17.978500959000 	  2.774958672900 	  7.706154778600 	
C	 17.409956829000 	  2.774961482900 	 17.836711498600 	
C	 17.978469859000 	  8.958520432900 	  7.706151948600 	
C	 17.409925729000 	  8.958523242900 	 17.836708668600 	
C	 10.012846383800 	  5.820031992100 	  8.527231920200 	
C	  9.444302253800 	  5.820034802100 	 18.657788640200 	
C	 10.012815283800 	 12.003593752100 	  8.527229090200 	
C	  9.444271153800 	 12.003596562100 	 18.657785810200 	
C	 24.693673683800 	  5.820041222100 	  8.555361850200 	
C	 24.125129553800 	  5.820044032100 	 18.685918570200 	
C	 24.693642583800 	 12.003602982100 	  8.555359020200 	
C	 24.125098453800 	 12.003605792100 	 18.685915740200 	
C	 10.228735046900 	  3.315244157100 	  3.170906228600 	
C	  9.660190916900 	  3.315246967100 	 13.301462948600 	
C	 10.228703946900 	  9.498805917100 	  3.170903398600 	
C	  9.660159816900 	  9.498808727100 	 13.301460118600 	
C	 24.909562346900 	  3.315253387100 	  3.199036158600 	
C	 24.341018216900 	  3.315256197100 	 13.329592878600 	
C	 24.909531246900 	  9.498815147100 	  3.199033328600 	
C	 24.340987116900 	  9.498817957100 	 13.329590048600 	
C	  3.513562558100 	  0.270161486100 	  2.321700231000 	
C	  2.945018428100 	  0.270164296100 	 12.452256951000 	
C	  3.513531458100 	  6.453723246100 	  2.321697401000 	
C	  2.944987328100 	  6.453726056100 	 12.452254121000 	
C	 18.194389858100 	  0.270170716100 	  2.349830161000 	
C	 17.625845728100 	  0.270173526100 	 12.480386881000 	
C	 18.194358758100 	  6.453732476100 	  2.349827331000 	
C	 17.625814628100 	  6.453735286100 	 12.480384051000 	
C	  4.115613367000 	  1.624442344200 	  7.606279463600 	
C	  3.547069237000 	  1.624445154200 	 17.736836183600 	
C	  4.115582267000 	  7.808004104200 	  7.606276633600 	
C	  3.547038137000 	  7.808006914200 	 17.736833353600 	
C	 18.796440667000 	  1.624451574200 	  7.634409393600 	
C	 18.227896537000 	  1.624454384200 	 17.764966113600 	
C	 18.796409567000 	  7.808013334200 	  7.634406563600 	
C	 18.227865437000 	  7.808016144200 	 17.764963283600 	
C	  9.194872439700 	  4.669544365100 	  8.598991286000 	
C	  8.626328309700 	  4.669547175100 	 18.729548006000 	
C	  9.194841339700 	 10.853106125100 	  8.598988456000 	
C	  8.626297209700 	 10.853108935100 	 18.729545176000 	
C	 23.875699739700 	  4.669553595100 	  8.627121216000 	
C	 23.307155609700 	  4.669556405100 	 18.757677936000 	
C	 23.875668639700 	 10.853115355100 	  8.627118386000 	
C	 23.307124509700 	 10.853118165100 	 18.757675106000 	
C	  9.410795487100 	  4.465751377700 	  3.242651400700 	
C	  8.842251357100 	  4.465754187700 	 13.373208120700 	
C	  9.410764387100 	 10.649313137700 	  3.242648570700 	
C	  8.842220257100 	 10.649315947700 	 13.373205290700 	
C	 24.091622787100 	  4.465760607700 	  3.270781330700 	
C	 23.523078657100 	  4.465763417700 	 13.401338050700 	
C	 24.091591687100 	 10.649322367700 	  3.270778500700 	
C	 23.523047557100 	 10.649325177700 	 13.401335220700 	
C	  4.331536519400 	  1.420649052200 	  2.249940436700 	
C	  3.762992389400 	  1.420651862200 	 12.380497156700 	
C	  4.331505419400 	  7.604210812200 	  2.249937606700 	
C	  3.762961289400 	  7.604213622200 	 12.380494326700 	
C	 19.012363819400 	  1.420658282200 	  2.278070366700 	
C	 18.443819689400 	  1.420661092200 	 12.408627086700 	
C	 19.012332719400 	  7.604220042200 	  2.278067536700 	
C	 18.443788589400 	  7.604222852200 	 12.408624256700 	
H	  3.910307630800 	  0.858337997200 	  6.862660610300 	
H	  3.341763500800 	  0.858340807200 	 16.993217330300 	
H	  3.910276530800 	  7.041899757200 	  6.862657780300 	
H	  3.341732400800 	  7.041902567200 	 16.993214500300 	
H	 18.591134930800 	  0.858347227200 	  6.890790540300 	
H	 18.022590800800 	  0.858350037200 	 17.021347260300 	
H	 18.591103830800 	  7.041908987200 	  6.890787710300 	
H	 18.022559700800 	  7.041911797200 	 17.021344430300 	
H	  9.400179503700 	  3.903433024400 	  9.342599275100 	
H	  8.831635373700 	  3.903435834400 	 19.473155995100 	
H	  9.400148403700 	 10.086994784400 	  9.342596445100 	
H	  8.831604273700 	 10.086997594400 	 19.473153165100 	
H	 24.081006803700 	  3.903442254400 	  9.370729205100 	
H	 23.512462673700 	  3.903445064400 	 19.501285925100 	
H	 24.080975703700 	 10.087004014400 	  9.370726375100 	
H	 23.512431573700 	 10.087006824400 	 19.501283095100 	
H	  9.616101375900 	  5.231855907300 	  3.986269934100 	
H	  9.047557245900 	  5.231858717300 	 14.116826654100 	
H	  9.616070275900 	 11.415417667300 	  3.986267104100 	
H	  9.047526145900 	 11.415420477300 	 14.116823824100 	
H	 24.296928675900 	  5.231865137300 	  4.014399864100 	
H	 23.728384545900 	  5.231867947300 	 14.144956584100 	
H	 24.296897575900 	 11.415426897300 	  4.014397034100 	
H	 23.728353445900 	 11.415429707300 	 14.144953754100 	
H	  4.126229023800 	  2.186760514700 	  1.506332765000 	
H	  3.557684893800 	  2.186763324700 	 11.636889485000 	
H	  4.126197923800 	  8.370322274700 	  1.506329935000 	
H	  3.557653793800 	  8.370325084700 	 11.636886655000 	
H	 18.807056323800 	  2.186769744700 	  1.534462695000 	
H	 18.238512193800 	  2.186772554700 	 11.665019415000 	
H	 18.807025223800 	  8.370331504700 	  1.534459865000 	
H	 18.238481093800 	  8.370334314700 	 11.665016585000 	
C	  5.203863858000 	  1.434679543400 	  8.448323302000 	
C	  4.635319728000 	  1.434682353400 	 18.578880022000 	
C	  5.203832758000 	  7.618241303400 	  8.448320472000 	
C	  4.635288628000 	  7.618244113400 	 18.578877192000 	
C	 19.884691158000 	  1.434688773400 	  8.476453232000 	
C	 19.316147028000 	  1.434691583400 	 18.607009952000 	
C	 19.884660058000 	  7.618250533400 	  8.476450402000 	
C	 19.316115928000 	  7.618253343400 	 18.607007122000 	
C	  8.106607985800 	  4.479790023800 	  7.756956459800 	
C	  7.538063855800 	  4.479792833800 	 17.887513179800 	
C	  8.106576885800 	 10.663351783800 	  7.756953629800 	
C	  7.538032755800 	 10.663354593800 	 17.887510349800 	
C	 22.787435285800 	  4.479799253800 	  7.785086389800 	
C	 22.218891155800 	  4.479802063800 	 17.915643109800 	
C	 22.787404185800 	 10.663361013800 	  7.785083559800 	
C	 22.218860055800 	 10.663363823800 	 17.915640279800 	
C	  8.322544996100 	  4.655513995700 	  2.400607562400 	
C	  7.754000866100 	  4.655516805700 	 12.531164282400 	
C	  8.322513896100 	 10.839075755700 	  2.400604732400 	
C	  7.753969766100 	 10.839078565700 	 12.531161452400 	
C	 23.003372296100 	  4.655523225700 	  2.428737492400 	
C	 22.434828166100 	  4.655526035700 	 12.559294212400 	
C	 23.003341196100 	 10.839084985700 	  2.428734662400 	
C	 22.434797066100 	 10.839087795700 	 12.559291382400 	
C	  5.419801413700 	  1.610403271700 	  3.091974731400 	
C	  4.851257283700 	  1.610406081700 	 13.222531451400 	
C	  5.419770313700 	  7.793965031700 	  3.091971901400 	
C	  4.851226183700 	  7.793967841700 	 13.222528621400 	
C	 20.100628713700 	  1.610412501700 	  3.120104661400 	
C	 19.532084583700 	  1.610415311700 	 13.250661381400 	
C	 20.100597613700 	  7.793974261700 	  3.120101831400 	
C	 19.532053483700 	  7.793977071700 	 13.250658551400 	
H	  5.815280580100 	  0.539366990000 	  8.358446190600 	
H	  5.246736450100 	  0.539369800000 	 18.489002910600 	
H	  5.815249480100 	  6.722928750000 	  8.358443360600 	
H	  5.246705350100 	  6.722931560000 	 18.489000080600 	
H	 20.496107880100 	  0.539376220000 	  8.386576120600 	
H	 19.927563750100 	  0.539379030000 	 18.517132840600 	
H	 20.496076780100 	  6.722937980000 	  8.386573290600 	
H	 19.927532650100 	  6.722940790000 	 18.517130010600 	
H	  7.495164244800 	  3.584488939300 	  7.846838885500 	
H	  6.926620114800 	  3.584491749300 	 17.977395605500 	
H	  7.495133144800 	  9.768050699300 	  7.846836055500 	
H	  6.926589014800 	  9.768053509300 	 17.977392775500 	
H	 22.175991544800 	  3.584498169300 	  7.874968815500 	
H	 21.607447414800 	  3.584500979300 	 18.005525535500 	
H	 22.175960444800 	  9.768059929300 	  7.874965985500 	
H	 21.607416314800 	  9.768062739300 	 18.005522705500 	
H	  7.711128287000 	  5.550826610000 	  2.490484352400 	
H	  7.142584157000 	  5.550829420000 	 12.621041072400 	
H	  7.711097187000 	 11.734388370000 	  2.490481522400 	
H	  7.142553057000 	 11.734391180000 	 12.621038242400 	
H	 22.391955587000 	  5.550835840000 	  2.518614282400 	
H	 21.823411457000 	  5.550838650000 	 12.649171002400 	
H	 22.391924487000 	 11.734397600000 	  2.518611452400 	
H	 21.823380357000 	 11.734400410000 	 12.649168172400 	
H	  6.031245163400 	  2.505704356200 	  3.002092091400 	
H	  5.462701033400 	  2.505707166200 	 13.132648811400 	
H	  6.031214063400 	  8.689266116200 	  3.002089261400 	
H	  5.462669933400 	  8.689268926200 	 13.132645981400 	
H	 20.712072463400 	  2.505713586200 	  3.030222021400 	
H	 20.143528333400 	  2.505716396200 	 13.160778741400 	
H	 20.712041363400 	  8.689275346200 	  3.030219191400 	
H	 20.143497233400 	  8.689278156200 	 13.160775911400 	
C	  2.060699965000 	  2.923971898300 	  6.778256047500 	
C	  1.492155835000 	  2.923974708300 	 16.908812767500 	
C	  2.060668865000 	  9.107533658300 	  6.778253217500 	
C	  1.492124735000 	  9.107536468300 	 16.908809937500 	
C	 16.741527265000 	  2.923981128300 	  6.806385977500 	
C	 16.172983135000 	  2.923983938300 	 16.936942697500 	
C	 16.741496165000 	  9.107542888300 	  6.806383147500 	
C	 16.172952035000 	  9.107545698300 	 16.936939867500 	
C	 11.249821980800 	  5.969055390200 	  9.426999575200 	
C	 10.681277850800 	  5.969058200200 	 19.557556295200 	
C	 11.249790880800 	 12.152617150200 	  9.426996745200 	
C	 10.681246750800 	 12.152619960200 	 19.557553465200 	
C	 25.930649280800 	  5.969064620200 	  9.455129505200 	
C	 25.362105150800 	  5.969067430200 	 19.585686225200 	
C	 25.930618180800 	 12.152626380200 	  9.455126675200 	
C	 25.362074050800 	 12.152629190200 	 19.585683395200 	
C	 11.465708592700 	  3.166222067100 	  4.070675242600 	
C	 10.897164462700 	  3.166224877100 	 14.201231962600 	
C	 11.465677492700 	  9.349783827100 	  4.070672412600 	
C	 10.897133362700 	  9.349786637100 	 14.201229132600 	
C	 26.146535892700 	  3.166231297100 	  4.098805172600 	
C	 25.577991762700 	  3.166234107100 	 14.229361892600 	
C	 26.146504792700 	  9.349793057100 	  4.098802342600 	
C	 25.577960662700 	  9.349795867100 	 14.229359062600 	
C	  2.276586376900 	  0.121138088000 	  1.421933213400 	
C	  1.708042246900 	  0.121140898000 	 11.552489933400 	
C	  2.276555276900 	  6.304699848000 	  1.421930383400 	
C	  1.708011146900 	  6.304702658000 	 11.552487103400 	
C	 16.957413676900 	  0.121147318000 	  1.450063143400 	
C	 16.388869546900 	  0.121150128000 	 11.580619863400 	
C	 16.957382576900 	  6.304709078000 	  1.450060313400 	
C	 16.388838446900 	  6.304711888000 	 11.580617033400 	
C	  2.262347017200 	  2.221751156100 	  5.422902565400 	
C	  1.693802887200 	  2.221753966100 	 15.553459285400 	
C	  2.262315917200 	  8.405312916100 	  5.422899735400 	
C	  1.693771787200 	  8.405315726100 	 15.553456455400 	
C	 16.943174317200 	  2.221760386100 	  5.451032495400 	
C	 16.374630187200 	  2.221763196100 	 15.581589215400 	
C	 16.943143217200 	  8.405322146100 	  5.451029665400 	
C	 16.374599087200 	  8.405324956100 	 15.581586385400 	
C	 11.048108919500 	 -0.823375339700 	 10.782308126400 	
C	 10.479564789500 	 -0.823372529700 	 20.912864846400 	
C	 11.048077819500 	  5.360186420300 	 10.782305296400 	
C	 10.479533689500 	  5.360189230300 	 20.912862016400 	
C	 25.728936219500 	 -0.823366109700 	 10.810438056400 	
C	 25.160392089500 	 -0.823363299700 	 20.940994776400 	
C	 25.728905119500 	  5.360195650300 	 10.810435226400 	
C	 25.160360989500 	  5.360198460300 	 20.940991946400 	
C	 11.264060258300 	  3.868441104100 	  5.426029355200 	
C	 10.695516128300 	  3.868443914100 	 15.556586075200 	
C	 11.264029158300 	 10.052002864100 	  5.426026525200 	
C	 10.695485028300 	 10.052005674100 	 15.556583245200 	
C	 25.944887558300 	  3.868450334100 	  5.454159285200 	
C	 25.376343428300 	  3.868453144100 	 15.584716005200 	
C	 25.944856458300 	 10.052012094100 	  5.454156455200 	
C	 25.376312328300 	 10.052014904100 	 15.584713175200 	
C	  2.478298879800 	  6.913569000600 	  0.066624656700 	
C	  1.909754749800 	  6.913571810600 	 10.197181376700 	
C	  2.478267779800 	 13.097130760600 	  0.066621826700 	
C	  1.909723649800 	 13.097133570600 	 10.197178546700 	
C	 17.159126179800 	  6.913578230600 	  0.094754586700 	
C	 16.590582049800 	  6.913581040600 	 10.225311306700 	
C	 17.159095079800 	 13.097139990600 	  0.094751756700 	
C	 16.590550949800 	 13.097142800600 	 10.225308476700 	
H	  3.170768161300 	  2.565029211100 	  4.913710526400 	
H	  2.602224031300 	  2.565032021100 	 15.044267246400 	
H	  3.170737061300 	  8.748590971100 	  4.913707696400 	
H	  2.602192931300 	  8.748593781100 	 15.044264416400 	
H	 17.851595461300 	  2.565038441100 	  4.941840456400 	
H	 17.283051331300 	  2.565041251100 	 15.072397176400 	
H	 17.851564361300 	  8.748600201100 	  4.941837626400 	
H	 17.283020231300 	  8.748603011100 	 15.072394346400 	
H	 10.139696801000 	 -0.480096932800 	 11.291488826700 	
H	  9.571152671000 	 -0.480094122800 	 21.422045546700 	
H	 10.139665701000 	  5.703464827200 	 11.291485996700 	
H	  9.571121571000 	  5.703467637200 	 21.422042716700 	
H	 24.820524101000 	 -0.480087702800 	 11.319618756700 	
H	 24.251979971000 	 -0.480084892800 	 21.450175476700 	
H	 24.820493001000 	  5.703474057200 	 11.319615926700 	
H	 24.251948871000 	  5.703476867200 	 21.450172646700 	
H	 10.355639694200 	  3.525160856600 	  5.935220864000 	
H	  9.787095564200 	  3.525163666600 	 16.065777584000 	
H	 10.355608594200 	  9.708722616600 	  5.935218034000 	
H	  9.787064464200 	  9.708725426600 	 16.065774754000 	
H	 25.036466994200 	  3.525170086600 	  5.963350794000 	
H	 24.467922864200 	  3.525172896600 	 16.093907514000 	
H	 25.036435894200 	  9.708731846600 	  5.963347964000 	
H	 24.467891764200 	  9.708734656600 	 16.093904684000 	
H	  3.386710736400 	  6.570290654600 	 -0.442556474800 	
H	  2.818166606400 	  6.570293464600 	  9.688000245200 	
H	  3.386679636400 	 12.753852414600 	 -0.442559304800 	
H	  2.818135506400 	 12.753855224600 	  9.687997415200 	
H	 18.067538036400 	  6.570299884600 	 -0.414426544800 	
H	 17.498993906400 	  6.570302694600 	  9.716130175200 	
H	 18.067506936400 	 12.753861644600 	 -0.414429374800 	
H	 17.498962806400 	 12.753864454600 	  9.716127345200 	
H	  1.404496117300 	  2.427035558900 	  4.770053794800 	
H	  0.835951987300 	  2.427038368900 	 14.900610514800 	
H	  1.404465017300 	  8.610597318900 	  4.770050964800 	
H	  0.835920887300 	  8.610600128900 	 14.900607684800 	
H	 16.085323417300 	  2.427044788900 	  4.798183724800 	
H	 15.516779287300 	  2.427047598900 	 14.928740444800 	
H	 16.085292317300 	  8.610606548900 	  4.798180894800 	
H	 15.516748187300 	  8.610609358900 	 14.928737614800 	
H	 12.337828175700 	 -0.618075910000 	  0.722500627700 	
H	 11.769284045700 	 -0.618073100000 	 10.853057347700 	
H	 12.337797075700 	  5.565485850000 	  0.722497797700 	
H	 11.769252945700 	  5.565488660000 	 10.853054517700 	
H	 27.018655475700 	 -0.618066680000 	  0.750630557700 	
H	 26.450111345700 	 -0.618063870000 	 10.881187277700 	
H	 27.018624375700 	  5.565495080000 	  0.750627727700 	
H	 26.450080245700 	  5.565497890000 	 10.881184447700 	
H	 12.121911302100 	  3.663157614800 	  6.078878020100 	
H	 11.553367172100 	  3.663160424800 	 16.209434740100 	
H	 12.121880202100 	  9.846719374800 	  6.078875190100 	
H	 11.553336072100 	  9.846722184800 	 16.209431910100 	
H	 26.802738602100 	  3.663166844800 	  6.107007950100 	
H	 26.234194472100 	  3.663169654800 	 16.237564670100 	
H	 26.802707502100 	  9.846728604800 	  6.107005120100 	
H	 26.234163372100 	  9.846731414800 	 16.237561840100 	
H	  1.188579187600 	  6.708269631800 	 10.126432579800 	
H	  0.620035057600 	  6.708272441800 	 20.256989299800 	
H	  1.188548087600 	 12.891831391800 	 10.126429749800 	
H	  0.620003957600 	 12.891834201800 	 20.256986469800 	
H	 15.869406487600 	  6.708278861800 	 10.154562509800 	
H	 15.300862357600 	  6.708281671800 	 20.285119229800 	
H	 15.869375387600 	 12.891840621800 	 10.154559679800 	
H	 15.300831257600 	 12.891843431800 	 20.285116399800 	
H	  2.333338513100 	  1.133106211500 	  5.520678957300 	
H	  1.764794383100 	  1.133109021500 	 15.651235677300 	
H	  2.333307413100 	  7.316667971500 	  5.520676127300 	
H	  1.764763283100 	  7.316670781500 	 15.651232847300 	
H	 17.014165813100 	  1.133115441500 	  5.548808887300 	
H	 16.445621683100 	  1.133118251500 	 15.679365607300 	
H	 17.014134713100 	  7.316677201500 	  5.548806057300 	
H	 16.445590583100 	  7.316680011500 	 15.679362777300 	
H	 11.409028324500 	  4.178196056400 	 -0.028085263100 	
H	 10.840484194500 	  4.178198866400 	 10.102471456900 	
H	 11.408997224500 	 10.361757816400 	 -0.028088093100 	
H	 10.840453094500 	 10.361760626400 	 10.102468626900 	
H	 26.089855624500 	  4.178205286400 	  0.000044666900 	
H	 25.521311494500 	  4.178208096400 	 10.130601386900 	
H	 26.089824524500 	 10.361767046400 	  0.000041836900 	
H	 25.521280394500 	 10.361769856400 	 10.130598556900 	
H	 11.193066621200 	  4.957086048700 	  5.328254121300 	
H	 10.624522491200 	  4.957088858700 	 15.458810841300 	
H	 11.193035521200 	 11.140647808700 	  5.328251291300 	
H	 10.624491391200 	 11.140650618700 	 15.458808011300 	
H	 25.873893921200 	  4.957095278700 	  5.356384051300 	
H	 25.305349791200 	  4.957098088700 	 15.486940771300 	
H	 25.873862821200 	 11.140657038700 	  5.356381221300 	
H	 25.305318691200 	 11.140659848700 	 15.486937941300 	
H	  2.117379466200 	  1.911997604500 	 10.877018260400 	
H	  1.548835336200 	  1.912000414500 	 21.007574980400 	
H	  2.117348366200 	  8.095559364500 	 10.877015430400 	
H	  1.548804236200 	  8.095562174500 	 21.007572150400 	
H	 16.798206766200 	  1.912006834500 	 10.905148190400 	
H	 16.229662636200 	  1.912009644500 	 21.035704910400 	
H	 16.798175666200 	  8.095568594500 	 10.905145360400 	
H	 16.229631536200 	  8.095571404500 	 21.035702080400 	
C	  1.734559952200 	  4.404219912900 	  6.506123107300 	
C	  1.166015822200 	  4.404222722900 	 16.636679827300 	
C	  1.734528852200 	 10.587781672900 	  6.506120277300 	
C	  1.165984722200 	 10.587784482900 	 16.636676997300 	
C	 16.415387252200 	  4.404229142900 	  6.534253037300 	
C	 15.846843122200 	  4.404231952900 	 16.664809757300 	
C	 16.415356152200 	 10.587790902900 	  6.534250207300 	
C	 15.846812022200 	 10.587793712900 	 16.664806927300 	
C	 11.575904795300 	  1.359102403300 	  9.699089153700 	
C	 11.007360665300 	  1.359105213300 	 19.829645873700 	
C	 11.575873695300 	  7.542664163300 	  9.699086323700 	
C	 11.007329565300 	  7.542666973300 	 19.829643043700 	
C	 26.256732095300 	  1.359111633300 	  9.727219083700 	
C	 25.688187965300 	  1.359114443300 	 19.857775803700 	
C	 26.256700995300 	  7.542673393300 	  9.727216253700 	
C	 25.688156865300 	  7.542676203300 	 19.857772973700 	
C	 11.791850066100 	  1.685974113500 	  4.342806589600 	
C	 11.223305936100 	  1.685976923500 	 14.473363309600 	
C	 11.791818966100 	  7.869535873500 	  4.342803759600 	
C	 11.223274836100 	  7.869538683500 	 14.473360479600 	
C	 26.472677366100 	  1.685983343500 	  4.370936519600 	
C	 25.904133236100 	  1.685986153500 	 14.501493239600 	
C	 26.472646266100 	  7.869545103500 	  4.370933689600 	
C	 25.904102136100 	  7.869547913500 	 14.501490409600 	
C	  1.950503562300 	  4.731091074900 	  1.149843634900 	
C	  1.381959432300 	  4.731093884900 	 11.280400354900 	
C	  1.950472462300 	 10.914652834900 	  1.149840804900 	
C	  1.381928332300 	 10.914655644900 	 11.280397524900 	
C	 16.631330862300 	  4.731100304900 	  1.177973564900 	
C	 16.062786732300 	  4.731103114900 	 11.308530284900 	
C	 16.631299762300 	 10.914662064900 	  1.177970734900 	
C	 16.062755632300 	 10.914664874900 	 11.308527454900 	
H	  2.589703828300 	  4.918653371200 	  6.050687656000 	
H	  2.021159698300 	  4.918656181200 	 16.181244376000 	
H	  2.589672728300 	 11.102215131200 	  6.050684826000 	
H	  2.021128598300 	 11.102217941200 	 16.181241546000 	
H	 17.270531128300 	  4.918662601200 	  6.078817586000 	
H	 16.701986998300 	  4.918665411200 	 16.209374306000 	
H	 17.270500028300 	 11.102224361200 	  6.078814756000 	
H	 16.701955898300 	 11.102227171200 	 16.209371476000 	
H	 10.720753036400 	  1.873537183300 	 10.154505291000 	
H	 10.152208906400 	  1.873539993300 	 20.285062011000 	
H	 10.720721936400 	  8.057098943300 	 10.154502461000 	
H	 10.152177806400 	  8.057101753300 	 20.285059181000 	
H	 25.401580336400 	  1.873546413300 	 10.182635221000 	
H	 24.833036206400 	  1.873549223300 	 20.313191941000 	
H	 25.401549236400 	  8.057108173300 	 10.182632391000 	
H	 24.833005106400 	  8.057110983300 	 20.313189111000 	
H	 10.936706512400 	  1.171539254400 	  4.798240972300 	
H	 10.368162382400 	  1.171542064400 	 14.928797692300 	
H	 10.936675412400 	  7.355101014400 	  4.798238142300 	
H	 10.368131282400 	  7.355103824400 	 14.928794862300 	
H	 25.617533812400 	  1.171548484400 	  4.826370902300 	
H	 25.048989682400 	  1.171551294400 	 14.956927622300 	
H	 25.617502712400 	  7.355110244400 	  4.826368072300 	
H	 25.048958582400 	  7.355113054400 	 14.956924792300 	
H	  2.805655203200 	  4.216656416700 	  0.694426960500 	
H	  2.237111073200 	  4.216659226700 	 10.824983680500 	
H	  2.805624103200 	 10.400218176700 	  0.694424130500 	
H	  2.237079973200 	 10.400220986700 	 10.824980850500 	
H	 17.486482503200 	  4.216665646700 	  0.722556890500 	
H	 16.917938373200 	  4.216668456700 	 10.853113610500 	
H	 17.486451403200 	 10.400227406700 	  0.722554060500 	
H	 16.917907273200 	 10.400230216700 	 10.853110780500 	
H	  1.454454417400 	  4.942542076000 	  7.419312257100 	
H	  0.885910287400 	  4.942544886000 	 17.549868977100 	
H	  1.454423317400 	 11.126103836000 	  7.419309427100 	
H	  0.885879187400 	 11.126106646000 	 17.549866147100 	
H	 16.135281717400 	  4.942551306000 	  7.447442187100 	
H	 15.566737587400 	  4.942554116000 	 17.577998907100 	
H	 16.135250617400 	 11.126113066000 	  7.447439357100 	
H	 15.566706487400 	 11.126115876000 	 17.577996077100 	
H	 11.856081281800 	  7.987633929300 	  8.785941752800 	
H	 11.287537151800 	  7.987636739300 	 18.916498472800 	
H	 11.856050181800 	 14.171195689300 	  8.785938922800 	
H	 11.287506051800 	 14.171198499300 	 18.916495642800 	
H	 26.536908581800 	  7.987643159300 	  8.814071682800 	
H	 25.968364451800 	  7.987645969300 	 18.944628402800 	
H	 26.536877481800 	 14.171204919300 	  8.814068852800 	
H	 25.968333351800 	 14.171207729300 	 18.944625572800 	
H	 12.071956739200 	  1.147653411900 	  3.429616915000 	
H	 11.503412609200 	  1.147656221900 	 13.560173635000 	
H	 12.071925639200 	  7.331215171900 	  3.429614085000 	
H	 11.503381509200 	  7.331217981900 	 13.560170805000 	
H	 26.752784039200 	  1.147662641900 	  3.457746845000 	
H	 26.184239909200 	  1.147665451900 	 13.588303565000 	
H	 26.752752939200 	  7.331224401900 	  3.457744015000 	
H	 26.184208809200 	  7.331227211900 	 13.588300735000 	
H	  1.670327769500 	 -1.897440633900 	  2.062991149700 	
H	  1.101783639500 	 -1.897437823900 	 12.193547869700 	
H	  1.670296669500 	  4.286121126100 	  2.062988319700 	
H	  1.101752539500 	  4.286123936100 	 12.193545039700 	
H	 16.351155069500 	 -1.897431403900 	  2.091121079700 	
H	 15.782610939500 	 -1.897428593900 	 12.221677799700 	
H	 16.351123969500 	  4.286130356100 	  2.091118249700 	
H	 15.782579839500 	  4.286133166100 	 12.221674969700 	
H	  0.882064840800 	  4.479102131000 	  5.817989803200 	
H	  0.313520710800 	  4.479104941000 	 15.948546523200 	
H	  0.882033740800 	 10.662663891000 	  5.817986973200 	
H	  0.313489610800 	 10.662666701000 	 15.948543693200 	
H	 15.562892140800 	  4.479111361000 	  5.846119733200 	
H	 14.994348010800 	  4.479114171000 	 15.976676453200 	
H	 15.562861040800 	 10.662673121000 	  5.846116903200 	
H	 14.994316910800 	 10.662675931000 	 15.976673623200 	
H	 12.428454998600 	  7.524205360700 	 10.387278883200 	
H	 11.859910868600 	  7.524208170700 	 20.517835603200 	
H	 12.428423898600 	 13.707767120700 	 10.387276053200 	
H	 11.859879768600 	 13.707769930700 	 20.517832773200 	
H	 27.109282298600 	  7.524214590700 	 10.415408813200 	
H	 26.540738168600 	  7.524217400700 	 20.545965533200 	
H	 27.109251198600 	 13.707776350700 	 10.415405983200 	
H	 26.540707068600 	 13.707779160700 	 20.545962703200 	
H	 12.644344881100 	  1.611092017100 	  5.030940319400 	
H	 12.075800751100 	  1.611094827100 	 15.161497039400 	
H	 12.644313781100 	  7.794653777100 	  5.030937489400 	
H	 12.075769651100 	  7.794656587100 	 15.161494209400 	
H	 27.325172181100 	  1.611101247100 	  5.059070249400 	
H	 26.756628051100 	  1.611104057100 	 15.189626969400 	
H	 27.325141081100 	  7.794663007100 	  5.059067419400 	
H	 26.756596951100 	  7.794665817100 	 15.189624139400 	
H	  1.097952918700 	 -1.434011943400 	  0.461654436900 	
H	  0.529408788700 	 -1.434009133400 	 10.592211156900 	
H	  1.097921818700 	  4.749549816600 	  0.461651606900 	
H	  0.529377688700 	  4.749552626600 	 10.592208326900 	
H	 15.778780218700 	 -1.434002713400 	  0.489784366900 	
H	 15.210236088700 	 -1.433999903400 	 10.620341086900 	
H	 15.778749118700 	  4.749559046600 	  0.489781536900 	
H	 15.210204988700 	  4.749561856600 	 10.620338256900 	
C	  0.859009870300 	  2.275087521200 	  7.498940079800 	
C	  0.290465740300 	  2.275090331200 	 17.629496799800 	
C	  0.858978770300 	  8.458649281200 	  7.498937249800 	
C	  0.290434640300 	  8.458652091200 	 17.629493969800 	
C	 15.539837170300 	  2.275096751200 	  7.527070009800 	
C	 14.971293040300 	  2.275099561200 	 17.657626729800 	
C	 15.539806070300 	  8.458658511200 	  7.527067179800 	
C	 14.971261940300 	  8.458661321200 	 17.657623899800 	
C	 12.451513155200 	  5.320185271700 	  8.706323091700 	
C	 11.882969025200 	  5.320188081700 	 18.836879811700 	
C	 12.451482055200 	 11.503747031700 	  8.706320261700 	
C	 11.882937925200 	 11.503749841700 	 18.836876981700 	
C	 27.132340455200 	  5.320194501700 	  8.734453021700 	
C	 26.563796325200 	  5.320197311700 	 18.865009741700 	
C	 27.132309355200 	 11.503756261700 	  8.734450191700 	
C	 26.563765225200 	 11.503759071700 	 18.865006911700 	
C	 12.667397959200 	  3.815108697600 	  3.349991953400 	
C	 12.098853829200 	  3.815111507600 	 13.480548673400 	
C	 12.667366859200 	  9.998670457600 	  3.349989123400 	
C	 12.098822729200 	  9.998673267600 	 13.480545843400 	
C	 27.348225259200 	  3.815117927600 	  3.378121883400 	
C	 26.779681129200 	  3.815120737600 	 13.508678603400 	
C	 27.348194159200 	  9.998679687600 	  3.378119053400 	
C	 26.779650029200 	  9.998682497600 	 13.508675773400 	
C	  1.074895180800 	  0.770007780200 	  2.142610232500 	
C	  0.506351050800 	  0.770010590200 	 12.273166952500 	
C	  1.074864080800 	  6.953569540200 	  2.142607402500 	
C	  0.506319950800 	  6.953572350200 	 12.273164122500 	
C	 15.755722480800 	  0.770017010200 	  2.170740162500 	
C	 15.187178350800 	  0.770019820200 	 12.301296882500 	
C	 15.755691380800 	  6.953578770200 	  2.170737332500 	
C	 15.187147250800 	  6.953581580200 	 12.301294052500 	
H	 -0.047227588500 	  2.355973740600 	  6.881775666400 	
H	 -0.615771718500 	  2.355976550600 	 17.012332386400 	
H	 -0.047258688500 	  8.539535500600 	  6.881772836400 	
H	 -0.615802818500 	  8.539538310600 	 17.012329556400 	
H	 14.633599711500 	  2.355982970600 	  6.909905596400 	
H	 14.065055581500 	  2.355985780600 	 17.040462316400 	
H	 14.633568611500 	  8.539544730600 	  6.909902766400 	
H	 14.065024481500 	  8.539547540600 	 17.040459486400 	
H	 13.357742057700 	  5.401060799500 	  9.323509597600 	
H	 12.789197927700 	  5.401063609500 	 19.454066317600 	
H	 13.357710957700 	 11.584622559500 	  9.323506767600 	
H	 12.789166827700 	 11.584625369500 	 19.454063487600 	
H	 28.038569357700 	  5.401070029500 	  9.351639527600 	
H	 27.470025227700 	  5.401072839500 	 19.482196247600 	
H	 28.038538257700 	 11.584631789500 	  9.351636697600 	
H	 27.469994127700 	 11.584634599500 	 19.482193417600 	
H	 13.573635570700 	  3.734222417300 	  3.967156046800 	
H	 13.005091440700 	  3.734225227300 	 14.097712766800 	
H	 13.573604470700 	  9.917784177300 	  3.967153216800 	
H	 13.005060340700 	  9.917786987300 	 14.097709936800 	
H	 28.254462870700 	  3.734231647300 	  3.995285976800 	
H	 27.685918740700 	  3.734234457300 	 14.125842696800 	
H	 28.254431770700 	  9.917793407300 	  3.995283146800 	
H	 27.685887640700 	  9.917796217300 	 14.125839866800 	
H	  0.168666130200 	  0.689132191500 	  1.525423939400 	
H	 -0.399877999800 	  0.689135001500 	 11.655980659400 	
H	  0.168635030200 	  6.872693951500 	  1.525421109400 	
H	 -0.399909099800 	  6.872696761500 	 11.655977829400 	
H	 14.849493430200 	  0.689141421500 	  1.553553869400 	
H	 14.280949300200 	  0.689144231500 	 11.684110589400 	
H	 14.849462330200 	  6.872703181500 	  1.553551039400 	
H	 14.280918200200 	  6.872705991500 	 11.684107759400 	
H	  0.663727609200 	  2.763729103700 	  8.461941528400 	
H	  0.095183479200 	  2.763731913700 	 18.592498248400 	
H	  0.663696509200 	  8.947290863700 	  8.461938698400 	
H	  0.095152379200 	  8.947293673700 	 18.592495418400 	
H	 15.344554909200 	  2.763738333700 	  8.490071458400 	
H	 14.776010779200 	  2.763741143700 	 18.620628178400 	
H	 15.344523809200 	  8.947300093700 	  8.490068628400 	
H	 14.775979679200 	  8.947302903700 	 18.620625348400 	
H	 12.646828893000 	  5.808844884300 	  7.743333331200 	
H	 12.078284763000 	  5.808847694300 	 17.873890051200 	
H	 12.646797793000 	 11.992406644300 	  7.743330501200 	
H	 12.078253663000 	 11.992409454300 	 17.873887221200 	
H	 27.327656193000 	  5.808854114300 	  7.771463261200 	
H	 26.759112063000 	  5.808856924300 	 17.902019981200 	
H	 27.327625093000 	 11.992415874300 	  7.771460431200 	
H	 26.759080963000 	 11.992418684300 	 17.902017151200 	
H	 12.862680534200 	  3.326468820300 	  2.386989650500 	
H	 12.294136404200 	  3.326471630300 	 12.517546370500 	
H	 12.862649434200 	  9.510030580300 	  2.386986820500 	
H	 12.294105304200 	  9.510033390300 	 12.517543540500 	
H	 27.543507834200 	  3.326478050300 	  2.415119580500 	
H	 26.974963704200 	  3.326480860300 	 12.545676300500 	
H	 27.543476734200 	  9.510039810300 	  2.415116750500 	
H	 26.974932604200 	  9.510042620300 	 12.545673470500 	
H	  0.879579730900 	  0.281347802200 	  3.105599781400 	
H	  0.311035600900 	  0.281350612200 	 13.236156501400 	
H	  0.879548630900 	  6.464909562200 	  3.105596951400 	
H	  0.311004500900 	  6.464912372200 	 13.236153671400 	
H	 15.560407030900 	  0.281357032200 	  3.133729711400 	
H	 14.991862900900 	  0.281359842200 	 13.264286431400 	
H	 15.560375930900 	  6.464918792200 	  3.133726881400 	
H	 14.991831800900 	  6.464921602200 	 13.264283601400 	
H	  1.045204185900 	  1.211387289900 	  7.689215422100 	
H	  0.476660055900 	  1.211390099900 	 17.819772142100 	
H	  1.045173085900 	  7.394949049900 	  7.689212592100 	
H	  0.476628955900 	  7.394951859900 	 17.819769312100 	
H	 15.726031485900 	  1.211396519900 	  7.717345352100 	
H	 15.157487355900 	  1.211399329900 	 17.847902072100 	
H	 15.726000385900 	  7.394958279900 	  7.717342522100 	
H	 15.157456255900 	  7.394961089900 	 17.847899242100 	
H	 12.265311577400 	  4.256482564700 	  8.516029920700 	
H	 11.696767447400 	  4.256485374700 	 18.646586640700 	
H	 12.265280477400 	 10.440044324700 	  8.516027090700 	
H	 11.696736347400 	 10.440047134700 	 18.646583810700 	
H	 26.946138877400 	  4.256491794700 	  8.544159850700 	
H	 26.377594747400 	  4.256494604700 	 18.674716570700 	
H	 26.946107777400 	 10.440053554700 	  8.544157020700 	
H	 26.377563647400 	 10.440056364700 	 18.674713740700 	
H	 12.481202737100 	  4.878809050700 	  3.159718317000 	
H	 11.912658607100 	  4.878811860700 	 13.290275037000 	
H	 12.481171637100 	 11.062370810700 	  3.159715487000 	
H	 11.912627507100 	 11.062373620700 	 13.290272207000 	
H	 27.162030037100 	  4.878818280700 	  3.187848247000 	
H	 26.593485907100 	  4.878821090700 	 13.318404967000 	
H	 27.161998937100 	 11.062380040700 	  3.187845417000 	
H	 26.593454807100 	 11.062382850700 	 13.318402137000 	
H	  1.261096601800 	  1.833710487200 	  2.332903830600 	
H	  0.692552471800 	  1.833713297200 	 12.463460550600 	
H	  1.261065501800 	  8.017272247200 	  2.332901000600 	
H	  0.692521371800 	  8.017275057200 	 12.463457720600 	
H	 15.941923901800 	  1.833719717200 	  2.361033760600 	
H	 15.373379771800 	  1.833722527200 	 12.491590480600 	
H	 15.941892801800 	  8.017281477200 	  2.361030930600 	
H	 15.373348671800 	  8.017284287200 	 12.491587650600 	
