  Invoking FHI-aims ...
  | Number of atoms                   :  96
  ...scf iterations...
  | Total energy corrected        :   -8.363082822276E+01 eV
  ...
  Total atomic forces (unitary forces cleaned)
     1  -2.9585504067E-01  5.9553315230E-01  1.8624184393E-01
     2  2.2767129288E-01  5.7065092986E-01  -1.8198709533E-01
     3  2.9585493340E-01  -5.9553307236E-01  -1.8624184328E-01
     4  -2.2767121900E-01  -5.7065096739E-01  1.8198721446E-01
     5  -8.5989560055E-01  1.6039821865E+00  2.7765981562E-01
     6  8.6874292527E-01  1.1904391177E+00  -3.0072928363E-01
     7  8.5989654811E-01  -1.6039819755E+00  -2.7765900825E-01
     8  -8.6874263881E-01  -1.1904393108E+00  3.0072949954E-01
     9  -3.6584818051E-01  1.8906985043E-01  -1.6442156773E-01
    10  9.6816297417E-01  5.8908468844E-01  1.3047749349E-01
    11  3.6584737500E-01  -1.8907049116E-01  1.6442094630E-01
    12  -9.6816323774E-01  -5.8908433191E-01  -1.3047789755E-01
    13  -5.0318992087E-01  -1.0544622350E+00  -9.8240739775E-01
    14  -1.0954008862E-01  -1.4836954466E+00  1.0353735638E+00
    15  5.0318911332E-01  1.0544625801E+00  9.8240710437E-01
    16  1.0953982193E-01  1.4836954855E+00  -1.0353736607E+00
    17  4.9970046973E-01  -6.2243784233E-01  -3.0268801000E-02
    18  -3.1373844381E-01  -8.4602268902E-01  4.9349801424E-01
    19  -4.9969998824E-01  6.2243820736E-01  3.0269337514E-02
    20  3.1373862576E-01  8.4602234605E-01  -4.9349817712E-01
    21  5.9198287971E-01  -1.0578263116E+00  -1.4642421056E-01
    22  -6.1630051087E-01  -1.1653736383E+00  1.9423300024E-01
    23  -5.9198295045E-01  1.0578263146E+00  1.4642427829E-01
    24  6.1630060552E-01  1.1653739374E+00  -1.9423319222E-01
    25  8.9816764295E-01  1.0897321797E-01  6.0438332053E-01
    26  -1.0505243734E+00  3.6925540173E-01  -1.0647097211E+00
    27  -8.9816771871E-01  -1.0897390871E-01  -6.0438365719E-01
    28  1.0505245183E+00  -3.6925468022E-01  1.0647095961E+00
    29  4.5865594237E-01  4.4733997160E-01  6.4063529073E-01
    30  -4.5400144628E-01  4.7979980149E-01  -6.6513991636E-01
    31  -4.5865579562E-01  -4.4733997511E-01  -6.4063581967E-01
    32  4.5400049857E-01  -4.7980021516E-01  6.6513968802E-01
    33  1.0916549961E-01  1.0003992481E+00  7.8346913907E-01
    34  -1.1280751676E-01  1.0143969225E+00  -7.8092941928E-01
    35  -1.0916530954E-01  -1.0003989453E+00  -7.8346898620E-01
    36  1.1280746423E-01  -1.0143969887E+00  7.8092938362E-01
    37  -7.8507517896E-01  5.4349658683E-01  -1.4880147305E-01
    38  8.0443860593E-01  5.7309918214E-01  1.3576810104E-01
    39  7.8507526666E-01  -5.4349681454E-01  1.4880177125E-01
    40  -8.0443821517E-01  -5.7309979660E-01  -1.3576756657E-01
    41  -8.5369549197E-01  1.0318105765E+00  8.0004922698E-02
    42  8.5767200291E-01  1.0421638840E+00  -7.6005391705E-02
    43  8.5369540892E-01  -1.0318101969E+00  -8.0004951841E-02
    44  -8.5767172160E-01  -1.0421636832E+00  7.6005391732E-02
    45  -1.1769843713E+00  2.2904236417E-02  -7.6757699671E-01
    46  1.4989167037E+00  1.4020358060E-01  1.1077567370E+00
    47  1.1769819318E+00  -2.2904875637E-02  7.6757510356E-01
    48  -1.4989166726E+00  -1.4020359276E-01  -1.1077569315E+00
    49  1.5816311627E-01  -5.8001325142E-01  1.3576402645E+00
    50  7.6908516702E-01  -4.2593781159E-02  -5.2670897480E+00
    51  -1.5816219473E-01  5.8001223248E-01  -1.3576396426E+00
    52  -7.6908423547E-01  4.2592860676E-02  5.2670909957E+00
    53  -4.7275889964E-01  -1.2694417858E+00  -3.0372721378E-01
    54  3.2013842341E-01  -1.4159788801E+00  3.9582115153E-01
    55  4.7275810071E-01  1.2694403941E+00  3.0372691107E-01
    56  -3.2013857514E-01  1.4159791861E+00  -3.9582098133E-01
    57  6.7359013250E-01  -3.6777782662E-02  4.2703463804E-01
    58  1.2019872823E+00  2.2449118718E-01  1.0344705662E+00
    59  -6.7358953167E-01  3.6777260570E-02  -4.2703407686E-01
    60  -1.2019885136E+00  -2.2449153735E-01  -1.0344718209E+00
    61  -1.0466766277E+00  7.5386838306E-01  6.6639979514E-01
    62  -1.3864134060E+00  -6.3064692194E-02  9.8009088662E-01
    63  1.0466754765E+00  -7.5386783105E-01  -6.6639825747E-01
    64  1.3864136907E+00  6.3064828296E-02  -9.8009076382E-01
    65  1.3461859400E+00  -6.0097998418E-01  -3.9706534554E-01
    66  -1.7539177389E+00  -3.6751585805E-01  2.0988750606E+00
    67  -1.3461849903E+00  6.0098027070E-01  3.9706560033E-01
    68  1.7539171822E+00  3.6751656364E-01  -2.0988740431E+00
    69  -2.3794632372E-01  -1.3243815737E+00  -1.1214037623E-01
    70  4.3276361890E-01  -1.6188323140E+00  5.6340720098E-02
    71  2.3794628404E-01  1.3243797685E+00  1.1213979313E-01
    72  -4.3276399953E-01  1.6188322348E+00  -5.6340360799E-02
    73  2.3900011771E-01  5.9606258144E-01  -1.2030573796E+00
    74  -2.9987976047E-02  5.1324164780E-01  1.9041659831E-01
    75  -2.3900003819E-01  -5.9606177760E-01  1.2030558339E+00
    76  2.9988292999E-02  -5.1324164334E-01  -1.9041749822E-01
    77  6.4524111241E-01  1.0356587717E-02  4.4936889082E-01
    78  -1.1446051031E+00  -1.0367837700E-02  -7.1849264848E-01
    79  -6.4524033636E-01  -1.0356632730E-02  -4.4936887939E-01
    80  1.1446053963E+00  1.0367913764E-02  7.1849280008E-01
    81  9.0568151466E-01  1.1627379947E+00  4.8193402366E-01
    82  -9.1595471913E-01  1.2667030256E+00  -4.7200029529E-01
    83  -9.0568045543E-01  -1.1627373549E+00  -4.8193260392E-01
    84  9.1595545001E-01  -1.2667027409E+00  4.7200044374E-01
    85  7.6783756044E-01  -4.8057106903E-02  4.1738596877E-01
    86  -7.9124811519E-01  -4.2514137601E-03  -4.0728627230E-01
    87  -7.6783656829E-01  4.8057201092E-02  -4.1738542167E-01
    88  7.9124757070E-01  4.2514703558E-03  4.0728608150E-01
    89  1.5326337091E-01  6.2084171186E-01  -1.2256172947E+00
    90  -1.5997975316E-01  6.7327960734E-01  1.2426441147E+00
    91  -1.5326310918E-01  -6.2083971969E-01  1.2256154595E+00
    92  1.5998000951E-01  -6.7327935947E-01  -1.2426444424E+00
    93  -8.2739595285E-01  7.0420096096E-01  8.7254375399E-01
    94  8.3494562336E-01  7.4885824529E-01  -8.6901312903E-01
    95  8.2739477875E-01  -7.0420011084E-01  -8.7254241010E-01
    96  -8.3494546760E-01  -7.4885856995E-01  8.6901296258E-01
  Stress tensor (eV/A^3):
  8.3562853569E-02  -1.5316294142E-03  2.0609921778E-02
  -1.5316294142E-03  9.4476878407E-02  -5.4059542796E-05
  2.0609921778E-02  -5.4059542796E-05  7.0906170018E-02
