  Invoking FHI-aims ...
  | Number of atoms                   :  96
  ...scf iterations...
  | Total energy corrected        :   -9.592715328216E+01 eV
  ...
  Total atomic forces (unitary forces cleaned)
     1  -2.8989956717E-01  6.0489071599E-01  1.8589343927E-01
     2  2.1728199187E-01  5.7380787179E-01  -1.8602141179E-01
     3  2.8989957648E-01  -6.0489061849E-01  -1.8589340238E-01
     4  -2.1728184606E-01  -5.7380777482E-01  1.8602148504E-01
     5  -8.3650515997E-01  1.6402269838E+00  3.0857667875E-01
     6  8.5396060107E-01  7.6528835797E-01  2.5353776774E-02
     7  8.3650572061E-01  -1.6402268278E+00  -3.0857612778E-01
     8  -8.5396060618E-01  -7.6528851081E-01  -2.5353468625E-02
     9  -3.7887127131E-01  2.3397780136E-01  -1.7887184306E-01
    10  1.0022727151E+00  6.2232734022E-01  1.4393774855E-01
    11  3.7887070294E-01  -2.3397790783E-01  1.7887135560E-01
    12  -1.0022730123E+00  -6.2232728897E-01  -1.4393775345E-01
    13  -5.2771062202E-01  -1.0366227202E+00  -1.0666777029E+00
    14  -9.6732039825E-02  -1.4637392713E+00  1.1384145741E+00
    15  5.2770993029E-01  1.0366229410E+00  1.0666774016E+00
    16  9.6731873663E-02  1.4637394604E+00  -1.1384141898E+00
    17  4.0470722978E-01  -5.3858067317E-01  -3.5284264765E-02
    18  -2.8298758579E-01  -6.4415383455E-01  4.6423158956E-01
    19  -4.0470653103E-01  5.3858071548E-01  3.5284757988E-02
    20  2.8298745845E-01  6.4415358915E-01  -4.6423184853E-01
    21  6.5807578844E-01  -1.2367047515E+00  -2.3965332403E-01
    22  -6.5276097721E-01  -1.3267781630E+00  3.0056063356E-01
    23  -6.5807617815E-01  1.2367049412E+00  2.3965304598E-01
    24  6.5276106199E-01  1.3267783741E+00  -3.0056074970E-01
    25  8.8769954985E-01  6.6854292293E-02  6.9658591794E-01
    26  -9.3746720771E-01  1.7965421756E-01  -1.0773070749E+00
    27  -8.8770171775E-01  -6.6854639441E-02  -6.9658748434E-01
    28  9.3746790502E-01  -1.7965371233E-01  1.0773067871E+00
    29  4.7834081838E-01  3.3797144978E-01  5.9264094251E-01
    30  -4.5010019116E-01  3.9205419225E-01  -6.1209345239E-01
    31  -4.7834061083E-01  -3.3797148417E-01  -5.9264115757E-01
    32  4.5009945876E-01  -3.9205447011E-01  6.1209311286E-01
    33  2.1665031083E-01  1.0972967555E+00  9.6581282886E-01
    34  -2.0165879047E-01  1.1354890800E+00  -9.5555073831E-01
    35  -2.1664989724E-01  -1.0972968748E+00  -9.6581245719E-01
    36  2.0165904908E-01  -1.1354893296E+00  9.5555064571E-01
    37  -7.0684670881E-01  4.5858667239E-01  -2.1690197494E-01
    38  7.2556393094E-01  5.0174589474E-01  1.9239633021E-01
    39  7.0684678458E-01  -4.5858693412E-01  2.1690210041E-01
    40  -7.2556374181E-01  -5.0174632339E-01  -1.9239579777E-01
    41  -9.2550906650E-01  1.1930343311E+00  8.6954464681E-02
    42  9.3071431855E-01  1.2047847721E+00  -8.3926757801E-02
    43  9.2550896584E-01  -1.1930340637E+00  -8.6954304176E-02
    44  -9.3071400121E-01  -1.2047844594E+00  8.3926878715E-02
    45  4.5284774020E-01  2.7007384546E-01  1.0818083932E+00
    46  -3.9098616087E+00  -2.2147797433E+00  -3.0543687687E+00
    47  -4.5278676928E-01  -2.7006449985E-01  -1.0817264164E+00
    48  3.9098732602E+00  2.2147859723E+00  3.0542991431E+00
    49  -5.9344997271E+00  -2.8149645060E-01  1.7898946735E+00
    50  9.4966431696E+00  3.3168996986E+00  -6.3681648062E+00
    51  5.9343732087E+00  2.8150077865E-01  -1.7899032250E+00
    52  -9.4968493665E+00  -3.3169841026E+00  6.3683670082E+00
    53  1.8832795041E+00  7.5047373935E-01  -1.4136765133E+00
    54  -9.9783496064E-01  -7.3487835929E-01  1.1062896911E+00
    55  -1.8832115082E+00  -7.5044024243E-01  1.4136285518E+00
    56  9.9787355206E-01  7.3483816578E-01  -1.1063103235E+00
    57  1.8075786839E+00  -2.8569394453E-01  1.7065506211E+00
    58  4.3436261482E-01  2.2221482138E-01  1.0378367376E+00
    59  -1.8075620713E+00  2.8569029202E-01  -1.7065351382E+00
    60  -4.3436387683E-01  -2.2221494584E-01  -1.0378361394E+00
    61  1.2790144205E+00  -2.2947695760E-01  -1.1066830014E+00
    62  -8.1200683468E+00  -3.5308063994E+00  5.9536999228E+00
    63  -1.2789642425E+00  2.2945046149E-01  1.1066376910E+00
    64  8.1202300811E+00  3.5309242498E+00  -5.9538132167E+00
    65  -7.2638146674E-01  -1.8615649307E+00  -1.3721280565E+00
    66  4.6406671766E+00  5.5868468420E-01  4.8854627297E-01
    67  7.2634420403E-01  1.8615557677E+00  1.3721055483E+00
    68  -4.6406735214E+00  -5.5868801363E-01  -4.8853663549E-01
    69  -1.4950436775E-01  8.9966731573E-02  5.5227773104E-01
    70  5.7922692959E-02  4.4039519310E-01  -7.7065612956E-01
    71  1.4951725170E-01  -8.9932876622E-02  -5.5227181660E-01
    72  -5.7921522963E-02  -4.4039753247E-01  7.7065522350E-01
    73  4.1584403985E-01  3.8793307096E-01  -7.3394018815E-01
    74  -6.4504577249E-01  5.9272513763E-01  8.9207426827E-01
    75  -4.1584843866E-01  -3.8792578016E-01  7.3396337596E-01
    76  6.4504739364E-01  -5.9272174227E-01  -8.9208313167E-01
    77  1.4433869201E+00  -3.5836772218E-01  7.7424667731E-01
    78  -1.6250526949E+00  -4.7571349895E-01  -9.3943107623E-01
    79  -1.4433852516E+00  3.5836658071E-01  -7.7424706249E-01
    80  1.6250536050E+00  4.7571356327E-01  9.3943115517E-01
    81  -1.9580060409E+00  4.3061094946E+00  -1.5519956321E+00
    82  2.1379414234E+00  4.3681637476E+00  1.7221541965E+00
    83  1.9579241101E+00  -4.3060232575E+00  1.5519794578E+00
    84  -2.1379429725E+00  -4.3681670964E+00  -1.7221605154E+00
    85  1.8511020617E+00  1.7680891881E-01  9.2796960428E-01
    86  -1.8903935298E+00  2.3688822771E-01  -8.6595712456E-01
    87  -1.8510940604E+00  -1.7680869257E-01  -9.2796591325E-01
    88  1.8903931869E+00  -2.3688810571E-01  8.6595708302E-01
    89  1.3541696593E-01  -6.4816225692E-01  -1.7962240444E-01
    90  -1.6317621357E-01  -5.8230206624E-01  2.5932813803E-01
    91  -1.3541711869E-01  6.4814536311E-01  1.7963481208E-01
    92  1.6317537766E-01  5.8230523077E-01  -2.5932306309E-01
    93  5.4646243314E-01  -2.3406461342E+00  2.7344193981E-01
    94  -5.7519127707E-01  -2.2230761323E+00  -2.3184547636E-01
    95  -5.4642847249E-01  2.3405284834E+00  -2.7344286070E-01
    96  5.7519171008E-01  2.2230791473E+00  2.3184750857E-01
  Stress tensor (eV/A^3):
  5.7678539031E-02  -1.2943999702E-02  5.0510983104E-02
  -1.2943999702E-02  4.6183370382E-02  8.2204500874E-03
  5.0510983104E-02  8.2204500874E-03  4.2338678092E-02
