  Invoking FHI-aims ...
  | Number of atoms                   :  96
  ...scf iterations...
  | Total energy corrected        :   -8.951524727888E+01 eV
  ...
  Total atomic forces (unitary forces cleaned)
     1  -2.9899525051E-01  6.2159992769E-01  1.9825600343E-01
     2  2.2194694577E-01  5.7456687027E-01  -1.9323050858E-01
     3  2.9899536016E-01  -6.2159983905E-01  -1.9825591552E-01
     4  -2.2194681595E-01  -5.7456659941E-01  1.9323055573E-01
     5  -7.3059568885E-01  1.4282725850E+00  6.5425195641E-02
     6  9.7277649101E-01  -1.2582104309E+00  1.9420863620E+00
     7  7.3059583308E-01  -1.4282724412E+00  -6.5424964517E-02
     8  -9.7277694077E-01  1.2582103178E+00  -1.9420860963E+00
     9  -4.3039938815E-01  3.1397539276E-01  -2.1300463258E-01
    10  4.1207795731E-01  -7.4582075218E-02  2.0379228119E-01
    11  4.3039909490E-01  -3.1397485895E-01  2.1300443221E-01
    12  -4.1207661589E-01  7.4583422536E-02  -2.0379191081E-01
    13  -5.5275403303E-01  -1.0381683656E+00  -1.1585605864E+00
    14  5.2242772846E-01  -7.3698173227E-01  1.2044613866E+00
    15  5.5275345976E-01  1.0381684632E+00  1.1585602745E+00
    16  -5.2242958350E-01  7.3698045546E-01  -1.2044604166E+00
    17  3.5301981282E-01  -4.6546002869E-01  -3.3458731482E-02
    18  -5.9620231151E-01  1.6132779664E-01  -3.6687821022E-01
    19  -3.5301863730E-01  4.6545971401E-01  3.3459409264E-02
    20  5.9620266404E-01  -1.6132852629E-01  3.6687842824E-01
    21  7.5711251848E-01  -1.3855044772E+00  -2.4560857915E-01
    22  -7.5155525340E-01  -1.4710001938E+00  3.4364146493E-01
    23  -7.5711307000E-01  1.3855053824E+00  2.4560797069E-01
    24  7.5155493884E-01  1.4710003950E+00  -3.4364182565E-01
    25  1.0287805421E+00  1.9097768129E-02  8.9889493177E-01
    26  -7.8335224095E-01  -6.5565818388E-01  -4.6859804554E-01
    27  -1.0287803031E+00  -1.9098436483E-02  -8.9889513706E-01
    28  7.8335290175E-01  6.5565905377E-01  4.6859694266E-01
    29  4.7556313788E-01  2.0648048348E-01  5.2909748522E-01
    30  -4.2851009663E-01  2.8931482650E-01  -5.5848579167E-01
    31  -4.7556301476E-01  -2.0648022112E-01  -5.2909727486E-01
    32  4.2850969145E-01  -2.8931478176E-01  5.5848535655E-01
    33  2.1354034330E-01  1.2002604224E+00  1.0698590345E+00
    34  -1.4191889780E-01  1.2761388550E+00  -9.9235872412E-01
    35  -2.1354050416E-01  -1.2002610820E+00  -1.0698588698E+00
    36  1.4191935453E-01  -1.2761394255E+00  9.9235863518E-01
    37  -6.3602924588E-01  3.7788117643E-01  -2.8723745621E-01
    38  6.6981764972E-01  4.5391092477E-01  2.4210100574E-01
    39  6.3602932977E-01  -3.7788147589E-01  2.8723732708E-01
    40  -6.6981782206E-01  -4.5391111612E-01  -2.4210067111E-01
    41  -9.8828391971E-01  1.3600282826E+00  9.0857983843E-02
    42  1.0003752928E+00  1.3796475294E+00  -8.9477104823E-02
    43  9.8828382840E-01  -1.3600282160E+00  -9.0857596902E-02
    44  -1.0003750274E+00  -1.3796471781E+00  8.9477370584E-02
    45  -1.8792243198E+00  1.8307779556E-01  -1.2465644276E+00
    46  -3.6396056819E-01  -5.4481804263E+00  7.5949938986E-01
    47  1.8792237420E+00  -1.8307703994E-01  1.2465643186E+00
    48  3.6395865809E-01  5.4481786372E+00  -7.5949925620E-01
    49  4.4221897129E-01  9.2637752792E-02  1.0817433362E+00
    50  -7.0393294806E-01  6.5143982992E+00  -4.6041580005E+00
    51  -4.4222063314E-01  -9.2636500048E-02  -1.0817431218E+00
    52  7.0393586215E-01  -6.5143984476E+00  4.6041565928E+00
    53  -1.9537948030E+00  -1.0182719660E+00  9.9478880091E-01
    54  1.9234203605E+00  -1.2959202641E+00  -1.2130578722E+00
    55  1.9537933330E+00  1.0182757694E+00  -9.9478740982E-01
    56  -1.9234185057E+00  1.2959192586E+00  1.2130581759E+00
    57  1.1560799594E+00  -1.9215486869E-01  1.0614918142E+00
    58  1.5476282597E+00  -7.4117623834E-02  1.6467595517E+00
    59  -1.1560798610E+00  1.9215371945E-01  -1.0614908004E+00
    60  -1.5476310541E+00  7.4117116823E-02  -1.6467595590E+00
    61  -4.5781047664E-01  2.3172295853E+00  2.3612757343E-01
    62  -2.0095903385E+00  -3.5654920281E+00  6.7933835884E-01
    63  4.5781489539E-01  -2.3172296314E+00  -2.3613008045E-01
    64  2.0095900814E+00  3.5654928249E+00  -6.7933665186E-01
    65  8.3320767724E-01  -7.5712890045E-01  5.7572333980E-01
    66  2.3866102241E+00  5.1490085641E+00  -4.3899087583E-01
    67  -8.3320964079E-01  7.5713099478E-01  -5.7572298430E-01
    68  -2.3866087472E+00  -5.1490071156E+00  4.3899095286E-01
    69  -1.6693752727E+00  -1.4337869395E+00  8.5442307181E-01
    70  1.5703273554E+00  -1.1327771141E+00  -7.3887088973E-01
    71  1.6693732470E+00  1.4337878118E+00  -8.5442054209E-01
    72  -1.5703271788E+00  1.1327770095E+00  7.3887186717E-01
    73  7.7975285881E-01  -9.2106321525E-01  -2.0403497397E+00
    74  -8.5890166188E-01  -1.7022880037E+00  2.5814500504E+00
    75  -7.7975392021E-01  9.2105866570E-01  2.0403491851E+00
    76  8.5889980445E-01  1.7022883687E+00  -2.5814499954E+00
    77  1.1380972604E+00  -3.0032713776E-01  8.2482365578E-01
    78  -1.7846072060E+00  -7.4557709038E-01  -1.3177630801E+00
    79  -1.1380954079E+00  3.0032580342E-01  -8.2482322131E-01
    80  1.7846078165E+00  7.4557724927E-01  1.3177620973E+00
    81  1.2197635910E+00  3.4455604706E-01  1.5326779994E-01
    82  -1.3160807462E+00  4.1536769520E-01  -4.4899617970E-02
    83  -1.2197648976E+00  -3.4455609904E-01  -1.5326798385E-01
    84  1.3160812201E+00  -4.1536745066E-01  4.4899251381E-02
    85  1.2877232203E+00  -4.0341725369E-03  6.8173535144E-01
    86  -1.3345534702E+00  8.7692083605E-04  -6.2794265194E-01
    87  -1.2877215726E+00  4.0345272521E-03  -6.8173476694E-01
    88  1.3345531852E+00  -8.7695859315E-04  6.2794250202E-01
    89  5.0213231273E-01  -6.5512528994E-01  -2.2467859106E+00
    90  -5.2980956818E-01  -6.2306413535E-01  2.3078672303E+00
    91  -5.0213210527E-01  6.5512198721E-01  2.2467851324E+00
    92  5.2980887094E-01  6.2306516576E-01  -2.3078667791E+00
    93  -5.1761467110E-01  2.2423790391E+00  -1.8912431822E-01
    94  4.8807834643E-01  2.3307213285E+00  2.4577146530E-01
    95  5.1761642970E-01  -2.2423781679E+00  1.8912100521E-01
    96  -4.8807818344E-01  -2.3307217103E+00  -2.4577212129E-01
  Stress tensor (eV/A^3):
  9.7305502972E-02  -8.7939507726E-03  1.6751433895E-02
  -8.7939507726E-03  9.3539717702E-02  2.2060557099E-03
  1.6751433895E-02  2.2060557099E-03  9.7963327926E-02
