64 
Energy: 2.9686707242500754e+00 
Mg	  0.000000000000 	  0.000000000000 	  0.000000000000 	
Mg	  1.000000000000 	  0.000000000000 	  2.980000000000 	
Mg	  0.000000000000 	  3.980000000000 	  0.000000000000 	
Mg	  1.000000000000 	  3.980000000000 	  2.980000000000 	
Mg	  3.980000000000 	  0.000000000000 	  0.000000000000 	
Mg	  4.980000000000 	  0.000000000000 	  2.980000000000 	
Mg	  3.980000000000 	  3.980000000000 	  0.000000000000 	
Mg	  4.980000000000 	  3.980000000000 	  2.980000000000 	
Mg	  1.699899511340 	  1.796599674227 	  0.000000000000 	
Mg	  2.699899511340 	  1.796599674227 	  2.980000000000 	
Mg	  1.699899511340 	  5.776599674227 	  0.000000000000 	
Mg	  2.699899511340 	  5.776599674227 	  2.980000000000 	
Mg	  5.679899511340 	  1.796599674227 	  0.000000000000 	
Mg	  6.679899511340 	  1.796599674227 	  2.980000000000 	
Mg	  5.679899511340 	  5.776599674227 	  0.000000000000 	
Mg	  6.679899511340 	  5.776599674227 	  2.980000000000 	
Mg	  2.473500814433 	  0.000000000000 	  1.506499185567 	
Mg	  3.473500814433 	  0.000000000000 	  4.486499185567 	
Mg	  2.473500814433 	  3.980000000000 	  1.506499185567 	
Mg	  3.473500814433 	  3.980000000000 	  4.486499185567 	
Mg	  6.453500814433 	  0.000000000000 	  1.506499185567 	
Mg	  7.453500814433 	  0.000000000000 	  4.486499185567 	
Mg	  6.453500814433 	  3.980000000000 	  1.506499185567 	
Mg	  7.453500814433 	  3.980000000000 	  4.486499185567 	
Mg	  0.483500814433 	  1.990000000000 	  1.506499185567 	
Mg	  1.483500814433 	  1.990000000000 	  4.486499185567 	
Mg	  0.483500814433 	  5.970000000000 	  1.506499185567 	
Mg	  1.483500814433 	  5.970000000000 	  4.486499185567 	
Mg	  4.463500814433 	  1.990000000000 	  1.506499185567 	
Mg	  5.463500814433 	  1.990000000000 	  4.486499185567 	
Mg	  4.463500814433 	  5.970000000000 	  1.506499185567 	
Mg	  5.463500814433 	  5.970000000000 	  4.486499185567 	
O	  1.990000000000 	  0.000000000000 	  0.000000000000 	
O	  2.990000000000 	  0.000000000000 	  2.980000000000 	
O	  1.990000000000 	  3.980000000000 	  0.000000000000 	
O	  2.990000000000 	  3.980000000000 	  2.980000000000 	
O	  5.970000000000 	  0.000000000000 	  0.000000000000 	
O	  6.970000000000 	  0.000000000000 	  2.980000000000 	
O	  5.970000000000 	  3.980000000000 	  0.000000000000 	
O	  6.970000000000 	  3.980000000000 	  2.980000000000 	
O	  0.000000000000 	  1.990000000000 	  0.000000000000 	
O	  1.000000000000 	  1.990000000000 	  2.980000000000 	
O	  0.000000000000 	  5.970000000000 	  0.000000000000 	
O	  1.000000000000 	  5.970000000000 	  2.980000000000 	
O	  3.980000000000 	  1.990000000000 	  0.000000000000 	
O	  4.980000000000 	  1.990000000000 	  2.980000000000 	
O	  3.980000000000 	  5.970000000000 	  0.000000000000 	
O	  4.980000000000 	  5.970000000000 	  2.980000000000 	
O	  0.483500814433 	  0.000000000000 	  1.506499185567 	
O	  1.483500814433 	  0.000000000000 	  4.486499185567 	
O	  0.483500814433 	  3.980000000000 	  1.506499185567 	
O	  1.483500814433 	  3.980000000000 	  4.486499185567 	
O	  4.463500814433 	  0.000000000000 	  1.506499185567 	
O	  5.463500814433 	  0.000000000000 	  4.486499185567 	
O	  4.463500814433 	  3.980000000000 	  1.506499185567 	
O	  5.463500814433 	  3.980000000000 	  4.486499185567 	
O	  2.860301465979 	  1.354679929836 	  1.506499185567 	
O	  3.860301465979 	  1.354679929836 	  4.486499185567 	
O	  2.860301465979 	  5.334679929836 	  1.506499185567 	
O	  3.860301465979 	  5.334679929836 	  4.486499185567 	
O	  6.840301465979 	  1.354679929836 	  1.506499185567 	
O	  7.840301465979 	  1.354679929836 	  4.486499185567 	
O	  6.840301465979 	  5.334679929836 	  1.506499185567 	
O	  7.840301465979 	  5.334679929836 	  4.486499185567 	
64 
Energy: 2.9107947702585042e+00 
Mg	  0.000000000000 	  0.000000000000 	  0.000000000000 	
Mg	  1.000000000000 	  0.000000000000 	  2.980000000000 	
Mg	  0.000000000000 	  3.980000000000 	  0.000000000000 	
Mg	  1.000000000000 	  3.980000000000 	  2.980000000000 	
Mg	  3.980000000000 	  0.000000000000 	  0.000000000000 	
Mg	  4.980000000000 	  0.000000000000 	  2.980000000000 	
Mg	  3.980000000000 	  3.980000000000 	  0.000000000000 	
Mg	  4.980000000000 	  3.980000000000 	  2.980000000000 	
Mg	  1.726380482006 	  1.817070006887 	  0.000000000000 	
Mg	  2.726380482006 	  1.817070006887 	  2.980000000000 	
Mg	  1.726380482006 	  5.797070006887 	  0.000000000000 	
Mg	  2.726380482006 	  5.797070006887 	  2.980000000000 	
Mg	  5.706380482006 	  1.817070006887 	  0.000000000000 	
Mg	  6.706380482006 	  1.817070006887 	  2.980000000000 	
Mg	  5.706380482006 	  5.797070006887 	  0.000000000000 	
Mg	  6.706380482006 	  5.797070006887 	  2.980000000000 	
Mg	  2.451896681058 	  0.000000000000 	  1.545001432243 	
Mg	  3.451896681058 	  0.000000000000 	  4.525001432243 	
Mg	  2.451896681058 	  3.980000000000 	  1.545001432243 	
Mg	  3.451896681058 	  3.980000000000 	  4.525001432243 	
Mg	  6.431896681058 	  0.000000000000 	  1.545001432243 	
Mg	  7.431896681058 	  0.000000000000 	  4.525001432243 	
Mg	  6.431896681058 	  3.980000000000 	  1.545001432243 	
Mg	  7.431896681058 	  3.980000000000 	  4.525001432243 	
Mg	  0.453447624408 	  1.998449056651 	  1.545001432243 	
Mg	  1.453447624408 	  1.998449056651 	  4.525001432243 	
Mg	  0.453447624408 	  5.978449056651 	  1.545001432243 	
Mg	  1.453447624408 	  5.978449056651 	  4.525001432243 	
Mg	  4.433447624408 	  1.998449056651 	  1.545001432243 	
Mg	  5.433447624408 	  1.998449056651 	  4.525001432243 	
Mg	  4.433447624408 	  5.978449056651 	  1.545001432243 	
Mg	  5.433447624408 	  5.978449056651 	  4.525001432243 	
O	  1.998449056651 	  0.000000000000 	  0.000000000000 	
O	  2.998449056651 	  0.000000000000 	  2.980000000000 	
O	  1.998449056651 	  3.980000000000 	  0.000000000000 	
O	  2.998449056651 	  3.980000000000 	  2.980000000000 	
O	  5.978449056651 	  0.000000000000 	  0.000000000000 	
O	  6.978449056651 	  0.000000000000 	  2.980000000000 	
O	  5.978449056651 	  3.980000000000 	  0.000000000000 	
O	  6.978449056651 	  3.980000000000 	  2.980000000000 	
O	  0.000000000000 	  1.998449056651 	  0.000000000000 	
O	  1.000000000000 	  1.998449056651 	  2.980000000000 	
O	  0.000000000000 	  5.978449056651 	  0.000000000000 	
O	  1.000000000000 	  5.978449056651 	  2.980000000000 	
O	  3.980000000000 	  1.998449056651 	  0.000000000000 	
O	  4.980000000000 	  1.998449056651 	  2.980000000000 	
O	  3.980000000000 	  5.978449056651 	  0.000000000000 	
O	  4.980000000000 	  5.978449056651 	  2.980000000000 	
O	  0.453447624408 	  0.000000000000 	  1.545001432243 	
O	  1.453447624408 	  0.000000000000 	  4.525001432243 	
O	  0.453447624408 	  3.980000000000 	  1.545001432243 	
O	  1.453447624408 	  3.980000000000 	  4.525001432243 	
O	  4.433447624408 	  0.000000000000 	  1.545001432243 	
O	  5.433447624408 	  0.000000000000 	  4.525001432243 	
O	  4.433447624408 	  3.980000000000 	  1.545001432243 	
O	  5.433447624408 	  3.980000000000 	  4.525001432243 	
O	  2.814654780585 	  1.402618878179 	  1.545001432243 	
O	  3.814654780585 	  1.402618878179 	  4.525001432243 	
O	  2.814654780585 	  5.382618878179 	  1.545001432243 	
O	  3.814654780585 	  5.382618878179 	  4.525001432243 	
O	  6.794654780585 	  1.402618878179 	  1.545001432243 	
O	  7.794654780585 	  1.402618878179 	  4.525001432243 	
O	  6.794654780585 	  5.382618878179 	  1.545001432243 	
O	  7.794654780585 	  5.382618878179 	  4.525001432243 	
64 
Energy: 3.2821733661426027e+00 
Mg	  0.000000000000 	  0.000000000000 	  0.000000000000 	
Mg	  1.000000000000 	  0.000000000000 	  2.980000000000 	
Mg	  0.000000000000 	  3.980000000000 	  0.000000000000 	
Mg	  1.000000000000 	  3.980000000000 	  2.980000000000 	
Mg	  3.980000000000 	  0.000000000000 	  0.000000000000 	
Mg	  4.980000000000 	  0.000000000000 	  2.980000000000 	
Mg	  3.980000000000 	  3.980000000000 	  0.000000000000 	
Mg	  4.980000000000 	  3.980000000000 	  2.980000000000 	
Mg	  1.752924620608 	  1.837573922262 	  0.000000000000 	
Mg	  2.752924620608 	  1.837573922262 	  2.980000000000 	
Mg	  1.752924620608 	  5.817573922262 	  0.000000000000 	
Mg	  2.752924620608 	  5.817573922262 	  2.980000000000 	
Mg	  5.732924620608 	  1.837573922262 	  0.000000000000 	
Mg	  6.732924620608 	  1.837573922262 	  2.980000000000 	
Mg	  5.732924620608 	  5.817573922262 	  0.000000000000 	
Mg	  6.732924620608 	  5.817573922262 	  2.980000000000 	
Mg	  2.430119033844 	  0.000000000000 	  1.583626017299 	
Mg	  3.430119033844 	  0.000000000000 	  4.563626017299 	
Mg	  2.430119033844 	  3.980000000000 	  1.583626017299 	
Mg	  3.430119033844 	  3.980000000000 	  4.563626017299 	
Mg	  6.410119033844 	  0.000000000000 	  1.583626017299 	
Mg	  7.410119033844 	  0.000000000000 	  4.563626017299 	
Mg	  6.410119033844 	  3.980000000000 	  1.583626017299 	
Mg	  7.410119033844 	  3.980000000000 	  4.563626017299 	
Mg	  0.423246508273 	  2.006872525572 	  1.583626017299 	
Mg	  1.423246508273 	  2.006872525572 	  4.563626017299 	
Mg	  0.423246508273 	  5.986872525572 	  1.583626017299 	
Mg	  1.423246508273 	  5.986872525572 	  4.563626017299 	
Mg	  4.403246508273 	  2.006872525572 	  1.583626017299 	
Mg	  5.403246508273 	  2.006872525572 	  4.563626017299 	
Mg	  4.403246508273 	  5.986872525572 	  1.583626017299 	
Mg	  5.403246508273 	  5.986872525572 	  4.563626017299 	
O	  2.006872525572 	  0.000000000000 	  0.000000000000 	
O	  3.006872525572 	  0.000000000000 	  2.980000000000 	
O	  2.006872525572 	  3.980000000000 	  0.000000000000 	
O	  3.006872525572 	  3.980000000000 	  2.980000000000 	
O	  5.986872525572 	  0.000000000000 	  0.000000000000 	
O	  6.986872525572 	  0.000000000000 	  2.980000000000 	
O	  5.986872525572 	  3.980000000000 	  0.000000000000 	
O	  6.986872525572 	  3.980000000000 	  2.980000000000 	
O	  0.000000000000 	  2.006872525572 	  0.000000000000 	
O	  1.000000000000 	  2.006872525572 	  2.980000000000 	
O	  0.000000000000 	  5.986872525572 	  0.000000000000 	
O	  1.000000000000 	  5.986872525572 	  2.980000000000 	
O	  3.980000000000 	  2.006872525572 	  0.000000000000 	
O	  4.980000000000 	  2.006872525572 	  2.980000000000 	
O	  3.980000000000 	  5.986872525572 	  0.000000000000 	
O	  4.980000000000 	  5.986872525572 	  2.980000000000 	
O	  0.423246508273 	  0.000000000000 	  1.583626017299 	
O	  1.423246508273 	  0.000000000000 	  4.563626017299 	
O	  0.423246508273 	  3.980000000000 	  1.583626017299 	
O	  1.423246508273 	  3.980000000000 	  4.563626017299 	
O	  4.403246508273 	  0.000000000000 	  1.583626017299 	
O	  5.403246508273 	  0.000000000000 	  4.563626017299 	
O	  4.403246508273 	  3.980000000000 	  1.583626017299 	
O	  5.403246508273 	  3.980000000000 	  4.563626017299 	
O	  2.768716240462 	  1.450726613701 	  1.583626017299 	
O	  3.768716240462 	  1.450726613701 	  4.563626017299 	
O	  2.768716240462 	  5.430726613701 	  1.583626017299 	
O	  3.768716240462 	  5.430726613701 	  4.563626017299 	
O	  6.748716240462 	  1.450726613701 	  1.583626017299 	
O	  7.748716240462 	  1.450726613701 	  4.563626017299 	
O	  6.748716240462 	  5.430726613701 	  1.583626017299 	
O	  7.748716240462 	  5.430726613701 	  4.563626017299 	
64 
Energy: 3.8800100322198112e+00 
Mg	  0.000000000000 	  0.000000000000 	  0.000000000000 	
Mg	  1.000000000000 	  0.000000000000 	  2.980000000000 	
Mg	  0.000000000000 	  3.980000000000 	  0.000000000000 	
Mg	  1.000000000000 	  3.980000000000 	  2.980000000000 	
Mg	  3.980000000000 	  0.000000000000 	  0.000000000000 	
Mg	  4.980000000000 	  0.000000000000 	  2.980000000000 	
Mg	  3.980000000000 	  3.980000000000 	  0.000000000000 	
Mg	  4.980000000000 	  3.980000000000 	  2.980000000000 	
Mg	  1.779485756049 	  1.858091997293 	  0.000000000000 	
Mg	  2.779485756049 	  1.858091997293 	  2.980000000000 	
Mg	  1.779485756049 	  5.838091997293 	  0.000000000000 	
Mg	  2.779485756049 	  5.838091997293 	  2.980000000000 	
Mg	  5.759485756049 	  1.858091997293 	  0.000000000000 	
Mg	  6.759485756049 	  1.858091997293 	  2.980000000000 	
Mg	  5.759485756049 	  5.838091997293 	  0.000000000000 	
Mg	  6.759485756049 	  5.838091997293 	  2.980000000000 	
Mg	  2.408335685999 	  0.000000000000 	  1.622273273561 	
Mg	  3.408335685999 	  0.000000000000 	  4.602273273561 	
Mg	  2.408335685999 	  3.980000000000 	  1.622273273561 	
Mg	  3.408335685999 	  3.980000000000 	  4.602273273561 	
Mg	  6.388335685999 	  0.000000000000 	  1.622273273561 	
Mg	  7.388335685999 	  0.000000000000 	  4.602273273561 	
Mg	  6.388335685999 	  3.980000000000 	  1.622273273561 	
Mg	  7.388335685999 	  3.980000000000 	  4.602273273561 	
Mg	  0.393031206219 	  2.015304479780 	  1.622273273561 	
Mg	  1.393031206219 	  2.015304479780 	  4.602273273561 	
Mg	  0.393031206219 	  5.995304479780 	  1.622273273561 	
Mg	  1.393031206219 	  5.995304479780 	  4.602273273561 	
Mg	  4.373031206219 	  2.015304479780 	  1.622273273561 	
Mg	  5.373031206219 	  2.015304479780 	  4.602273273561 	
Mg	  4.373031206219 	  5.995304479780 	  1.622273273561 	
Mg	  5.373031206219 	  5.995304479780 	  4.602273273561 	
O	  2.015304479780 	  0.000000000000 	  0.000000000000 	
O	  3.015304479780 	  0.000000000000 	  2.980000000000 	
O	  2.015304479780 	  3.980000000000 	  0.000000000000 	
O	  3.015304479780 	  3.980000000000 	  2.980000000000 	
O	  5.995304479780 	  0.000000000000 	  0.000000000000 	
O	  6.995304479780 	  0.000000000000 	  2.980000000000 	
O	  5.995304479780 	  3.980000000000 	  0.000000000000 	
O	  6.995304479780 	  3.980000000000 	  2.980000000000 	
O	  0.000000000000 	  2.015304479780 	  0.000000000000 	
O	  1.000000000000 	  2.015304479780 	  2.980000000000 	
O	  0.000000000000 	  5.995304479780 	  0.000000000000 	
O	  1.000000000000 	  5.995304479780 	  2.980000000000 	
O	  3.980000000000 	  2.015304479780 	  0.000000000000 	
O	  4.980000000000 	  2.015304479780 	  2.980000000000 	
O	  3.980000000000 	  5.995304479780 	  0.000000000000 	
O	  4.980000000000 	  5.995304479780 	  2.980000000000 	
O	  0.393031206219 	  0.000000000000 	  1.622273273561 	
O	  1.393031206219 	  0.000000000000 	  4.602273273561 	
O	  0.393031206219 	  3.980000000000 	  1.622273273561 	
O	  1.393031206219 	  3.980000000000 	  4.602273273561 	
O	  4.373031206219 	  0.000000000000 	  1.622273273561 	
O	  5.373031206219 	  0.000000000000 	  4.602273273561 	
O	  4.373031206219 	  3.980000000000 	  1.622273273561 	
O	  5.373031206219 	  3.980000000000 	  4.602273273561 	
O	  2.722760650973 	  1.498861474809 	  1.622273273561 	
O	  3.722760650973 	  1.498861474809 	  4.602273273561 	
O	  2.722760650973 	  5.478861474809 	  1.622273273561 	
O	  3.722760650973 	  5.478861474809 	  4.602273273561 	
O	  6.702760650973 	  1.498861474809 	  1.622273273561 	
O	  7.702760650973 	  1.498861474809 	  4.602273273561 	
O	  6.702760650973 	  5.478861474809 	  1.622273273561 	
O	  7.702760650973 	  5.478861474809 	  4.602273273561 	
64 
Energy: 4.5402339663568991e+00 
Mg	  0.000000000000 	  0.000000000000 	  0.000000000000 	
Mg	  1.000000000000 	  0.000000000000 	  2.980000000000 	
Mg	  0.000000000000 	  3.980000000000 	  0.000000000000 	
Mg	  1.000000000000 	  3.980000000000 	  2.980000000000 	
Mg	  3.980000000000 	  0.000000000000 	  0.000000000000 	
Mg	  4.980000000000 	  0.000000000000 	  2.980000000000 	
Mg	  3.980000000000 	  3.980000000000 	  0.000000000000 	
Mg	  4.980000000000 	  3.980000000000 	  2.980000000000 	
Mg	  1.806061977479 	  1.878621749206 	  0.000000000000 	
Mg	  2.806061977479 	  1.878621749206 	  2.980000000000 	
Mg	  1.806061977479 	  5.858621749206 	  0.000000000000 	
Mg	  2.806061977479 	  5.858621749206 	  2.980000000000 	
Mg	  5.786061977479 	  1.878621749206 	  0.000000000000 	
Mg	  6.786061977479 	  1.878621749206 	  2.980000000000 	
Mg	  5.786061977479 	  5.858621749206 	  0.000000000000 	
Mg	  6.786061977479 	  5.858621749206 	  2.980000000000 	
Mg	  2.386540151294 	  0.000000000000 	  1.660942434025 	
Mg	  3.386540151294 	  0.000000000000 	  4.640942434025 	
Mg	  2.386540151294 	  3.980000000000 	  1.660942434025 	
Mg	  3.386540151294 	  3.980000000000 	  4.640942434025 	
Mg	  6.366540151294 	  0.000000000000 	  1.660942434025 	
Mg	  7.366540151294 	  0.000000000000 	  4.640942434025 	
Mg	  6.366540151294 	  3.980000000000 	  1.660942434025 	
Mg	  7.366540151294 	  3.980000000000 	  4.640942434025 	
Mg	  0.362798858634 	  2.023741292659 	  1.660942434025 	
Mg	  1.362798858634 	  2.023741292659 	  4.640942434025 	
Mg	  0.362798858634 	  6.003741292659 	  1.660942434025 	
Mg	  1.362798858634 	  6.003741292659 	  4.640942434025 	
Mg	  4.342798858634 	  2.023741292659 	  1.660942434025 	
Mg	  5.342798858634 	  2.023741292659 	  4.640942434025 	
Mg	  4.342798858634 	  6.003741292659 	  1.660942434025 	
Mg	  5.342798858634 	  6.003741292659 	  4.640942434025 	
O	  2.023741292659 	  0.000000000000 	  0.000000000000 	
O	  3.023741292659 	  0.000000000000 	  2.980000000000 	
O	  2.023741292659 	  3.980000000000 	  0.000000000000 	
O	  3.023741292659 	  3.980000000000 	  2.980000000000 	
O	  6.003741292659 	  0.000000000000 	  0.000000000000 	
O	  7.003741292659 	  0.000000000000 	  2.980000000000 	
O	  6.003741292659 	  3.980000000000 	  0.000000000000 	
O	  7.003741292659 	  3.980000000000 	  2.980000000000 	
O	  0.000000000000 	  2.023741292659 	  0.000000000000 	
O	  1.000000000000 	  2.023741292659 	  2.980000000000 	
O	  0.000000000000 	  6.003741292659 	  0.000000000000 	
O	  1.000000000000 	  6.003741292659 	  2.980000000000 	
O	  3.980000000000 	  2.023741292659 	  0.000000000000 	
O	  4.980000000000 	  2.023741292659 	  2.980000000000 	
O	  3.980000000000 	  6.003741292659 	  0.000000000000 	
O	  4.980000000000 	  6.003741292659 	  2.980000000000 	
O	  0.362798858634 	  0.000000000000 	  1.660942434025 	
O	  1.362798858634 	  0.000000000000 	  4.640942434025 	
O	  0.362798858634 	  3.980000000000 	  1.660942434025 	
O	  1.362798858634 	  3.980000000000 	  4.640942434025 	
O	  4.342798858634 	  0.000000000000 	  1.660942434025 	
O	  5.342798858634 	  0.000000000000 	  4.640942434025 	
O	  4.342798858634 	  3.980000000000 	  1.660942434025 	
O	  5.342798858634 	  3.980000000000 	  4.640942434025 	
O	  2.676779238201 	  1.547023592414 	  1.660942434025 	
O	  3.676779238201 	  1.547023592414 	  4.640942434025 	
O	  2.676779238201 	  5.527023592414 	  1.660942434025 	
O	  3.676779238201 	  5.527023592414 	  4.640942434025 	
O	  6.656779238201 	  1.547023592414 	  1.660942434025 	
O	  7.656779238201 	  1.547023592414 	  4.640942434025 	
O	  6.656779238201 	  5.527023592414 	  1.660942434025 	
O	  7.656779238201 	  5.527023592414 	  4.640942434025 	
64 
Energy: 5.1367555673874250e+00 
Mg	  0.000000000000 	  0.000000000000 	  0.000000000000 	
Mg	  1.000000000000 	  0.000000000000 	  2.980000000000 	
Mg	  0.000000000000 	  3.980000000000 	  0.000000000000 	
Mg	  1.000000000000 	  3.980000000000 	  2.980000000000 	
Mg	  3.980000000000 	  0.000000000000 	  0.000000000000 	
Mg	  4.980000000000 	  0.000000000000 	  2.980000000000 	
Mg	  3.980000000000 	  3.980000000000 	  0.000000000000 	
Mg	  4.980000000000 	  3.980000000000 	  2.980000000000 	
Mg	  1.832648515226 	  1.899159747599 	  0.000000000000 	
Mg	  2.832648515226 	  1.899159747599 	  2.980000000000 	
Mg	  1.832648515226 	  5.879159747599 	  0.000000000000 	
Mg	  2.832648515226 	  5.879159747599 	  2.980000000000 	
Mg	  5.812648515226 	  1.899159747599 	  0.000000000000 	
Mg	  6.812648515226 	  1.899159747599 	  2.980000000000 	
Mg	  5.812648515226 	  5.879159747599 	  0.000000000000 	
Mg	  6.812648515226 	  5.879159747599 	  2.980000000000 	
Mg	  2.364738374215 	  0.000000000000 	  1.699626050478 	
Mg	  3.364738374215 	  0.000000000000 	  4.679626050478 	
Mg	  2.364738374215 	  3.980000000000 	  1.699626050478 	
Mg	  3.364738374215 	  3.980000000000 	  4.679626050478 	
Mg	  6.344738374215 	  0.000000000000 	  1.699626050478 	
Mg	  7.344738374215 	  0.000000000000 	  4.679626050478 	
Mg	  6.344738374215 	  3.980000000000 	  1.699626050478 	
Mg	  7.344738374215 	  3.980000000000 	  4.679626050478 	
Mg	  0.332556161868 	  2.032182212347 	  1.699626050478 	
Mg	  1.332556161868 	  2.032182212347 	  4.679626050478 	
Mg	  0.332556161868 	  6.012182212347 	  1.699626050478 	
Mg	  1.332556161868 	  6.012182212347 	  4.679626050478 	
Mg	  4.312556161868 	  2.032182212347 	  1.699626050478 	
Mg	  5.312556161868 	  2.032182212347 	  4.679626050478 	
Mg	  4.312556161868 	  6.012182212347 	  1.699626050478 	
Mg	  5.312556161868 	  6.012182212347 	  4.679626050478 	
O	  2.032182212347 	  0.000000000000 	  0.000000000000 	
O	  3.032182212347 	  0.000000000000 	  2.980000000000 	
O	  2.032182212347 	  3.980000000000 	  0.000000000000 	
O	  3.032182212347 	  3.980000000000 	  2.980000000000 	
O	  6.012182212347 	  0.000000000000 	  0.000000000000 	
O	  7.012182212347 	  0.000000000000 	  2.980000000000 	
O	  6.012182212347 	  3.980000000000 	  0.000000000000 	
O	  7.012182212347 	  3.980000000000 	  2.980000000000 	
O	  0.000000000000 	  2.032182212347 	  0.000000000000 	
O	  1.000000000000 	  2.032182212347 	  2.980000000000 	
O	  0.000000000000 	  6.012182212347 	  0.000000000000 	
O	  1.000000000000 	  6.012182212347 	  2.980000000000 	
O	  3.980000000000 	  2.032182212347 	  0.000000000000 	
O	  4.980000000000 	  2.032182212347 	  2.980000000000 	
O	  3.980000000000 	  6.012182212347 	  0.000000000000 	
O	  4.980000000000 	  6.012182212347 	  2.980000000000 	
O	  0.332556161868 	  0.000000000000 	  1.699626050478 	
O	  1.332556161868 	  0.000000000000 	  4.679626050478 	
O	  0.332556161868 	  3.980000000000 	  1.699626050478 	
O	  1.332556161868 	  3.980000000000 	  4.679626050478 	
O	  4.312556161868 	  0.000000000000 	  1.699626050478 	
O	  5.312556161868 	  0.000000000000 	  4.679626050478 	
O	  4.312556161868 	  3.980000000000 	  1.699626050478 	
O	  5.312556161868 	  3.980000000000 	  4.679626050478 	
O	  2.630783303709 	  1.595203415652 	  1.699626050478 	
O	  3.630783303709 	  1.595203415652 	  4.679626050478 	
O	  2.630783303709 	  5.575203415652 	  1.699626050478 	
O	  3.630783303709 	  5.575203415652 	  4.679626050478 	
O	  6.610783303709 	  1.595203415652 	  1.699626050478 	
O	  7.610783303709 	  1.595203415652 	  4.679626050478 	
O	  6.610783303709 	  5.575203415652 	  1.699626050478 	
O	  7.610783303709 	  5.575203415652 	  4.679626050478 	
64 
Energy: 5.5752822422311858e+00 
Mg	  0.000000000000 	  0.000000000000 	  0.000000000000 	
Mg	  1.000000000000 	  0.000000000000 	  2.980000000000 	
Mg	  0.000000000000 	  3.980000000000 	  0.000000000000 	
Mg	  1.000000000000 	  3.980000000000 	  2.980000000000 	
Mg	  3.980000000000 	  0.000000000000 	  0.000000000000 	
Mg	  4.980000000000 	  0.000000000000 	  2.980000000000 	
Mg	  3.980000000000 	  3.980000000000 	  0.000000000000 	
Mg	  4.980000000000 	  3.980000000000 	  2.980000000000 	
Mg	  1.859242157247 	  1.919703347975 	  0.000000000000 	
Mg	  2.859242157247 	  1.919703347975 	  2.980000000000 	
Mg	  1.859242157247 	  5.899703347975 	  0.000000000000 	
Mg	  2.859242157247 	  5.899703347975 	  2.980000000000 	
Mg	  5.839242157247 	  1.919703347975 	  0.000000000000 	
Mg	  6.839242157247 	  1.919703347975 	  2.980000000000 	
Mg	  5.839242157247 	  5.899703347975 	  0.000000000000 	
Mg	  6.839242157247 	  5.899703347975 	  2.980000000000 	
Mg	  2.342931683064 	  0.000000000000 	  1.738319775793 	
Mg	  3.342931683064 	  0.000000000000 	  4.718319775793 	
Mg	  2.342931683064 	  3.980000000000 	  1.738319775793 	
Mg	  3.342931683064 	  3.980000000000 	  4.718319775793 	
Mg	  6.322931683064 	  0.000000000000 	  1.738319775793 	
Mg	  7.322931683064 	  0.000000000000 	  4.718319775793 	
Mg	  6.322931683064 	  3.980000000000 	  1.738319775793 	
Mg	  7.322931683064 	  3.980000000000 	  4.718319775793 	
Mg	  0.302305953636 	  2.040625729429 	  1.738319775793 	
Mg	  1.302305953636 	  2.040625729429 	  4.718319775793 	
Mg	  0.302305953636 	  6.020625729429 	  1.738319775793 	
Mg	  1.302305953636 	  6.020625729429 	  4.718319775793 	
Mg	  4.282305953636 	  2.040625729429 	  1.738319775793 	
Mg	  5.282305953636 	  2.040625729429 	  4.718319775793 	
Mg	  4.282305953636 	  6.020625729429 	  1.738319775793 	
Mg	  5.282305953636 	  6.020625729429 	  4.718319775793 	
O	  2.040625729429 	  0.000000000000 	  0.000000000000 	
O	  3.040625729429 	  0.000000000000 	  2.980000000000 	
O	  2.040625729429 	  3.980000000000 	  0.000000000000 	
O	  3.040625729429 	  3.980000000000 	  2.980000000000 	
O	  6.020625729429 	  0.000000000000 	  0.000000000000 	
O	  7.020625729429 	  0.000000000000 	  2.980000000000 	
O	  6.020625729429 	  3.980000000000 	  0.000000000000 	
O	  7.020625729429 	  3.980000000000 	  2.980000000000 	
O	  0.000000000000 	  2.040625729429 	  0.000000000000 	
O	  1.000000000000 	  2.040625729429 	  2.980000000000 	
O	  0.000000000000 	  6.020625729429 	  0.000000000000 	
O	  1.000000000000 	  6.020625729429 	  2.980000000000 	
O	  3.980000000000 	  2.040625729429 	  0.000000000000 	
O	  4.980000000000 	  2.040625729429 	  2.980000000000 	
O	  3.980000000000 	  6.020625729429 	  0.000000000000 	
O	  4.980000000000 	  6.020625729429 	  2.980000000000 	
O	  0.302305953636 	  0.000000000000 	  1.738319775793 	
O	  1.302305953636 	  0.000000000000 	  4.718319775793 	
O	  0.302305953636 	  3.980000000000 	  1.738319775793 	
O	  1.302305953636 	  3.980000000000 	  4.718319775793 	
O	  4.282305953636 	  0.000000000000 	  1.738319775793 	
O	  5.282305953636 	  0.000000000000 	  4.718319775793 	
O	  4.282305953636 	  3.980000000000 	  1.738319775793 	
O	  5.282305953636 	  3.980000000000 	  4.718319775793 	
O	  2.584776445973 	  1.643395706352 	  1.738319775793 	
O	  3.584776445973 	  1.643395706352 	  4.718319775793 	
O	  2.584776445973 	  5.623395706352 	  1.738319775793 	
O	  3.584776445973 	  5.623395706352 	  4.718319775793 	
O	  6.564776445973 	  1.643395706352 	  1.738319775793 	
O	  7.564776445973 	  1.643395706352 	  4.718319775793 	
O	  6.564776445973 	  5.623395706352 	  1.738319775793 	
O	  7.564776445973 	  5.623395706352 	  4.718319775793 	
64 
Energy: 5.7902510262784821e+00 
Mg	  0.000000000000 	  0.000000000000 	  0.000000000000 	
Mg	  1.000000000000 	  0.000000000000 	  2.980000000000 	
Mg	  0.000000000000 	  3.980000000000 	  0.000000000000 	
Mg	  1.000000000000 	  3.980000000000 	  2.980000000000 	
Mg	  3.980000000000 	  0.000000000000 	  0.000000000000 	
Mg	  4.980000000000 	  0.000000000000 	  2.980000000000 	
Mg	  3.980000000000 	  3.980000000000 	  0.000000000000 	
Mg	  4.980000000000 	  3.980000000000 	  2.980000000000 	
Mg	  1.885839630638 	  1.940249999125 	  0.000000000000 	
Mg	  2.885839630638 	  1.940249999125 	  2.980000000000 	
Mg	  1.885839630638 	  5.920249999125 	  0.000000000000 	
Mg	  2.885839630638 	  5.920249999125 	  2.980000000000 	
Mg	  5.865839630638 	  1.940249999125 	  0.000000000000 	
Mg	  6.865839630638 	  1.940249999125 	  2.980000000000 	
Mg	  5.865839630638 	  5.920249999125 	  0.000000000000 	
Mg	  6.865839630638 	  5.920249999125 	  2.980000000000 	
Mg	  2.321122578535 	  0.000000000000 	  1.777018893664 	
Mg	  3.321122578535 	  0.000000000000 	  4.757018893664 	
Mg	  2.321122578535 	  3.980000000000 	  1.777018893664 	
Mg	  3.321122578535 	  3.980000000000 	  4.757018893664 	
Mg	  6.301122578535 	  0.000000000000 	  1.777018893664 	
Mg	  7.301122578535 	  0.000000000000 	  4.757018893664 	
Mg	  6.301122578535 	  3.980000000000 	  1.777018893664 	
Mg	  7.301122578535 	  3.980000000000 	  4.757018893664 	
Mg	  0.272051842436 	  2.049070736100 	  1.777018893664 	
Mg	  1.272051842436 	  2.049070736100 	  4.757018893664 	
Mg	  0.272051842436 	  6.029070736100 	  1.777018893664 	
Mg	  1.272051842436 	  6.029070736100 	  4.757018893664 	
Mg	  4.252051842436 	  2.049070736100 	  1.777018893664 	
Mg	  5.252051842436 	  2.049070736100 	  4.757018893664 	
Mg	  4.252051842436 	  6.029070736100 	  1.777018893664 	
Mg	  5.252051842436 	  6.029070736100 	  4.757018893664 	
O	  2.049070736100 	  0.000000000000 	  0.000000000000 	
O	  3.049070736100 	  0.000000000000 	  2.980000000000 	
O	  2.049070736100 	  3.980000000000 	  0.000000000000 	
O	  3.049070736100 	  3.980000000000 	  2.980000000000 	
O	  6.029070736100 	  0.000000000000 	  0.000000000000 	
O	  7.029070736100 	  0.000000000000 	  2.980000000000 	
O	  6.029070736100 	  3.980000000000 	  0.000000000000 	
O	  7.029070736100 	  3.980000000000 	  2.980000000000 	
O	  0.000000000000 	  2.049070736100 	  0.000000000000 	
O	  1.000000000000 	  2.049070736100 	  2.980000000000 	
O	  0.000000000000 	  6.029070736100 	  0.000000000000 	
O	  1.000000000000 	  6.029070736100 	  2.980000000000 	
O	  3.980000000000 	  2.049070736100 	  0.000000000000 	
O	  4.980000000000 	  2.049070736100 	  2.980000000000 	
O	  3.980000000000 	  6.029070736100 	  0.000000000000 	
O	  4.980000000000 	  6.029070736100 	  2.980000000000 	
O	  0.272051842436 	  0.000000000000 	  1.777018893664 	
O	  1.272051842436 	  0.000000000000 	  4.757018893664 	
O	  0.272051842436 	  3.980000000000 	  1.777018893664 	
O	  1.272051842436 	  3.980000000000 	  4.757018893664 	
O	  4.252051842436 	  0.000000000000 	  1.777018893664 	
O	  5.252051842436 	  0.000000000000 	  4.757018893664 	
O	  4.252051842436 	  3.980000000000 	  1.777018893664 	
O	  5.252051842436 	  3.980000000000 	  4.757018893664 	
O	  2.538764052484 	  1.691594615139 	  1.777018893664 	
O	  3.538764052484 	  1.691594615139 	  4.757018893664 	
O	  2.538764052484 	  5.671594615139 	  1.777018893664 	
O	  3.538764052484 	  5.671594615139 	  4.757018893664 	
O	  6.518764052484 	  1.691594615139 	  1.777018893664 	
O	  7.518764052484 	  1.691594615139 	  4.757018893664 	
O	  6.518764052484 	  5.671594615139 	  1.777018893664 	
O	  7.518764052484 	  5.671594615139 	  4.757018893664 	
64 
Energy: 5.7424598433393781e+00 
Mg	  0.000000000000 	  0.000000000000 	  0.000000000000 	
Mg	  1.000000000000 	  0.000000000000 	  2.980000000000 	
Mg	  0.000000000000 	  3.980000000000 	  0.000000000000 	
Mg	  1.000000000000 	  3.980000000000 	  2.980000000000 	
Mg	  3.980000000000 	  0.000000000000 	  0.000000000000 	
Mg	  4.980000000000 	  0.000000000000 	  2.980000000000 	
Mg	  3.980000000000 	  3.980000000000 	  0.000000000000 	
Mg	  4.980000000000 	  3.980000000000 	  2.980000000000 	
Mg	  1.912438093035 	  1.960797420739 	  0.000000000000 	
Mg	  2.912438093035 	  1.960797420739 	  2.980000000000 	
Mg	  1.912438093035 	  5.940797420739 	  0.000000000000 	
Mg	  2.912438093035 	  5.940797420739 	  2.980000000000 	
Mg	  5.892438093035 	  1.960797420739 	  0.000000000000 	
Mg	  6.892438093035 	  1.960797420739 	  2.980000000000 	
Mg	  5.892438093035 	  5.940797420739 	  0.000000000000 	
Mg	  6.892438093035 	  5.940797420739 	  2.980000000000 	
Mg	  2.299312714663 	  0.000000000000 	  1.815719437629 	
Mg	  3.299312714663 	  0.000000000000 	  4.795719437629 	
Mg	  2.299312714663 	  3.980000000000 	  1.815719437629 	
Mg	  3.299312714663 	  3.980000000000 	  4.795719437629 	
Mg	  6.279312714663 	  0.000000000000 	  1.815719437629 	
Mg	  7.279312714663 	  0.000000000000 	  4.795719437629 	
Mg	  6.279312714663 	  3.980000000000 	  1.815719437629 	
Mg	  7.279312714663 	  3.980000000000 	  4.795719437629 	
Mg	  0.241796638517 	  2.057516076146 	  1.815719437629 	
Mg	  1.241796638517 	  2.057516076146 	  4.795719437629 	
Mg	  0.241796638517 	  6.037516076146 	  1.815719437629 	
Mg	  1.241796638517 	  6.037516076146 	  4.795719437629 	
Mg	  4.221796638517 	  2.057516076146 	  1.815719437629 	
Mg	  5.221796638517 	  2.057516076146 	  4.795719437629 	
Mg	  4.221796638517 	  6.037516076146 	  1.815719437629 	
Mg	  5.221796638517 	  6.037516076146 	  4.795719437629 	
O	  2.057516076146 	  0.000000000000 	  0.000000000000 	
O	  3.057516076146 	  0.000000000000 	  2.980000000000 	
O	  2.057516076146 	  3.980000000000 	  0.000000000000 	
O	  3.057516076146 	  3.980000000000 	  2.980000000000 	
O	  6.037516076146 	  0.000000000000 	  0.000000000000 	
O	  7.037516076146 	  0.000000000000 	  2.980000000000 	
O	  6.037516076146 	  3.980000000000 	  0.000000000000 	
O	  7.037516076146 	  3.980000000000 	  2.980000000000 	
O	  0.000000000000 	  2.057516076146 	  0.000000000000 	
O	  1.000000000000 	  2.057516076146 	  2.980000000000 	
O	  0.000000000000 	  6.037516076146 	  0.000000000000 	
O	  1.000000000000 	  6.037516076146 	  2.980000000000 	
O	  3.980000000000 	  2.057516076146 	  0.000000000000 	
O	  4.980000000000 	  2.057516076146 	  2.980000000000 	
O	  3.980000000000 	  6.037516076146 	  0.000000000000 	
O	  4.980000000000 	  6.037516076146 	  2.980000000000 	
O	  0.241796638517 	  0.000000000000 	  1.815719437629 	
O	  1.241796638517 	  0.000000000000 	  4.795719437629 	
O	  0.241796638517 	  3.980000000000 	  1.815719437629 	
O	  1.241796638517 	  3.980000000000 	  4.795719437629 	
O	  4.221796638517 	  0.000000000000 	  1.815719437629 	
O	  5.221796638517 	  0.000000000000 	  4.795719437629 	
O	  4.221796638517 	  3.980000000000 	  1.815719437629 	
O	  5.221796638517 	  3.980000000000 	  4.795719437629 	
O	  2.492750025477 	  1.739795293134 	  1.815719437629 	
O	  3.492750025477 	  1.739795293134 	  4.795719437629 	
O	  2.492750025477 	  5.719795293134 	  1.815719437629 	
O	  3.492750025477 	  5.719795293134 	  4.795719437629 	
O	  6.472750025477 	  1.739795293134 	  1.815719437629 	
O	  7.472750025477 	  1.739795293134 	  4.795719437629 	
O	  6.472750025477 	  5.719795293134 	  1.815719437629 	
O	  7.472750025477 	  5.719795293134 	  4.795719437629 	
64 
Energy: 5.4183323436387427e+00 
Mg	  0.000000000000 	  0.000000000000 	  0.000000000000 	
Mg	  1.000000000000 	  0.000000000000 	  2.980000000000 	
Mg	  0.000000000000 	  3.980000000000 	  0.000000000000 	
Mg	  1.000000000000 	  3.980000000000 	  2.980000000000 	
Mg	  3.980000000000 	  0.000000000000 	  0.000000000000 	
Mg	  4.980000000000 	  0.000000000000 	  2.980000000000 	
Mg	  3.980000000000 	  3.980000000000 	  0.000000000000 	
Mg	  4.980000000000 	  3.980000000000 	  2.980000000000 	
Mg	  1.939034989006 	  1.981343637968 	  0.000000000000 	
Mg	  2.939034989006 	  1.981343637968 	  2.980000000000 	
Mg	  1.939034989006 	  5.961343637968 	  0.000000000000 	
Mg	  2.939034989006 	  5.961343637968 	  2.980000000000 	
Mg	  5.919034989006 	  1.981343637968 	  0.000000000000 	
Mg	  6.919034989006 	  1.981343637968 	  2.980000000000 	
Mg	  5.919034989006 	  5.961343637968 	  0.000000000000 	
Mg	  6.919034989006 	  5.961343637968 	  2.980000000000 	
Mg	  2.277504180701 	  0.000000000000 	  1.854417691083 	
Mg	  3.277504180701 	  0.000000000000 	  4.834417691083 	
Mg	  2.277504180701 	  3.980000000000 	  1.854417691083 	
Mg	  3.277504180701 	  3.980000000000 	  4.834417691083 	
Mg	  6.257504180701 	  0.000000000000 	  1.854417691083 	
Mg	  7.257504180701 	  0.000000000000 	  4.834417691083 	
Mg	  6.257504180701 	  3.980000000000 	  1.854417691083 	
Mg	  7.257504180701 	  3.980000000000 	  4.834417691083 	
Mg	  0.211543244809 	  2.065960935892 	  1.854417691083 	
Mg	  1.211543244809 	  2.065960935892 	  4.834417691083 	
Mg	  0.211543244809 	  6.045960935892 	  1.854417691083 	
Mg	  1.211543244809 	  6.045960935892 	  4.834417691083 	
Mg	  4.191543244809 	  2.065960935892 	  1.854417691083 	
Mg	  5.191543244809 	  2.065960935892 	  4.834417691083 	
Mg	  4.191543244809 	  6.045960935892 	  1.854417691083 	
Mg	  5.191543244809 	  6.045960935892 	  4.834417691083 	
O	  2.065960935892 	  0.000000000000 	  0.000000000000 	
O	  3.065960935892 	  0.000000000000 	  2.980000000000 	
O	  2.065960935892 	  3.980000000000 	  0.000000000000 	
O	  3.065960935892 	  3.980000000000 	  2.980000000000 	
O	  6.045960935892 	  0.000000000000 	  0.000000000000 	
O	  7.045960935892 	  0.000000000000 	  2.980000000000 	
O	  6.045960935892 	  3.980000000000 	  0.000000000000 	
O	  7.045960935892 	  3.980000000000 	  2.980000000000 	
O	  0.000000000000 	  2.065960935892 	  0.000000000000 	
O	  1.000000000000 	  2.065960935892 	  2.980000000000 	
O	  0.000000000000 	  6.045960935892 	  0.000000000000 	
O	  1.000000000000 	  6.045960935892 	  2.980000000000 	
O	  3.980000000000 	  2.065960935892 	  0.000000000000 	
O	  4.980000000000 	  2.065960935892 	  2.980000000000 	
O	  3.980000000000 	  6.045960935892 	  0.000000000000 	
O	  4.980000000000 	  6.045960935892 	  2.980000000000 	
O	  0.211543244809 	  0.000000000000 	  1.854417691083 	
O	  1.211543244809 	  0.000000000000 	  4.834417691083 	
O	  0.211543244809 	  3.980000000000 	  1.854417691083 	
O	  1.211543244809 	  3.980000000000 	  4.834417691083 	
O	  4.191543244809 	  0.000000000000 	  1.854417691083 	
O	  5.191543244809 	  0.000000000000 	  4.834417691083 	
O	  4.191543244809 	  3.980000000000 	  1.854417691083 	
O	  5.191543244809 	  3.980000000000 	  4.834417691083 	
O	  2.446738776548 	  1.787993112213 	  1.854417691083 	
O	  3.446738776548 	  1.787993112213 	  4.834417691083 	
O	  2.446738776548 	  5.767993112213 	  1.854417691083 	
O	  3.446738776548 	  5.767993112213 	  4.834417691083 	
O	  6.426738776548 	  1.787993112213 	  1.854417691083 	
O	  7.426738776548 	  1.787993112213 	  4.834417691083 	
O	  6.426738776548 	  5.767993112213 	  1.854417691083 	
O	  7.426738776548 	  5.767993112213 	  4.834417691083 	
64 
Energy: 4.8297381493176914e+00 
Mg	  0.000000000000 	  0.000000000000 	  0.000000000000 	
Mg	  1.000000000000 	  0.000000000000 	  2.980000000000 	
Mg	  0.000000000000 	  3.980000000000 	  0.000000000000 	
Mg	  1.000000000000 	  3.980000000000 	  2.980000000000 	
Mg	  3.980000000000 	  0.000000000000 	  0.000000000000 	
Mg	  4.980000000000 	  0.000000000000 	  2.980000000000 	
Mg	  3.980000000000 	  3.980000000000 	  0.000000000000 	
Mg	  4.980000000000 	  3.980000000000 	  2.980000000000 	
Mg	  1.965627982721 	  2.001886828669 	  0.000000000000 	
Mg	  2.965627982721 	  2.001886828669 	  2.980000000000 	
Mg	  1.965627982721 	  5.981886828669 	  0.000000000000 	
Mg	  2.965627982721 	  5.981886828669 	  2.980000000000 	
Mg	  5.945627982721 	  2.001886828669 	  0.000000000000 	
Mg	  6.945627982721 	  2.001886828669 	  2.980000000000 	
Mg	  5.945627982721 	  5.981886828669 	  0.000000000000 	
Mg	  6.945627982721 	  5.981886828669 	  2.980000000000 	
Mg	  2.255698750309 	  0.000000000000 	  1.893110290824 	
Mg	  3.255698750309 	  0.000000000000 	  4.873110290824 	
Mg	  2.255698750309 	  3.980000000000 	  1.893110290824 	
Mg	  3.255698750309 	  3.980000000000 	  4.873110290824 	
Mg	  6.235698750309 	  0.000000000000 	  1.893110290824 	
Mg	  7.235698750309 	  0.000000000000 	  4.873110290824 	
Mg	  6.235698750309 	  3.980000000000 	  1.893110290824 	
Mg	  7.235698750309 	  3.980000000000 	  4.873110290824 	
Mg	  0.181294229743 	  2.074404520566 	  1.893110290824 	
Mg	  1.181294229743 	  2.074404520566 	  4.873110290824 	
Mg	  0.181294229743 	  6.054404520566 	  1.893110290824 	
Mg	  1.181294229743 	  6.054404520566 	  4.873110290824 	
Mg	  4.161294229743 	  2.074404520566 	  1.893110290824 	
Mg	  5.161294229743 	  2.074404520566 	  4.873110290824 	
Mg	  4.161294229743 	  6.054404520566 	  1.893110290824 	
Mg	  5.161294229743 	  6.054404520566 	  4.873110290824 	
O	  2.074404520566 	  0.000000000000 	  0.000000000000 	
O	  3.074404520566 	  0.000000000000 	  2.980000000000 	
O	  2.074404520566 	  3.980000000000 	  0.000000000000 	
O	  3.074404520566 	  3.980000000000 	  2.980000000000 	
O	  6.054404520566 	  0.000000000000 	  0.000000000000 	
O	  7.054404520566 	  0.000000000000 	  2.980000000000 	
O	  6.054404520566 	  3.980000000000 	  0.000000000000 	
O	  7.054404520566 	  3.980000000000 	  2.980000000000 	
O	  0.000000000000 	  2.074404520566 	  0.000000000000 	
O	  1.000000000000 	  2.074404520566 	  2.980000000000 	
O	  0.000000000000 	  6.054404520566 	  0.000000000000 	
O	  1.000000000000 	  6.054404520566 	  2.980000000000 	
O	  3.980000000000 	  2.074404520566 	  0.000000000000 	
O	  4.980000000000 	  2.074404520566 	  2.980000000000 	
O	  3.980000000000 	  6.054404520566 	  0.000000000000 	
O	  4.980000000000 	  6.054404520566 	  2.980000000000 	
O	  0.181294229743 	  0.000000000000 	  1.893110290824 	
O	  1.181294229743 	  0.000000000000 	  4.873110290824 	
O	  0.181294229743 	  3.980000000000 	  1.893110290824 	
O	  1.181294229743 	  3.980000000000 	  4.873110290824 	
O	  4.161294229743 	  0.000000000000 	  1.893110290824 	
O	  5.161294229743 	  0.000000000000 	  4.873110290824 	
O	  4.161294229743 	  3.980000000000 	  1.893110290824 	
O	  5.161294229743 	  3.980000000000 	  4.873110290824 	
O	  2.400734134103 	  1.836183902685 	  1.893110290824 	
O	  3.400734134103 	  1.836183902685 	  4.873110290824 	
O	  2.400734134103 	  5.816183902685 	  1.893110290824 	
O	  3.400734134103 	  5.816183902685 	  4.873110290824 	
O	  6.380734134103 	  1.836183902685 	  1.893110290824 	
O	  7.380734134103 	  1.836183902685 	  4.873110290824 	
O	  6.380734134103 	  5.816183902685 	  1.893110290824 	
O	  7.380734134103 	  5.816183902685 	  4.873110290824 	
64 
Energy: 4.0150175799910635e+00 
Mg	  0.000000000000 	  0.000000000000 	  0.000000000000 	
Mg	  1.000000000000 	  0.000000000000 	  2.980000000000 	
Mg	  0.000000000000 	  3.980000000000 	  0.000000000000 	
Mg	  1.000000000000 	  3.980000000000 	  2.980000000000 	
Mg	  3.980000000000 	  0.000000000000 	  0.000000000000 	
Mg	  4.980000000000 	  0.000000000000 	  2.980000000000 	
Mg	  3.980000000000 	  3.980000000000 	  0.000000000000 	
Mg	  4.980000000000 	  3.980000000000 	  2.980000000000 	
Mg	  1.992214950774 	  2.022425321210 	  0.000000000000 	
Mg	  2.992214950774 	  2.022425321210 	  2.980000000000 	
Mg	  1.992214950774 	  6.002425321210 	  0.000000000000 	
Mg	  2.992214950774 	  6.002425321210 	  2.980000000000 	
Mg	  5.972214950774 	  2.022425321210 	  0.000000000000 	
Mg	  6.972214950774 	  2.022425321210 	  2.980000000000 	
Mg	  5.972214950774 	  6.002425321210 	  0.000000000000 	
Mg	  6.972214950774 	  6.002425321210 	  2.980000000000 	
Mg	  2.233897914266 	  0.000000000000 	  1.931794209901 	
Mg	  3.233897914266 	  0.000000000000 	  4.911794209901 	
Mg	  2.233897914266 	  3.980000000000 	  1.931794209901 	
Mg	  3.233897914266 	  3.980000000000 	  4.911794209901 	
Mg	  6.213897914266 	  0.000000000000 	  1.931794209901 	
Mg	  7.213897914266 	  0.000000000000 	  4.911794209901 	
Mg	  6.213897914266 	  3.980000000000 	  1.931794209901 	
Mg	  7.213897914266 	  3.980000000000 	  4.911794209901 	
Mg	  0.151051852182 	  2.082846062084 	  1.931794209901 	
Mg	  1.151051852182 	  2.082846062084 	  4.911794209901 	
Mg	  0.151051852182 	  6.062846062084 	  1.931794209901 	
Mg	  1.151051852182 	  6.062846062084 	  4.911794209901 	
Mg	  4.131051852182 	  2.082846062084 	  1.931794209901 	
Mg	  5.131051852182 	  2.082846062084 	  4.911794209901 	
Mg	  4.131051852182 	  6.062846062084 	  1.931794209901 	
Mg	  5.131051852182 	  6.062846062084 	  4.911794209901 	
O	  2.082846062084 	  0.000000000000 	  0.000000000000 	
O	  3.082846062084 	  0.000000000000 	  2.980000000000 	
O	  2.082846062084 	  3.980000000000 	  0.000000000000 	
O	  3.082846062084 	  3.980000000000 	  2.980000000000 	
O	  6.062846062084 	  0.000000000000 	  0.000000000000 	
O	  7.062846062084 	  0.000000000000 	  2.980000000000 	
O	  6.062846062084 	  3.980000000000 	  0.000000000000 	
O	  7.062846062084 	  3.980000000000 	  2.980000000000 	
O	  0.000000000000 	  2.082846062084 	  0.000000000000 	
O	  1.000000000000 	  2.082846062084 	  2.980000000000 	
O	  0.000000000000 	  6.062846062084 	  0.000000000000 	
O	  1.000000000000 	  6.062846062084 	  2.980000000000 	
O	  3.980000000000 	  2.082846062084 	  0.000000000000 	
O	  4.980000000000 	  2.082846062084 	  2.980000000000 	
O	  3.980000000000 	  6.062846062084 	  0.000000000000 	
O	  4.980000000000 	  6.062846062084 	  2.980000000000 	
O	  0.151051852182 	  0.000000000000 	  1.931794209901 	
O	  1.151051852182 	  0.000000000000 	  4.911794209901 	
O	  0.151051852182 	  3.980000000000 	  1.931794209901 	
O	  1.151051852182 	  3.980000000000 	  4.911794209901 	
O	  4.131051852182 	  0.000000000000 	  1.931794209901 	
O	  5.131051852182 	  0.000000000000 	  4.911794209901 	
O	  4.131051852182 	  3.980000000000 	  1.931794209901 	
O	  5.131051852182 	  3.980000000000 	  4.911794209901 	
O	  2.354739396012 	  1.884363928316 	  1.931794209901 	
O	  3.354739396012 	  1.884363928316 	  4.911794209901 	
O	  2.354739396012 	  5.864363928316 	  1.931794209901 	
O	  3.354739396012 	  5.864363928316 	  4.911794209901 	
O	  6.334739396012 	  1.884363928316 	  1.931794209901 	
O	  7.334739396012 	  1.884363928316 	  4.911794209901 	
O	  6.334739396012 	  5.864363928316 	  1.931794209901 	
O	  7.334739396012 	  5.864363928316 	  4.911794209901 	
64 
Energy: 3.0406897528602053e+00 
Mg	  0.000000000000 	  0.000000000000 	  0.000000000000 	
Mg	  1.000000000000 	  0.000000000000 	  2.980000000000 	
Mg	  0.000000000000 	  3.980000000000 	  0.000000000000 	
Mg	  1.000000000000 	  3.980000000000 	  2.980000000000 	
Mg	  3.980000000000 	  0.000000000000 	  0.000000000000 	
Mg	  4.980000000000 	  0.000000000000 	  2.980000000000 	
Mg	  3.980000000000 	  3.980000000000 	  0.000000000000 	
Mg	  4.980000000000 	  3.980000000000 	  2.980000000000 	
Mg	  2.018793995296 	  2.042957614165 	  0.000000000000 	
Mg	  3.018793995296 	  2.042957614165 	  2.980000000000 	
Mg	  2.018793995296 	  6.022957614165 	  0.000000000000 	
Mg	  3.018793995296 	  6.022957614165 	  2.980000000000 	
Mg	  5.998793995296 	  2.042957614165 	  0.000000000000 	
Mg	  6.998793995296 	  2.042957614165 	  2.980000000000 	
Mg	  5.998793995296 	  6.022957614165 	  0.000000000000 	
Mg	  6.998793995296 	  6.022957614165 	  2.980000000000 	
Mg	  2.212102946248 	  0.000000000000 	  1.970466757558 	
Mg	  3.212102946248 	  0.000000000000 	  4.950466757558 	
Mg	  2.212102946248 	  3.980000000000 	  1.970466757558 	
Mg	  3.212102946248 	  3.980000000000 	  4.950466757558 	
Mg	  6.192102946248 	  0.000000000000 	  1.970466757558 	
Mg	  7.192102946248 	  0.000000000000 	  4.950466757558 	
Mg	  6.192102946248 	  3.980000000000 	  1.970466757558 	
Mg	  7.192102946248 	  3.980000000000 	  4.950466757558 	
Mg	  0.120818094345 	  2.091284851903 	  1.970466757558 	
Mg	  1.120818094345 	  2.091284851903 	  4.950466757558 	
Mg	  0.120818094345 	  6.071284851903 	  1.970466757558 	
Mg	  1.120818094345 	  6.071284851903 	  4.950466757558 	
Mg	  4.100818094345 	  2.091284851903 	  1.970466757558 	
Mg	  5.100818094345 	  2.091284851903 	  4.950466757558 	
Mg	  4.100818094345 	  6.071284851903 	  1.970466757558 	
Mg	  5.100818094345 	  6.071284851903 	  4.950466757558 	
O	  2.091284851903 	  0.000000000000 	  0.000000000000 	
O	  3.091284851903 	  0.000000000000 	  2.980000000000 	
O	  2.091284851903 	  3.980000000000 	  0.000000000000 	
O	  3.091284851903 	  3.980000000000 	  2.980000000000 	
O	  6.071284851903 	  0.000000000000 	  0.000000000000 	
O	  7.071284851903 	  0.000000000000 	  2.980000000000 	
O	  6.071284851903 	  3.980000000000 	  0.000000000000 	
O	  7.071284851903 	  3.980000000000 	  2.980000000000 	
O	  0.000000000000 	  2.091284851903 	  0.000000000000 	
O	  1.000000000000 	  2.091284851903 	  2.980000000000 	
O	  0.000000000000 	  6.071284851903 	  0.000000000000 	
O	  1.000000000000 	  6.071284851903 	  2.980000000000 	
O	  3.980000000000 	  2.091284851903 	  0.000000000000 	
O	  4.980000000000 	  2.091284851903 	  2.980000000000 	
O	  3.980000000000 	  6.071284851903 	  0.000000000000 	
O	  4.980000000000 	  6.071284851903 	  2.980000000000 	
O	  0.120818094345 	  0.000000000000 	  1.970466757558 	
O	  1.120818094345 	  0.000000000000 	  4.950466757558 	
O	  0.120818094345 	  3.980000000000 	  1.970466757558 	
O	  1.120818094345 	  3.980000000000 	  4.950466757558 	
O	  4.100818094345 	  0.000000000000 	  1.970466757558 	
O	  5.100818094345 	  0.000000000000 	  4.950466757558 	
O	  4.100818094345 	  3.980000000000 	  1.970466757558 	
O	  5.100818094345 	  3.980000000000 	  4.950466757558 	
O	  2.308757421724 	  1.932529875934 	  1.970466757558 	
O	  3.308757421724 	  1.932529875934 	  4.950466757558 	
O	  2.308757421724 	  5.912529875934 	  1.970466757558 	
O	  3.308757421724 	  5.912529875934 	  4.950466757558 	
O	  6.288757421724 	  1.932529875934 	  1.970466757558 	
O	  7.288757421724 	  1.932529875934 	  4.950466757558 	
O	  6.288757421724 	  5.912529875934 	  1.970466757558 	
O	  7.288757421724 	  5.912529875934 	  4.950466757558 	
64 
Energy: 2.0036976243217008e+00 
Mg	  0.000000000000 	  0.000000000000 	  0.000000000000 	
Mg	  1.000000000000 	  0.000000000000 	  2.980000000000 	
Mg	  0.000000000000 	  3.980000000000 	  0.000000000000 	
Mg	  1.000000000000 	  3.980000000000 	  2.980000000000 	
Mg	  3.980000000000 	  0.000000000000 	  0.000000000000 	
Mg	  4.980000000000 	  0.000000000000 	  2.980000000000 	
Mg	  3.980000000000 	  3.980000000000 	  0.000000000000 	
Mg	  4.980000000000 	  3.980000000000 	  2.980000000000 	
Mg	  2.045363421865 	  2.063482358859 	  0.000000000000 	
Mg	  3.045363421865 	  2.063482358859 	  2.980000000000 	
Mg	  2.045363421865 	  6.043482358859 	  0.000000000000 	
Mg	  3.045363421865 	  6.043482358859 	  2.980000000000 	
Mg	  6.025363421865 	  2.063482358859 	  0.000000000000 	
Mg	  7.025363421865 	  2.063482358859 	  2.980000000000 	
Mg	  6.025363421865 	  6.043482358859 	  0.000000000000 	
Mg	  7.025363421865 	  6.043482358859 	  2.980000000000 	
Mg	  2.190314917820 	  0.000000000000 	  2.009125547876 	
Mg	  3.190314917820 	  0.000000000000 	  4.989125547876 	
Mg	  2.190314917820 	  3.980000000000 	  2.009125547876 	
Mg	  3.190314917820 	  3.980000000000 	  4.989125547876 	
Mg	  6.170314917820 	  0.000000000000 	  2.009125547876 	
Mg	  7.170314917820 	  0.000000000000 	  4.989125547876 	
Mg	  6.170314917820 	  3.980000000000 	  2.009125547876 	
Mg	  7.170314917820 	  3.980000000000 	  4.989125547876 	
Mg	  0.090594684972 	  2.099720232848 	  2.009125547876 	
Mg	  1.090594684972 	  2.099720232848 	  4.989125547876 	
Mg	  0.090594684972 	  6.079720232848 	  2.009125547876 	
Mg	  1.090594684972 	  6.079720232848 	  4.989125547876 	
Mg	  4.070594684972 	  2.099720232848 	  2.009125547876 	
Mg	  5.070594684972 	  2.099720232848 	  4.989125547876 	
Mg	  4.070594684972 	  6.079720232848 	  2.009125547876 	
Mg	  5.070594684972 	  6.079720232848 	  4.989125547876 	
O	  2.099720232848 	  0.000000000000 	  0.000000000000 	
O	  3.099720232848 	  0.000000000000 	  2.980000000000 	
O	  2.099720232848 	  3.980000000000 	  0.000000000000 	
O	  3.099720232848 	  3.980000000000 	  2.980000000000 	
O	  6.079720232848 	  0.000000000000 	  0.000000000000 	
O	  7.079720232848 	  0.000000000000 	  2.980000000000 	
O	  6.079720232848 	  3.980000000000 	  0.000000000000 	
O	  7.079720232848 	  3.980000000000 	  2.980000000000 	
O	  0.000000000000 	  2.099720232848 	  0.000000000000 	
O	  1.000000000000 	  2.099720232848 	  2.980000000000 	
O	  0.000000000000 	  6.079720232848 	  0.000000000000 	
O	  1.000000000000 	  6.079720232848 	  2.980000000000 	
O	  3.980000000000 	  2.099720232848 	  0.000000000000 	
O	  4.980000000000 	  2.099720232848 	  2.980000000000 	
O	  3.980000000000 	  6.079720232848 	  0.000000000000 	
O	  4.980000000000 	  6.079720232848 	  2.980000000000 	
O	  0.090594684972 	  0.000000000000 	  2.009125547876 	
O	  1.090594684972 	  0.000000000000 	  4.989125547876 	
O	  0.090594684972 	  3.980000000000 	  2.009125547876 	
O	  1.090594684972 	  3.980000000000 	  4.989125547876 	
O	  4.070594684972 	  0.000000000000 	  2.009125547876 	
O	  5.070594684972 	  0.000000000000 	  4.989125547876 	
O	  4.070594684972 	  3.980000000000 	  2.009125547876 	
O	  5.070594684972 	  3.980000000000 	  4.989125547876 	
O	  2.262790665797 	  1.980678816795 	  2.009125547876 	
O	  3.262790665797 	  1.980678816795 	  4.989125547876 	
O	  2.262790665797 	  5.960678816795 	  2.009125547876 	
O	  3.262790665797 	  5.960678816795 	  4.989125547876 	
O	  6.242790665797 	  1.980678816795 	  2.009125547876 	
O	  7.242790665797 	  1.980678816795 	  4.989125547876 	
O	  6.242790665797 	  5.960678816795 	  2.009125547876 	
O	  7.242790665797 	  5.960678816795 	  4.989125547876 	
64 
Energy: 1.0340708511744130e+00 
Mg	  0.000000000000 	  0.000000000000 	  0.000000000000 	
Mg	  1.000000000000 	  0.000000000000 	  2.980000000000 	
Mg	  0.000000000000 	  3.980000000000 	  0.000000000000 	
Mg	  1.000000000000 	  3.980000000000 	  2.980000000000 	
Mg	  3.980000000000 	  0.000000000000 	  0.000000000000 	
Mg	  4.980000000000 	  0.000000000000 	  2.980000000000 	
Mg	  3.980000000000 	  3.980000000000 	  0.000000000000 	
Mg	  4.980000000000 	  3.980000000000 	  2.980000000000 	
Mg	  2.071921732651 	  2.083998352590 	  0.000000000000 	
Mg	  3.071921732651 	  2.083998352590 	  2.980000000000 	
Mg	  2.071921732651 	  6.063998352590 	  0.000000000000 	
Mg	  3.071921732651 	  6.063998352590 	  2.980000000000 	
Mg	  6.051921732651 	  2.083998352590 	  0.000000000000 	
Mg	  7.051921732651 	  2.083998352590 	  2.980000000000 	
Mg	  6.051921732651 	  6.063998352590 	  0.000000000000 	
Mg	  7.051921732651 	  6.063998352590 	  2.980000000000 	
Mg	  2.168534692168 	  0.000000000000 	  2.047768492771 	
Mg	  3.168534692168 	  0.000000000000 	  5.027768492771 	
Mg	  2.168534692168 	  3.980000000000 	  2.047768492771 	
Mg	  3.168534692168 	  3.980000000000 	  5.027768492771 	
Mg	  6.148534692168 	  0.000000000000 	  2.047768492771 	
Mg	  7.148534692168 	  0.000000000000 	  5.027768492771 	
Mg	  6.148534692168 	  3.980000000000 	  2.047768492771 	
Mg	  7.148534692168 	  3.980000000000 	  5.027768492771 	
Mg	  0.060383099698 	  2.108151592470 	  2.047768492771 	
Mg	  1.060383099698 	  2.108151592470 	  5.027768492771 	
Mg	  0.060383099698 	  6.088151592470 	  2.047768492771 	
Mg	  1.060383099698 	  6.088151592470 	  5.027768492771 	
Mg	  4.040383099698 	  2.108151592470 	  2.047768492771 	
Mg	  5.040383099698 	  2.108151592470 	  5.027768492771 	
Mg	  4.040383099698 	  6.088151592470 	  2.047768492771 	
Mg	  5.040383099698 	  6.088151592470 	  5.027768492771 	
O	  2.108151592470 	  0.000000000000 	  0.000000000000 	
O	  3.108151592470 	  0.000000000000 	  2.980000000000 	
O	  2.108151592470 	  3.980000000000 	  0.000000000000 	
O	  3.108151592470 	  3.980000000000 	  2.980000000000 	
O	  6.088151592470 	  0.000000000000 	  0.000000000000 	
O	  7.088151592470 	  0.000000000000 	  2.980000000000 	
O	  6.088151592470 	  3.980000000000 	  0.000000000000 	
O	  7.088151592470 	  3.980000000000 	  2.980000000000 	
O	  0.000000000000 	  2.108151592470 	  0.000000000000 	
O	  1.000000000000 	  2.108151592470 	  2.980000000000 	
O	  0.000000000000 	  6.088151592470 	  0.000000000000 	
O	  1.000000000000 	  6.088151592470 	  2.980000000000 	
O	  3.980000000000 	  2.108151592470 	  0.000000000000 	
O	  4.980000000000 	  2.108151592470 	  2.980000000000 	
O	  3.980000000000 	  6.088151592470 	  0.000000000000 	
O	  4.980000000000 	  6.088151592470 	  2.980000000000 	
O	  0.060383099698 	  0.000000000000 	  2.047768492771 	
O	  1.060383099698 	  0.000000000000 	  5.027768492771 	
O	  0.060383099698 	  3.980000000000 	  2.047768492771 	
O	  1.060383099698 	  3.980000000000 	  5.027768492771 	
O	  4.040383099698 	  0.000000000000 	  2.047768492771 	
O	  5.040383099698 	  0.000000000000 	  5.027768492771 	
O	  4.040383099698 	  3.980000000000 	  2.047768492771 	
O	  5.040383099698 	  3.980000000000 	  5.027768492771 	
O	  2.216841171927 	  2.028808199466 	  2.047768492771 	
O	  3.216841171927 	  2.028808199466 	  5.027768492771 	
O	  2.216841171927 	  6.008808199466 	  2.047768492771 	
O	  3.216841171927 	  6.008808199466 	  5.027768492771 	
O	  6.196841171927 	  2.028808199466 	  2.047768492771 	
O	  7.196841171927 	  2.028808199466 	  5.027768492771 	
O	  6.196841171927 	  6.008808199466 	  2.047768492771 	
O	  7.196841171927 	  6.008808199466 	  5.027768492771 	
64 
Energy: 2.9783948913101910e-01 
Mg	  0.000000000000 	  0.000000000000 	  0.000000000000 	
Mg	  1.000000000000 	  0.000000000000 	  2.980000000000 	
Mg	  0.000000000000 	  3.980000000000 	  0.000000000000 	
Mg	  1.000000000000 	  3.980000000000 	  2.980000000000 	
Mg	  3.980000000000 	  0.000000000000 	  0.000000000000 	
Mg	  4.980000000000 	  0.000000000000 	  2.980000000000 	
Mg	  3.980000000000 	  3.980000000000 	  0.000000000000 	
Mg	  4.980000000000 	  3.980000000000 	  2.980000000000 	
Mg	  2.098467626243 	  2.104504537219 	  0.000000000000 	
Mg	  3.098467626243 	  2.104504537219 	  2.980000000000 	
Mg	  2.098467626243 	  6.084504537219 	  0.000000000000 	
Mg	  3.098467626243 	  6.084504537219 	  2.980000000000 	
Mg	  6.078467626243 	  2.104504537219 	  0.000000000000 	
Mg	  7.078467626243 	  2.104504537219 	  2.980000000000 	
Mg	  6.078467626243 	  6.084504537219 	  0.000000000000 	
Mg	  7.078467626243 	  6.084504537219 	  2.980000000000 	
Mg	  2.146762914057 	  0.000000000000 	  2.086393804289 	
Mg	  3.146762914057 	  0.000000000000 	  5.066393804289 	
Mg	  2.146762914057 	  3.980000000000 	  2.086393804289 	
Mg	  3.146762914057 	  3.980000000000 	  5.066393804289 	
Mg	  6.126762914057 	  0.000000000000 	  2.086393804289 	
Mg	  7.126762914057 	  0.000000000000 	  5.066393804289 	
Mg	  6.126762914057 	  3.980000000000 	  2.086393804289 	
Mg	  7.126762914057 	  3.980000000000 	  5.066393804289 	
Mg	  0.030184554884 	  2.116578359173 	  2.086393804289 	
Mg	  1.030184554884 	  2.116578359173 	  5.066393804289 	
Mg	  0.030184554884 	  6.096578359173 	  2.086393804289 	
Mg	  1.030184554884 	  6.096578359173 	  5.066393804289 	
Mg	  4.010184554884 	  2.116578359173 	  2.086393804289 	
Mg	  5.010184554884 	  2.116578359173 	  5.066393804289 	
Mg	  4.010184554884 	  6.096578359173 	  2.086393804289 	
Mg	  5.010184554884 	  6.096578359173 	  5.066393804289 	
O	  2.116578359173 	  0.000000000000 	  0.000000000000 	
O	  3.116578359173 	  0.000000000000 	  2.980000000000 	
O	  2.116578359173 	  3.980000000000 	  0.000000000000 	
O	  3.116578359173 	  3.980000000000 	  2.980000000000 	
O	  6.096578359173 	  0.000000000000 	  0.000000000000 	
O	  7.096578359173 	  0.000000000000 	  2.980000000000 	
O	  6.096578359173 	  3.980000000000 	  0.000000000000 	
O	  7.096578359173 	  3.980000000000 	  2.980000000000 	
O	  0.000000000000 	  2.116578359173 	  0.000000000000 	
O	  1.000000000000 	  2.116578359173 	  2.980000000000 	
O	  0.000000000000 	  6.096578359173 	  0.000000000000 	
O	  1.000000000000 	  6.096578359173 	  2.980000000000 	
O	  3.980000000000 	  2.116578359173 	  0.000000000000 	
O	  4.980000000000 	  2.116578359173 	  2.980000000000 	
O	  3.980000000000 	  6.096578359173 	  0.000000000000 	
O	  4.980000000000 	  6.096578359173 	  2.980000000000 	
O	  0.030184554884 	  0.000000000000 	  2.086393804289 	
O	  1.030184554884 	  0.000000000000 	  5.066393804289 	
O	  0.030184554884 	  3.980000000000 	  2.086393804289 	
O	  1.030184554884 	  3.980000000000 	  5.066393804289 	
O	  4.010184554884 	  0.000000000000 	  2.086393804289 	
O	  5.010184554884 	  0.000000000000 	  5.066393804289 	
O	  4.010184554884 	  3.980000000000 	  2.086393804289 	
O	  5.010184554884 	  3.980000000000 	  5.066393804289 	
O	  2.170910557964 	  2.076915854055 	  2.086393804289 	
O	  3.170910557964 	  2.076915854055 	  5.066393804289 	
O	  2.170910557964 	  6.056915854055 	  2.086393804289 	
O	  3.170910557964 	  6.056915854055 	  5.066393804289 	
O	  6.150910557964 	  2.076915854055 	  2.086393804289 	
O	  7.150910557964 	  2.076915854055 	  5.066393804289 	
O	  6.150910557964 	  6.056915854055 	  2.086393804289 	
O	  7.150910557964 	  6.056915854055 	  5.066393804289 	
64 
Energy: 0.0000000000000000e+00 
Mg	  0.000000000000 	  0.000000000000 	  0.000000000000 	
Mg	  1.000000000000 	  0.000000000000 	  2.980000000000 	
Mg	  0.000000000000 	  3.980000000000 	  0.000000000000 	
Mg	  1.000000000000 	  3.980000000000 	  2.980000000000 	
Mg	  3.980000000000 	  0.000000000000 	  0.000000000000 	
Mg	  4.980000000000 	  0.000000000000 	  2.980000000000 	
Mg	  3.980000000000 	  3.980000000000 	  0.000000000000 	
Mg	  4.980000000000 	  3.980000000000 	  2.980000000000 	
Mg	  2.125000000000 	  2.125000000000 	  0.000000000000 	
Mg	  3.125000000000 	  2.125000000000 	  2.980000000000 	
Mg	  2.125000000000 	  6.105000000000 	  0.000000000000 	
Mg	  3.125000000000 	  6.105000000000 	  2.980000000000 	
Mg	  6.105000000000 	  2.125000000000 	  0.000000000000 	
Mg	  7.105000000000 	  2.125000000000 	  2.980000000000 	
Mg	  6.105000000000 	  6.105000000000 	  0.000000000000 	
Mg	  7.105000000000 	  6.105000000000 	  2.980000000000 	
Mg	  2.125000000000 	  0.000000000000 	  2.125000000000 	
Mg	  3.125000000000 	  0.000000000000 	  5.105000000000 	
Mg	  2.125000000000 	  3.980000000000 	  2.125000000000 	
Mg	  3.125000000000 	  3.980000000000 	  5.105000000000 	
Mg	  6.105000000000 	  0.000000000000 	  2.125000000000 	
Mg	  7.105000000000 	  0.000000000000 	  5.105000000000 	
Mg	  6.105000000000 	  3.980000000000 	  2.125000000000 	
Mg	  7.105000000000 	  3.980000000000 	  5.105000000000 	
Mg	  0.000000000000 	  2.125000000000 	  2.125000000000 	
Mg	  1.000000000000 	  2.125000000000 	  5.105000000000 	
Mg	  0.000000000000 	  6.105000000000 	  2.125000000000 	
Mg	  1.000000000000 	  6.105000000000 	  5.105000000000 	
Mg	  3.980000000000 	  2.125000000000 	  2.125000000000 	
Mg	  4.980000000000 	  2.125000000000 	  5.105000000000 	
Mg	  3.980000000000 	  6.105000000000 	  2.125000000000 	
Mg	  4.980000000000 	  6.105000000000 	  5.105000000000 	
O	  2.125000000000 	  0.000000000000 	  0.000000000000 	
O	  3.125000000000 	  0.000000000000 	  2.980000000000 	
O	  2.125000000000 	  3.980000000000 	  0.000000000000 	
O	  3.125000000000 	  3.980000000000 	  2.980000000000 	
O	  6.105000000000 	  0.000000000000 	  0.000000000000 	
O	  7.105000000000 	  0.000000000000 	  2.980000000000 	
O	  6.105000000000 	  3.980000000000 	  0.000000000000 	
O	  7.105000000000 	  3.980000000000 	  2.980000000000 	
O	  0.000000000000 	  2.125000000000 	  0.000000000000 	
O	  1.000000000000 	  2.125000000000 	  2.980000000000 	
O	  0.000000000000 	  6.105000000000 	  0.000000000000 	
O	  1.000000000000 	  6.105000000000 	  2.980000000000 	
O	  3.980000000000 	  2.125000000000 	  0.000000000000 	
O	  4.980000000000 	  2.125000000000 	  2.980000000000 	
O	  3.980000000000 	  6.105000000000 	  0.000000000000 	
O	  4.980000000000 	  6.105000000000 	  2.980000000000 	
O	  0.000000000000 	  0.000000000000 	  2.125000000000 	
O	  1.000000000000 	  0.000000000000 	  5.105000000000 	
O	  0.000000000000 	  3.980000000000 	  2.125000000000 	
O	  1.000000000000 	  3.980000000000 	  5.105000000000 	
O	  3.980000000000 	  0.000000000000 	  2.125000000000 	
O	  4.980000000000 	  0.000000000000 	  5.105000000000 	
O	  3.980000000000 	  3.980000000000 	  2.125000000000 	
O	  4.980000000000 	  3.980000000000 	  5.105000000000 	
O	  2.125000000000 	  2.125000000000 	  2.125000000000 	
O	  3.125000000000 	  2.125000000000 	  5.105000000000 	
O	  2.125000000000 	  6.105000000000 	  2.125000000000 	
O	  3.125000000000 	  6.105000000000 	  5.105000000000 	
O	  6.105000000000 	  2.125000000000 	  2.125000000000 	
O	  7.105000000000 	  2.125000000000 	  5.105000000000 	
O	  6.105000000000 	  6.105000000000 	  2.125000000000 	
O	  7.105000000000 	  6.105000000000 	  5.105000000000 	
