  Invoking FHI-aims ...
  | Number of atoms                   :  96
  ...scf iterations...
  | Total energy corrected        :   -6.072599986026E+01 eV
  ...
  Total atomic forces (unitary forces cleaned)
     1  -2.2025033180E-01  5.8869714803E-01  1.9085047422E-01
     2  2.1832542940E-01  5.8423028377E-01  -1.9545653595E-01
     3  2.2025042413E-01  -5.8869706654E-01  -1.9085041517E-01
     4  -2.1832529630E-01  -5.8423010983E-01  1.9545660931E-01
     5  -8.4672830928E-01  1.1095818852E+00  4.3571485234E-02
     6  8.3197553928E-01  1.0539144939E+00  4.6968812570E-02
     7  8.4672853061E-01  -1.1095817593E+00  -4.3571210908E-02
     8  -8.3197573616E-01  -1.0539146181E+00  -4.6968520730E-02
     9  -1.8615890142E-01  1.5963098104E-01  -9.1414528473E-02
    10  8.2304072971E-02  5.3593883778E-02  1.0092253233E-01
    11  1.8615859397E-01  -1.5963073473E-01  9.1414288954E-02
    12  -8.2304441669E-02  -5.3594028958E-02  -1.0092249627E-01
    13  -3.7951359502E-01  -8.7678695750E-01  -8.7116643354E-01
    14  4.8402206590E-01  -7.6831652357E-01  8.6013276099E-01
    15  3.7951308977E-01  8.7678700208E-01  8.7116617535E-01
    16  -4.8402216575E-01  7.6831678009E-01  -8.6013217072E-01
    17  2.1114774453E+00  -3.0719821162E+00  -2.8664311614E-01
    18  -2.1518952506E+00  -2.9918049820E+00  1.7391778024E-01
    19  -2.1114794121E+00  3.0719862075E+00  2.8664331978E-01
    20  2.1518955141E+00  2.9918060411E+00  -1.7391863883E-01
    21  -1.2200551306E+00  1.4599068872E+00  -6.5234955855E-03
    22  1.2230248256E+00  1.4767130679E+00  -3.9509012050E-03
    23  1.2200572797E+00  -1.4599107558E+00  6.5232546386E-03
    24  -1.2230252228E+00  -1.4767140759E+00  3.9511830934E-03
    25  4.4142270754E-01  1.5479798406E-02  3.7765831627E-01
    26  -4.0875721680E-01  -7.7724531648E-02  -2.6374758024E-01
    27  -4.4142303662E-01  -1.5480021967E-02  -3.7765859730E-01
    28  4.0875772480E-01  7.7724702472E-02  2.6374745415E-01
    29  8.8127472760E-01  2.5597408693E+00  2.5077374029E+00
    30  -8.8216151980E-01  2.5566360141E+00  -2.5058650651E+00
    31  -8.8127502617E-01  -2.5597416984E+00  -2.5077374911E+00
    32  8.8216230608E-01  -2.5566377614E+00  2.5058656264E+00
    33  -4.0083736515E-01  -1.2390351339E+00  -1.2002476605E+00
    34  3.9789471348E-01  -1.2418847034E+00  1.1968100508E+00
    35  4.0083778844E-01  1.2390357135E+00  1.2002478878E+00
    36  -3.9789552675E-01  1.2418861354E+00  -1.1968109701E+00
    37  -2.3035037726E+00  2.9416995342E+00  1.8284830628E-01
    38  2.3016652343E+00  2.9383186820E+00  -1.8147440482E-01
    39  2.3035028041E+00  -2.9416982406E+00  -1.8284763515E-01
    40  -2.3016636180E+00  -2.9383168522E+00  1.8147490840E-01
    41  9.8384768419E-01  -1.3802099478E+00  -1.8734602468E-01
    42  -9.8492063253E-01  -1.3807622211E+00  1.8823671213E-01
    43  -9.8384671294E-01  1.3802085097E+00  1.8734561019E-01
    44  9.8491936716E-01  1.3807604684E+00  -1.8823672851E-01
    45  -1.7115575936E+00  1.4805494506E-01  -1.0771058959E+00
    46  1.5963657367E+00  6.6447864565E-03  1.0479069268E+00
    47  1.7115513357E+00  -1.4805485478E-01  1.0771025124E+00
    48  -1.5963660283E+00  -6.6441482844E-03  -1.0479066434E+00
    49  -2.9713176378E+01  6.6600567087E+00  1.6701434742E+01
    50  3.3674949773E+01  2.3567948208E+01  -1.8000693753E+01
    51  2.9712636429E+01  -6.6598557172E+00  -1.6701236311E+01
    52  -3.3674972584E+01  -2.3567897238E+01  1.8000697849E+01
    53  2.0458685296E+01  1.6298381026E+01  -7.5862328990E+00
    54  -1.7207392223E+01  1.4601369803E+01  6.3933865004E+00
    55  -2.0458316261E+01  -1.6298130272E+01  7.5860958324E+00
    56  1.7207423068E+01  -1.4601398415E+01  -6.3934076090E+00
    57  -1.5389699861E+00  2.1614287887E-01  -1.1957394319E+00
    58  3.4093221482E-01  5.8928911898E-02  2.7474398705E-01
    59  1.5389894700E+00  -2.1614511824E-01  1.1957559989E+00
    60  -3.4092783969E-01  -5.8928422308E-02  -2.7474005448E-01
    61  9.8368008207E+00  -2.2700631512E+01  -4.4831757844E+00
    62  -1.5858285125E+01  -3.7776208325E+01  7.9902439009E+00
    63  -9.8366511388E+00  2.2700185814E+01  4.4831056430E+00
    64  1.5858273731E+01  3.7776184820E+01  -7.9902306060E+00
    65  -2.9021142381E+00  -1.7239077905E+01  -8.3543607537E+00
    66  3.6645629677E+00  -1.6931846537E+01  6.7124313445E+00
    67  2.9020472299E+00  1.7238966509E+01  8.3543239324E+00
    68  -3.6645725218E+00  1.6931844045E+01  -6.7124150101E+00
    69  9.3526553011E+00  1.1265479985E+01  -2.6002405944E+00
    70  -9.9971629149E+00  1.2007088596E+01  2.7430398098E+00
    71  -9.3525782580E+00  -1.1265404239E+01  2.6002102218E+00
    72  9.9971627269E+00  -1.2007086676E+01  -2.7430469303E+00
    73  -2.8706626562E+00  2.6582416960E+00  1.2131723815E+01
    74  2.5759133508E+00  1.9250394089E+00  -1.0833901207E+01
    75  2.8706567298E+00  -2.6582150456E+00  -1.2131654377E+01
    76  -2.5759056505E+00  -1.9250391826E+00  1.0833889981E+01
    77  -1.9326166218E+00  2.3967568031E-02  -1.5008532762E+00
    78  2.2168824570E+00  -7.6979341988E-02  1.6783340183E+00
    79  1.9326138962E+00  -2.3967941230E-02  1.5008518727E+00
    80  -2.2168814214E+00  7.6979150267E-02  -1.6783318454E+00
    81  -2.8432784015E+00  2.4552320020E+01  -1.3535957519E+01
    82  2.8464519327E+00  2.4527067205E+01  1.3529430268E+01
    83  2.8431617636E+00  -2.4551979853E+01  1.3535809011E+01
    84  -2.8464452267E+00  -2.4527057074E+01  -1.3529476500E+01
    85  -1.7978056864E+00  8.9220782710E-02  -1.1032090748E+00
    86  1.8048793605E+00  8.3823890592E-02  1.0955960487E+00
    87  1.7978158177E+00  -8.9220600217E-02  1.1032146816E+00
    88  -1.8048776524E+00  -8.3824163917E-02  -1.0955944117E+00
    89  -2.6617767267E+00  6.6886422785E-01  1.5778455672E+01
    90  2.6685157974E+00  6.6284478499E-01  -1.5796395070E+01
    91  2.6617529773E+00  -6.6883946047E-01  -1.5778309582E+01
    92  -2.6685196913E+00  -6.6285138106E-01  1.5796428550E+01
    93  9.5896086289E+00  -2.2722802957E+01  -2.2610682588E+00
    94  -9.5842667604E+00  -2.2734006913E+01  2.2532760906E+00
    95  -9.5894711498E+00  2.2722442970E+01  2.2610597192E+00
    96  9.5842622761E+00  2.2734004305E+01  -2.2532658640E+00
  Stress tensor (eV/A^3):
  -9.4462309540E-02  -1.2638858357E-02  7.3367800767E-02
  -1.2638858357E-02  -2.4134603988E-01  6.6212325167E-03
  7.3367800767E-02  6.6212325167E-03  -9.1517800746E-02
