  Invoking FHI-aims ...
  | Number of atoms                   :  96
  ...scf iterations...
  | Total energy corrected        :   -9.374600354046E+01 eV
  ...
  Total atomic forces (unitary forces cleaned)
     1  -3.3660759414E-01  6.3930216352E-01  2.1017885691E-01
     2  2.4147997343E-01  6.0600165131E-01  -1.9276873767E-01
     3  3.3660766765E-01  -6.3930205369E-01  -2.1017877983E-01
     4  -2.4147983870E-01  -6.0600137910E-01  1.9276876289E-01
     5  -6.8815415923E-01  -3.2819741408E-01  -9.2689230927E-01
     6  1.3109499045E+00  -2.0299641185E+00  3.3369848562E+00
     7  6.8815434341E-01  3.2819755789E-01  9.2689257178E-01
     8  -1.3109504748E+00  2.0299640425E+00  -3.3369846290E+00
     9  -4.7439675469E-01  3.9175270961E-01  -2.0493163022E-01
    10  -2.2541454460E+00  -2.2793808736E+00  1.4994078235E-01
    11  4.7439643250E-01  -3.9175215836E-01  2.0493143303E-01
    12  2.2541464596E+00  2.2793817937E+00  -1.4994098301E-01
    13  -5.7360907346E-01  -1.0869495286E+00  -1.2138220024E+00
    14  3.2376452645E+00  1.4173937736E+00  1.3716408221E+00
    15  5.7360848818E-01  1.0869496504E+00  1.2138216845E+00
    16  -3.2376470648E+00  -1.4173946460E+00  -1.3716393358E+00
    17  5.6943269608E-01  -7.8955738684E-01  -5.9588093257E-02
    18  -1.9149050080E+00  8.2314593721E-01  -2.4932175441E+00
    19  -5.6943171933E-01  7.8955746264E-01  5.9588740001E-02
    20  1.9149068369E+00  -8.2314676642E-01  2.4932175512E+00
    21  6.1656335339E-01  -1.1558967337E+00  -2.2437386748E-01
    22  -4.9199620144E-01  -1.0945059786E+00  3.7810019474E-01
    23  -6.1656362461E-01  1.1558972440E+00  2.2437332679E-01
    24  4.9199575186E-01  1.0945058846E+00  -3.7810040550E-01
    25  1.1554975339E+00  4.2358143825E-02  1.0166353556E+00
    26  -7.0698151102E-02  -1.9596774490E+00  1.5261887258E+00
    27  -1.1554972800E+00  -4.2358921415E-02  -1.0166356228E+00
    28  7.0697857842E-02  1.9596787503E+00  -1.5261897267E+00
    29  5.6445580556E-01  4.4012337578E-01  7.9185225246E-01
    30  -4.1725774424E-01  6.1951572327E-01  -8.1570585350E-01
    31  -5.6445574098E-01  -4.4012324443E-01  -7.9185209178E-01
    32  4.1725745147E-01  -6.1951592639E-01  8.1570550146E-01
    33  1.6623712648E-01  9.7729736659E-01  8.7903927738E-01
    34  -1.4350974176E-02  1.1417700670E+00  -7.7018683122E-01
    35  -1.6623722459E-01  -9.7729783951E-01  -8.7903907501E-01
    36  1.4351214088E-02  -1.1417705006E+00  7.7018668685E-01
    37  -8.6577677989E-01  6.3350636818E-01  -3.0674792041E-01
    38  8.6736755979E-01  7.9354955081E-01  1.6289478270E-01
    39  8.6577672393E-01  -6.3350654452E-01  3.0674781814E-01
    40  -8.6736761211E-01  -7.9354963353E-01  -1.6289439406E-01
    41  -8.1350424022E-01  1.1148081453E+00  5.6707576349E-02
    42  8.5987799177E-01  1.1839226260E+00  -7.3110563899E-02
    43  8.1350421848E-01  -1.1148081826E+00  -5.6707260317E-02
    44  -8.5987781040E-01  -1.1839224061E+00  7.3110812501E-02
    45  -1.7684708267E+00  1.6584141800E-01  -1.1611108689E+00
    46  -8.3376378859E-01  -5.0901483849E+00  4.9975019538E-01
    47  1.7684727593E+00  -1.6584044017E-01  1.1611120835E+00
    48  8.3376279581E-01  5.0901500184E+00  -4.9975218204E-01
    49  -2.1730453822E-01  5.3532733384E-01  1.6602249833E+00
    50  -2.1079136167E-02  6.3740430957E+00  -4.4391478742E+00
    51  2.1730481487E-01  -5.3532538030E-01  -1.6602266559E+00
    52  2.1080449668E-02  -6.3740439528E+00  4.4391465755E+00
    53  -1.4443314854E+00  -8.3869228124E-01  6.6015401355E-01
    54  1.4837762328E+00  -1.4102612892E+00  -1.1465232507E+00
    55  1.4443301575E+00  8.3869457651E-01  -6.6015288655E-01
    56  -1.4837740977E+00  1.4102596731E+00  1.1465231640E+00
    57  1.0495083408E+00  -1.8943742327E-01  9.0998118573E-01
    58  1.5573705047E+00  -3.2884735612E-01  1.5898695673E+00
    59  -1.0495087990E+00  1.8943629704E-01  -9.0998079982E-01
    60  -1.5573716639E+00  3.2884666033E-01  -1.5898673851E+00
    61  -2.6141495730E-01  1.6977981049E+00  7.4969793463E-02
    62  -2.3174554508E+00  -3.1216661091E+00  7.3557854888E-01
    63  2.6141841361E-01  -1.6977982523E+00  -7.4971902405E-02
    64  2.3174546166E+00  3.1216670385E+00  -7.3557628999E-01
    65  6.0419961643E-01  -1.6155474116E+00  2.4353436427E-01
    66  3.3860853577E+00  4.1287606860E+00  -1.1109566560E+00
    67  -6.0420239430E-01  1.6155501758E+00  -2.4353282803E-01
    68  -3.3860844174E+00  -4.1287612305E+00  1.1109570834E+00
    69  -1.2806386579E+00  -9.1786114643E-01  7.0330294482E-01
    70  7.3261579984E-01  -2.0619290534E-01  -3.6906670643E-01
    71  1.2806372636E+00  9.1786205931E-01  -7.0330112366E-01
    72  -7.3261563399E-01  2.0619299185E-01  3.6906712351E-01
    73  6.1917338171E-01  -5.4555242376E-01  -1.5249231948E+00
    74  -7.4624999384E-01  -1.8894980770E+00  2.6298778536E+00
    75  -6.1917393924E-01  5.4554899712E-01  1.5249228243E+00
    76  7.4624801745E-01  1.8894982766E+00  -2.6298775367E+00
    77  1.0483365627E+00  -2.3947232701E-01  7.6989642986E-01
    78  -1.6177287171E+00  -7.0494081110E-01  -1.2330561670E+00
    79  -1.0483358041E+00  2.3947129964E-01  -7.6989686679E-01
    80  1.6177291882E+00  7.0494101328E-01  1.2330551237E+00
    81  1.3679992798E+00  8.9622351466E-01  -6.2997223614E-01
    82  -1.3758589285E+00  9.0792026181E-01  7.1884291665E-01
    83  -1.3680008377E+00  -8.9622610164E-01  6.2997185743E-01
    84  1.3758594342E+00  -9.0791998385E-01  -7.1884381435E-01
    85  1.1740991291E+00  -3.6531446631E-02  6.5823850741E-01
    86  -1.2503555589E+00  -2.4868830100E-02  -5.6121331077E-01
    87  -1.1740986149E+00  3.6531845644E-02  -6.5823836849E-01
    88  1.2503555040E+00  2.4868727282E-02  5.6121334605E-01
    89  3.1975725152E-01  -6.1205868050E-01  -1.5884413647E+00
    90  -3.5639060963E-01  -5.5311768457E-01  1.7178695483E+00
    91  -3.1975735607E-01  6.1205629430E-01  1.5884411108E+00
    92  3.5638994784E-01  5.5311851704E-01  -1.7178691624E+00
    93  -4.5346150685E-01  1.5900246852E+00  -9.1662963421E-02
    94  3.7404407280E-01  1.7191924887E+00  1.8179735286E-01
    95  4.5346267385E-01  -1.5900235150E+00  9.1660856708E-02
    96  -3.7404399077E-01  -1.7191929084E+00  -1.8179767372E-01
  Stress tensor (eV/A^3):
  8.8252733213E-02  -1.0963111049E-02  1.9489902611E-02
  -1.0963111049E-02  8.1032667379E-02  3.7492910519E-03
  1.9489902611E-02  3.7492910519E-03  8.9420768883E-02
