  Invoking FHI-aims ...
  | Number of atoms                   :  96
  ...scf iterations...
  | Total energy corrected        :   -9.481477333450E+01 eV
  ...
  Total atomic forces (unitary forces cleaned)
     1  -3.0574169238E-01  5.9861478194E-01  1.9095346441E-01
     2  2.2947500676E-01  5.7593767932E-01  -1.8223905841E-01
     3  3.0574162644E-01  -5.9861466966E-01  -1.9095344938E-01
     4  -2.2947491117E-01  -5.7593766188E-01  1.8223915401E-01
     5  -8.2093622769E-01  1.6153023027E+00  2.3497280657E-01
     6  9.3080778910E-01  -9.9505854248E-01  1.5212167108E+00
     7  8.2093708229E-01  -1.6153021125E+00  -2.3497204023E-01
     8  -9.3080759568E-01  9.9505836394E-01  -1.5212164059E+00
     9  -4.3341049222E-01  2.5013040405E-01  -1.9171438468E-01
    10  8.5725450310E-01  3.0547337934E-01  1.5886905572E-01
    11  4.3340973170E-01  -2.5013087855E-01  1.9171370708E-01
    12  -8.5725495363E-01  -3.0547323412E-01  -1.5886934097E-01
    13  -5.5488374018E-01  -1.0925343859E+00  -1.0753216310E+00
    14  9.7836610330E-02  -1.2147633612E+00  1.1447147228E+00
    15  5.5488291139E-01  1.0925347060E+00  1.0753213001E+00
    16  -9.7836695718E-02  1.2147635816E+00  -1.1447145775E+00
    17  3.6679797345E-01  -4.6661585362E-01  -1.6904973093E-02
    18  -4.8381289436E-01  -3.4490306641E-02  -9.7273271039E-02
    19  -3.6679730856E-01  4.6661604095E-01  1.6905534443E-02
    20  4.8381301278E-01  3.4489801294E-02  9.7273260026E-02
    21  7.4800986567E-01  -1.3220211233E+00  -2.0858118289E-01
    22  -7.3831275465E-01  -1.4472948169E+00  3.0824718201E-01
    23  -7.4801006184E-01  1.3220212800E+00  2.0858107898E-01
    24  7.3831296468E-01  1.4472950917E+00  -3.0824725347E-01
    25  1.0503121863E+00  1.0215472554E-01  7.6825958307E-01
    26  -8.8827420254E-01  -3.4469417618E-01  -6.0608358121E-01
    27  -1.0503126330E+00  -1.0215537566E-01  -7.6826019262E-01
    28  8.8827468422E-01  3.4469505528E-01  6.0608318943E-01
    29  4.7900894823E-01  2.7511661466E-01  5.2836050734E-01
    30  -4.4851849459E-01  3.5067870912E-01  -5.7173025114E-01
    31  -4.7900879147E-01  -2.7511672487E-01  -5.2836097743E-01
    32  4.4851757953E-01  -3.5067910599E-01  5.7172997909E-01
    33  1.9789834721E-01  1.2064886809E+00  1.0164651587E+00
    34  -1.8581687800E-01  1.2471088123E+00  -1.0130354856E+00
    35  -1.9789809713E-01  -1.2064884564E+00  -1.0164648106E+00
    36  1.8581696484E-01  -1.2471089943E+00  1.0130354299E+00
    37  -6.8500952480E-01  3.5948142114E-01  -2.3481949717E-01
    38  7.1699739577E-01  4.2459498622E-01  1.9752529835E-01
    39  6.8500967877E-01  -3.5948173736E-01  2.3481974072E-01
    40  -7.1699718566E-01  -4.2459566361E-01  -1.9752471316E-01
    41  -1.0244325579E+00  1.2774225380E+00  9.7714952775E-02
    42  1.0339333797E+00  1.2935500601E+00  -9.6243635115E-02
    43  1.0244323905E+00  -1.2774220820E+00  -9.7714872823E-02
    44  -1.0339329809E+00  -1.2935497082E+00  9.6243702608E-02
    45  -1.2094536189E+00  1.5059625266E-01  -8.6373130306E-01
    46  -1.7464020574E+00  -2.4693873355E+00  -1.4507123369E+00
    47  1.2094723955E+00  -1.5059200546E-01  8.6374723757E-01
    48  1.7463999219E+00  2.4693850127E+00  1.4507113224E+00
    49  -7.0716519651E-01  -4.5062038151E-01  1.0202244264E+00
    50  1.5104420311E+00  7.2181123002E-01  -3.0393208049E+00
    51  7.0714300336E-01  4.5062010512E-01  -1.0202319703E+00
    52  -1.5104424249E+00  -7.2180903791E-01  3.0393248613E+00
    53  -6.9448880237E-01  -1.4746666567E+00  -1.2755389516E-01
    54  2.0334141283E-01  -2.2396000946E+00  4.4328557196E-01
    55  6.9449809548E-01  1.4746777465E+00  1.2754997145E-01
    56  -2.0334020191E-01  2.2395987826E+00  -4.4328541423E-01
    57  1.3309743895E+00  -2.1834070478E-01  1.2151630684E+00
    58  1.6357443738E+00  3.6689666642E-01  1.7080739248E+00
    59  -1.3309716214E+00  2.1833932460E-01  -1.2151605492E+00
    60  -1.6357457729E+00  -3.6689708966E-01  -1.7080751405E+00
    61  -1.0743941776E+00  1.2103825738E+00  7.6960856517E-01
    62  -2.6578455427E+00  5.0005020414E-01  1.6133119571E+00
    63  1.0744061165E+00  -1.2103875582E+00  -7.6961669549E-01
    64  2.6578453729E+00  -5.0005047006E-01  -1.6133114312E+00
    65  6.2293433770E-01  -4.5391190072E-01  -1.8996175062E-02
    66  2.9847886994E+00  1.4981228111E+00  -4.8884701387E-01
    67  -6.2294618764E-01  4.5391391081E-01  1.8994516423E-02
    68  -2.9847880638E+00  -1.4981207425E+00  4.8884920832E-01
    69  -5.6531983004E-01  -1.9656796563E+00  5.8679291816E-02
    70  9.2642862765E-01  -2.0895619257E+00  -4.3513208850E-01
    71  5.6532135142E-01  1.9656857600E+00  -5.8677133755E-02
    72  -9.2642847769E-01  2.0895599542E+00  4.3513227869E-01
    73  6.3656586240E-01  4.9831065924E-01  -2.1307649508E+00
    74  -7.2744325361E-01  7.4571611744E-01  1.8292786875E+00
    75  -6.3656705191E-01  -4.9831025303E-01  2.1307681569E+00
    76  7.2744393339E-01  -7.4571452701E-01  -1.8292829456E+00
    77  1.3638995930E+00  -2.2195196501E-01  7.0186871978E-01
    78  -1.9167272612E+00  -4.5300855950E-01  -1.0509418382E+00
    79  -1.3638978726E+00  2.2195127136E-01  -7.0186906622E-01
    80  1.9167279499E+00  4.5300865266E-01  1.0509419381E+00
    81  2.1455758110E-01  9.5602470865E-01  2.8375283964E-01
    82  -1.3931775059E-01  1.1069719942E+00  -1.6699537995E-01
    83  -2.1457775847E-01  -9.5602292360E-01  -2.8375473768E-01
    84  1.3931815488E-01  -1.1069735279E+00  1.6699444146E-01
    85  1.5324554837E+00  1.7993965339E-01  8.1528254285E-01
    86  -1.6007089886E+00  2.9220659313E-01  -7.7110818470E-01
    87  -1.5324536914E+00  -1.7993927220E-01  -8.1528176204E-01
    88  1.6007083603E+00  -2.9220646106E-01  7.7110793871E-01
    89  3.7616382359E-01  7.0390227868E-01  -1.9271990641E+00
    90  -3.9303305883E-01  8.0943931666E-01  1.9981797858E+00
    91  -3.7616369151E-01  -7.0390652799E-01  1.9272029514E+00
    92  3.9303311403E-01  -8.0943791938E-01  -1.9981790647E+00
    93  -8.5383424351E-01  1.0821847797E+00  8.7253094001E-01
    94  8.5443592331E-01  1.2444842622E+00  -8.5286125187E-01
    95  8.5384215218E-01  -1.0821993898E+00  -8.7253585086E-01
    96  -8.5443542159E-01  -1.2444837807E+00  8.5286097116E-01
  Stress tensor (eV/A^3):
  8.6163620296E-02  -6.4912352867E-03  2.9478256594E-02
  -6.4912352867E-03  1.0082214848E-01  4.8643470272E-03
  2.9478256594E-02  4.8643470272E-03  7.0517867009E-02
