64 
Energy: 3.0707394639917811e+00 
Mg	  0.000000000000 	  0.000000000000 	  0.000000000000 	
Mg	  1.000000000000 	  0.000000000000 	  2.980000000000 	
Mg	  0.000000000000 	  3.980000000000 	  0.000000000000 	
Mg	  1.000000000000 	  3.980000000000 	  2.980000000000 	
Mg	  3.980000000000 	  0.000000000000 	  0.000000000000 	
Mg	  4.980000000000 	  0.000000000000 	  2.980000000000 	
Mg	  3.980000000000 	  3.980000000000 	  0.000000000000 	
Mg	  4.980000000000 	  3.980000000000 	  2.980000000000 	
Mg	  1.694912673819 	  1.793275115879 	  0.000000000000 	
Mg	  2.694912673819 	  1.793275115879 	  2.980000000000 	
Mg	  1.694912673819 	  5.773275115879 	  0.000000000000 	
Mg	  2.694912673819 	  5.773275115879 	  2.980000000000 	
Mg	  5.674912673819 	  1.793275115879 	  0.000000000000 	
Mg	  6.674912673819 	  1.793275115879 	  2.980000000000 	
Mg	  5.674912673819 	  5.773275115879 	  0.000000000000 	
Mg	  6.674912673819 	  5.773275115879 	  2.980000000000 	
Mg	  2.481812210302 	  0.000000000000 	  1.498187789698 	
Mg	  3.481812210302 	  0.000000000000 	  4.478187789698 	
Mg	  2.481812210302 	  3.980000000000 	  1.498187789698 	
Mg	  3.481812210302 	  3.980000000000 	  4.478187789698 	
Mg	  6.461812210302 	  0.000000000000 	  1.498187789698 	
Mg	  7.461812210302 	  0.000000000000 	  4.478187789698 	
Mg	  6.461812210302 	  3.980000000000 	  1.498187789698 	
Mg	  7.461812210302 	  3.980000000000 	  4.478187789698 	
Mg	  0.491812210302 	  1.990000000000 	  1.498187789698 	
Mg	  1.491812210302 	  1.990000000000 	  4.478187789698 	
Mg	  0.491812210302 	  5.970000000000 	  1.498187789698 	
Mg	  1.491812210302 	  5.970000000000 	  4.478187789698 	
Mg	  4.471812210302 	  1.990000000000 	  1.498187789698 	
Mg	  5.471812210302 	  1.990000000000 	  4.478187789698 	
Mg	  4.471812210302 	  5.970000000000 	  1.498187789698 	
Mg	  5.471812210302 	  5.970000000000 	  4.478187789698 	
O	  1.990000000000 	  0.000000000000 	  0.000000000000 	
O	  2.990000000000 	  0.000000000000 	  2.980000000000 	
O	  1.990000000000 	  3.980000000000 	  0.000000000000 	
O	  2.990000000000 	  3.980000000000 	  2.980000000000 	
O	  5.970000000000 	  0.000000000000 	  0.000000000000 	
O	  6.970000000000 	  0.000000000000 	  2.980000000000 	
O	  5.970000000000 	  3.980000000000 	  0.000000000000 	
O	  6.970000000000 	  3.980000000000 	  2.980000000000 	
O	  0.000000000000 	  1.990000000000 	  0.000000000000 	
O	  1.000000000000 	  1.990000000000 	  2.980000000000 	
O	  0.000000000000 	  5.970000000000 	  0.000000000000 	
O	  1.000000000000 	  5.970000000000 	  2.980000000000 	
O	  3.980000000000 	  1.990000000000 	  0.000000000000 	
O	  4.980000000000 	  1.990000000000 	  2.980000000000 	
O	  3.980000000000 	  5.970000000000 	  0.000000000000 	
O	  4.980000000000 	  5.970000000000 	  2.980000000000 	
O	  0.491812210302 	  0.000000000000 	  1.498187789698 	
O	  1.491812210302 	  0.000000000000 	  4.478187789698 	
O	  0.491812210302 	  3.980000000000 	  1.498187789698 	
O	  1.491812210302 	  3.980000000000 	  4.478187789698 	
O	  4.471812210302 	  0.000000000000 	  1.498187789698 	
O	  5.471812210302 	  0.000000000000 	  4.478187789698 	
O	  4.471812210302 	  3.980000000000 	  1.498187789698 	
O	  5.471812210302 	  3.980000000000 	  4.478187789698 	
O	  2.875261978544 	  1.343758755663 	  1.498187789698 	
O	  3.875261978544 	  1.343758755663 	  4.478187789698 	
O	  2.875261978544 	  5.323758755663 	  1.498187789698 	
O	  3.875261978544 	  5.323758755663 	  4.478187789698 	
O	  6.855261978544 	  1.343758755663 	  1.498187789698 	
O	  7.855261978544 	  1.343758755663 	  4.478187789698 	
O	  6.855261978544 	  5.323758755663 	  1.498187789698 	
O	  7.855261978544 	  5.323758755663 	  4.478187789698 	
64 
Energy: 2.9805628566371363e+00 
Mg	  0.000000000000 	  0.000000000000 	  0.000000000000 	
Mg	  1.000000000000 	  0.000000000000 	  2.980000000000 	
Mg	  0.000000000000 	  3.980000000000 	  0.000000000000 	
Mg	  1.000000000000 	  3.980000000000 	  2.980000000000 	
Mg	  3.980000000000 	  0.000000000000 	  0.000000000000 	
Mg	  4.980000000000 	  0.000000000000 	  2.980000000000 	
Mg	  3.980000000000 	  3.980000000000 	  0.000000000000 	
Mg	  4.980000000000 	  3.980000000000 	  2.980000000000 	
Mg	  1.721770785656 	  1.813989907758 	  0.000000000000 	
Mg	  2.721770785656 	  1.813989907758 	  2.980000000000 	
Mg	  1.721770785656 	  5.793989907758 	  0.000000000000 	
Mg	  2.721770785656 	  5.793989907758 	  2.980000000000 	
Mg	  5.701770785656 	  1.813989907758 	  0.000000000000 	
Mg	  6.701770785656 	  1.813989907758 	  2.980000000000 	
Mg	  5.701770785656 	  5.793989907758 	  0.000000000000 	
Mg	  6.701770785656 	  5.793989907758 	  2.980000000000 	
Mg	  2.459523762474 	  0.000000000000 	  1.537332541451 	
Mg	  3.459523762474 	  0.000000000000 	  4.517332541451 	
Mg	  2.459523762474 	  3.980000000000 	  1.537332541451 	
Mg	  3.459523762474 	  3.980000000000 	  4.517332541451 	
Mg	  6.439523762474 	  0.000000000000 	  1.537332541451 	
Mg	  7.439523762474 	  0.000000000000 	  4.517332541451 	
Mg	  6.439523762474 	  3.980000000000 	  1.537332541451 	
Mg	  7.439523762474 	  3.980000000000 	  4.517332541451 	
Mg	  0.461095610512 	  1.998428151963 	  1.537332541451 	
Mg	  1.461095610512 	  1.998428151963 	  4.517332541451 	
Mg	  0.461095610512 	  5.978428151963 	  1.537332541451 	
Mg	  1.461095610512 	  5.978428151963 	  4.517332541451 	
Mg	  4.441095610512 	  1.998428151963 	  1.537332541451 	
Mg	  5.441095610512 	  1.998428151963 	  4.517332541451 	
Mg	  4.441095610512 	  5.978428151963 	  1.537332541451 	
Mg	  5.441095610512 	  5.978428151963 	  4.517332541451 	
O	  1.998428151963 	  0.000000000000 	  0.000000000000 	
O	  2.998428151963 	  0.000000000000 	  2.980000000000 	
O	  1.998428151963 	  3.980000000000 	  0.000000000000 	
O	  2.998428151963 	  3.980000000000 	  2.980000000000 	
O	  5.978428151963 	  0.000000000000 	  0.000000000000 	
O	  6.978428151963 	  0.000000000000 	  2.980000000000 	
O	  5.978428151963 	  3.980000000000 	  0.000000000000 	
O	  6.978428151963 	  3.980000000000 	  2.980000000000 	
O	  0.000000000000 	  1.998428151963 	  0.000000000000 	
O	  1.000000000000 	  1.998428151963 	  2.980000000000 	
O	  0.000000000000 	  5.978428151963 	  0.000000000000 	
O	  1.000000000000 	  5.978428151963 	  2.980000000000 	
O	  3.980000000000 	  1.998428151963 	  0.000000000000 	
O	  4.980000000000 	  1.998428151963 	  2.980000000000 	
O	  3.980000000000 	  5.978428151963 	  0.000000000000 	
O	  4.980000000000 	  5.978428151963 	  2.980000000000 	
O	  0.461095610512 	  0.000000000000 	  1.537332541451 	
O	  1.461095610512 	  0.000000000000 	  4.517332541451 	
O	  0.461095610512 	  3.980000000000 	  1.537332541451 	
O	  1.461095610512 	  3.980000000000 	  4.517332541451 	
O	  4.441095610512 	  0.000000000000 	  1.537332541451 	
O	  5.441095610512 	  0.000000000000 	  4.517332541451 	
O	  4.441095610512 	  3.980000000000 	  1.537332541451 	
O	  5.441095610512 	  3.980000000000 	  4.517332541451 	
O	  2.828400250884 	  1.392548519750 	  1.537332541451 	
O	  3.828400250884 	  1.392548519750 	  4.517332541451 	
O	  2.828400250884 	  5.372548519750 	  1.537332541451 	
O	  3.828400250884 	  5.372548519750 	  4.517332541451 	
O	  6.808400250884 	  1.392548519750 	  1.537332541451 	
O	  7.808400250884 	  1.392548519750 	  4.517332541451 	
O	  6.808400250884 	  5.372548519750 	  1.537332541451 	
O	  7.808400250884 	  5.372548519750 	  4.517332541451 	
64 
Energy: 3.3240581176893622e+00 
Mg	  0.000000000000 	  0.000000000000 	  0.000000000000 	
Mg	  1.000000000000 	  0.000000000000 	  2.980000000000 	
Mg	  0.000000000000 	  3.980000000000 	  0.000000000000 	
Mg	  1.000000000000 	  3.980000000000 	  2.980000000000 	
Mg	  3.980000000000 	  0.000000000000 	  0.000000000000 	
Mg	  4.980000000000 	  0.000000000000 	  2.980000000000 	
Mg	  3.980000000000 	  3.980000000000 	  0.000000000000 	
Mg	  4.980000000000 	  3.980000000000 	  2.980000000000 	
Mg	  1.748636513890 	  1.834711777330 	  0.000000000000 	
Mg	  2.748636513890 	  1.834711777330 	  2.980000000000 	
Mg	  1.748636513890 	  5.814711777330 	  0.000000000000 	
Mg	  2.748636513890 	  5.814711777330 	  2.980000000000 	
Mg	  5.728636513890 	  1.834711777330 	  0.000000000000 	
Mg	  6.728636513890 	  1.834711777330 	  2.980000000000 	
Mg	  5.728636513890 	  5.814711777330 	  0.000000000000 	
Mg	  6.728636513890 	  5.814711777330 	  2.980000000000 	
Mg	  2.437238621409 	  0.000000000000 	  1.576485987010 	
Mg	  3.437238621409 	  0.000000000000 	  4.556485987010 	
Mg	  2.437238621409 	  3.980000000000 	  1.576485987010 	
Mg	  3.437238621409 	  3.980000000000 	  4.556485987010 	
Mg	  6.417238621409 	  0.000000000000 	  1.576485987010 	
Mg	  7.417238621409 	  0.000000000000 	  4.556485987010 	
Mg	  6.417238621409 	  3.980000000000 	  1.576485987010 	
Mg	  7.417238621409 	  3.980000000000 	  4.556485987010 	
Mg	  0.430376317199 	  2.006862304210 	  1.576485987010 	
Mg	  1.430376317199 	  2.006862304210 	  4.556485987010 	
Mg	  0.430376317199 	  5.986862304210 	  1.576485987010 	
Mg	  1.430376317199 	  5.986862304210 	  4.556485987010 	
Mg	  4.410376317199 	  2.006862304210 	  1.576485987010 	
Mg	  5.410376317199 	  2.006862304210 	  4.556485987010 	
Mg	  4.410376317199 	  5.986862304210 	  1.576485987010 	
Mg	  5.410376317199 	  5.986862304210 	  4.556485987010 	
O	  2.006862304210 	  0.000000000000 	  0.000000000000 	
O	  3.006862304210 	  0.000000000000 	  2.980000000000 	
O	  2.006862304210 	  3.980000000000 	  0.000000000000 	
O	  3.006862304210 	  3.980000000000 	  2.980000000000 	
O	  5.986862304210 	  0.000000000000 	  0.000000000000 	
O	  6.986862304210 	  0.000000000000 	  2.980000000000 	
O	  5.986862304210 	  3.980000000000 	  0.000000000000 	
O	  6.986862304210 	  3.980000000000 	  2.980000000000 	
O	  0.000000000000 	  2.006862304210 	  0.000000000000 	
O	  1.000000000000 	  2.006862304210 	  2.980000000000 	
O	  0.000000000000 	  5.986862304210 	  0.000000000000 	
O	  1.000000000000 	  5.986862304210 	  2.980000000000 	
O	  3.980000000000 	  2.006862304210 	  0.000000000000 	
O	  4.980000000000 	  2.006862304210 	  2.980000000000 	
O	  3.980000000000 	  5.986862304210 	  0.000000000000 	
O	  4.980000000000 	  5.986862304210 	  2.980000000000 	
O	  0.430376317199 	  0.000000000000 	  1.576485987010 	
O	  1.430376317199 	  0.000000000000 	  4.556485987010 	
O	  0.430376317199 	  3.980000000000 	  1.576485987010 	
O	  1.430376317199 	  3.980000000000 	  4.556485987010 	
O	  4.410376317199 	  0.000000000000 	  1.576485987010 	
O	  5.410376317199 	  0.000000000000 	  4.556485987010 	
O	  4.410376317199 	  3.980000000000 	  1.576485987010 	
O	  5.410376317199 	  3.980000000000 	  4.556485987010 	
O	  2.781539675169 	  1.441347823410 	  1.576485987010 	
O	  3.781539675169 	  1.441347823410 	  4.556485987010 	
O	  2.781539675169 	  5.421347823410 	  1.576485987010 	
O	  3.781539675169 	  5.421347823410 	  4.556485987010 	
O	  6.761539675169 	  1.441347823410 	  1.576485987010 	
O	  7.761539675169 	  1.441347823410 	  4.556485987010 	
O	  6.761539675169 	  5.421347823410 	  1.576485987010 	
O	  7.761539675169 	  5.421347823410 	  4.556485987010 	
64 
Energy: 3.9042390146097983e+00 
Mg	  0.000000000000 	  0.000000000000 	  0.000000000000 	
Mg	  1.000000000000 	  0.000000000000 	  2.980000000000 	
Mg	  0.000000000000 	  3.980000000000 	  0.000000000000 	
Mg	  1.000000000000 	  3.980000000000 	  2.980000000000 	
Mg	  3.980000000000 	  0.000000000000 	  0.000000000000 	
Mg	  4.980000000000 	  0.000000000000 	  2.980000000000 	
Mg	  3.980000000000 	  3.980000000000 	  0.000000000000 	
Mg	  4.980000000000 	  3.980000000000 	  2.980000000000 	
Mg	  1.775511724202 	  1.855440761097 	  0.000000000000 	
Mg	  2.775511724202 	  1.855440761097 	  2.980000000000 	
Mg	  1.775511724202 	  5.835440761097 	  0.000000000000 	
Mg	  2.775511724202 	  5.835440761097 	  2.980000000000 	
Mg	  5.755511724202 	  1.855440761097 	  0.000000000000 	
Mg	  6.755511724202 	  1.855440761097 	  2.980000000000 	
Mg	  5.755511724202 	  5.835440761097 	  0.000000000000 	
Mg	  6.755511724202 	  5.835440761097 	  2.980000000000 	
Mg	  2.414944019364 	  0.000000000000 	  1.615653650412 	
Mg	  3.414944019364 	  0.000000000000 	  4.595653650412 	
Mg	  2.414944019364 	  3.980000000000 	  1.615653650412 	
Mg	  3.414944019364 	  3.980000000000 	  4.595653650412 	
Mg	  6.394944019364 	  0.000000000000 	  1.615653650412 	
Mg	  7.394944019364 	  0.000000000000 	  4.595653650412 	
Mg	  6.394944019364 	  3.980000000000 	  1.615653650412 	
Mg	  7.394944019364 	  3.980000000000 	  4.595653650412 	
Mg	  0.399645184476 	  2.015298834888 	  1.615653650412 	
Mg	  1.399645184476 	  2.015298834888 	  4.595653650412 	
Mg	  0.399645184476 	  5.995298834888 	  1.615653650412 	
Mg	  1.399645184476 	  5.995298834888 	  4.595653650412 	
Mg	  4.379645184476 	  2.015298834888 	  1.615653650412 	
Mg	  5.379645184476 	  2.015298834888 	  4.595653650412 	
Mg	  4.379645184476 	  5.995298834888 	  1.615653650412 	
Mg	  5.379645184476 	  5.995298834888 	  4.595653650412 	
O	  2.015298834888 	  0.000000000000 	  0.000000000000 	
O	  3.015298834888 	  0.000000000000 	  2.980000000000 	
O	  2.015298834888 	  3.980000000000 	  0.000000000000 	
O	  3.015298834888 	  3.980000000000 	  2.980000000000 	
O	  5.995298834888 	  0.000000000000 	  0.000000000000 	
O	  6.995298834888 	  0.000000000000 	  2.980000000000 	
O	  5.995298834888 	  3.980000000000 	  0.000000000000 	
O	  6.995298834888 	  3.980000000000 	  2.980000000000 	
O	  0.000000000000 	  2.015298834888 	  0.000000000000 	
O	  1.000000000000 	  2.015298834888 	  2.980000000000 	
O	  0.000000000000 	  5.995298834888 	  0.000000000000 	
O	  1.000000000000 	  5.995298834888 	  2.980000000000 	
O	  3.980000000000 	  2.015298834888 	  0.000000000000 	
O	  4.980000000000 	  2.015298834888 	  2.980000000000 	
O	  3.980000000000 	  5.995298834888 	  0.000000000000 	
O	  4.980000000000 	  5.995298834888 	  2.980000000000 	
O	  0.399645184476 	  0.000000000000 	  1.615653650412 	
O	  1.399645184476 	  0.000000000000 	  4.595653650412 	
O	  0.399645184476 	  3.980000000000 	  1.615653650412 	
O	  1.399645184476 	  3.980000000000 	  4.595653650412 	
O	  4.379645184476 	  0.000000000000 	  1.615653650412 	
O	  5.379645184476 	  0.000000000000 	  4.595653650412 	
O	  4.379645184476 	  3.980000000000 	  1.615653650412 	
O	  5.379645184476 	  3.980000000000 	  4.595653650412 	
O	  2.734660166946 	  1.490165062486 	  1.615653650412 	
O	  3.734660166946 	  1.490165062486 	  4.595653650412 	
O	  2.734660166946 	  5.470165062486 	  1.615653650412 	
O	  3.734660166946 	  5.470165062486 	  4.595653650412 	
O	  6.714660166946 	  1.490165062486 	  1.615653650412 	
O	  7.714660166946 	  1.490165062486 	  4.595653650412 	
O	  6.714660166946 	  5.470165062486 	  1.615653650412 	
O	  7.714660166946 	  5.470165062486 	  4.595653650412 	
64 
Energy: 4.5587771518754447e+00 
Mg	  0.000000000000 	  0.000000000000 	  0.000000000000 	
Mg	  1.000000000000 	  0.000000000000 	  2.980000000000 	
Mg	  0.000000000000 	  3.980000000000 	  0.000000000000 	
Mg	  1.000000000000 	  3.980000000000 	  2.980000000000 	
Mg	  3.980000000000 	  0.000000000000 	  0.000000000000 	
Mg	  4.980000000000 	  0.000000000000 	  2.980000000000 	
Mg	  3.980000000000 	  3.980000000000 	  0.000000000000 	
Mg	  4.980000000000 	  3.980000000000 	  2.980000000000 	
Mg	  1.802393990250 	  1.876174998176 	  0.000000000000 	
Mg	  2.802393990250 	  1.876174998176 	  2.980000000000 	
Mg	  1.802393990250 	  5.856174998176 	  0.000000000000 	
Mg	  2.802393990250 	  5.856174998176 	  2.980000000000 	
Mg	  5.782393990250 	  1.876174998176 	  0.000000000000 	
Mg	  6.782393990250 	  1.876174998176 	  2.980000000000 	
Mg	  5.782393990250 	  5.856174998176 	  0.000000000000 	
Mg	  6.782393990250 	  5.856174998176 	  2.980000000000 	
Mg	  2.392642053659 	  0.000000000000 	  1.654831974398 	
Mg	  3.392642053659 	  0.000000000000 	  4.634831974398 	
Mg	  2.392642053659 	  3.980000000000 	  1.654831974398 	
Mg	  3.392642053659 	  3.980000000000 	  4.634831974398 	
Mg	  6.372642053659 	  0.000000000000 	  1.654831974398 	
Mg	  7.372642053659 	  0.000000000000 	  4.634831974398 	
Mg	  6.372642053659 	  3.980000000000 	  1.654831974398 	
Mg	  7.372642053659 	  3.980000000000 	  4.634831974398 	
Mg	  0.368905039630 	  2.023737014029 	  1.654831974398 	
Mg	  1.368905039630 	  2.023737014029 	  4.634831974398 	
Mg	  0.368905039630 	  6.003737014029 	  1.654831974398 	
Mg	  1.368905039630 	  6.003737014029 	  4.634831974398 	
Mg	  4.348905039630 	  2.023737014029 	  1.654831974398 	
Mg	  5.348905039630 	  2.023737014029 	  4.634831974398 	
Mg	  4.348905039630 	  6.003737014029 	  1.654831974398 	
Mg	  5.348905039630 	  6.003737014029 	  4.634831974398 	
O	  2.023737014029 	  0.000000000000 	  0.000000000000 	
O	  3.023737014029 	  0.000000000000 	  2.980000000000 	
O	  2.023737014029 	  3.980000000000 	  0.000000000000 	
O	  3.023737014029 	  3.980000000000 	  2.980000000000 	
O	  6.003737014029 	  0.000000000000 	  0.000000000000 	
O	  7.003737014029 	  0.000000000000 	  2.980000000000 	
O	  6.003737014029 	  3.980000000000 	  0.000000000000 	
O	  7.003737014029 	  3.980000000000 	  2.980000000000 	
O	  0.000000000000 	  2.023737014029 	  0.000000000000 	
O	  1.000000000000 	  2.023737014029 	  2.980000000000 	
O	  0.000000000000 	  6.003737014029 	  0.000000000000 	
O	  1.000000000000 	  6.003737014029 	  2.980000000000 	
O	  3.980000000000 	  2.023737014029 	  0.000000000000 	
O	  4.980000000000 	  2.023737014029 	  2.980000000000 	
O	  3.980000000000 	  6.003737014029 	  0.000000000000 	
O	  4.980000000000 	  6.003737014029 	  2.980000000000 	
O	  0.368905039630 	  0.000000000000 	  1.654831974398 	
O	  1.368905039630 	  0.000000000000 	  4.634831974398 	
O	  0.368905039630 	  3.980000000000 	  1.654831974398 	
O	  1.368905039630 	  3.980000000000 	  4.634831974398 	
O	  4.348905039630 	  0.000000000000 	  1.654831974398 	
O	  5.348905039630 	  0.000000000000 	  4.634831974398 	
O	  4.348905039630 	  3.980000000000 	  1.654831974398 	
O	  5.348905039630 	  3.980000000000 	  4.634831974398 	
O	  2.687766085363 	  1.538995791954 	  1.654831974398 	
O	  3.687766085363 	  1.538995791954 	  4.634831974398 	
O	  2.687766085363 	  5.518995791954 	  1.654831974398 	
O	  3.687766085363 	  5.518995791954 	  4.634831974398 	
O	  6.667766085363 	  1.538995791954 	  1.654831974398 	
O	  7.667766085363 	  1.538995791954 	  4.634831974398 	
O	  6.667766085363 	  5.518995791954 	  1.654831974398 	
O	  7.667766085363 	  5.518995791954 	  4.634831974398 	
64 
Energy: 5.1576278526261969e+00 
Mg	  0.000000000000 	  0.000000000000 	  0.000000000000 	
Mg	  1.000000000000 	  0.000000000000 	  2.980000000000 	
Mg	  0.000000000000 	  3.980000000000 	  0.000000000000 	
Mg	  1.000000000000 	  3.980000000000 	  2.980000000000 	
Mg	  3.980000000000 	  0.000000000000 	  0.000000000000 	
Mg	  4.980000000000 	  0.000000000000 	  2.980000000000 	
Mg	  3.980000000000 	  3.980000000000 	  0.000000000000 	
Mg	  4.980000000000 	  3.980000000000 	  2.980000000000 	
Mg	  1.829281288907 	  1.896912996697 	  0.000000000000 	
Mg	  2.829281288907 	  1.896912996697 	  2.980000000000 	
Mg	  1.829281288907 	  5.876912996697 	  0.000000000000 	
Mg	  2.829281288907 	  5.876912996697 	  2.980000000000 	
Mg	  5.809281288907 	  1.896912996697 	  0.000000000000 	
Mg	  6.809281288907 	  1.896912996697 	  2.980000000000 	
Mg	  5.809281288907 	  5.876912996697 	  0.000000000000 	
Mg	  6.809281288907 	  5.876912996697 	  2.980000000000 	
Mg	  2.370334951232 	  0.000000000000 	  1.694017873325 	
Mg	  3.370334951232 	  0.000000000000 	  4.674017873325 	
Mg	  2.370334951232 	  3.980000000000 	  1.694017873325 	
Mg	  3.370334951232 	  3.980000000000 	  4.674017873325 	
Mg	  6.350334951232 	  0.000000000000 	  1.694017873325 	
Mg	  7.350334951232 	  0.000000000000 	  4.674017873325 	
Mg	  6.350334951232 	  3.980000000000 	  1.694017873325 	
Mg	  7.350334951232 	  3.980000000000 	  4.674017873325 	
Mg	  0.338158538953 	  2.032176412279 	  1.694017873325 	
Mg	  1.338158538953 	  2.032176412279 	  4.674017873325 	
Mg	  0.338158538953 	  6.012176412279 	  1.694017873325 	
Mg	  1.338158538953 	  6.012176412279 	  4.674017873325 	
Mg	  4.318158538953 	  2.032176412279 	  1.694017873325 	
Mg	  5.318158538953 	  2.032176412279 	  4.674017873325 	
Mg	  4.318158538953 	  6.012176412279 	  1.694017873325 	
Mg	  5.318158538953 	  6.012176412279 	  4.674017873325 	
O	  2.032176412279 	  0.000000000000 	  0.000000000000 	
O	  3.032176412279 	  0.000000000000 	  2.980000000000 	
O	  2.032176412279 	  3.980000000000 	  0.000000000000 	
O	  3.032176412279 	  3.980000000000 	  2.980000000000 	
O	  6.012176412279 	  0.000000000000 	  0.000000000000 	
O	  7.012176412279 	  0.000000000000 	  2.980000000000 	
O	  6.012176412279 	  3.980000000000 	  0.000000000000 	
O	  7.012176412279 	  3.980000000000 	  2.980000000000 	
O	  0.000000000000 	  2.032176412279 	  0.000000000000 	
O	  1.000000000000 	  2.032176412279 	  2.980000000000 	
O	  0.000000000000 	  6.012176412279 	  0.000000000000 	
O	  1.000000000000 	  6.012176412279 	  2.980000000000 	
O	  3.980000000000 	  2.032176412279 	  0.000000000000 	
O	  4.980000000000 	  2.032176412279 	  2.980000000000 	
O	  3.980000000000 	  6.012176412279 	  0.000000000000 	
O	  4.980000000000 	  6.012176412279 	  2.980000000000 	
O	  0.338158538953 	  0.000000000000 	  1.694017873325 	
O	  1.338158538953 	  0.000000000000 	  4.674017873325 	
O	  0.338158538953 	  3.980000000000 	  1.694017873325 	
O	  1.338158538953 	  3.980000000000 	  4.674017873325 	
O	  4.318158538953 	  0.000000000000 	  1.694017873325 	
O	  5.318158538953 	  0.000000000000 	  4.674017873325 	
O	  4.318158538953 	  3.980000000000 	  1.694017873325 	
O	  5.318158538953 	  3.980000000000 	  4.674017873325 	
O	  2.640861782394 	  1.587836092094 	  1.694017873325 	
O	  3.640861782394 	  1.587836092094 	  4.674017873325 	
O	  2.640861782394 	  5.567836092094 	  1.694017873325 	
O	  3.640861782394 	  5.567836092094 	  4.674017873325 	
O	  6.620861782394 	  1.587836092094 	  1.694017873325 	
O	  7.620861782394 	  1.587836092094 	  4.674017873325 	
O	  6.620861782394 	  5.567836092094 	  1.694017873325 	
O	  7.620861782394 	  5.567836092094 	  4.674017873325 	
64 
Energy: 5.6010835124608205e+00 
Mg	  0.000000000000 	  0.000000000000 	  0.000000000000 	
Mg	  1.000000000000 	  0.000000000000 	  2.980000000000 	
Mg	  0.000000000000 	  3.980000000000 	  0.000000000000 	
Mg	  1.000000000000 	  3.980000000000 	  2.980000000000 	
Mg	  3.980000000000 	  0.000000000000 	  0.000000000000 	
Mg	  4.980000000000 	  0.000000000000 	  2.980000000000 	
Mg	  3.980000000000 	  3.980000000000 	  0.000000000000 	
Mg	  4.980000000000 	  3.980000000000 	  2.980000000000 	
Mg	  1.856171939725 	  1.917653496336 	  0.000000000000 	
Mg	  2.856171939725 	  1.917653496336 	  2.980000000000 	
Mg	  1.856171939725 	  5.897653496336 	  0.000000000000 	
Mg	  2.856171939725 	  5.897653496336 	  2.980000000000 	
Mg	  5.836171939725 	  1.917653496336 	  0.000000000000 	
Mg	  6.836171939725 	  1.917653496336 	  2.980000000000 	
Mg	  5.836171939725 	  5.897653496336 	  0.000000000000 	
Mg	  6.836171939725 	  5.897653496336 	  2.980000000000 	
Mg	  2.348024392618 	  0.000000000000 	  1.733208826502 	
Mg	  3.348024392618 	  0.000000000000 	  4.713208826502 	
Mg	  2.348024392618 	  3.980000000000 	  1.733208826502 	
Mg	  3.348024392618 	  3.980000000000 	  4.713208826502 	
Mg	  6.328024392618 	  0.000000000000 	  1.733208826502 	
Mg	  7.328024392618 	  0.000000000000 	  4.713208826502 	
Mg	  6.328024392618 	  3.980000000000 	  1.733208826502 	
Mg	  7.328024392618 	  3.980000000000 	  4.713208826502 	
Mg	  0.307407783058 	  2.040616609560 	  1.733208826502 	
Mg	  1.307407783058 	  2.040616609560 	  4.713208826502 	
Mg	  0.307407783058 	  6.020616609560 	  1.733208826502 	
Mg	  1.307407783058 	  6.020616609560 	  4.713208826502 	
Mg	  4.287407783058 	  2.040616609560 	  1.733208826502 	
Mg	  5.287407783058 	  2.040616609560 	  4.713208826502 	
Mg	  4.287407783058 	  6.020616609560 	  1.733208826502 	
Mg	  5.287407783058 	  6.020616609560 	  4.713208826502 	
O	  2.040616609560 	  0.000000000000 	  0.000000000000 	
O	  3.040616609560 	  0.000000000000 	  2.980000000000 	
O	  2.040616609560 	  3.980000000000 	  0.000000000000 	
O	  3.040616609560 	  3.980000000000 	  2.980000000000 	
O	  6.020616609560 	  0.000000000000 	  0.000000000000 	
O	  7.020616609560 	  0.000000000000 	  2.980000000000 	
O	  6.020616609560 	  3.980000000000 	  0.000000000000 	
O	  7.020616609560 	  3.980000000000 	  2.980000000000 	
O	  0.000000000000 	  2.040616609560 	  0.000000000000 	
O	  1.000000000000 	  2.040616609560 	  2.980000000000 	
O	  0.000000000000 	  6.020616609560 	  0.000000000000 	
O	  1.000000000000 	  6.020616609560 	  2.980000000000 	
O	  3.980000000000 	  2.040616609560 	  0.000000000000 	
O	  4.980000000000 	  2.040616609560 	  2.980000000000 	
O	  3.980000000000 	  6.020616609560 	  0.000000000000 	
O	  4.980000000000 	  6.020616609560 	  2.980000000000 	
O	  0.307407783058 	  0.000000000000 	  1.733208826502 	
O	  1.307407783058 	  0.000000000000 	  4.713208826502 	
O	  0.307407783058 	  3.980000000000 	  1.733208826502 	
O	  1.307407783058 	  3.980000000000 	  4.713208826502 	
O	  4.287407783058 	  0.000000000000 	  1.733208826502 	
O	  5.287407783058 	  0.000000000000 	  4.713208826502 	
O	  4.287407783058 	  3.980000000000 	  1.733208826502 	
O	  5.287407783058 	  3.980000000000 	  4.713208826502 	
O	  2.593950619064 	  1.636682782621 	  1.733208826502 	
O	  3.593950619064 	  1.636682782621 	  4.713208826502 	
O	  2.593950619064 	  5.616682782621 	  1.733208826502 	
O	  3.593950619064 	  5.616682782621 	  4.713208826502 	
O	  6.573950619064 	  1.636682782621 	  1.733208826502 	
O	  7.573950619064 	  1.636682782621 	  4.713208826502 	
O	  6.573950619064 	  5.616682782621 	  1.733208826502 	
O	  7.573950619064 	  5.616682782621 	  4.713208826502 	
64 
Energy: 5.8185322160722821e+00 
Mg	  0.000000000000 	  0.000000000000 	  0.000000000000 	
Mg	  1.000000000000 	  0.000000000000 	  2.980000000000 	
Mg	  0.000000000000 	  3.980000000000 	  0.000000000000 	
Mg	  1.000000000000 	  3.980000000000 	  2.980000000000 	
Mg	  3.980000000000 	  0.000000000000 	  0.000000000000 	
Mg	  4.980000000000 	  0.000000000000 	  2.980000000000 	
Mg	  3.980000000000 	  3.980000000000 	  0.000000000000 	
Mg	  4.980000000000 	  3.980000000000 	  2.980000000000 	
Mg	  1.883064460183 	  1.938395392100 	  0.000000000000 	
Mg	  2.883064460183 	  1.938395392100 	  2.980000000000 	
Mg	  1.883064460183 	  5.918395392100 	  0.000000000000 	
Mg	  2.883064460183 	  5.918395392100 	  2.980000000000 	
Mg	  5.863064460183 	  1.938395392100 	  0.000000000000 	
Mg	  6.863064460183 	  1.938395392100 	  2.980000000000 	
Mg	  5.863064460183 	  5.918395392100 	  0.000000000000 	
Mg	  6.863064460183 	  5.918395392100 	  2.980000000000 	
Mg	  2.325711915523 	  0.000000000000 	  1.772402596348 	
Mg	  3.325711915523 	  0.000000000000 	  4.752402596348 	
Mg	  2.325711915523 	  3.980000000000 	  1.772402596348 	
Mg	  3.325711915523 	  3.980000000000 	  4.752402596348 	
Mg	  6.305711915523 	  0.000000000000 	  1.772402596348 	
Mg	  7.305711915523 	  0.000000000000 	  4.752402596348 	
Mg	  6.305711915523 	  3.980000000000 	  1.772402596348 	
Mg	  7.305711915523 	  3.980000000000 	  4.752402596348 	
Mg	  0.276654659588 	  2.049057255935 	  1.772402596348 	
Mg	  1.276654659588 	  2.049057255935 	  4.752402596348 	
Mg	  0.276654659588 	  6.029057255935 	  1.772402596348 	
Mg	  1.276654659588 	  6.029057255935 	  4.752402596348 	
Mg	  4.256654659588 	  2.049057255935 	  1.772402596348 	
Mg	  5.256654659588 	  2.049057255935 	  4.752402596348 	
Mg	  4.256654659588 	  6.029057255935 	  1.772402596348 	
Mg	  5.256654659588 	  6.029057255935 	  4.752402596348 	
O	  2.049057255935 	  0.000000000000 	  0.000000000000 	
O	  3.049057255935 	  0.000000000000 	  2.980000000000 	
O	  2.049057255935 	  3.980000000000 	  0.000000000000 	
O	  3.049057255935 	  3.980000000000 	  2.980000000000 	
O	  6.029057255935 	  0.000000000000 	  0.000000000000 	
O	  7.029057255935 	  0.000000000000 	  2.980000000000 	
O	  6.029057255935 	  3.980000000000 	  0.000000000000 	
O	  7.029057255935 	  3.980000000000 	  2.980000000000 	
O	  0.000000000000 	  2.049057255935 	  0.000000000000 	
O	  1.000000000000 	  2.049057255935 	  2.980000000000 	
O	  0.000000000000 	  6.029057255935 	  0.000000000000 	
O	  1.000000000000 	  6.029057255935 	  2.980000000000 	
O	  3.980000000000 	  2.049057255935 	  0.000000000000 	
O	  4.980000000000 	  2.049057255935 	  2.980000000000 	
O	  3.980000000000 	  6.029057255935 	  0.000000000000 	
O	  4.980000000000 	  6.029057255935 	  2.980000000000 	
O	  0.276654659588 	  0.000000000000 	  1.772402596348 	
O	  1.276654659588 	  0.000000000000 	  4.752402596348 	
O	  0.276654659588 	  3.980000000000 	  1.772402596348 	
O	  1.276654659588 	  3.980000000000 	  4.752402596348 	
O	  4.256654659588 	  0.000000000000 	  1.772402596348 	
O	  5.256654659588 	  0.000000000000 	  4.752402596348 	
O	  4.256654659588 	  3.980000000000 	  1.772402596348 	
O	  5.256654659588 	  3.980000000000 	  4.752402596348 	
O	  2.547035643193 	  1.685533033237 	  1.772402596348 	
O	  3.547035643193 	  1.685533033237 	  4.752402596348 	
O	  2.547035643193 	  5.665533033237 	  1.772402596348 	
O	  3.547035643193 	  5.665533033237 	  4.752402596348 	
O	  6.527035643193 	  1.685533033237 	  1.772402596348 	
O	  7.527035643193 	  1.685533033237 	  4.752402596348 	
O	  6.527035643193 	  5.665533033237 	  1.772402596348 	
O	  7.527035643193 	  5.665533033237 	  4.752402596348 	
64 
Energy: 5.7677041457264169e+00 
Mg	  0.000000000000 	  0.000000000000 	  0.000000000000 	
Mg	  1.000000000000 	  0.000000000000 	  2.980000000000 	
Mg	  0.000000000000 	  3.980000000000 	  0.000000000000 	
Mg	  1.000000000000 	  3.980000000000 	  2.980000000000 	
Mg	  3.980000000000 	  0.000000000000 	  0.000000000000 	
Mg	  4.980000000000 	  0.000000000000 	  2.980000000000 	
Mg	  3.980000000000 	  3.980000000000 	  0.000000000000 	
Mg	  4.980000000000 	  3.980000000000 	  2.980000000000 	
Mg	  1.909957476664 	  1.959137657598 	  0.000000000000 	
Mg	  2.909957476664 	  1.959137657598 	  2.980000000000 	
Mg	  1.909957476664 	  5.939137657598 	  0.000000000000 	
Mg	  2.909957476664 	  5.939137657598 	  2.980000000000 	
Mg	  5.889957476664 	  1.959137657598 	  0.000000000000 	
Mg	  6.889957476664 	  1.959137657598 	  2.980000000000 	
Mg	  5.889957476664 	  5.939137657598 	  0.000000000000 	
Mg	  6.889957476664 	  5.939137657598 	  2.980000000000 	
Mg	  2.303398924131 	  0.000000000000 	  1.811597114798 	
Mg	  3.303398924131 	  0.000000000000 	  4.791597114798 	
Mg	  2.303398924131 	  3.980000000000 	  1.811597114798 	
Mg	  3.303398924131 	  3.980000000000 	  4.791597114798 	
Mg	  6.283398924131 	  0.000000000000 	  1.811597114798 	
Mg	  7.283398924131 	  0.000000000000 	  4.791597114798 	
Mg	  6.283398924131 	  3.980000000000 	  1.811597114798 	
Mg	  7.283398924131 	  3.980000000000 	  4.791597114798 	
Mg	  0.245900904667 	  2.057498019464 	  1.811597114798 	
Mg	  1.245900904667 	  2.057498019464 	  4.791597114798 	
Mg	  0.245900904667 	  6.037498019464 	  1.811597114798 	
Mg	  1.245900904667 	  6.037498019464 	  4.791597114798 	
Mg	  4.225900904667 	  2.057498019464 	  1.811597114798 	
Mg	  5.225900904667 	  2.057498019464 	  4.791597114798 	
Mg	  4.225900904667 	  6.037498019464 	  1.811597114798 	
Mg	  5.225900904667 	  6.037498019464 	  4.791597114798 	
O	  2.057498019464 	  0.000000000000 	  0.000000000000 	
O	  3.057498019464 	  0.000000000000 	  2.980000000000 	
O	  2.057498019464 	  3.980000000000 	  0.000000000000 	
O	  3.057498019464 	  3.980000000000 	  2.980000000000 	
O	  6.037498019464 	  0.000000000000 	  0.000000000000 	
O	  7.037498019464 	  0.000000000000 	  2.980000000000 	
O	  6.037498019464 	  3.980000000000 	  0.000000000000 	
O	  7.037498019464 	  3.980000000000 	  2.980000000000 	
O	  0.000000000000 	  2.057498019464 	  0.000000000000 	
O	  1.000000000000 	  2.057498019464 	  2.980000000000 	
O	  0.000000000000 	  6.037498019464 	  0.000000000000 	
O	  1.000000000000 	  6.037498019464 	  2.980000000000 	
O	  3.980000000000 	  2.057498019464 	  0.000000000000 	
O	  4.980000000000 	  2.057498019464 	  2.980000000000 	
O	  3.980000000000 	  6.037498019464 	  0.000000000000 	
O	  4.980000000000 	  6.037498019464 	  2.980000000000 	
O	  0.245900904667 	  0.000000000000 	  1.811597114798 	
O	  1.245900904667 	  0.000000000000 	  4.791597114798 	
O	  0.245900904667 	  3.980000000000 	  1.811597114798 	
O	  1.245900904667 	  3.980000000000 	  4.791597114798 	
O	  4.225900904667 	  0.000000000000 	  1.811597114798 	
O	  5.225900904667 	  0.000000000000 	  4.791597114798 	
O	  4.225900904667 	  3.980000000000 	  1.811597114798 	
O	  5.225900904667 	  3.980000000000 	  4.791597114798 	
O	  2.500119647864 	  1.734384230732 	  1.811597114798 	
O	  3.500119647864 	  1.734384230732 	  4.791597114798 	
O	  2.500119647864 	  5.714384230732 	  1.811597114798 	
O	  3.500119647864 	  5.714384230732 	  4.791597114798 	
O	  6.480119647864 	  1.734384230732 	  1.811597114798 	
O	  7.480119647864 	  1.734384230732 	  4.791597114798 	
O	  6.480119647864 	  5.714384230732 	  1.811597114798 	
O	  7.480119647864 	  5.714384230732 	  4.791597114798 	
64 
Energy: 5.4343414845981570e+00 
Mg	  0.000000000000 	  0.000000000000 	  0.000000000000 	
Mg	  1.000000000000 	  0.000000000000 	  2.980000000000 	
Mg	  0.000000000000 	  3.980000000000 	  0.000000000000 	
Mg	  1.000000000000 	  3.980000000000 	  2.980000000000 	
Mg	  3.980000000000 	  0.000000000000 	  0.000000000000 	
Mg	  4.980000000000 	  0.000000000000 	  2.980000000000 	
Mg	  3.980000000000 	  3.980000000000 	  0.000000000000 	
Mg	  4.980000000000 	  3.980000000000 	  2.980000000000 	
Mg	  1.936849864654 	  1.979879455582 	  0.000000000000 	
Mg	  2.936849864654 	  1.979879455582 	  2.980000000000 	
Mg	  1.936849864654 	  5.959879455582 	  0.000000000000 	
Mg	  2.936849864654 	  5.959879455582 	  2.980000000000 	
Mg	  5.916849864654 	  1.979879455582 	  0.000000000000 	
Mg	  6.916849864654 	  1.979879455582 	  2.980000000000 	
Mg	  5.916849864654 	  5.959879455582 	  0.000000000000 	
Mg	  6.916849864654 	  5.959879455582 	  2.980000000000 	
Mg	  2.281086592081 	  0.000000000000 	  1.850790682797 	
Mg	  3.281086592081 	  0.000000000000 	  4.830790682797 	
Mg	  2.281086592081 	  3.980000000000 	  1.850790682797 	
Mg	  3.281086592081 	  3.980000000000 	  4.830790682797 	
Mg	  6.261086592081 	  0.000000000000 	  1.850790682797 	
Mg	  7.261086592081 	  0.000000000000 	  4.830790682797 	
Mg	  6.261086592081 	  3.980000000000 	  1.850790682797 	
Mg	  7.261086592081 	  3.980000000000 	  4.830790682797 	
Mg	  0.215147954642 	  2.065938637439 	  1.850790682797 	
Mg	  1.215147954642 	  2.065938637439 	  4.830790682797 	
Mg	  0.215147954642 	  6.045938637439 	  1.850790682797 	
Mg	  1.215147954642 	  6.045938637439 	  4.830790682797 	
Mg	  4.195147954642 	  2.065938637439 	  1.850790682797 	
Mg	  5.195147954642 	  2.065938637439 	  4.830790682797 	
Mg	  4.195147954642 	  6.045938637439 	  1.850790682797 	
Mg	  5.195147954642 	  6.045938637439 	  4.830790682797 	
O	  2.065938637439 	  0.000000000000 	  0.000000000000 	
O	  3.065938637439 	  0.000000000000 	  2.980000000000 	
O	  2.065938637439 	  3.980000000000 	  0.000000000000 	
O	  3.065938637439 	  3.980000000000 	  2.980000000000 	
O	  6.045938637439 	  0.000000000000 	  0.000000000000 	
O	  7.045938637439 	  0.000000000000 	  2.980000000000 	
O	  6.045938637439 	  3.980000000000 	  0.000000000000 	
O	  7.045938637439 	  3.980000000000 	  2.980000000000 	
O	  0.000000000000 	  2.065938637439 	  0.000000000000 	
O	  1.000000000000 	  2.065938637439 	  2.980000000000 	
O	  0.000000000000 	  6.045938637439 	  0.000000000000 	
O	  1.000000000000 	  6.045938637439 	  2.980000000000 	
O	  3.980000000000 	  2.065938637439 	  0.000000000000 	
O	  4.980000000000 	  2.065938637439 	  2.980000000000 	
O	  3.980000000000 	  6.045938637439 	  0.000000000000 	
O	  4.980000000000 	  6.045938637439 	  2.980000000000 	
O	  0.215147954642 	  0.000000000000 	  1.850790682797 	
O	  1.215147954642 	  0.000000000000 	  4.830790682797 	
O	  0.215147954642 	  3.980000000000 	  1.850790682797 	
O	  1.215147954642 	  3.980000000000 	  4.830790682797 	
O	  4.195147954642 	  0.000000000000 	  1.850790682797 	
O	  5.195147954642 	  0.000000000000 	  4.830790682797 	
O	  4.195147954642 	  3.980000000000 	  1.850790682797 	
O	  5.195147954642 	  3.980000000000 	  4.830790682797 	
O	  2.453204955795 	  1.783234225039 	  1.850790682797 	
O	  3.453204955795 	  1.783234225039 	  4.830790682797 	
O	  2.453204955795 	  5.763234225039 	  1.850790682797 	
O	  3.453204955795 	  5.763234225039 	  4.830790682797 	
O	  6.433204955795 	  1.783234225039 	  1.850790682797 	
O	  7.433204955795 	  1.783234225039 	  4.830790682797 	
O	  6.433204955795 	  5.763234225039 	  1.850790682797 	
O	  7.433204955795 	  5.763234225039 	  4.830790682797 	
64 
Energy: 4.8322125932986317e+00 
Mg	  0.000000000000 	  0.000000000000 	  0.000000000000 	
Mg	  1.000000000000 	  0.000000000000 	  2.980000000000 	
Mg	  0.000000000000 	  3.980000000000 	  0.000000000000 	
Mg	  1.000000000000 	  3.980000000000 	  2.980000000000 	
Mg	  3.980000000000 	  0.000000000000 	  0.000000000000 	
Mg	  4.980000000000 	  0.000000000000 	  2.980000000000 	
Mg	  3.980000000000 	  3.980000000000 	  0.000000000000 	
Mg	  4.980000000000 	  3.980000000000 	  2.980000000000 	
Mg	  1.963740586695 	  2.000620012894 	  0.000000000000 	
Mg	  2.963740586695 	  2.000620012894 	  2.980000000000 	
Mg	  1.963740586695 	  5.980620012894 	  0.000000000000 	
Mg	  2.963740586695 	  5.980620012894 	  2.980000000000 	
Mg	  5.943740586695 	  2.000620012894 	  0.000000000000 	
Mg	  6.943740586695 	  2.000620012894 	  2.980000000000 	
Mg	  5.943740586695 	  5.980620012894 	  0.000000000000 	
Mg	  6.943740586695 	  5.980620012894 	  2.980000000000 	
Mg	  2.258775996290 	  0.000000000000 	  1.889981734296 	
Mg	  3.258775996290 	  0.000000000000 	  4.869981734296 	
Mg	  2.258775996290 	  3.980000000000 	  1.889981734296 	
Mg	  3.258775996290 	  3.980000000000 	  4.869981734296 	
Mg	  6.238775996290 	  0.000000000000 	  1.889981734296 	
Mg	  7.238775996290 	  0.000000000000 	  4.869981734296 	
Mg	  6.238775996290 	  3.980000000000 	  1.889981734296 	
Mg	  7.238775996290 	  3.980000000000 	  4.869981734296 	
Mg	  0.184397130997 	  2.074378865293 	  1.889981734296 	
Mg	  1.184397130997 	  2.074378865293 	  4.869981734296 	
Mg	  0.184397130997 	  6.054378865293 	  1.889981734296 	
Mg	  1.184397130997 	  6.054378865293 	  4.869981734296 	
Mg	  4.164397130997 	  2.074378865293 	  1.889981734296 	
Mg	  5.164397130997 	  2.074378865293 	  4.869981734296 	
Mg	  4.164397130997 	  6.054378865293 	  1.889981734296 	
Mg	  5.164397130997 	  6.054378865293 	  4.869981734296 	
O	  2.074378865293 	  0.000000000000 	  0.000000000000 	
O	  3.074378865293 	  0.000000000000 	  2.980000000000 	
O	  2.074378865293 	  3.980000000000 	  0.000000000000 	
O	  3.074378865293 	  3.980000000000 	  2.980000000000 	
O	  6.054378865293 	  0.000000000000 	  0.000000000000 	
O	  7.054378865293 	  0.000000000000 	  2.980000000000 	
O	  6.054378865293 	  3.980000000000 	  0.000000000000 	
O	  7.054378865293 	  3.980000000000 	  2.980000000000 	
O	  0.000000000000 	  2.074378865293 	  0.000000000000 	
O	  1.000000000000 	  2.074378865293 	  2.980000000000 	
O	  0.000000000000 	  6.054378865293 	  0.000000000000 	
O	  1.000000000000 	  6.054378865293 	  2.980000000000 	
O	  3.980000000000 	  2.074378865293 	  0.000000000000 	
O	  4.980000000000 	  2.074378865293 	  2.980000000000 	
O	  3.980000000000 	  6.054378865293 	  0.000000000000 	
O	  4.980000000000 	  6.054378865293 	  2.980000000000 	
O	  0.184397130997 	  0.000000000000 	  1.889981734296 	
O	  1.184397130997 	  0.000000000000 	  4.869981734296 	
O	  0.184397130997 	  3.980000000000 	  1.889981734296 	
O	  1.184397130997 	  3.980000000000 	  4.869981734296 	
O	  4.164397130997 	  0.000000000000 	  1.889981734296 	
O	  5.164397130997 	  0.000000000000 	  4.869981734296 	
O	  4.164397130997 	  3.980000000000 	  1.889981734296 	
O	  5.164397130997 	  3.980000000000 	  4.869981734296 	
O	  2.406293701087 	  1.832081035163 	  1.889981734296 	
O	  3.406293701087 	  1.832081035163 	  4.869981734296 	
O	  2.406293701087 	  5.812081035163 	  1.889981734296 	
O	  3.406293701087 	  5.812081035163 	  4.869981734296 	
O	  6.386293701087 	  1.832081035163 	  1.889981734296 	
O	  7.386293701087 	  1.832081035163 	  4.869981734296 	
O	  6.386293701087 	  5.812081035163 	  1.889981734296 	
O	  7.386293701087 	  5.812081035163 	  4.869981734296 	
64 
Energy: 4.0034136607560029e+00 
Mg	  0.000000000000 	  0.000000000000 	  0.000000000000 	
Mg	  1.000000000000 	  0.000000000000 	  2.980000000000 	
Mg	  0.000000000000 	  3.980000000000 	  0.000000000000 	
Mg	  1.000000000000 	  3.980000000000 	  2.980000000000 	
Mg	  3.980000000000 	  0.000000000000 	  0.000000000000 	
Mg	  4.980000000000 	  0.000000000000 	  2.980000000000 	
Mg	  3.980000000000 	  3.980000000000 	  0.000000000000 	
Mg	  4.980000000000 	  3.980000000000 	  2.980000000000 	
Mg	  1.990628669750 	  2.021358603424 	  0.000000000000 	
Mg	  2.990628669750 	  2.021358603424 	  2.980000000000 	
Mg	  1.990628669750 	  6.001358603424 	  0.000000000000 	
Mg	  2.990628669750 	  6.001358603424 	  2.980000000000 	
Mg	  5.970628669750 	  2.021358603424 	  0.000000000000 	
Mg	  6.970628669750 	  2.021358603424 	  2.980000000000 	
Mg	  5.970628669750 	  6.001358603424 	  0.000000000000 	
Mg	  6.970628669750 	  6.001358603424 	  2.980000000000 	
Mg	  2.236468139146 	  0.000000000000 	  1.929168802400 	
Mg	  3.236468139146 	  0.000000000000 	  4.909168802400 	
Mg	  2.236468139146 	  3.980000000000 	  1.929168802400 	
Mg	  3.236468139146 	  3.980000000000 	  4.909168802400 	
Mg	  6.216468139146 	  0.000000000000 	  1.929168802400 	
Mg	  7.216468139146 	  0.000000000000 	  4.909168802400 	
Mg	  6.216468139146 	  3.980000000000 	  1.929168802400 	
Mg	  7.216468139146 	  3.980000000000 	  4.909168802400 	
Mg	  0.153649668373 	  2.082818470773 	  1.929168802400 	
Mg	  1.153649668373 	  2.082818470773 	  4.909168802400 	
Mg	  0.153649668373 	  6.062818470773 	  1.929168802400 	
Mg	  1.153649668373 	  6.062818470773 	  4.909168802400 	
Mg	  4.133649668373 	  2.082818470773 	  1.929168802400 	
Mg	  5.133649668373 	  2.082818470773 	  4.909168802400 	
Mg	  4.133649668373 	  6.062818470773 	  1.929168802400 	
Mg	  5.133649668373 	  6.062818470773 	  4.909168802400 	
O	  2.082818470773 	  0.000000000000 	  0.000000000000 	
O	  3.082818470773 	  0.000000000000 	  2.980000000000 	
O	  2.082818470773 	  3.980000000000 	  0.000000000000 	
O	  3.082818470773 	  3.980000000000 	  2.980000000000 	
O	  6.062818470773 	  0.000000000000 	  0.000000000000 	
O	  7.062818470773 	  0.000000000000 	  2.980000000000 	
O	  6.062818470773 	  3.980000000000 	  0.000000000000 	
O	  7.062818470773 	  3.980000000000 	  2.980000000000 	
O	  0.000000000000 	  2.082818470773 	  0.000000000000 	
O	  1.000000000000 	  2.082818470773 	  2.980000000000 	
O	  0.000000000000 	  6.062818470773 	  0.000000000000 	
O	  1.000000000000 	  6.062818470773 	  2.980000000000 	
O	  3.980000000000 	  2.082818470773 	  0.000000000000 	
O	  4.980000000000 	  2.082818470773 	  2.980000000000 	
O	  3.980000000000 	  6.062818470773 	  0.000000000000 	
O	  4.980000000000 	  6.062818470773 	  2.980000000000 	
O	  0.153649668373 	  0.000000000000 	  1.929168802400 	
O	  1.153649668373 	  0.000000000000 	  4.909168802400 	
O	  0.153649668373 	  3.980000000000 	  1.929168802400 	
O	  1.153649668373 	  3.980000000000 	  4.909168802400 	
O	  4.133649668373 	  0.000000000000 	  1.929168802400 	
O	  5.133649668373 	  0.000000000000 	  4.909168802400 	
O	  4.133649668373 	  3.980000000000 	  1.929168802400 	
O	  5.133649668373 	  3.980000000000 	  4.909168802400 	
O	  2.359387873845 	  1.880922806531 	  1.929168802400 	
O	  3.359387873845 	  1.880922806531 	  4.909168802400 	
O	  2.359387873845 	  5.860922806531 	  1.929168802400 	
O	  3.359387873845 	  5.860922806531 	  4.909168802400 	
O	  6.339387873845 	  1.880922806531 	  1.929168802400 	
O	  7.339387873845 	  1.880922806531 	  4.909168802400 	
O	  6.339387873845 	  5.860922806531 	  1.929168802400 	
O	  7.339387873845 	  5.860922806531 	  4.909168802400 	
64 
Energy: 3.0189109455109353e+00 
Mg	  0.000000000000 	  0.000000000000 	  0.000000000000 	
Mg	  1.000000000000 	  0.000000000000 	  2.980000000000 	
Mg	  0.000000000000 	  3.980000000000 	  0.000000000000 	
Mg	  1.000000000000 	  3.980000000000 	  2.980000000000 	
Mg	  3.980000000000 	  0.000000000000 	  0.000000000000 	
Mg	  4.980000000000 	  0.000000000000 	  2.980000000000 	
Mg	  3.980000000000 	  3.980000000000 	  0.000000000000 	
Mg	  4.980000000000 	  3.980000000000 	  2.980000000000 	
Mg	  2.017513215966 	  2.042094556659 	  0.000000000000 	
Mg	  3.017513215966 	  2.042094556659 	  2.980000000000 	
Mg	  2.017513215966 	  6.022094556659 	  0.000000000000 	
Mg	  3.017513215966 	  6.022094556659 	  2.980000000000 	
Mg	  5.997513215966 	  2.042094556659 	  0.000000000000 	
Mg	  6.997513215966 	  2.042094556659 	  2.980000000000 	
Mg	  5.997513215966 	  6.022094556659 	  0.000000000000 	
Mg	  6.997513215966 	  6.022094556659 	  2.980000000000 	
Mg	  2.214163941507 	  0.000000000000 	  1.968350534581 	
Mg	  3.214163941507 	  0.000000000000 	  4.948350534581 	
Mg	  2.214163941507 	  3.980000000000 	  1.968350534581 	
Mg	  3.214163941507 	  3.980000000000 	  4.948350534581 	
Mg	  6.194163941507 	  0.000000000000 	  1.968350534581 	
Mg	  7.194163941507 	  0.000000000000 	  4.948350534581 	
Mg	  6.194163941507 	  3.980000000000 	  1.968350534581 	
Mg	  7.194163941507 	  3.980000000000 	  4.948350534581 	
Mg	  0.122906703463 	  2.091257238044 	  1.968350534581 	
Mg	  1.122906703463 	  2.091257238044 	  4.948350534581 	
Mg	  0.122906703463 	  6.071257238044 	  1.968350534581 	
Mg	  1.122906703463 	  6.071257238044 	  4.948350534581 	
Mg	  4.102906703463 	  2.091257238044 	  1.968350534581 	
Mg	  5.102906703463 	  2.091257238044 	  4.948350534581 	
Mg	  4.102906703463 	  6.071257238044 	  1.968350534581 	
Mg	  5.102906703463 	  6.071257238044 	  4.948350534581 	
O	  2.091257238044 	  0.000000000000 	  0.000000000000 	
O	  3.091257238044 	  0.000000000000 	  2.980000000000 	
O	  2.091257238044 	  3.980000000000 	  0.000000000000 	
O	  3.091257238044 	  3.980000000000 	  2.980000000000 	
O	  6.071257238044 	  0.000000000000 	  0.000000000000 	
O	  7.071257238044 	  0.000000000000 	  2.980000000000 	
O	  6.071257238044 	  3.980000000000 	  0.000000000000 	
O	  7.071257238044 	  3.980000000000 	  2.980000000000 	
O	  0.000000000000 	  2.091257238044 	  0.000000000000 	
O	  1.000000000000 	  2.091257238044 	  2.980000000000 	
O	  0.000000000000 	  6.071257238044 	  0.000000000000 	
O	  1.000000000000 	  6.071257238044 	  2.980000000000 	
O	  3.980000000000 	  2.091257238044 	  0.000000000000 	
O	  4.980000000000 	  2.091257238044 	  2.980000000000 	
O	  3.980000000000 	  6.071257238044 	  0.000000000000 	
O	  4.980000000000 	  6.071257238044 	  2.980000000000 	
O	  0.122906703463 	  0.000000000000 	  1.968350534581 	
O	  1.122906703463 	  0.000000000000 	  4.948350534581 	
O	  0.122906703463 	  3.980000000000 	  1.968350534581 	
O	  1.122906703463 	  3.980000000000 	  4.948350534581 	
O	  4.102906703463 	  0.000000000000 	  1.968350534581 	
O	  5.102906703463 	  0.000000000000 	  4.948350534581 	
O	  4.102906703463 	  3.980000000000 	  1.968350534581 	
O	  5.102906703463 	  3.980000000000 	  4.948350534581 	
O	  2.312489304277 	  1.929757829694 	  1.968350534581 	
O	  3.312489304277 	  1.929757829694 	  4.948350534581 	
O	  2.312489304277 	  5.909757829694 	  1.968350534581 	
O	  3.312489304277 	  5.909757829694 	  4.948350534581 	
O	  6.292489304277 	  1.929757829694 	  1.968350534581 	
O	  7.292489304277 	  1.929757829694 	  4.948350534581 	
O	  6.292489304277 	  5.909757829694 	  1.968350534581 	
O	  7.292489304277 	  5.909757829694 	  4.948350534581 	
64 
Energy: 1.9792859615668983e+00 
Mg	  0.000000000000 	  0.000000000000 	  0.000000000000 	
Mg	  1.000000000000 	  0.000000000000 	  2.980000000000 	
Mg	  0.000000000000 	  3.980000000000 	  0.000000000000 	
Mg	  1.000000000000 	  3.980000000000 	  2.980000000000 	
Mg	  3.980000000000 	  0.000000000000 	  0.000000000000 	
Mg	  4.980000000000 	  0.000000000000 	  2.980000000000 	
Mg	  3.980000000000 	  3.980000000000 	  0.000000000000 	
Mg	  4.980000000000 	  3.980000000000 	  2.980000000000 	
Mg	  2.044393388828 	  2.062827247245 	  0.000000000000 	
Mg	  3.044393388828 	  2.062827247245 	  2.980000000000 	
Mg	  2.044393388828 	  6.042827247245 	  0.000000000000 	
Mg	  3.044393388828 	  6.042827247245 	  2.980000000000 	
Mg	  6.024393388828 	  2.062827247245 	  0.000000000000 	
Mg	  7.024393388828 	  2.062827247245 	  2.980000000000 	
Mg	  6.024393388828 	  6.042827247245 	  0.000000000000 	
Mg	  7.024393388828 	  6.042827247245 	  2.980000000000 	
Mg	  2.191864256169 	  0.000000000000 	  2.007525671992 	
Mg	  3.191864256169 	  0.000000000000 	  4.987525671992 	
Mg	  2.191864256169 	  3.980000000000 	  2.007525671992 	
Mg	  3.191864256169 	  3.980000000000 	  4.987525671992 	
Mg	  6.171864256169 	  0.000000000000 	  2.007525671992 	
Mg	  7.171864256169 	  0.000000000000 	  4.987525671992 	
Mg	  6.171864256169 	  3.980000000000 	  2.007525671992 	
Mg	  7.171864256169 	  3.980000000000 	  4.987525671992 	
Mg	  0.092169292088 	  2.099694964081 	  2.007525671992 	
Mg	  1.092169292088 	  2.099694964081 	  4.987525671992 	
Mg	  0.092169292088 	  6.079694964081 	  2.007525671992 	
Mg	  1.092169292088 	  6.079694964081 	  4.987525671992 	
Mg	  4.072169292088 	  2.099694964081 	  2.007525671992 	
Mg	  5.072169292088 	  2.099694964081 	  4.987525671992 	
Mg	  4.072169292088 	  6.079694964081 	  2.007525671992 	
Mg	  5.072169292088 	  6.079694964081 	  4.987525671992 	
O	  2.099694964081 	  0.000000000000 	  0.000000000000 	
O	  3.099694964081 	  0.000000000000 	  2.980000000000 	
O	  2.099694964081 	  3.980000000000 	  0.000000000000 	
O	  3.099694964081 	  3.980000000000 	  2.980000000000 	
O	  6.079694964081 	  0.000000000000 	  0.000000000000 	
O	  7.079694964081 	  0.000000000000 	  2.980000000000 	
O	  6.079694964081 	  3.980000000000 	  0.000000000000 	
O	  7.079694964081 	  3.980000000000 	  2.980000000000 	
O	  0.000000000000 	  2.099694964081 	  0.000000000000 	
O	  1.000000000000 	  2.099694964081 	  2.980000000000 	
O	  0.000000000000 	  6.079694964081 	  0.000000000000 	
O	  1.000000000000 	  6.079694964081 	  2.980000000000 	
O	  3.980000000000 	  2.099694964081 	  0.000000000000 	
O	  4.980000000000 	  2.099694964081 	  2.980000000000 	
O	  3.980000000000 	  6.079694964081 	  0.000000000000 	
O	  4.980000000000 	  6.079694964081 	  2.980000000000 	
O	  0.092169292088 	  0.000000000000 	  2.007525671992 	
O	  1.092169292088 	  0.000000000000 	  4.987525671992 	
O	  0.092169292088 	  3.980000000000 	  2.007525671992 	
O	  1.092169292088 	  3.980000000000 	  4.987525671992 	
O	  4.072169292088 	  0.000000000000 	  2.007525671992 	
O	  5.072169292088 	  0.000000000000 	  4.987525671992 	
O	  4.072169292088 	  3.980000000000 	  2.007525671992 	
O	  5.072169292088 	  3.980000000000 	  4.987525671992 	
O	  2.265599689839 	  1.978584514277 	  2.007525671992 	
O	  3.265599689839 	  1.978584514277 	  4.987525671992 	
O	  2.265599689839 	  5.958584514277 	  2.007525671992 	
O	  3.265599689839 	  5.958584514277 	  4.987525671992 	
O	  6.245599689839 	  1.978584514277 	  2.007525671992 	
O	  7.245599689839 	  1.978584514277 	  4.987525671992 	
O	  6.245599689839 	  5.958584514277 	  2.007525671992 	
O	  7.245599689839 	  5.958584514277 	  4.987525671992 	
64 
Energy: 1.0156529838979582e+00 
Mg	  0.000000000000 	  0.000000000000 	  0.000000000000 	
Mg	  1.000000000000 	  0.000000000000 	  2.980000000000 	
Mg	  0.000000000000 	  3.980000000000 	  0.000000000000 	
Mg	  1.000000000000 	  3.980000000000 	  2.980000000000 	
Mg	  3.980000000000 	  0.000000000000 	  0.000000000000 	
Mg	  4.980000000000 	  0.000000000000 	  2.980000000000 	
Mg	  3.980000000000 	  3.980000000000 	  0.000000000000 	
Mg	  4.980000000000 	  3.980000000000 	  2.980000000000 	
Mg	  2.071268401866 	  2.083556086501 	  0.000000000000 	
Mg	  3.071268401866 	  2.083556086501 	  2.980000000000 	
Mg	  2.071268401866 	  6.063556086501 	  0.000000000000 	
Mg	  3.071268401866 	  6.063556086501 	  2.980000000000 	
Mg	  6.051268401866 	  2.083556086501 	  0.000000000000 	
Mg	  7.051268401866 	  2.083556086501 	  2.980000000000 	
Mg	  6.051268401866 	  6.063556086501 	  0.000000000000 	
Mg	  7.051268401866 	  6.063556086501 	  2.980000000000 	
Mg	  2.169569878949 	  0.000000000000 	  2.046693032595 	
Mg	  3.169569878949 	  0.000000000000 	  5.026693032595 	
Mg	  2.169569878949 	  3.980000000000 	  2.046693032595 	
Mg	  3.169569878949 	  3.980000000000 	  5.026693032595 	
Mg	  6.149569878949 	  0.000000000000 	  2.046693032595 	
Mg	  7.149569878949 	  0.000000000000 	  5.026693032595 	
Mg	  6.149569878949 	  3.980000000000 	  2.046693032595 	
Mg	  7.149569878949 	  3.980000000000 	  5.026693032595 	
Mg	  0.061438423177 	  2.108131455772 	  2.046693032595 	
Mg	  1.061438423177 	  2.108131455772 	  5.026693032595 	
Mg	  0.061438423177 	  6.088131455772 	  2.046693032595 	
Mg	  1.061438423177 	  6.088131455772 	  5.026693032595 	
Mg	  4.041438423177 	  2.108131455772 	  2.046693032595 	
Mg	  5.041438423177 	  2.108131455772 	  5.026693032595 	
Mg	  4.041438423177 	  6.088131455772 	  2.046693032595 	
Mg	  5.041438423177 	  6.088131455772 	  5.026693032595 	
O	  2.108131455772 	  0.000000000000 	  0.000000000000 	
O	  3.108131455772 	  0.000000000000 	  2.980000000000 	
O	  2.108131455772 	  3.980000000000 	  0.000000000000 	
O	  3.108131455772 	  3.980000000000 	  2.980000000000 	
O	  6.088131455772 	  0.000000000000 	  0.000000000000 	
O	  7.088131455772 	  0.000000000000 	  2.980000000000 	
O	  6.088131455772 	  3.980000000000 	  0.000000000000 	
O	  7.088131455772 	  3.980000000000 	  2.980000000000 	
O	  0.000000000000 	  2.108131455772 	  0.000000000000 	
O	  1.000000000000 	  2.108131455772 	  2.980000000000 	
O	  0.000000000000 	  6.088131455772 	  0.000000000000 	
O	  1.000000000000 	  6.088131455772 	  2.980000000000 	
O	  3.980000000000 	  2.108131455772 	  0.000000000000 	
O	  4.980000000000 	  2.108131455772 	  2.980000000000 	
O	  3.980000000000 	  6.088131455772 	  0.000000000000 	
O	  4.980000000000 	  6.088131455772 	  2.980000000000 	
O	  0.061438423177 	  0.000000000000 	  2.046693032595 	
O	  1.061438423177 	  0.000000000000 	  5.026693032595 	
O	  0.061438423177 	  3.980000000000 	  2.046693032595 	
O	  1.061438423177 	  3.980000000000 	  5.026693032595 	
O	  4.041438423177 	  0.000000000000 	  2.046693032595 	
O	  5.041438423177 	  0.000000000000 	  5.026693032595 	
O	  4.041438423177 	  3.980000000000 	  2.046693032595 	
O	  5.041438423177 	  3.980000000000 	  5.026693032595 	
O	  2.218720617490 	  2.027401367718 	  2.046693032595 	
O	  3.218720617490 	  2.027401367718 	  5.026693032595 	
O	  2.218720617490 	  6.007401367718 	  2.046693032595 	
O	  3.218720617490 	  6.007401367718 	  5.026693032595 	
O	  6.198720617490 	  2.027401367718 	  2.046693032595 	
O	  7.198720617490 	  2.027401367718 	  5.026693032595 	
O	  6.198720617490 	  6.007401367718 	  2.046693032595 	
O	  7.198720617490 	  6.007401367718 	  5.026693032595 	
64 
Energy: 2.9072393680317538e-01 
Mg	  0.000000000000 	  0.000000000000 	  0.000000000000 	
Mg	  1.000000000000 	  0.000000000000 	  2.980000000000 	
Mg	  0.000000000000 	  3.980000000000 	  0.000000000000 	
Mg	  1.000000000000 	  3.980000000000 	  2.980000000000 	
Mg	  3.980000000000 	  0.000000000000 	  0.000000000000 	
Mg	  4.980000000000 	  0.000000000000 	  2.980000000000 	
Mg	  3.980000000000 	  3.980000000000 	  0.000000000000 	
Mg	  4.980000000000 	  3.980000000000 	  2.980000000000 	
Mg	  2.098137509608 	  2.104280515620 	  0.000000000000 	
Mg	  3.098137509608 	  2.104280515620 	  2.980000000000 	
Mg	  2.098137509608 	  6.084280515620 	  0.000000000000 	
Mg	  3.098137509608 	  6.084280515620 	  2.980000000000 	
Mg	  6.078137509608 	  2.104280515620 	  0.000000000000 	
Mg	  7.078137509608 	  2.104280515620 	  2.980000000000 	
Mg	  6.078137509608 	  6.084280515620 	  0.000000000000 	
Mg	  7.078137509608 	  6.084280515620 	  2.980000000000 	
Mg	  2.147281557704 	  0.000000000000 	  2.085851497584 	
Mg	  3.147281557704 	  0.000000000000 	  5.065851497584 	
Mg	  2.147281557704 	  3.980000000000 	  2.085851497584 	
Mg	  3.147281557704 	  3.980000000000 	  5.065851497584 	
Mg	  6.127281557704 	  0.000000000000 	  2.085851497584 	
Mg	  7.127281557704 	  0.000000000000 	  5.065851497584 	
Mg	  6.127281557704 	  3.980000000000 	  2.085851497584 	
Mg	  7.127281557704 	  3.980000000000 	  5.065851497584 	
Mg	  0.030715030060 	  2.116566527644 	  2.085851497584 	
Mg	  1.030715030060 	  2.116566527644 	  5.065851497584 	
Mg	  0.030715030060 	  6.096566527644 	  2.085851497584 	
Mg	  1.030715030060 	  6.096566527644 	  5.065851497584 	
Mg	  4.010715030060 	  2.116566527644 	  2.085851497584 	
Mg	  5.010715030060 	  2.116566527644 	  5.065851497584 	
Mg	  4.010715030060 	  6.096566527644 	  2.085851497584 	
Mg	  5.010715030060 	  6.096566527644 	  5.065851497584 	
O	  2.116566527644 	  0.000000000000 	  0.000000000000 	
O	  3.116566527644 	  0.000000000000 	  2.980000000000 	
O	  2.116566527644 	  3.980000000000 	  0.000000000000 	
O	  3.116566527644 	  3.980000000000 	  2.980000000000 	
O	  6.096566527644 	  0.000000000000 	  0.000000000000 	
O	  7.096566527644 	  0.000000000000 	  2.980000000000 	
O	  6.096566527644 	  3.980000000000 	  0.000000000000 	
O	  7.096566527644 	  3.980000000000 	  2.980000000000 	
O	  0.000000000000 	  2.116566527644 	  0.000000000000 	
O	  1.000000000000 	  2.116566527644 	  2.980000000000 	
O	  0.000000000000 	  6.096566527644 	  0.000000000000 	
O	  1.000000000000 	  6.096566527644 	  2.980000000000 	
O	  3.980000000000 	  2.116566527644 	  0.000000000000 	
O	  4.980000000000 	  2.116566527644 	  2.980000000000 	
O	  3.980000000000 	  6.096566527644 	  0.000000000000 	
O	  4.980000000000 	  6.096566527644 	  2.980000000000 	
O	  0.030715030060 	  0.000000000000 	  2.085851497584 	
O	  1.030715030060 	  0.000000000000 	  5.065851497584 	
O	  0.030715030060 	  3.980000000000 	  2.085851497584 	
O	  1.030715030060 	  3.980000000000 	  5.065851497584 	
O	  4.010715030060 	  0.000000000000 	  2.085851497584 	
O	  5.010715030060 	  0.000000000000 	  5.065851497584 	
O	  4.010715030060 	  3.980000000000 	  2.085851497584 	
O	  5.010715030060 	  3.980000000000 	  5.065851497584 	
O	  2.171853581752 	  2.076206978145 	  2.085851497584 	
O	  3.171853581752 	  2.076206978145 	  5.065851497584 	
O	  2.171853581752 	  6.056206978145 	  2.085851497584 	
O	  3.171853581752 	  6.056206978145 	  5.065851497584 	
O	  6.151853581752 	  2.076206978145 	  2.085851497584 	
O	  7.151853581752 	  2.076206978145 	  5.065851497584 	
O	  6.151853581752 	  6.056206978145 	  2.085851497584 	
O	  7.151853581752 	  6.056206978145 	  5.065851497584 	
64 
Energy: 0.0000000000000000e+00 
Mg	  0.000000000000 	  0.000000000000 	  0.000000000000 	
Mg	  1.000000000000 	  0.000000000000 	  2.980000000000 	
Mg	  0.000000000000 	  3.980000000000 	  0.000000000000 	
Mg	  1.000000000000 	  3.980000000000 	  2.980000000000 	
Mg	  3.980000000000 	  0.000000000000 	  0.000000000000 	
Mg	  4.980000000000 	  0.000000000000 	  2.980000000000 	
Mg	  3.980000000000 	  3.980000000000 	  0.000000000000 	
Mg	  4.980000000000 	  3.980000000000 	  2.980000000000 	
Mg	  2.125000000000 	  2.125000000000 	  0.000000000000 	
Mg	  3.125000000000 	  2.125000000000 	  2.980000000000 	
Mg	  2.125000000000 	  6.105000000000 	  0.000000000000 	
Mg	  3.125000000000 	  6.105000000000 	  2.980000000000 	
Mg	  6.105000000000 	  2.125000000000 	  0.000000000000 	
Mg	  7.105000000000 	  2.125000000000 	  2.980000000000 	
Mg	  6.105000000000 	  6.105000000000 	  0.000000000000 	
Mg	  7.105000000000 	  6.105000000000 	  2.980000000000 	
Mg	  2.125000000000 	  0.000000000000 	  2.125000000000 	
Mg	  3.125000000000 	  0.000000000000 	  5.105000000000 	
Mg	  2.125000000000 	  3.980000000000 	  2.125000000000 	
Mg	  3.125000000000 	  3.980000000000 	  5.105000000000 	
Mg	  6.105000000000 	  0.000000000000 	  2.125000000000 	
Mg	  7.105000000000 	  0.000000000000 	  5.105000000000 	
Mg	  6.105000000000 	  3.980000000000 	  2.125000000000 	
Mg	  7.105000000000 	  3.980000000000 	  5.105000000000 	
Mg	  0.000000000000 	  2.125000000000 	  2.125000000000 	
Mg	  1.000000000000 	  2.125000000000 	  5.105000000000 	
Mg	  0.000000000000 	  6.105000000000 	  2.125000000000 	
Mg	  1.000000000000 	  6.105000000000 	  5.105000000000 	
Mg	  3.980000000000 	  2.125000000000 	  2.125000000000 	
Mg	  4.980000000000 	  2.125000000000 	  5.105000000000 	
Mg	  3.980000000000 	  6.105000000000 	  2.125000000000 	
Mg	  4.980000000000 	  6.105000000000 	  5.105000000000 	
O	  2.125000000000 	  0.000000000000 	  0.000000000000 	
O	  3.125000000000 	  0.000000000000 	  2.980000000000 	
O	  2.125000000000 	  3.980000000000 	  0.000000000000 	
O	  3.125000000000 	  3.980000000000 	  2.980000000000 	
O	  6.105000000000 	  0.000000000000 	  0.000000000000 	
O	  7.105000000000 	  0.000000000000 	  2.980000000000 	
O	  6.105000000000 	  3.980000000000 	  0.000000000000 	
O	  7.105000000000 	  3.980000000000 	  2.980000000000 	
O	  0.000000000000 	  2.125000000000 	  0.000000000000 	
O	  1.000000000000 	  2.125000000000 	  2.980000000000 	
O	  0.000000000000 	  6.105000000000 	  0.000000000000 	
O	  1.000000000000 	  6.105000000000 	  2.980000000000 	
O	  3.980000000000 	  2.125000000000 	  0.000000000000 	
O	  4.980000000000 	  2.125000000000 	  2.980000000000 	
O	  3.980000000000 	  6.105000000000 	  0.000000000000 	
O	  4.980000000000 	  6.105000000000 	  2.980000000000 	
O	  0.000000000000 	  0.000000000000 	  2.125000000000 	
O	  1.000000000000 	  0.000000000000 	  5.105000000000 	
O	  0.000000000000 	  3.980000000000 	  2.125000000000 	
O	  1.000000000000 	  3.980000000000 	  5.105000000000 	
O	  3.980000000000 	  0.000000000000 	  2.125000000000 	
O	  4.980000000000 	  0.000000000000 	  5.105000000000 	
O	  3.980000000000 	  3.980000000000 	  2.125000000000 	
O	  4.980000000000 	  3.980000000000 	  5.105000000000 	
O	  2.125000000000 	  2.125000000000 	  2.125000000000 	
O	  3.125000000000 	  2.125000000000 	  5.105000000000 	
O	  2.125000000000 	  6.105000000000 	  2.125000000000 	
O	  3.125000000000 	  6.105000000000 	  5.105000000000 	
O	  6.105000000000 	  2.125000000000 	  2.125000000000 	
O	  7.105000000000 	  2.125000000000 	  5.105000000000 	
O	  6.105000000000 	  6.105000000000 	  2.125000000000 	
O	  7.105000000000 	  6.105000000000 	  5.105000000000 	
