  Invoking FHI-aims ...
  | Number of atoms                   :  96
  ...scf iterations...
  | Total energy corrected        :   -8.586959400655E+01 eV
  ...
  Total atomic forces (unitary forces cleaned)
     1  -2.7636785227E-01  5.9112274241E-01  1.7997331515E-01
     2  2.2199298596E-01  5.6831949941E-01  -1.8172802104E-01
     3  2.7636777777E-01  -5.9112265400E-01  -1.7997331048E-01
     4  -2.2199289906E-01  -5.6831950705E-01  1.8172813025E-01
     5  -8.6450753905E-01  1.5243638599E+00  2.5958677240E-01
     6  8.7777014893E-01  1.5715864924E+00  -5.0222944525E-01
     7  8.6450835443E-01  -1.5243636720E+00  -2.5958605510E-01
     8  -8.7776993739E-01  -1.5715866742E+00  5.0222968318E-01
     9  -3.4401314140E-01  1.8383123706E-01  -1.5992963705E-01
    10  7.6338239336E-01  4.9761576645E-01  1.3233101052E-01
    11  3.4401241706E-01  -1.8383171450E-01  1.5992907984E-01
    12  -7.6338263468E-01  -4.9761544613E-01  -1.3233131663E-01
    13  -4.9793062478E-01  -1.0343228893E+00  -9.8100739906E-01
    14  8.7902349303E-02  -1.3655229853E+00  1.0314573728E+00
    15  4.9792988282E-01  1.0343231922E+00  9.8100711804E-01
    16  -8.7902595693E-02  1.3655230014E+00  -1.0314573220E+00
    17  4.9370293416E-01  -6.4398478821E-01  -3.6752926091E-02
    18  -3.7039643887E-01  -8.8279909659E-01  4.1334055347E-01
    19  -4.9370244520E-01  6.4398508320E-01  3.6753424097E-02
    20  3.7039651812E-01  8.8279890300E-01  -4.1334083561E-01
    21  5.4548422299E-01  -1.0534166247E+00  -1.5884264848E-01
    22  -5.5764021174E-01  -1.1097571505E+00  2.0086045010E-01
    23  -5.4548433942E-01  1.0534166571E+00  1.5884261821E-01
    24  5.5764036144E-01  1.1097573736E+00  -2.0086058119E-01
    25  8.6907412034E-01  8.9865683582E-02  6.0308192241E-01
    26  -9.9199986966E-01  3.4149033600E-01  -9.8053986534E-01
    27  -8.6907418808E-01  -8.9866294288E-02  -6.0308220779E-01
    28  9.9200017295E-01  -3.4148977131E-01  9.8053976855E-01
    29  4.6167717982E-01  4.6993965424E-01  6.5479843644E-01
    30  -4.4797303393E-01  5.0075634281E-01  -6.6038767347E-01
    31  -4.6167700307E-01  -4.6993965351E-01  -6.5479888630E-01
    32  4.4797215655E-01  -5.0075671888E-01  6.6038742355E-01
    33  1.0959582327E-01  9.7336616015E-01  7.6875907177E-01
    34  -1.0222851515E-01  9.8251764713E-01  -7.7301868183E-01
    35  -1.0959564563E-01  -9.7336594952E-01  -7.6875889414E-01
    36  1.0222850936E-01  -9.8251773869E-01  7.7301863987E-01
    37  -7.8690739876E-01  5.7612079535E-01  -1.4488287644E-01
    38  7.9454439062E-01  5.9859747698E-01  1.3195030114E-01
    39  7.8690745057E-01  -5.7612100433E-01  1.4488312434E-01
    40  -7.9454401160E-01  -5.9859799085E-01  -1.3194977363E-01
    41  -8.1990991796E-01  1.0160389981E+00  6.8731044363E-02
    42  8.2322478930E-01  1.0175344667E+00  -7.2182056140E-02
    43  8.1990985469E-01  -1.0160386863E+00  -6.8731036543E-02
    44  -8.2322452706E-01  -1.0175342674E+00  7.2182082583E-02
    45  -1.7770955937E+00  6.1816436801E-02  -1.1520762035E+00
    46  1.8648951256E+00  -1.0181392011E-01  1.3120825023E+00
    47  1.7770919813E+00  -6.1816461820E-02  1.1520733745E+00
    48  -1.8648955836E+00  1.0181381191E-01  -1.3120825932E+00
    49  -8.5367797537E-01  -9.7674508827E-01  2.0388357495E+00
    50  3.1718557117E+00  7.4905348658E-01  -6.6863831278E+00
    51  8.5366051746E-01  9.7673765774E-01  -2.0388279740E+00
    52  -3.1718558127E+00  -7.4905271683E-01  6.6863842749E+00
    53  -3.1782751594E-01  -8.1104517109E-01  -2.2177916840E-01
    54  1.6279561004E-01  -9.1126923209E-01  3.1896465867E-01
    55  3.1783293247E-01  8.1105555515E-01  2.2177873357E-01
    56  -1.6279473508E-01  9.1126748600E-01  -3.1896458626E-01
    57  9.1102235013E-01  -1.0937758797E-01  7.0413781184E-01
    58  9.3571597644E-01  1.9278968405E-01  8.8819077490E-01
    59  -9.1101944230E-01  1.0937654779E-01  -7.0413519243E-01
    60  -9.3571744314E-01  -1.9279009561E-01  -8.8819203604E-01
    61  -6.8644582985E-01  6.6037515309E-01  4.1905838966E-01
    62  -3.2169183403E+00  -1.2441067848E+00  2.2019001192E+00
    63  6.8645369667E-01  -6.6038002110E-01  -4.1906371931E-01
    64  3.2169190190E+00  1.2441073061E+00  -2.2018996776E+00
    65  1.5312021669E+00  -1.2219058665E+00  -7.6022375328E-01
    66  -1.7480573167E+00  -1.0221180211E+00  2.2091976955E+00
    67  -1.5312024775E+00  1.2218999629E+00  7.6021803271E-01
    68  1.7480557987E+00  1.0221210815E+00  -2.2091939000E+00
    69  -2.7004005613E-01  -1.2259206061E+00  2.9619027709E-02
    70  4.0206504204E-01  -1.4024478799E+00  -1.0198034005E-01
    71  2.7004118297E-01  1.2259242418E+00  -2.9618132712E-02
    72  -4.0206498997E-01  1.4024459119E+00  1.0198079472E-01
    73  3.1684648284E-01  5.1417353986E-01  -1.2797865151E+00
    74  -8.4465408862E-02  4.6949522582E-01  2.5175082587E-01
    75  -3.1684701246E-01  -5.1417353174E-01  1.2797877870E+00
    76  8.4466443412E-02  -4.6949543195E-01  -2.5175458809E-01
    77  8.7529456532E-01  -7.0597629300E-02  5.0795581306E-01
    78  -1.2082508236E+00  -1.1074966236E-01  -6.9852961105E-01
    79  -8.7529191835E-01  7.0597247542E-02  -5.0795512552E-01
    80  1.2082509116E+00  1.1074961465E-01  6.9852958571E-01
    81  7.1151586749E-01  2.1631839496E+00  4.1990984839E-01
    82  -7.3304995610E-01  2.2875585815E+00  -4.0558348075E-01
    83  -7.1152468855E-01  -2.1631684243E+00  -4.1990605101E-01
    84  7.3305036894E-01  -2.2875597577E+00  4.0558282824E-01
    85  1.0297073979E+00  5.1634597929E-02  5.7071623392E-01
    86  -1.0419659332E+00  8.2142730641E-02  -5.6691379896E-01
    87  -1.0297039710E+00  -5.1634136805E-02  -5.7071447915E-01
    88  1.0419654570E+00  -8.2142673149E-02  5.6691366254E-01
    89  1.8366849416E-01  4.6409889084E-01  -1.1684378113E+00
    90  -1.8508176932E-01  4.9129664334E-01  1.1789523291E+00
    91  -1.8366845637E-01  -4.6409994042E-01  1.1684393183E+00
    92  1.8508184275E-01  -4.9129579635E-01  -1.1789517843E+00
    93  -5.1786780122E-01  5.1862874658E-01  6.0367031407E-01
    94  5.2178158062E-01  5.5207464503E-01  -5.8843342711E-01
    95  5.1787518529E-01  -5.1863826328E-01  -6.0367630046E-01
    96  -5.2178088084E-01  -5.5207412769E-01  5.8843299801E-01
  Stress tensor (eV/A^3):
  8.1210735046E-02  -3.8365321535E-03  2.4977888637E-02
  -3.8365321535E-03  9.1381587013E-02  8.8545587204E-04
  2.4977888637E-02  8.8545587204E-04  7.0380861353E-02
