  Invoking FHI-aims ...
  | Number of atoms                   :  96
  ...scf iterations...
  | Total energy corrected        :   -5.199663775721E+01 eV
  ...
  Total atomic forces (unitary forces cleaned)
     1  -2.3107280901E-01  5.8724570004E-01  1.9157625452E-01
     2  2.2941123686E-01  5.8326509752E-01  -1.9363523278E-01
     3  2.3107281680E-01  -5.8724562614E-01  -1.9157623093E-01
     4  -2.2941113336E-01  -5.8326503461E-01  1.9363533006E-01
     5  -8.6933147307E-01  1.1185988155E+00  5.4268697803E-02
     6  8.5734368421E-01  1.0325257235E+00  4.0560874752E-02
     7  8.6933192425E-01  -1.1185986731E+00  -5.4268259318E-02
     8  -8.5734366964E-01  -1.0325258782E+00  -4.0560640169E-02
     9  -1.8150180112E-01  1.4911197907E-01  -7.7574320768E-02
    10  8.2010817672E-02  4.9939584682E-02  8.7522411268E-02
    11  1.8150135021E-01  -1.4911205223E-01  7.7574037439E-02
    12  -8.2011115587E-02  -4.9939476825E-02  -8.7522555408E-02
    13  -3.6818742723E-01  -8.9356617912E-01  -8.3730400649E-01
    14  4.6828400806E-01  -7.9254138456E-01  8.2605780983E-01
    15  3.6818690968E-01  8.9356633431E-01  8.3730378853E-01
    16  -4.6828410563E-01  7.9254146857E-01  -8.2605749422E-01
    17  2.5970117117E+00  -3.6180739639E+00  -3.3771861455E-01
    18  -2.6305374084E+00  -3.5303197548E+00  2.3377749050E-01
    19  -2.5970132697E+00  3.6180770054E+00  3.3771897955E-01
    20  2.6305385406E+00  3.5303220825E+00  -2.3377829425E-01
    21  -1.7101454732E+00  2.0368880215E+00  7.6274038327E-02
    22  1.7091148630E+00  2.0469438516E+00  -8.4007526938E-02
    23  1.7101473212E+00  -2.0368909094E+00  -7.6274287855E-02
    24  -1.7091158660E+00  -2.0469461174E+00  8.4007960109E-02
    25  4.3936761728E-01  4.2135426559E-02  3.2329852103E-01
    26  -4.0767831911E-01  -5.0222866196E-02  -2.1906456474E-01
    27  -4.3936810766E-01  -4.2135683131E-02  -3.2329885684E-01
    28  4.0767859677E-01  5.0223156657E-02  2.1906444140E-01
    29  9.8308898327E-01  3.1430515456E+00  2.8972073771E+00
    30  -9.8403572557E-01  3.1389688596E+00  -2.8947642400E+00
    31  -9.8308855036E-01  -3.1430499043E+00  -2.8972058406E+00
    32  9.8403599860E-01  -3.1389702396E+00  2.8947645735E+00
    33  -5.4753759047E-01  -1.8016770546E+00  -1.6186014324E+00
    34  5.4724498089E-01  -1.8020134838E+00  1.6183537553E+00
    35  5.4753744238E-01  1.8016754090E+00  1.6185997842E+00
    36  -5.4724561547E-01  1.8020145277E+00  -1.6183543284E+00
    37  -2.7827040756E+00  3.4377196532E+00  2.7092335468E-01
    38  2.7810767760E+00  3.4339750226E+00  -2.6910506931E-01
    39  2.7827020998E+00  -3.4377167793E+00  -2.7092272008E-01
    40  -2.7810740081E+00  -3.4339720984E+00  2.6910533344E-01
    41  1.4379813198E+00  -1.9203236577E+00  -2.5343549059E-01
    42  -1.4387497560E+00  -1.9206210702E+00  2.5426198837E-01
    43  -1.4379793295E+00  1.9203207168E+00  2.5343505414E-01
    44  1.4387474531E+00  1.9206180690E+00  -2.5426181552E-01
    45  -1.6107607564E+00  8.0342302967E-02  -9.9976003635E-01
    46  1.5160563902E+00  1.6042368185E-02  9.8202595251E-01
    47  1.6107534829E+00  -8.0342513100E-02  9.9975563963E-01
    48  -1.5160562750E+00  -1.6041509338E-02  -9.8202623703E-01
    49  -3.6767488497E+01  -3.9568970633E+00  1.8296697966E+01
    50  2.8280356407E+01  -1.4313724631E+01  -1.2830178086E+01
    51  3.6767362234E+01  3.9569210134E+00  -1.8296630867E+01
    52  -2.8280365616E+01  1.4313724763E+01  1.2830180063E+01
    53  1.8650116233E+01  2.6412241249E+01  -1.9290076079E+00
    54  -1.8665831790E+01  2.6541577234E+01  1.9307004648E+00
    55  -1.8650035386E+01  -2.6412180505E+01  1.9290007811E+00
    56  1.8665831933E+01  -2.6541581224E+01  -1.9307105334E+00
    57  -2.0000165609E+00  2.1167483710E-01  -1.5228849438E+00
    58  1.7144648729E+00  1.8772596619E-01  1.3431461331E+00
    59  2.0000031114E+00  -2.1167243059E-01  1.5228748698E+00
    60  -1.7144569811E+00  -1.8772532446E-01  -1.3431395764E+00
    61  1.9094943641E+01  -2.3285968710E+01  -1.1617610837E+01
    62  -1.0349003067E+01  -1.3047228817E+01  6.4417432550E+00
    63  -1.9094886988E+01  2.3285880222E+01  1.1617569761E+01
    64  1.0349004526E+01  1.3047231255E+01  -6.4417412919E+00
    65  -2.5382083193E+00  -2.3087307379E+01  -2.3002244345E+01
    66  3.1185889661E+00  -2.2366227954E+01  2.1008692754E+01
    67  2.5381716638E+00  2.3087202303E+01  2.3002132149E+01
    68  -3.1186051398E+00  2.2366239364E+01  -2.1008666980E+01
    69  1.1737223484E+01  2.2997244243E+01  -2.3123467577E-01
    70  -1.1794001182E+01  2.3066553083E+01  2.6581165784E-01
    71  -1.1737163893E+01  -2.2997142839E+01  2.3122831871E-01
    72  1.1794005826E+01  -2.3066557135E+01  -2.6582158366E-01
    73  -5.4396662052E+00  -2.4641995051E+00  2.3286824144E+01
    74  5.0130805146E+00  -3.0215149974E+00  -2.1405034976E+01
    75  5.4396536359E+00  2.4641962891E+00  -2.3286704276E+01
    76  -5.0130718972E+00  3.0215076799E+00  2.1405017830E+01
    77  -1.5305922740E+00  -7.3536334150E-02  -1.1706350660E+00
    78  1.5570868535E+00  -1.6517097433E-01  1.1838224123E+00
    79  1.5305861660E+00  7.3535958526E-02  1.1706307303E+00
    80  -1.5570851482E+00  1.6517069070E-01  -1.1838206608E+00
    81  -9.2293357809E+00  3.3764425195E+01  -1.6133328640E+01
    82  9.2390629533E+00  3.3739170226E+01  1.6122271117E+01
    83  9.2293131462E+00  -3.3764299695E+01  1.6133218220E+01
    84  -9.2390638687E+00  -3.3739176650E+01  -1.6122296918E+01
    85  -1.7421267922E+00  1.1290563757E-01  -1.0354220363E+00
    86  1.7487858073E+00  1.0456134631E-01  1.0304994887E+00
    87  1.7421176074E+00  -1.1290523691E-01  1.0354166981E+00
    88  -1.7487839278E+00  -1.0456148880E-01  -1.0304980435E+00
    89  -4.1131667903E+00  -7.4243025474E+00  2.8051885779E+01
    90  4.1184435730E+00  -7.4349304677E+00  -2.8064575746E+01
    91  4.1131529298E+00  7.4242685694E+00  -2.8051751616E+01
    92  -4.1184453603E+00  7.4349273545E+00  2.8064591074E+01
    93  1.6860017729E+01  -2.3308905445E+01  -1.1109648938E+01
    94  -1.6860500707E+01  -2.3330278528E+01  1.1106800113E+01
    95  -1.6859966379E+01  2.3308822118E+01  1.1109628952E+01
    96  1.6860502072E+01  2.3330288473E+01  -1.1106791841E+01
  Stress tensor (eV/A^3):
  -1.2026547407E-01  1.3054892631E-02  9.7174835150E-02
  1.3054892631E-02  -2.8166581911E-01  -8.0797913469E-03
  9.7174835150E-02  -8.0797913469E-03  -2.0217074785E-01
