  Invoking FHI-aims ...
  | Number of atoms                   :  96
  ...scf iterations...
  | Total energy corrected        :   -5.883228727221E+01 eV
  ...
  Total atomic forces (unitary forces cleaned)
     1  -2.3895997265E-01  5.8383313447E-01  1.9373106662E-01
     2  2.3896041222E-01  5.8383960147E-01  -1.9371487654E-01
     3  2.3895992501E-01  -5.8383307302E-01  -1.9373106150E-01
     4  -2.3896031772E-01  -5.8383959887E-01  1.9371499059E-01
     5  -8.7931296373E-01  1.1438476599E+00  6.4628797790E-02
     6  8.7928601803E-01  1.1438530995E+00  -6.4634572078E-02
     7  8.7931356993E-01  -1.1438474953E+00  -6.4628257549E-02
     8  -8.7928588270E-01  -1.1438532770E+00  6.4634748783E-02
     9  -1.8228521010E-01  1.4109687442E-01  -7.2684575283E-02
    10  1.8230491466E-01  1.4114304197E-01  7.2695246162E-02
    11  1.8228466823E-01  -1.4109714857E-01  7.2684283794E-02
    12  -1.8230513662E-01  -1.4114276632E-01  -7.2695488568E-02
    13  -3.5929503852E-01  -9.0542436210E-01  -8.1508169226E-01
    14  3.5929255403E-01  -9.0546500385E-01  8.1506726241E-01
    15  3.5929451706E-01  9.0542459386E-01  8.1508150394E-01
    16  -3.5929271129E-01  9.0546497759E-01  -8.1506715402E-01
    17  2.8048366740E+00  -3.7837870231E+00  -3.5292742053E-01
    18  -2.8051433635E+00  -3.7843019377E+00  3.5292340062E-01
    19  -2.8048371540E+00  3.7837883589E+00  3.5292791262E-01
    20  2.8051452178E+00  3.7843051744E+00  -3.5292412659E-01
    21  -1.9024213258E+00  2.2297846233E+00  1.4703643476E-01
    22  1.9027639997E+00  2.2302853748E+00  -1.4706422754E-01
    23  1.9024220089E+00  -2.2297857801E+00  -1.4703667355E-01
    24  -1.9027656780E+00  -2.2302885181E+00  1.4706452161E-01
    25  4.8353957366E-01  5.9345027824E-02  3.1536460343E-01
    26  -4.8356686841E-01  5.9308154850E-02  -3.1534603894E-01
    27  -4.8353998174E-01  -5.9345370100E-02  -3.1536493014E-01
    28  4.8356698897E-01  -5.9307804320E-02  3.1534591794E-01
    29  1.0108358617E+00  3.3681583390E+00  3.0139782966E+00
    30  -1.0108374240E+00  3.3681602007E+00  -3.0139281476E+00
    31  -1.0108348641E+00  -3.3681545864E+00  -3.0139755194E+00
    32  1.0108372494E+00  -3.3681610847E+00  3.0139282729E+00
    33  -6.3198436798E-01  -2.0234092869E+00  -1.7698203014E+00
    34  6.3200308750E-01  -2.0233700348E+00  1.7697850213E+00
    35  6.3198367742E-01  2.0234056914E+00  1.7698172478E+00
    36  -6.3200347505E-01  2.0233705686E+00  -1.7697852957E+00
    37  -2.9792768841E+00  3.5868786466E+00  3.1273930558E-01
    38  2.9795620632E+00  3.5873634522E+00  -3.1275633071E-01
    39  2.9792740971E+00  -3.5868745711E+00  -3.1273874623E-01
    40  -2.9795586419E+00  -3.5873599552E+00  3.1275635805E-01
    41  1.6206828671E+00  -2.0978597933E+00  -2.8004526894E-01
    42  -1.6210013665E+00  -2.0983362760E+00  2.8008512422E-01
    43  -1.6206800330E+00  2.0978556862E+00  2.8004487208E-01
    44  1.6209984275E+00  2.0983325875E+00  -2.8008478730E-01
    45  -8.9655371798E-01  3.2443622796E-02  -5.6279113591E-01
    46  8.9655414010E-01  3.2505913894E-02  5.6277943680E-01
    47  8.9655097149E-01  -3.2444053493E-02  5.6278923729E-01
    48  -8.9655381828E-01  -3.2505705819E-02  -5.6277977204E-01
    49  -2.5119185935E+01  -9.2374691491E+00  1.1273004599E+01
    50  2.5118703652E+01  -9.2356863745E+00  -1.1273023447E+01
    51  2.5118984162E+01  9.2374113990E+00  -1.1272938815E+01
    52  -2.5118720506E+01  9.2357043455E+00  1.1273019201E+01
    53  9.7957755301E+00  2.1534842448E+01  2.0063523423E+00
    54  -9.7953562235E+00  2.1533258101E+01  -2.0062759901E+00
    55  -9.7956938146E+00  -2.1534678578E+01  -2.0063287271E+00
    56  9.7953649598E+00  -2.1533279401E+01  2.0062723299E+00
    57  -7.1636674208E-01  5.4699577547E-02  -5.8214239774E-01
    58  7.1626414039E-01  5.4690363876E-02  5.8205828118E-01
    59  7.1636912533E-01  -5.4699645143E-02  5.8214441082E-01
    60  -7.1625635441E-01  -5.4689987213E-02  -5.8205269157E-01
    61  1.5321783020E+01  -1.3263157142E+01  -1.0520384053E+01
    62  -1.5321607224E+01  -1.3263337170E+01  1.0520413790E+01
    63  -1.5321666317E+01  1.3263048943E+01  1.0520296177E+01
    64  1.5321607423E+01  1.3263339583E+01  -1.0520411079E+01
    65  5.6939882757E-01  -1.3085847533E+01  -1.6229203220E+01
    66  -5.6985979415E-01  -1.3083666512E+01  1.6228343764E+01
    67  -5.6942190876E-01  1.3085768051E+01  1.6229109205E+01
    68  5.6984147733E-01  1.3083700970E+01  -1.6228306882E+01
    69  5.4284861950E+00  1.6042098563E+01  1.6773697503E+00
    70  -5.4279706582E+00  1.6039504526E+01  -1.6771158288E+00
    71  -5.4284504197E+00  -1.6041994105E+01  -1.6773598414E+00
    72  5.4279790753E+00  -1.6039523697E+01  1.6771130509E+00
    73  -3.2241814334E+00  -4.4485039639E+00  1.4041925166E+01
    74  3.2241122888E+00  -4.4481090794E+00  -1.4041322108E+01
    75  3.2241694088E+00  4.4484769774E+00  -1.4041844413E+01
    76  -3.2241037826E+00  4.4480942051E+00  1.4041287904E+01
    77  -8.6864344170E-01  -3.2502730603E-02  -6.0567031774E-01
    78  8.6865067430E-01  -3.2514576034E-02  6.0568536354E-01
    79  8.6864514416E-01  3.2502654800E-02  6.0567148168E-01
    80  -8.6864998968E-01  3.2514432780E-02  -6.0568472528E-01
    81  -9.4249145784E+00  2.3920904054E+01  -4.5976491060E+00
    82  9.4252170055E+00  2.3922571506E+01  4.5986807595E+00
    83  9.4248030160E+00  -2.3920730947E+01  4.5976574413E+00
    84  -9.4252236933E+00  -2.3922586880E+01  -4.5986978262E+00
    85  -7.2204900930E-01  2.8127859253E-02  -3.9997733778E-01
    86  7.2193511438E-01  2.8109105290E-02  3.9991842128E-01
    87  7.2205275387E-01  -2.8127975147E-02  3.9997963277E-01
    88  -7.2193186222E-01  -2.8109026157E-02  -3.9991650560E-01
    89  -2.4685010909E+00  -7.9662681937E+00  1.6817666890E+01
    90  2.4690771021E+00  -7.9670732750E+00  -1.6819309939E+01
    91  2.4684878570E+00  7.9662206369E+00  -1.6817572597E+01
    92  -2.4690805294E+00  7.9670762644E+00  1.6819325637E+01
    93  1.3720176978E+01  -1.3564217533E+01  -1.1508710109E+01
    94  -1.3720953353E+01  -1.3565109297E+01  1.1509381979E+01
    95  -1.3720054233E+01  1.3564096519E+01  1.1508605948E+01
    96  1.3720960677E+01  1.3565121786E+01  -1.1509383031E+01
  Stress tensor (eV/A^3):
  -7.0643828081E-02  -3.9475634254E-06  9.0707358327E-02
  -3.9475634254E-06  -2.0841460027E-01  1.4296972709E-07
  9.0707358327E-02  1.4296972709E-07  -1.3523486260E-01
