  Invoking FHI-aims ...
  | Number of atoms                   :  96
  ...scf iterations...
  | Total energy corrected        :   -9.207289817254E+01 eV
  ...
  Total atomic forces (unitary forces cleaned)
     1  -3.1812076777E-01  5.9520677027E-01  2.0404738145E-01
     2  2.7830667834E-01  6.0782638467E-01  -1.8517362010E-01
     3  3.1812062829E-01  -5.9520664780E-01  -2.0404737015E-01
     4  -2.7830662670E-01  -6.0782644121E-01  1.8517375340E-01
     5  -7.7133143059E-01  7.1594376430E-01  -3.2934991831E-01
     6  1.2167541766E+00  -2.0469666114E+00  2.9566856754E+00
     7  7.7133267610E-01  -7.1594350714E-01  3.2935095806E-01
     8  -1.2167537007E+00  2.0469663696E+00  -2.9566853243E+00
     9  -4.8683100150E-01  2.9471336918E-01  -1.8547117679E-01
    10  -1.8205502673E+00  -1.7509524700E+00  1.6543139249E-01
    11  4.8683001434E-01  -2.9471431479E-01  1.8547023711E-01
    12  1.8205493623E+00  1.7509528971E+00  -1.6543213873E-01
    13  -5.6361357114E-01  -1.1459109607E+00  -1.0809695348E+00
    14  2.7841139875E+00  7.4969382105E-01  1.1771743727E+00
    15  5.6361251145E-01  1.1459113976E+00  1.0809691426E+00
    16  -2.7841138013E+00  -7.4969368699E-01  -1.1771744100E+00
    17  7.0624302237E-01  -8.6931894645E-01  -3.5954059016E-02
    18  -2.1092092242E+00  8.3412538589E-01  -2.2648645434E+00
    19  -7.0624237948E-01  8.6931938377E-01  3.5954771653E-02
    20  2.1092090924E+00  -8.3412504434E-01  2.2648641879E+00
    21  5.1414984527E-01  -9.1206921304E-01  -9.9657140005E-02
    22  -3.0044777133E-01  -8.5929977655E-01  2.5756700573E-01
    23  -5.1414989467E-01  9.1206923258E-01  9.9657198102E-02
    24  3.0044770892E-01  8.5929973688E-01  -2.5756711776E-01
    25  1.1341265288E+00  1.5919568057E-01  7.9348947390E-01
    26  -1.6968891716E-01  -1.9359133107E+00  1.4722791520E+00
    27  -1.1341264280E+00  -1.5919658855E-01  -7.9348986052E-01
    28  1.6968970393E-01  1.9359139530E+00  -1.4722791625E+00
    29  5.9011325708E-01  6.4357591679E-01  8.5703920841E-01
    30  -4.5876385430E-01  8.2449158520E-01  -9.0550660901E-01
    31  -5.9011313193E-01  -6.4357565226E-01  -8.5703958483E-01
    32  4.5876275349E-01  -8.2449216877E-01  9.0550641494E-01
    33  9.0362967259E-02  8.5419151711E-01  6.7818993302E-01
    34  -9.4978431649E-02  9.4452168755E-01  -7.1110416052E-01
    35  -9.0362849337E-02  -8.5419144472E-01  -6.7818996643E-01
    36  9.4978352288E-02  -9.4452179138E-01  7.1110413793E-01
    37  -1.0409597604E+00  7.1426374349E-01  -2.0954164495E-01
    38  1.0589557445E+00  8.5449718273E-01  8.3386144171E-02
    39  1.0409597919E+00  -7.1426364490E-01  2.0954208842E-01
    40  -1.0589551892E+00  -8.5449776427E-01  -8.3385529039E-02
    41  -7.4704197773E-01  8.8722869952E-01  5.3297220515E-02
    42  7.8959603304E-01  9.5055091074E-01  -6.7325586668E-02
    43  7.4704200377E-01  -8.8722848754E-01  -5.3297246163E-02
    44  -7.8959590282E-01  -9.5055091982E-01  6.7325618962E-02
    45  -1.3996460507E+00  2.1689207239E-02  -9.0855422524E-01
    46  1.7572196647E+00  -1.4188639918E+00  -8.5618787863E-01
    47  1.3996439396E+00  -2.1690003395E-02  9.0855240048E-01
    48  -1.7572195576E+00  1.4188629892E+00  8.5618641772E-01
    49  -3.4246405843E-01  -8.7375217657E-01  1.6417888709E+00
    50  1.0422870084E-01  -1.1678900435E+00  -3.2539688884E+00
    51  3.4246463917E-01  8.7375108991E-01  -1.6417885663E+00
    52  -1.0423012383E-01  1.1678896707E+00  3.2539706443E+00
    53  -3.7623101661E-01  -9.6376051996E-01  -3.0382665767E-01
    54  -5.0403498187E-01  -1.9051892029E+00  8.8597475880E-01
    55  3.7623030798E-01  9.6375900169E-01  3.0382635739E-01
    56  5.0403489175E-01  1.9051898329E+00  -8.8597440191E-01
    57  7.5878072424E-01  -3.7922796501E-02  4.8116865730E-01
    58  1.7390273143E+00  2.9689423176E-01  1.2372234636E+00
    59  -7.5877989338E-01  3.7922184116E-02  -4.8116791383E-01
    60  -1.7390265143E+00  -2.9689440237E-01  -1.2372234557E+00
    61  -8.7631495533E-01  6.5773751030E-01  5.2250628590E-01
    62  -7.1639069042E-01  1.7656720604E+00  2.6063007972E-01
    63  8.7631373168E-01  -6.5773692140E-01  -5.2250475977E-01
    64  7.1639065244E-01  -1.7656721998E+00  -2.6063021737E-01
    65  1.4681548755E+00  -8.6678770700E-01  -9.2047282722E-01
    66  -1.6944814063E-01  -5.5658269097E-01  2.3320455531E+00
    67  -1.4681544674E+00  8.6678791627E-01  9.2047230245E-01
    68  1.6944725803E-01  5.5658327383E-01  -2.3320434976E+00
    69  -2.0944416684E-01  -1.0373062666E+00  -1.0279983046E-01
    70  1.1550927681E+00  -1.9196813019E+00  -4.7360256216E-01
    71  2.0944412655E-01  1.0373045261E+00  1.0279936274E-01
    72  -1.1550930933E+00  1.9196803981E+00  4.7360284190E-01
    73  1.3913344729E-01  5.2422725880E-01  -9.4891670816E-01
    74  -5.5875487415E-01  1.5851961708E+00  1.4358917850E+00
    75  -1.3913338158E-01  -5.2422661537E-01  9.4891557976E-01
    76  5.5875558730E-01  -1.5851951276E+00  -1.4358939855E+00
    77  7.0461867497E-01  2.0888540854E-02  5.0879533089E-01
    78  -2.5886499021E+00  -4.5445224450E-01  -1.5614570597E+00
    79  -7.0461757708E-01  -2.0888562366E-02  -5.0879515530E-01
    80  2.5886503666E+00  4.5445253691E-01  1.5614572820E+00
    81  7.2101073622E-01  1.7482374566E+00  4.5234794689E-01
    82  -8.1434411406E-01  2.3455747981E+00  -4.5320460240E-01
    83  -7.2101029233E-01  -1.7482363803E+00  -4.5234669637E-01
    84  8.1434440165E-01  -2.3455746822E+00  4.5320417565E-01
    85  8.5871592697E-01  -7.9949150728E-02  4.7177032523E-01
    86  -9.7620601414E-01  1.2147359241E-01  -4.4519079228E-01
    87  -8.5871444493E-01  7.9949250257E-02  -4.7176951853E-01
    88  9.7620602252E-01  -1.2147353613E-01  4.4519090445E-01
    89  1.0699866581E-01  4.2026992894E-01  -1.0529531606E+00
    90  -1.1786307472E-01  6.8878531483E-01  1.1780542557E+00
    91  -1.0699837917E-01  -4.2026782449E-01  1.0529513025E+00
    92  1.1786332748E-01  -6.8878499625E-01  -1.1780544730E+00
    93  -6.9398314909E-01  4.5059745433E-01  7.3025132193E-01
    94  7.6657043027E-01  7.1920612332E-01  -7.6319851779E-01
    95  6.9398196022E-01  -4.5059662302E-01  -7.3024994493E-01
    96  -7.6657018880E-01  -7.1920634726E-01  7.6319832554E-01
  Stress tensor (eV/A^3):
  8.8574283512E-02  -2.3549242555E-03  2.2798011544E-02
  -2.3549242555E-03  9.1132585512E-02  5.5599295961E-03
  2.2798011544E-02  5.5599295961E-03  6.6700724194E-02
