  Invoking FHI-aims ...
  | Number of atoms                   :  96
  ...scf iterations...
  | Total energy corrected        :   -9.823800433780E+01 eV
  ...
  Total atomic forces (unitary forces cleaned)
     1  -3.2684001225E-01  6.2977436219E-01  2.0504371736E-01
     2  2.4210933869E-01  5.9980578512E-01  -1.8972997252E-01
     3  3.2684005932E-01  -6.2977424750E-01  -2.0504364928E-01
     4  -2.4210919343E-01  -5.9980555256E-01  1.8973001050E-01
     5  -7.1141436873E-01  -3.9149880399E-01  -9.5065203416E-01
     6  1.2567887587E+00  -1.8905206232E+00  3.0896379995E+00
     7  7.1141469708E-01  3.9149895224E-01  9.5065241488E-01
     8  -1.2567891621E+00  1.8905205287E+00  -3.0896377242E+00
     9  -4.8002323479E-01  3.8325196042E-01  -2.0026446236E-01
    10  -1.9370476608E+00  -2.0264595483E+00  1.7173431526E-01
    11  4.8002281300E-01  -3.8325161588E-01  2.0026413019E-01
    12  1.9370486199E+00  2.0264605522E+00  -1.7173457773E-01
    13  -5.7962372110E-01  -1.1002930485E+00  -1.2083394038E+00
    14  2.9322570594E+00  1.1502098932E+00  1.3385707005E+00
    15  5.7962309337E-01  1.1002932172E+00  1.2083390902E+00
    16  -2.9322587656E+00  -1.1502107720E+00  -1.3385694198E+00
    17  5.7102984816E-01  -7.8669991926E-01  -5.9556342412E-02
    18  -1.7809803477E+00  7.4975134149E-01  -2.2029745965E+00
    19  -5.7102898735E-01  7.8670005517E-01  5.9556945072E-02
    20  1.7809818104E+00  -7.4975207792E-01  2.2029746805E+00
    21  6.1389124055E-01  -1.1660905220E+00  -2.3833148390E-01
    22  -4.7930827570E-01  -1.1160200280E+00  3.9041380180E-01
    23  -6.1389168424E-01  1.1660908895E+00  2.3833093193E-01
    24  4.7930792388E-01  1.1160199674E+00  -3.9041396121E-01
    25  1.1392107050E+00  6.4415199577E-02  9.8487553017E-01
    26  -7.7576890595E-02  -1.8292493198E+00  1.3433230130E+00
    27  -1.1392114884E+00  -6.4415796189E-02  -9.8487647320E-01
    28  7.7576981483E-02  1.8292506240E+00  -1.3433238720E+00
    29  5.7711344814E-01  4.5876889939E-01  7.8443184881E-01
    30  -4.3012023832E-01  6.2980150297E-01  -8.1934526758E-01
    31  -5.7711334942E-01  -4.5876886856E-01  -7.8443176882E-01
    32  4.3011983952E-01  -6.2980178489E-01  8.1934492823E-01
    33  1.8803301473E-01  9.9025102944E-01  8.8906990540E-01
    34  -8.7455561517E-02  1.1475671237E+00  -8.0555132704E-01
    35  -1.8803305861E-01  -9.9025139707E-01  -8.8906973981E-01
    36  8.7455779842E-02  -1.1475675549E+00  8.0555110198E-01
    37  -8.7604752595E-01  6.1994286697E-01  -3.0308633526E-01
    38  8.8199198599E-01  7.7052008004E-01  1.6969192566E-01
    39  8.7604749131E-01  -6.1994302507E-01  3.0308630623E-01
    40  -8.8199198610E-01  -7.7052025760E-01  -1.6969148321E-01
    41  -8.2734506685E-01  1.1134187196E+00  5.7500460867E-02
    42  8.7332287246E-01  1.1800574361E+00  -7.3575031676E-02
    43  8.2734503184E-01  -1.1134186921E+00  -5.7500183045E-02
    44  -8.7332266832E-01  -1.1800572158E+00  7.3575257595E-02
    45  -6.9840492351E-01  1.4550250824E-01  -3.3181668480E-01
    46  -2.6205864410E+00  -2.5628668600E+00  -2.0075086340E+00
    47  6.9842497429E-01  -1.4549986012E-01  3.3183170690E-01
    48  2.6205860569E+00  2.5628679118E+00  2.0075049899E+00
    49  -4.7403616897E-01  3.5427860336E-01  1.1104592942E+00
    50  7.2077893785E-01  4.0690970039E+00  -3.3501966808E+00
    51  4.7403185552E-01  -3.5427569202E-01  -1.1104656337E+00
    52  -7.2077797402E-01  -4.0690986156E+00  3.3501958558E+00
    53  -1.1157066395E+00  -1.0002953482E+00  3.8934309513E-01
    54  1.2346136058E+00  -2.1832378308E+00  -9.6034957546E-01
    55  1.1157108344E+00  1.0002959931E+00  -3.8934596504E-01
    56  -1.2346125216E+00  2.1832375022E+00  9.6035078814E-01
    57  9.2303101454E-01  -1.6723068767E-01  7.9200403243E-01
    58  1.8383176116E+00  -3.2755143400E-01  2.3079411493E+00
    59  -9.2303537231E-01  1.6722994148E-01  -7.9200896578E-01
    60  -1.8383186415E+00  3.2755103700E-01  -2.3079386377E+00
    61  -2.1992270110E-01  1.4841461796E+00  4.3772173922E-02
    62  -3.0524663852E+00  -1.8321246570E+00  1.7036079385E+00
    63  2.1993016129E-01  -1.4841507798E+00  -4.3777427931E-02
    64  3.0524659148E+00  1.8321249592E+00  -1.7036069179E+00
    65  3.4692840937E-01  -9.7931412570E-01  4.7459715260E-02
    66  3.9370651810E+00  3.2960277275E+00  -1.5928753671E+00
    67  -3.4693463021E-01  9.7931914670E-01  -4.7460631200E-02
    68  -3.9370640012E+00  -3.2960285647E+00  1.5928767889E+00
    69  -1.1223810456E+00  -9.0805036666E-01  6.8034152407E-01
    70  8.4935197543E-01  -3.5750222896E-01  -6.2035012738E-01
    71  1.1223837175E+00  9.0805564543E-01  -6.8034060702E-01
    72  -8.4935176036E-01  3.5750250786E-01  6.2035018306E-01
    73  6.6753876973E-01  -3.2320880465E-01  -1.4840043076E+00
    74  -1.0000209325E+00  -1.7608977146E+00  3.0731382051E+00
    75  -6.6753963543E-01  3.2320961673E-01  1.4840087255E+00
    76  1.0000188363E+00  1.7608987601E+00  -3.0731385665E+00
    77  9.3853139885E-01  -2.6190135882E-01  6.2195421744E-01
    78  -1.4355378681E+00  -5.9652044404E-01  -1.0452603221E+00
    79  -9.3853474469E-01  2.6190137488E-01  -6.2195757733E-01
    80  1.4355383992E+00  5.9652069570E-01  1.0452594658E+00
    81  6.8569632291E-01  7.8642576654E-01  -4.3900346670E-01
    82  -5.3211875386E-01  1.0016744986E+00  5.9493182127E-01
    83  -6.8570398631E-01  -7.8642848247E-01  4.3900083500E-01
    84  5.3211937487E-01  -1.0016744268E+00  -5.9493326355E-01
    85  1.0454450543E+00  -1.4320777764E-04  5.4323595141E-01
    86  -1.0025455407E+00  1.5099824422E-02  -3.4462654191E-01
    87  -1.0454511542E+00  1.4275977289E-04  -5.4323859326E-01
    88  1.0025453639E+00  -1.5099972448E-02  3.4462662978E-01
    89  3.1967405200E-01  -5.1247969927E-01  -1.4561366828E+00
    90  -3.6277275997E-01  -4.4131372347E-01  1.5463020576E+00
    91  -3.1967566861E-01  5.1247596956E-01  1.4561436911E+00
    92  3.6277215744E-01  4.4131477259E-01  -1.5463011413E+00
    93  -4.9121858681E-01  1.3010510387E+00  1.5206070043E-01
    94  4.1326964350E-01  1.4676897955E+00  -5.8923627922E-02
    95  4.9121980368E-01  -1.3010564866E+00  -1.5205923194E-01
    96  -4.1326975459E-01  -1.4676904835E+00  5.8923736497E-02
  Stress tensor (eV/A^3):
  7.7551067740E-02  -1.2455392279E-02  2.3813063612E-02
  -1.2455392279E-02  7.6454602571E-02  9.1312132988E-03
  2.3813063612E-02  9.1312132988E-03  7.2906931343E-02
