  Invoking FHI-aims ...
  | Number of atoms                   :  96
  ...scf iterations...
  | Total energy corrected        :   -8.800664441719E+01 eV
  ...
  Total atomic forces (unitary forces cleaned)
     1  -2.8477640791E-01  6.1471770154E-01  1.9468818496E-01
     2  2.1219843922E-01  5.6920368568E-01  -1.9410448675E-01
     3  2.8477652479E-01  -6.1471761628E-01  -1.9468809516E-01
     4  -2.1219831048E-01  -5.6920342330E-01  1.9410453676E-01
     5  -7.5509919980E-01  1.6801709299E+00  2.5799508094E-01
     6  8.4258660770E-01  1.3797143107E-01  5.8343891848E-01
     7  7.5509932841E-01  -1.6801707879E+00  -2.5799486379E-01
     8  -8.4258702471E-01  -1.3797154880E-01  -5.8343863954E-01
     9  -3.8890123088E-01  2.7805378226E-01  -1.9941315268E-01
    10  9.4739880714E-01  5.8647572109E-01  1.8474891869E-01
    11  3.8890095218E-01  -2.7805325773E-01  1.9941295291E-01
    12  -9.4739862270E-01  -5.8647553438E-01  -1.8474841288E-01
    13  -5.3083174686E-01  -1.0079472553E+00  -1.1177201219E+00
    14  -4.4260495985E-02  -1.3691132985E+00  1.1657202715E+00
    15  5.3083118104E-01  1.0079473307E+00  1.1177198096E+00
    16  4.4259825244E-02  1.3691131787E+00  -1.1657194681E+00
    17  3.8007499189E-01  -5.0920489665E-01  -3.9369241647E-02
    18  -3.0598424341E-01  -4.5746512702E-01  3.4834121117E-01
    19  -3.8007390112E-01  5.0920468028E-01  3.9369887465E-02
    20  3.0598400559E-01  4.5746485859E-01  -3.4834139782E-01
    21  6.9101928402E-01  -1.2947786102E+00  -2.4113047623E-01
    22  -7.0919082966E-01  -1.3817067674E+00  3.1380317499E-01
    23  -6.9101978800E-01  1.2947794078E+00  2.4112987459E-01
    24  7.0919055134E-01  1.3817069982E+00  -3.1380353698E-01
    25  9.4114692644E-01  1.1528572524E-02  8.2290032820E-01
    26  -9.9396498506E-01  -2.7453656016E-02  -1.1198960743E+00
    27  -9.4114669757E-01  -1.1529177152E-02  -8.2290049567E-01
    28  9.9396612271E-01  2.7454004583E-02  1.1198953999E+00
    29  4.6905754186E-01  2.6147161023E-01  5.6253589322E-01
    30  -4.4331380668E-01  3.1554618821E-01  -5.8105765013E-01
    31  -4.6905744599E-01  -2.6147140446E-01  -5.6253571892E-01
    32  4.4331344455E-01  -3.1554615544E-01  5.8105723491E-01
    33  1.9094711640E-01  1.1285346928E+00  9.9211750697E-01
    34  -1.4268073781E-01  1.1833363628E+00  -9.3361646783E-01
    35  -1.9094725943E-01  -1.1285352971E+00  -9.9211732103E-01
    36  1.4268118156E-01  -1.1833368710E+00  9.3361636716E-01
    37  -6.5449548024E-01  4.4504973780E-01  -2.5400155514E-01
    38  6.8015249579E-01  4.9483917649E-01  2.2899056348E-01
    39  6.5449556946E-01  -4.4505001962E-01  2.5400147174E-01
    40  -6.8015262655E-01  -4.9483932398E-01  -2.2899023158E-01
    41  -9.2465857487E-01  1.2735243201E+00  8.6135776500E-02
    42  9.3153984461E-01  1.2865874997E+00  -8.2688273849E-02
    43  9.2465850035E-01  -1.2735242704E+00  -8.6135415718E-02
    44  -9.3153960277E-01  -1.2865871802E+00  8.2688518247E-02
    45  -1.8775129299E+00  1.8423394422E-01  -1.2569142074E+00
    46  3.7101862520E-01  -3.9750378747E+00  8.6301532337E-01
    47  1.8775099671E+00  -1.8423327035E-01  1.2569128462E+00
    48  -3.7102076988E-01  3.9750347561E+00  -8.6301485719E-01
    49  8.1378676186E-02  3.2611317779E-01  1.4286623310E+00
    50  -1.5920615447E-01  7.0436205670E+00  -4.8688341968E+00
    51  -8.1383637733E-02  -3.2610790842E-01  -1.4286589908E+00
    52  1.5920860093E-01  -7.0436204791E+00  4.8688326800E+00
    53  -1.6209328093E+00  -8.9470325587E-01  7.7960650502E-01
    54  1.5002577883E+00  -1.0963709478E+00  -8.4186954833E-01
    55  1.6209335234E+00  8.9470697642E-01  -7.7960646919E-01
    56  -1.5002557959E+00  1.0963699891E+00  8.4186951090E-01
    57  1.1112843612E+00  -1.9230762503E-01  9.9421665425E-01
    58  1.5269869090E+00  1.7303145594E-02  1.5987640332E+00
    59  -1.1112837033E+00  1.9230639626E-01  -9.9421516747E-01
    60  -1.5269895636E+00  -1.7303657364E-02  -1.5987641771E+00
    61  -3.5208858970E-01  1.9409055840E+00  1.6395155317E-01
    62  -2.1275278799E+00  -4.4758838503E+00  7.0862466303E-01
    63  3.5209324407E-01  -1.9409088097E+00  -1.6395427298E-01
    64  2.1275277904E+00  4.4758846803E+00  -7.0862291795E-01
    65  8.1318472764E-01  -1.1504224693E+00  4.9900593641E-01
    66  1.7790350397E+00  3.6403999977E+00  -6.1650042116E-01
    67  -8.1318721590E-01  1.1504212517E+00  -4.9900584577E-01
    68  -1.7790330948E+00  -3.6403979190E+00  6.1650070230E-01
    69  -1.4741238017E+00  -1.2227266142E+00  7.6545058520E-01
    70  1.4840475527E+00  -1.1159705252E+00  -7.2305911199E-01
    71  1.4741225572E+00  1.2227280204E+00  -7.6544856526E-01
    72  -1.4840475632E+00  1.1159705964E+00  7.2306011522E-01
    73  7.1366272854E-01  -7.7605528714E-01  -1.8093977640E+00
    74  -9.2526001883E-01  -1.6535059038E+00  2.6519414053E+00
    75  -7.1366365552E-01  7.7605163913E-01  1.8093978278E+00
    76  9.2525816918E-01  1.6535064030E+00  -2.6519415300E+00
    77  1.0611821030E+00  -2.6627162216E-01  7.6938217580E-01
    78  -1.8070455845E+00  -6.8119416395E-01  -1.3305462110E+00
    79  -1.0611798675E+00  2.6627030152E-01  -7.6938141347E-01
    80  1.8070462251E+00  6.8119430509E-01  1.3305452728E+00
    81  1.3356340294E+00  6.8867861214E-01  -1.5573037061E-01
    82  -1.4293365670E+00  7.8351339170E-01  2.4651822106E-01
    83  -1.3356335504E+00  -6.8867594119E-01  1.5572621151E-01
    84  1.4293370714E+00  -7.8351253608E-01  -2.4651931690E-01
    85  1.2048543600E+00  -1.6439943616E-02  6.5341294205E-01
    86  -1.2362379377E+00  -1.6009434519E-02  -6.1932923773E-01
    87  -1.2048521345E+00  1.6440285150E-02  -6.5341199060E-01
    88  1.2362376754E+00  1.6009379397E-02  6.1932912079E-01
    89  4.1713001884E-01  -6.0588250430E-01  -1.9432083614E+00
    90  -4.3016723499E-01  -5.8610270311E-01  1.9867670489E+00
    91  -4.1713022306E-01  6.0587983744E-01  1.9432093367E+00
    92  4.3016646638E-01  5.8610349248E-01  -1.9867660221E+00
    93  -4.7048326492E-01  1.8773601675E+00  -1.1476251708E-01
    94  4.5266398879E-01  1.9358098496E+00  1.5859555342E-01
    95  4.7048503040E-01  -1.8773614153E+00  1.1476018788E-01
    96  -4.5266390511E-01  -1.9358104777E+00  -1.5859604385E-01
  Stress tensor (eV/A^3):
  9.3378705124E-02  -7.1107856266E-03  1.8517543785E-02
  -7.1107856266E-03  9.0785472160E-02  -1.1900253594E-04
  1.8517543785E-02  -1.1900253594E-04  9.4850229614E-02
