  Invoking FHI-aims ...
  | Number of atoms                   :  96
  ...scf iterations...
  | Total energy corrected        :   -9.380105655283E+01 eV
  ...
  Total atomic forces (unitary forces cleaned)
     1  -2.9945908712E-01  5.9636902348E-01  1.9039660535E-01
     2  2.2456621345E-01  5.7281682036E-01  -1.8285707406E-01
     3  2.9945902625E-01  -5.9636891649E-01  -1.9039659094E-01
     4  -2.2456611734E-01  -5.7281680218E-01  1.8285716966E-01
     5  -8.3016988179E-01  1.6579736219E+00  2.7403434933E-01
     6  8.8557222772E-01  -7.3004244366E-02  6.9345381754E-01
     7  8.3017070054E-01  -1.6579734365E+00  -2.7403361290E-01
     8  -8.8557204939E-01  7.3004068273E-02  -6.9345352544E-01
     9  -4.1007315165E-01  2.3474449656E-01  -1.8428336742E-01
    10  1.0167052775E+00  5.2633455439E-01  1.4997791329E-01
    11  4.1007241635E-01  -2.3474493673E-01  1.8428273029E-01
    12  -1.0167056677E+00  -5.2633440051E-01  -1.4997816385E-01
    13  -5.4258761045E-01  -1.0761146008E+00  -1.0557661800E+00
    14  -7.7239158346E-02  -1.4183634843E+00  1.1264096367E+00
    15  5.4258680938E-01  1.0761149081E+00  1.0557658596E+00
    16  7.7239034405E-02  1.4183636783E+00  -1.1264094977E+00
    17  3.8423111641E-01  -4.9290194019E-01  -2.0556486995E-02
    18  -3.3650638251E-01  -4.0752291570E-01  2.6901990817E-01
    19  -3.8423047365E-01  4.9290212941E-01  2.0557031654E-02
    20  3.3650644669E-01  4.0752249265E-01  -2.6902001381E-01
    21  7.1014583904E-01  -1.2748021055E+00  -2.0723709674E-01
    22  -7.1193350834E-01  -1.3958539475E+00  2.9016000765E-01
    23  -7.1014602543E-01  1.2748022463E+00  2.0723699425E-01
    24  7.1193371418E-01  1.3958542154E+00  -2.9016008217E-01
    25  1.0081252093E+00  9.5521960620E-02  7.3432817652E-01
    26  -1.0169262543E+00  1.8703735671E-02  -9.5216106300E-01
    27  -1.0081255523E+00  -9.5522592580E-02  -7.3432869894E-01
    28  1.0169267481E+00  -1.8702960385E-02  9.5216076269E-01
    29  4.7557365606E-01  3.0672394602E-01  5.4773527352E-01
    30  -4.5395617981E-01  3.6653669602E-01  -5.8259763141E-01
    31  -4.7557348933E-01  -3.0672403800E-01  -5.4773572186E-01
    32  4.5395527656E-01  -3.6653707682E-01  5.8259734980E-01
    33  1.8330276268E-01  1.1627480508E+00  9.7622953813E-01
    34  -1.7215938044E-01  1.1987221420E+00  -9.7160685187E-01
    35  -1.8330251561E-01  -1.1627478465E+00  -9.7622920874E-01
    36  1.7215946611E-01  -1.1987223113E+00  9.7160679637E-01
    37  -6.9777982389E-01  3.9737071821E-01  -2.1831713811E-01
    38  7.2344155502E-01  4.4928008474E-01  1.8985055489E-01
    39  6.9777995388E-01  -3.9737101973E-01  2.1831737042E-01
    40  -7.2344130935E-01  -4.4928071709E-01  -1.8984997530E-01
    41  -9.8695090269E-01  1.2315436162E+00  9.4412722154E-02
    42  9.9367759130E-01  1.2446837874E+00  -9.1937789723E-02
    43  9.8695075552E-01  -1.2315431941E+00  -9.4412647983E-02
    44  -9.9367721656E-01  -1.2446834573E+00  9.1937853173E-02
    45  -1.4644975751E+00  1.4406334768E-01  -1.0412133383E+00
    46  -9.3218815936E-01  -2.4410889524E+00  -6.3095279346E-01
    47  1.4645121715E+00  -1.4405930659E-01  1.0412251598E+00
    48  9.3218592581E-01  2.4410864776E+00  6.3095153374E-01
    49  -1.2707515320E+00  -6.7605294898E-01  1.5531255639E+00
    50  2.0995098004E+00  6.6897711094E-01  -4.0073460709E+00
    51  1.2707215424E+00  6.7604995470E-01  -1.5531256017E+00
    52  -2.0995105283E+00  -6.6897442234E-01  4.0073508227E+00
    53  -4.5140634054E-01  -1.1018421619E+00  -1.9177369487E-01
    54  4.1962299625E-02  -1.6946712452E+00  4.7068778544E-01
    55  4.5141845050E-01  1.1018571324E+00  1.9176904939E-01
    56  -4.1960658991E-02  1.6946692434E+00  -4.7068794627E-01
    57  1.3431525698E+00  -2.1510148254E-01  1.2094028357E+00
    58  1.4013275731E+00  3.1430258785E-01  1.4829000313E+00
    59  -1.3431488407E+00  2.1509993590E-01  -1.2093993377E+00
    60  -1.4013292308E+00  -3.1430305017E-01  -1.4829014476E+00
    61  -7.9126388667E-01  9.9361699019E-01  5.4671296423E-01
    62  -2.7409489277E+00  8.5600372082E-02  1.7265692738E+00
    63  7.9127892947E-01  -9.9362452476E-01  -5.4672372352E-01
    64  2.7409489499E+00  -8.5600528896E-02  -1.7265687061E+00
    65  8.0316998512E-01  -8.6378341916E-01  -3.5002348864E-01
    66  2.2372856222E+00  9.6315400006E-01  4.2348462785E-02
    67  -8.0318037800E-01  8.6378114808E-01  3.5001839861E-01
    68  -2.2372853026E+00  -9.6315124649E-01  -4.2345484382E-02
    69  -4.9860894502E-01  -1.7114655918E+00  1.0350849343E-01
    70  7.8194580253E-01  -1.8191593174E+00  -4.0047533069E-01
    71  4.9861104155E-01  1.7114735933E+00  -1.0350605567E-01
    72  -7.8194557338E-01  1.8191571226E+00  4.0047552013E-01
    73  5.7246572630E-01  4.8566838411E-01  -1.9135373909E+00
    74  -6.1382016995E-01  7.0954374773E-01  1.5344209609E+00
    75  -5.7246715674E-01  -4.8566804033E-01  1.9135418796E+00
    76  6.1382114713E-01  -7.0954235850E-01  -1.5344259134E+00
    77  1.3531968532E+00  -2.1264823030E-01  7.0465240741E-01
    78  -1.8803385775E+00  -4.1674260378E-01  -1.0243620378E+00
    79  -1.3531943442E+00  2.1264744575E-01  -7.0465232077E-01
    80  1.8803392166E+00  4.1674267237E-01  1.0243621187E+00
    81  1.9462849318E-01  1.6696760909E+00  2.0174837896E-01
    82  -1.8110826645E-01  1.8541639103E+00  -1.1231111627E-01
    83  -1.9464948292E-01  -1.6696653304E+00  -2.0175062850E-01
    84  1.8110865756E-01  -1.8541658300E+00  1.1230967553E-01
    85  1.5370050265E+00  1.6981887683E-01  8.1880354579E-01
    86  -1.6024202869E+00  2.6400467876E-01  -7.8731952627E-01
    87  -1.5370020081E+00  -1.6981831275E-01  -8.1880214390E-01
    88  1.6024197092E+00  -2.6400455894E-01  7.8731930819E-01
    89  3.3020563394E-01  5.5368206320E-01  -1.6752572154E+00
    90  -3.4389266244E-01  6.4005941068E-01  1.7374629040E+00
    91  -3.3020579066E-01  -5.5368732110E-01  1.6752628308E+00
    92  3.4389263696E-01  -6.4005787907E-01  -1.7374617813E+00
    93  -6.5172765964E-01  7.5937848525E-01  7.1681783897E-01
    94  6.5705845273E-01  8.9788514791E-01  -7.0431552438E-01
    95  6.5173783859E-01  -7.5939694191E-01  -7.1682439742E-01
    96  -6.5705782970E-01  -8.9788437337E-01  7.0431527024E-01
  Stress tensor (eV/A^3):
  8.5759186031E-02  -6.0923622475E-03  3.0082373720E-02
  -6.0923622475E-03  9.7430272284E-02  3.1741692296E-03
  3.0082373720E-02  3.1741692296E-03  7.1654979272E-02
