64 
Energy: 2.9695472903378395e+00 
Mg	  0.000000000000 	  0.000000000000 	  0.000000000000 	
Mg	  1.000000000000 	  0.000000000000 	  2.980000000000 	
Mg	  0.000000000000 	  3.980000000000 	  0.000000000000 	
Mg	  1.000000000000 	  3.980000000000 	  2.980000000000 	
Mg	  3.980000000000 	  0.000000000000 	  0.000000000000 	
Mg	  4.980000000000 	  0.000000000000 	  2.980000000000 	
Mg	  3.980000000000 	  3.980000000000 	  0.000000000000 	
Mg	  4.980000000000 	  3.980000000000 	  2.980000000000 	
Mg	  1.694986837522 	  1.793324558348 	  0.000000000000 	
Mg	  2.694986837522 	  1.793324558348 	  2.980000000000 	
Mg	  1.694986837522 	  5.773324558348 	  0.000000000000 	
Mg	  2.694986837522 	  5.773324558348 	  2.980000000000 	
Mg	  5.674986837522 	  1.793324558348 	  0.000000000000 	
Mg	  6.674986837522 	  1.793324558348 	  2.980000000000 	
Mg	  5.674986837522 	  5.773324558348 	  0.000000000000 	
Mg	  6.674986837522 	  5.773324558348 	  2.980000000000 	
Mg	  2.481688604130 	  0.000000000000 	  1.498311395870 	
Mg	  3.481688604130 	  0.000000000000 	  4.478311395870 	
Mg	  2.481688604130 	  3.980000000000 	  1.498311395870 	
Mg	  3.481688604130 	  3.980000000000 	  4.478311395870 	
Mg	  6.461688604130 	  0.000000000000 	  1.498311395870 	
Mg	  7.461688604130 	  0.000000000000 	  4.478311395870 	
Mg	  6.461688604130 	  3.980000000000 	  1.498311395870 	
Mg	  7.461688604130 	  3.980000000000 	  4.478311395870 	
Mg	  0.491688604130 	  1.990000000000 	  1.498311395870 	
Mg	  1.491688604130 	  1.990000000000 	  4.478311395870 	
Mg	  0.491688604130 	  5.970000000000 	  1.498311395870 	
Mg	  1.491688604130 	  5.970000000000 	  4.478311395870 	
Mg	  4.471688604130 	  1.990000000000 	  1.498311395870 	
Mg	  5.471688604130 	  1.990000000000 	  4.478311395870 	
Mg	  4.471688604130 	  5.970000000000 	  1.498311395870 	
Mg	  5.471688604130 	  5.970000000000 	  4.478311395870 	
O	  1.990000000000 	  0.000000000000 	  0.000000000000 	
O	  2.990000000000 	  0.000000000000 	  2.980000000000 	
O	  1.990000000000 	  3.980000000000 	  0.000000000000 	
O	  2.990000000000 	  3.980000000000 	  2.980000000000 	
O	  5.970000000000 	  0.000000000000 	  0.000000000000 	
O	  6.970000000000 	  0.000000000000 	  2.980000000000 	
O	  5.970000000000 	  3.980000000000 	  0.000000000000 	
O	  6.970000000000 	  3.980000000000 	  2.980000000000 	
O	  0.000000000000 	  1.990000000000 	  0.000000000000 	
O	  1.000000000000 	  1.990000000000 	  2.980000000000 	
O	  0.000000000000 	  5.970000000000 	  0.000000000000 	
O	  1.000000000000 	  5.970000000000 	  2.980000000000 	
O	  3.980000000000 	  1.990000000000 	  0.000000000000 	
O	  4.980000000000 	  1.990000000000 	  2.980000000000 	
O	  3.980000000000 	  5.970000000000 	  0.000000000000 	
O	  4.980000000000 	  5.970000000000 	  2.980000000000 	
O	  0.491688604130 	  0.000000000000 	  1.498311395870 	
O	  1.491688604130 	  0.000000000000 	  4.478311395870 	
O	  0.491688604130 	  3.980000000000 	  1.498311395870 	
O	  1.491688604130 	  3.980000000000 	  4.478311395870 	
O	  4.471688604130 	  0.000000000000 	  1.498311395870 	
O	  5.471688604130 	  0.000000000000 	  4.478311395870 	
O	  4.471688604130 	  3.980000000000 	  1.498311395870 	
O	  5.471688604130 	  3.980000000000 	  4.478311395870 	
O	  2.875039487435 	  1.343921174173 	  1.498311395870 	
O	  3.875039487435 	  1.343921174173 	  4.478311395870 	
O	  2.875039487435 	  5.323921174173 	  1.498311395870 	
O	  3.875039487435 	  5.323921174173 	  4.478311395870 	
O	  6.855039487435 	  1.343921174173 	  1.498311395870 	
O	  7.855039487435 	  1.343921174173 	  4.478311395870 	
O	  6.855039487435 	  5.323921174173 	  1.498311395870 	
O	  7.855039487435 	  5.323921174173 	  4.478311395870 	
64 
Energy: 2.9075100959492595e+00 
Mg	  0.000000000000 	  0.000000000000 	  0.000000000000 	
Mg	  1.000000000000 	  0.000000000000 	  2.980000000000 	
Mg	  0.000000000000 	  3.980000000000 	  0.000000000000 	
Mg	  1.000000000000 	  3.980000000000 	  2.980000000000 	
Mg	  3.980000000000 	  0.000000000000 	  0.000000000000 	
Mg	  4.980000000000 	  0.000000000000 	  2.980000000000 	
Mg	  3.980000000000 	  3.980000000000 	  0.000000000000 	
Mg	  4.980000000000 	  3.980000000000 	  2.980000000000 	
Mg	  1.721797216567 	  1.814016366754 	  0.000000000000 	
Mg	  2.721797216567 	  1.814016366754 	  2.980000000000 	
Mg	  1.721797216567 	  5.794016366754 	  0.000000000000 	
Mg	  2.721797216567 	  5.794016366754 	  2.980000000000 	
Mg	  5.701797216567 	  1.814016366754 	  0.000000000000 	
Mg	  6.701797216567 	  1.814016366754 	  2.980000000000 	
Mg	  5.701797216567 	  5.794016366754 	  0.000000000000 	
Mg	  6.701797216567 	  5.794016366754 	  2.980000000000 	
Mg	  2.459550418066 	  0.000000000000 	  1.537358916192 	
Mg	  3.459550418066 	  0.000000000000 	  4.517358916192 	
Mg	  2.459550418066 	  3.980000000000 	  1.537358916192 	
Mg	  3.459550418066 	  3.980000000000 	  4.517358916192 	
Mg	  6.439550418066 	  0.000000000000 	  1.537358916192 	
Mg	  7.439550418066 	  0.000000000000 	  4.517358916192 	
Mg	  6.439550418066 	  3.980000000000 	  1.537358916192 	
Mg	  7.439550418066 	  3.980000000000 	  4.517358916192 	
Mg	  0.461095750937 	  1.998454667129 	  1.537358916192 	
Mg	  1.461095750937 	  1.998454667129 	  4.517358916192 	
Mg	  0.461095750937 	  5.978454667129 	  1.537358916192 	
Mg	  1.461095750937 	  5.978454667129 	  4.517358916192 	
Mg	  4.441095750937 	  1.998454667129 	  1.537358916192 	
Mg	  5.441095750937 	  1.998454667129 	  4.517358916192 	
Mg	  4.441095750937 	  5.978454667129 	  1.537358916192 	
Mg	  5.441095750937 	  5.978454667129 	  4.517358916192 	
O	  1.998454667129 	  0.000000000000 	  0.000000000000 	
O	  2.998454667129 	  0.000000000000 	  2.980000000000 	
O	  1.998454667129 	  3.980000000000 	  0.000000000000 	
O	  2.998454667129 	  3.980000000000 	  2.980000000000 	
O	  5.978454667129 	  0.000000000000 	  0.000000000000 	
O	  6.978454667129 	  0.000000000000 	  2.980000000000 	
O	  5.978454667129 	  3.980000000000 	  0.000000000000 	
O	  6.978454667129 	  3.980000000000 	  2.980000000000 	
O	  0.000000000000 	  1.998454667129 	  0.000000000000 	
O	  1.000000000000 	  1.998454667129 	  2.980000000000 	
O	  0.000000000000 	  5.978454667129 	  0.000000000000 	
O	  1.000000000000 	  5.978454667129 	  2.980000000000 	
O	  3.980000000000 	  1.998454667129 	  0.000000000000 	
O	  4.980000000000 	  1.998454667129 	  2.980000000000 	
O	  3.980000000000 	  5.978454667129 	  0.000000000000 	
O	  4.980000000000 	  5.978454667129 	  2.980000000000 	
O	  0.461095750937 	  0.000000000000 	  1.537358916192 	
O	  1.461095750937 	  0.000000000000 	  4.517358916192 	
O	  0.461095750937 	  3.980000000000 	  1.537358916192 	
O	  1.461095750937 	  3.980000000000 	  4.517358916192 	
O	  4.441095750937 	  0.000000000000 	  1.537358916192 	
O	  5.441095750937 	  0.000000000000 	  4.517358916192 	
O	  4.441095750937 	  3.980000000000 	  1.537358916192 	
O	  5.441095750937 	  3.980000000000 	  4.517358916192 	
O	  2.828427018816 	  1.392574850397 	  1.537358916192 	
O	  3.828427018816 	  1.392574850397 	  4.517358916192 	
O	  2.828427018816 	  5.372574850397 	  1.537358916192 	
O	  3.828427018816 	  5.372574850397 	  4.517358916192 	
O	  6.808427018816 	  1.392574850397 	  1.537358916192 	
O	  7.808427018816 	  1.392574850397 	  4.517358916192 	
O	  6.808427018816 	  5.372574850397 	  1.537358916192 	
O	  7.808427018816 	  5.372574850397 	  4.517358916192 	
64 
Energy: 3.2800892559533672e+00 
Mg	  0.000000000000 	  0.000000000000 	  0.000000000000 	
Mg	  1.000000000000 	  0.000000000000 	  2.980000000000 	
Mg	  0.000000000000 	  3.980000000000 	  0.000000000000 	
Mg	  1.000000000000 	  3.980000000000 	  2.980000000000 	
Mg	  3.980000000000 	  0.000000000000 	  0.000000000000 	
Mg	  4.980000000000 	  0.000000000000 	  2.980000000000 	
Mg	  3.980000000000 	  3.980000000000 	  0.000000000000 	
Mg	  4.980000000000 	  3.980000000000 	  2.980000000000 	
Mg	  1.748660715786 	  1.834734358226 	  0.000000000000 	
Mg	  2.748660715786 	  1.834734358226 	  2.980000000000 	
Mg	  1.748660715786 	  5.814734358226 	  0.000000000000 	
Mg	  2.748660715786 	  5.814734358226 	  2.980000000000 	
Mg	  5.728660715786 	  1.834734358226 	  0.000000000000 	
Mg	  6.728660715786 	  1.834734358226 	  2.980000000000 	
Mg	  5.728660715786 	  5.814734358226 	  0.000000000000 	
Mg	  6.728660715786 	  5.814734358226 	  2.980000000000 	
Mg	  2.437249855304 	  0.000000000000 	  1.576513430907 	
Mg	  3.437249855304 	  0.000000000000 	  4.556513430907 	
Mg	  2.437249855304 	  3.980000000000 	  1.576513430907 	
Mg	  3.437249855304 	  3.980000000000 	  4.556513430907 	
Mg	  6.417249855304 	  0.000000000000 	  1.576513430907 	
Mg	  7.417249855304 	  0.000000000000 	  4.556513430907 	
Mg	  6.417249855304 	  3.980000000000 	  1.576513430907 	
Mg	  7.417249855304 	  3.980000000000 	  4.556513430907 	
Mg	  0.430368212199 	  2.006881643105 	  1.576513430907 	
Mg	  1.430368212199 	  2.006881643105 	  4.556513430907 	
Mg	  0.430368212199 	  5.986881643105 	  1.576513430907 	
Mg	  1.430368212199 	  5.986881643105 	  4.556513430907 	
Mg	  4.410368212199 	  2.006881643105 	  1.576513430907 	
Mg	  5.410368212199 	  2.006881643105 	  4.556513430907 	
Mg	  4.410368212199 	  5.986881643105 	  1.576513430907 	
Mg	  5.410368212199 	  5.986881643105 	  4.556513430907 	
O	  2.006881643105 	  0.000000000000 	  0.000000000000 	
O	  3.006881643105 	  0.000000000000 	  2.980000000000 	
O	  2.006881643105 	  3.980000000000 	  0.000000000000 	
O	  3.006881643105 	  3.980000000000 	  2.980000000000 	
O	  5.986881643105 	  0.000000000000 	  0.000000000000 	
O	  6.986881643105 	  0.000000000000 	  2.980000000000 	
O	  5.986881643105 	  3.980000000000 	  0.000000000000 	
O	  6.986881643105 	  3.980000000000 	  2.980000000000 	
O	  0.000000000000 	  2.006881643105 	  0.000000000000 	
O	  1.000000000000 	  2.006881643105 	  2.980000000000 	
O	  0.000000000000 	  5.986881643105 	  0.000000000000 	
O	  1.000000000000 	  5.986881643105 	  2.980000000000 	
O	  3.980000000000 	  2.006881643105 	  0.000000000000 	
O	  4.980000000000 	  2.006881643105 	  2.980000000000 	
O	  3.980000000000 	  5.986881643105 	  0.000000000000 	
O	  4.980000000000 	  5.986881643105 	  2.980000000000 	
O	  0.430368212199 	  0.000000000000 	  1.576513430907 	
O	  1.430368212199 	  0.000000000000 	  4.556513430907 	
O	  0.430368212199 	  3.980000000000 	  1.576513430907 	
O	  1.430368212199 	  3.980000000000 	  4.556513430907 	
O	  4.410368212199 	  0.000000000000 	  1.576513430907 	
O	  5.410368212199 	  0.000000000000 	  4.556513430907 	
O	  4.410368212199 	  3.980000000000 	  1.576513430907 	
O	  5.410368212199 	  3.980000000000 	  4.556513430907 	
O	  2.781544425063 	  1.441377812276 	  1.576513430907 	
O	  3.781544425063 	  1.441377812276 	  4.556513430907 	
O	  2.781544425063 	  5.421377812276 	  1.576513430907 	
O	  3.781544425063 	  5.421377812276 	  4.556513430907 	
O	  6.761544425063 	  1.441377812276 	  1.576513430907 	
O	  7.761544425063 	  1.441377812276 	  4.556513430907 	
O	  6.761544425063 	  5.421377812276 	  1.576513430907 	
O	  7.761544425063 	  5.421377812276 	  4.556513430907 	
64 
Energy: 3.8792175501693813e+00 
Mg	  0.000000000000 	  0.000000000000 	  0.000000000000 	
Mg	  1.000000000000 	  0.000000000000 	  2.980000000000 	
Mg	  0.000000000000 	  3.980000000000 	  0.000000000000 	
Mg	  1.000000000000 	  3.980000000000 	  2.980000000000 	
Mg	  3.980000000000 	  0.000000000000 	  0.000000000000 	
Mg	  4.980000000000 	  0.000000000000 	  2.980000000000 	
Mg	  3.980000000000 	  3.980000000000 	  0.000000000000 	
Mg	  4.980000000000 	  3.980000000000 	  2.980000000000 	
Mg	  1.775533972903 	  1.855460543303 	  0.000000000000 	
Mg	  2.775533972903 	  1.855460543303 	  2.980000000000 	
Mg	  1.775533972903 	  5.835460543303 	  0.000000000000 	
Mg	  2.775533972903 	  5.835460543303 	  2.980000000000 	
Mg	  5.755533972903 	  1.855460543303 	  0.000000000000 	
Mg	  6.755533972903 	  1.855460543303 	  2.980000000000 	
Mg	  5.755533972903 	  5.835460543303 	  0.000000000000 	
Mg	  6.755533972903 	  5.835460543303 	  2.980000000000 	
Mg	  2.414946536099 	  0.000000000000 	  1.615680832104 	
Mg	  3.414946536099 	  0.000000000000 	  4.595680832104 	
Mg	  2.414946536099 	  3.980000000000 	  1.615680832104 	
Mg	  3.414946536099 	  3.980000000000 	  4.595680832104 	
Mg	  6.394946536099 	  0.000000000000 	  1.615680832104 	
Mg	  7.394946536099 	  0.000000000000 	  4.595680832104 	
Mg	  6.394946536099 	  3.980000000000 	  1.615680832104 	
Mg	  7.394946536099 	  3.980000000000 	  4.595680832104 	
Mg	  0.399632851997 	  2.015313684101 	  1.615680832104 	
Mg	  1.399632851997 	  2.015313684101 	  4.595680832104 	
Mg	  0.399632851997 	  5.995313684101 	  1.615680832104 	
Mg	  1.399632851997 	  5.995313684101 	  4.595680832104 	
Mg	  4.379632851997 	  2.015313684101 	  1.615680832104 	
Mg	  5.379632851997 	  2.015313684101 	  4.595680832104 	
Mg	  4.379632851997 	  5.995313684101 	  1.615680832104 	
Mg	  5.379632851997 	  5.995313684101 	  4.595680832104 	
O	  2.015313684101 	  0.000000000000 	  0.000000000000 	
O	  3.015313684101 	  0.000000000000 	  2.980000000000 	
O	  2.015313684101 	  3.980000000000 	  0.000000000000 	
O	  3.015313684101 	  3.980000000000 	  2.980000000000 	
O	  5.995313684101 	  0.000000000000 	  0.000000000000 	
O	  6.995313684101 	  0.000000000000 	  2.980000000000 	
O	  5.995313684101 	  3.980000000000 	  0.000000000000 	
O	  6.995313684101 	  3.980000000000 	  2.980000000000 	
O	  0.000000000000 	  2.015313684101 	  0.000000000000 	
O	  1.000000000000 	  2.015313684101 	  2.980000000000 	
O	  0.000000000000 	  5.995313684101 	  0.000000000000 	
O	  1.000000000000 	  5.995313684101 	  2.980000000000 	
O	  3.980000000000 	  2.015313684101 	  0.000000000000 	
O	  4.980000000000 	  2.015313684101 	  2.980000000000 	
O	  3.980000000000 	  5.995313684101 	  0.000000000000 	
O	  4.980000000000 	  5.995313684101 	  2.980000000000 	
O	  0.399632851997 	  0.000000000000 	  1.615680832104 	
O	  1.399632851997 	  0.000000000000 	  4.595680832104 	
O	  0.399632851997 	  3.980000000000 	  1.615680832104 	
O	  1.399632851997 	  3.980000000000 	  4.595680832104 	
O	  4.379632851997 	  0.000000000000 	  1.615680832104 	
O	  5.379632851997 	  0.000000000000 	  4.595680832104 	
O	  4.379632851997 	  3.980000000000 	  1.615680832104 	
O	  5.379632851997 	  3.980000000000 	  4.595680832104 	
O	  2.734652817696 	  1.490196116577 	  1.615680832104 	
O	  3.734652817696 	  1.490196116577 	  4.595680832104 	
O	  2.734652817696 	  5.470196116577 	  1.615680832104 	
O	  3.734652817696 	  5.470196116577 	  4.595680832104 	
O	  6.714652817696 	  1.490196116577 	  1.615680832104 	
O	  7.714652817696 	  1.490196116577 	  4.595680832104 	
O	  6.714652817696 	  5.470196116577 	  1.615680832104 	
O	  7.714652817696 	  5.470196116577 	  4.595680832104 	
64 
Energy: 4.5402346186481184e+00 
Mg	  0.000000000000 	  0.000000000000 	  0.000000000000 	
Mg	  1.000000000000 	  0.000000000000 	  2.980000000000 	
Mg	  0.000000000000 	  3.980000000000 	  0.000000000000 	
Mg	  1.000000000000 	  3.980000000000 	  2.980000000000 	
Mg	  3.980000000000 	  0.000000000000 	  0.000000000000 	
Mg	  4.980000000000 	  0.000000000000 	  2.980000000000 	
Mg	  3.980000000000 	  3.980000000000 	  0.000000000000 	
Mg	  4.980000000000 	  3.980000000000 	  2.980000000000 	
Mg	  1.802415167596 	  1.876193482385 	  0.000000000000 	
Mg	  2.802415167596 	  1.876193482385 	  2.980000000000 	
Mg	  1.802415167596 	  5.856193482385 	  0.000000000000 	
Mg	  2.802415167596 	  5.856193482385 	  2.980000000000 	
Mg	  5.782415167596 	  1.876193482385 	  0.000000000000 	
Mg	  6.782415167596 	  1.876193482385 	  2.980000000000 	
Mg	  5.782415167596 	  5.856193482385 	  0.000000000000 	
Mg	  6.782415167596 	  5.856193482385 	  2.980000000000 	
Mg	  2.392641685907 	  0.000000000000 	  1.654858538018 	
Mg	  3.392641685907 	  0.000000000000 	  4.634858538018 	
Mg	  2.392641685907 	  3.980000000000 	  1.654858538018 	
Mg	  3.392641685907 	  3.980000000000 	  4.634858538018 	
Mg	  6.372641685907 	  0.000000000000 	  1.654858538018 	
Mg	  7.372641685907 	  0.000000000000 	  4.634858538018 	
Mg	  6.372641685907 	  3.980000000000 	  1.654858538018 	
Mg	  7.372641685907 	  3.980000000000 	  4.634858538018 	
Mg	  0.368891573944 	  2.023750111962 	  1.654858538018 	
Mg	  1.368891573944 	  2.023750111962 	  4.634858538018 	
Mg	  0.368891573944 	  6.003750111962 	  1.654858538018 	
Mg	  1.368891573944 	  6.003750111962 	  4.634858538018 	
Mg	  4.348891573944 	  2.023750111962 	  1.654858538018 	
Mg	  5.348891573944 	  2.023750111962 	  4.634858538018 	
Mg	  4.348891573944 	  6.003750111962 	  1.654858538018 	
Mg	  5.348891573944 	  6.003750111962 	  4.634858538018 	
O	  2.023750111962 	  0.000000000000 	  0.000000000000 	
O	  3.023750111962 	  0.000000000000 	  2.980000000000 	
O	  2.023750111962 	  3.980000000000 	  0.000000000000 	
O	  3.023750111962 	  3.980000000000 	  2.980000000000 	
O	  6.003750111962 	  0.000000000000 	  0.000000000000 	
O	  7.003750111962 	  0.000000000000 	  2.980000000000 	
O	  6.003750111962 	  3.980000000000 	  0.000000000000 	
O	  7.003750111962 	  3.980000000000 	  2.980000000000 	
O	  0.000000000000 	  2.023750111962 	  0.000000000000 	
O	  1.000000000000 	  2.023750111962 	  2.980000000000 	
O	  0.000000000000 	  6.003750111962 	  0.000000000000 	
O	  1.000000000000 	  6.003750111962 	  2.980000000000 	
O	  3.980000000000 	  2.023750111962 	  0.000000000000 	
O	  4.980000000000 	  2.023750111962 	  2.980000000000 	
O	  3.980000000000 	  6.003750111962 	  0.000000000000 	
O	  4.980000000000 	  6.003750111962 	  2.980000000000 	
O	  0.368891573944 	  0.000000000000 	  1.654858538018 	
O	  1.368891573944 	  0.000000000000 	  4.634858538018 	
O	  0.368891573944 	  3.980000000000 	  1.654858538018 	
O	  1.368891573944 	  3.980000000000 	  4.634858538018 	
O	  4.348891573944 	  0.000000000000 	  1.654858538018 	
O	  5.348891573944 	  0.000000000000 	  4.634858538018 	
O	  4.348891573944 	  3.980000000000 	  1.654858538018 	
O	  5.348891573944 	  3.980000000000 	  4.634858538018 	
O	  2.687754945062 	  1.539026583799 	  1.654858538018 	
O	  3.687754945062 	  1.539026583799 	  4.634858538018 	
O	  2.687754945062 	  5.519026583799 	  1.654858538018 	
O	  3.687754945062 	  5.519026583799 	  4.634858538018 	
O	  6.667754945062 	  1.539026583799 	  1.654858538018 	
O	  7.667754945062 	  1.539026583799 	  4.634858538018 	
O	  6.667754945062 	  5.519026583799 	  1.654858538018 	
O	  7.667754945062 	  5.519026583799 	  4.634858538018 	
64 
Energy: 5.1370691684989147e+00 
Mg	  0.000000000000 	  0.000000000000 	  0.000000000000 	
Mg	  1.000000000000 	  0.000000000000 	  2.980000000000 	
Mg	  0.000000000000 	  3.980000000000 	  0.000000000000 	
Mg	  1.000000000000 	  3.980000000000 	  2.980000000000 	
Mg	  3.980000000000 	  0.000000000000 	  0.000000000000 	
Mg	  4.980000000000 	  0.000000000000 	  2.980000000000 	
Mg	  3.980000000000 	  3.980000000000 	  0.000000000000 	
Mg	  4.980000000000 	  3.980000000000 	  2.980000000000 	
Mg	  1.829302259723 	  1.896931452635 	  0.000000000000 	
Mg	  2.829302259723 	  1.896931452635 	  2.980000000000 	
Mg	  1.829302259723 	  5.876931452635 	  0.000000000000 	
Mg	  2.829302259723 	  5.876931452635 	  2.980000000000 	
Mg	  5.809302259723 	  1.896931452635 	  0.000000000000 	
Mg	  6.809302259723 	  1.896931452635 	  2.980000000000 	
Mg	  5.809302259723 	  5.876931452635 	  0.000000000000 	
Mg	  6.809302259723 	  5.876931452635 	  2.980000000000 	
Mg	  2.370335803019 	  0.000000000000 	  1.694043873898 	
Mg	  3.370335803019 	  0.000000000000 	  4.674043873898 	
Mg	  2.370335803019 	  3.980000000000 	  1.694043873898 	
Mg	  3.370335803019 	  3.980000000000 	  4.674043873898 	
Mg	  6.350335803019 	  0.000000000000 	  1.694043873898 	
Mg	  7.350335803019 	  0.000000000000 	  4.674043873898 	
Mg	  6.350335803019 	  3.980000000000 	  1.694043873898 	
Mg	  7.350335803019 	  3.980000000000 	  4.674043873898 	
Mg	  0.338145964560 	  2.032189838459 	  1.694043873898 	
Mg	  1.338145964560 	  2.032189838459 	  4.674043873898 	
Mg	  0.338145964560 	  6.012189838459 	  1.694043873898 	
Mg	  1.338145964560 	  6.012189838459 	  4.674043873898 	
Mg	  4.318145964560 	  2.032189838459 	  1.694043873898 	
Mg	  5.318145964560 	  2.032189838459 	  4.674043873898 	
Mg	  4.318145964560 	  6.012189838459 	  1.694043873898 	
Mg	  5.318145964560 	  6.012189838459 	  4.674043873898 	
O	  2.032189838459 	  0.000000000000 	  0.000000000000 	
O	  3.032189838459 	  0.000000000000 	  2.980000000000 	
O	  2.032189838459 	  3.980000000000 	  0.000000000000 	
O	  3.032189838459 	  3.980000000000 	  2.980000000000 	
O	  6.012189838459 	  0.000000000000 	  0.000000000000 	
O	  7.012189838459 	  0.000000000000 	  2.980000000000 	
O	  6.012189838459 	  3.980000000000 	  0.000000000000 	
O	  7.012189838459 	  3.980000000000 	  2.980000000000 	
O	  0.000000000000 	  2.032189838459 	  0.000000000000 	
O	  1.000000000000 	  2.032189838459 	  2.980000000000 	
O	  0.000000000000 	  6.012189838459 	  0.000000000000 	
O	  1.000000000000 	  6.012189838459 	  2.980000000000 	
O	  3.980000000000 	  2.032189838459 	  0.000000000000 	
O	  4.980000000000 	  2.032189838459 	  2.980000000000 	
O	  3.980000000000 	  6.012189838459 	  0.000000000000 	
O	  4.980000000000 	  6.012189838459 	  2.980000000000 	
O	  0.338145964560 	  0.000000000000 	  1.694043873898 	
O	  1.338145964560 	  0.000000000000 	  4.674043873898 	
O	  0.338145964560 	  3.980000000000 	  1.694043873898 	
O	  1.338145964560 	  3.980000000000 	  4.674043873898 	
O	  4.318145964560 	  0.000000000000 	  1.694043873898 	
O	  5.318145964560 	  0.000000000000 	  4.674043873898 	
O	  4.318145964560 	  3.980000000000 	  1.694043873898 	
O	  5.318145964560 	  3.980000000000 	  4.674043873898 	
O	  2.640852574667 	  1.587866041026 	  1.694043873898 	
O	  3.640852574667 	  1.587866041026 	  4.674043873898 	
O	  2.640852574667 	  5.567866041026 	  1.694043873898 	
O	  3.640852574667 	  5.567866041026 	  4.674043873898 	
O	  6.620852574667 	  1.587866041026 	  1.694043873898 	
O	  7.620852574667 	  1.587866041026 	  4.674043873898 	
O	  6.620852574667 	  5.567866041026 	  1.694043873898 	
O	  7.620852574667 	  5.567866041026 	  4.674043873898 	
64 
Energy: 5.5756147841538066e+00 
Mg	  0.000000000000 	  0.000000000000 	  0.000000000000 	
Mg	  1.000000000000 	  0.000000000000 	  2.980000000000 	
Mg	  0.000000000000 	  3.980000000000 	  0.000000000000 	
Mg	  1.000000000000 	  3.980000000000 	  2.980000000000 	
Mg	  3.980000000000 	  0.000000000000 	  0.000000000000 	
Mg	  4.980000000000 	  0.000000000000 	  2.980000000000 	
Mg	  3.980000000000 	  3.980000000000 	  0.000000000000 	
Mg	  4.980000000000 	  3.980000000000 	  2.980000000000 	
Mg	  1.856193429257 	  1.917672879768 	  0.000000000000 	
Mg	  2.856193429257 	  1.917672879768 	  2.980000000000 	
Mg	  1.856193429257 	  5.897672879768 	  0.000000000000 	
Mg	  2.856193429257 	  5.897672879768 	  2.980000000000 	
Mg	  5.836193429257 	  1.917672879768 	  0.000000000000 	
Mg	  6.836193429257 	  1.917672879768 	  2.980000000000 	
Mg	  5.836193429257 	  5.897672879768 	  0.000000000000 	
Mg	  6.836193429257 	  5.897672879768 	  2.980000000000 	
Mg	  2.348029033343 	  0.000000000000 	  1.733234528236 	
Mg	  3.348029033343 	  0.000000000000 	  4.713234528236 	
Mg	  2.348029033343 	  3.980000000000 	  1.733234528236 	
Mg	  3.348029033343 	  3.980000000000 	  4.713234528236 	
Mg	  6.328029033343 	  0.000000000000 	  1.733234528236 	
Mg	  7.328029033343 	  0.000000000000 	  4.713234528236 	
Mg	  6.328029033343 	  3.980000000000 	  1.733234528236 	
Mg	  7.328029033343 	  3.980000000000 	  4.713234528236 	
Mg	  0.307397252554 	  2.040631780789 	  1.733234528236 	
Mg	  1.307397252554 	  2.040631780789 	  4.713234528236 	
Mg	  0.307397252554 	  6.020631780789 	  1.733234528236 	
Mg	  1.307397252554 	  6.020631780789 	  4.713234528236 	
Mg	  4.287397252554 	  2.040631780789 	  1.733234528236 	
Mg	  5.287397252554 	  2.040631780789 	  4.713234528236 	
Mg	  4.287397252554 	  6.020631780789 	  1.733234528236 	
Mg	  5.287397252554 	  6.020631780789 	  4.713234528236 	
O	  2.040631780789 	  0.000000000000 	  0.000000000000 	
O	  3.040631780789 	  0.000000000000 	  2.980000000000 	
O	  2.040631780789 	  3.980000000000 	  0.000000000000 	
O	  3.040631780789 	  3.980000000000 	  2.980000000000 	
O	  6.020631780789 	  0.000000000000 	  0.000000000000 	
O	  7.020631780789 	  0.000000000000 	  2.980000000000 	
O	  6.020631780789 	  3.980000000000 	  0.000000000000 	
O	  7.020631780789 	  3.980000000000 	  2.980000000000 	
O	  0.000000000000 	  2.040631780789 	  0.000000000000 	
O	  1.000000000000 	  2.040631780789 	  2.980000000000 	
O	  0.000000000000 	  6.020631780789 	  0.000000000000 	
O	  1.000000000000 	  6.020631780789 	  2.980000000000 	
O	  3.980000000000 	  2.040631780789 	  0.000000000000 	
O	  4.980000000000 	  2.040631780789 	  2.980000000000 	
O	  3.980000000000 	  6.020631780789 	  0.000000000000 	
O	  4.980000000000 	  6.020631780789 	  2.980000000000 	
O	  0.307397252554 	  0.000000000000 	  1.733234528236 	
O	  1.307397252554 	  0.000000000000 	  4.713234528236 	
O	  0.307397252554 	  3.980000000000 	  1.733234528236 	
O	  1.307397252554 	  3.980000000000 	  4.713234528236 	
O	  4.287397252554 	  0.000000000000 	  1.733234528236 	
O	  5.287397252554 	  0.000000000000 	  4.713234528236 	
O	  4.287397252554 	  3.980000000000 	  1.733234528236 	
O	  5.287397252554 	  3.980000000000 	  4.713234528236 	
O	  2.593946835386 	  1.636711790934 	  1.733234528236 	
O	  3.593946835386 	  1.636711790934 	  4.713234528236 	
O	  2.593946835386 	  5.616711790934 	  1.733234528236 	
O	  3.593946835386 	  5.616711790934 	  4.713234528236 	
O	  6.573946835386 	  1.636711790934 	  1.733234528236 	
O	  7.573946835386 	  1.636711790934 	  4.713234528236 	
O	  6.573946835386 	  5.616711790934 	  1.733234528236 	
O	  7.573946835386 	  5.616711790934 	  4.713234528236 	
64 
Energy: 5.7904368299370823e+00 
Mg	  0.000000000000 	  0.000000000000 	  0.000000000000 	
Mg	  1.000000000000 	  0.000000000000 	  2.980000000000 	
Mg	  0.000000000000 	  3.980000000000 	  0.000000000000 	
Mg	  1.000000000000 	  3.980000000000 	  2.980000000000 	
Mg	  3.980000000000 	  0.000000000000 	  0.000000000000 	
Mg	  4.980000000000 	  0.000000000000 	  2.980000000000 	
Mg	  3.980000000000 	  3.980000000000 	  0.000000000000 	
Mg	  4.980000000000 	  3.980000000000 	  2.980000000000 	
Mg	  1.883086792533 	  1.938416183211 	  0.000000000000 	
Mg	  2.883086792533 	  1.938416183211 	  2.980000000000 	
Mg	  1.883086792533 	  5.918416183211 	  0.000000000000 	
Mg	  2.883086792533 	  5.918416183211 	  2.980000000000 	
Mg	  5.863086792533 	  1.938416183211 	  0.000000000000 	
Mg	  6.863086792533 	  1.938416183211 	  2.980000000000 	
Mg	  5.863086792533 	  5.918416183211 	  0.000000000000 	
Mg	  6.863086792533 	  5.918416183211 	  2.980000000000 	
Mg	  2.325721917954 	  0.000000000000 	  1.772428011178 	
Mg	  3.325721917954 	  0.000000000000 	  4.752428011178 	
Mg	  2.325721917954 	  3.980000000000 	  1.772428011178 	
Mg	  3.325721917954 	  3.980000000000 	  4.752428011178 	
Mg	  6.305721917954 	  0.000000000000 	  1.772428011178 	
Mg	  7.305721917954 	  0.000000000000 	  4.752428011178 	
Mg	  6.305721917954 	  3.980000000000 	  1.772428011178 	
Mg	  7.305721917954 	  3.980000000000 	  4.752428011178 	
Mg	  0.276646953388 	  2.049074964566 	  1.772428011178 	
Mg	  1.276646953388 	  2.049074964566 	  4.752428011178 	
Mg	  0.276646953388 	  6.029074964566 	  1.772428011178 	
Mg	  1.276646953388 	  6.029074964566 	  4.752428011178 	
Mg	  4.256646953388 	  2.049074964566 	  1.772428011178 	
Mg	  5.256646953388 	  2.049074964566 	  4.752428011178 	
Mg	  4.256646953388 	  6.029074964566 	  1.772428011178 	
Mg	  5.256646953388 	  6.029074964566 	  4.752428011178 	
O	  2.049074964566 	  0.000000000000 	  0.000000000000 	
O	  3.049074964566 	  0.000000000000 	  2.980000000000 	
O	  2.049074964566 	  3.980000000000 	  0.000000000000 	
O	  3.049074964566 	  3.980000000000 	  2.980000000000 	
O	  6.029074964566 	  0.000000000000 	  0.000000000000 	
O	  7.029074964566 	  0.000000000000 	  2.980000000000 	
O	  6.029074964566 	  3.980000000000 	  0.000000000000 	
O	  7.029074964566 	  3.980000000000 	  2.980000000000 	
O	  0.000000000000 	  2.049074964566 	  0.000000000000 	
O	  1.000000000000 	  2.049074964566 	  2.980000000000 	
O	  0.000000000000 	  6.029074964566 	  0.000000000000 	
O	  1.000000000000 	  6.029074964566 	  2.980000000000 	
O	  3.980000000000 	  2.049074964566 	  0.000000000000 	
O	  4.980000000000 	  2.049074964566 	  2.980000000000 	
O	  3.980000000000 	  6.029074964566 	  0.000000000000 	
O	  4.980000000000 	  6.029074964566 	  2.980000000000 	
O	  0.276646953388 	  0.000000000000 	  1.772428011178 	
O	  1.276646953388 	  0.000000000000 	  4.752428011178 	
O	  0.276646953388 	  3.980000000000 	  1.772428011178 	
O	  1.276646953388 	  3.980000000000 	  4.752428011178 	
O	  4.256646953388 	  0.000000000000 	  1.772428011178 	
O	  5.256646953388 	  0.000000000000 	  4.752428011178 	
O	  4.256646953388 	  3.980000000000 	  1.772428011178 	
O	  5.256646953388 	  3.980000000000 	  4.752428011178 	
O	  2.547039480664 	  1.685560867815 	  1.772428011178 	
O	  3.547039480664 	  1.685560867815 	  4.752428011178 	
O	  2.547039480664 	  5.665560867815 	  1.772428011178 	
O	  3.547039480664 	  5.665560867815 	  4.752428011178 	
O	  6.527039480664 	  1.685560867815 	  1.772428011178 	
O	  7.527039480664 	  1.685560867815 	  4.752428011178 	
O	  6.527039480664 	  5.665560867815 	  1.772428011178 	
O	  7.527039480664 	  5.665560867815 	  4.752428011178 	
64 
Energy: 5.7424929305882237e+00 
Mg	  0.000000000000 	  0.000000000000 	  0.000000000000 	
Mg	  1.000000000000 	  0.000000000000 	  2.980000000000 	
Mg	  0.000000000000 	  3.980000000000 	  0.000000000000 	
Mg	  1.000000000000 	  3.980000000000 	  2.980000000000 	
Mg	  3.980000000000 	  0.000000000000 	  0.000000000000 	
Mg	  4.980000000000 	  0.000000000000 	  2.980000000000 	
Mg	  3.980000000000 	  3.980000000000 	  0.000000000000 	
Mg	  4.980000000000 	  3.980000000000 	  2.980000000000 	
Mg	  1.909980809139 	  1.959160030900 	  0.000000000000 	
Mg	  2.909980809139 	  1.959160030900 	  2.980000000000 	
Mg	  1.909980809139 	  5.939160030900 	  0.000000000000 	
Mg	  2.909980809139 	  5.939160030900 	  2.980000000000 	
Mg	  5.889980809139 	  1.959160030900 	  0.000000000000 	
Mg	  6.889980809139 	  1.959160030900 	  2.980000000000 	
Mg	  5.889980809139 	  5.939160030900 	  0.000000000000 	
Mg	  6.889980809139 	  5.939160030900 	  2.980000000000 	
Mg	  2.303414583230 	  0.000000000000 	  1.811622365616 	
Mg	  3.303414583230 	  0.000000000000 	  4.791622365616 	
Mg	  2.303414583230 	  3.980000000000 	  1.811622365616 	
Mg	  3.303414583230 	  3.980000000000 	  4.791622365616 	
Mg	  6.283414583230 	  0.000000000000 	  1.811622365616 	
Mg	  7.283414583230 	  0.000000000000 	  4.791622365616 	
Mg	  6.283414583230 	  3.980000000000 	  1.811622365616 	
Mg	  7.283414583230 	  3.980000000000 	  4.791622365616 	
Mg	  0.245896108807 	  2.057518474423 	  1.811622365616 	
Mg	  1.245896108807 	  2.057518474423 	  4.791622365616 	
Mg	  0.245896108807 	  6.037518474423 	  1.811622365616 	
Mg	  1.245896108807 	  6.037518474423 	  4.791622365616 	
Mg	  4.225896108807 	  2.057518474423 	  1.811622365616 	
Mg	  5.225896108807 	  2.057518474423 	  4.791622365616 	
Mg	  4.225896108807 	  6.037518474423 	  1.811622365616 	
Mg	  5.225896108807 	  6.037518474423 	  4.791622365616 	
O	  2.057518474423 	  0.000000000000 	  0.000000000000 	
O	  3.057518474423 	  0.000000000000 	  2.980000000000 	
O	  2.057518474423 	  3.980000000000 	  0.000000000000 	
O	  3.057518474423 	  3.980000000000 	  2.980000000000 	
O	  6.037518474423 	  0.000000000000 	  0.000000000000 	
O	  7.037518474423 	  0.000000000000 	  2.980000000000 	
O	  6.037518474423 	  3.980000000000 	  0.000000000000 	
O	  7.037518474423 	  3.980000000000 	  2.980000000000 	
O	  0.000000000000 	  2.057518474423 	  0.000000000000 	
O	  1.000000000000 	  2.057518474423 	  2.980000000000 	
O	  0.000000000000 	  6.037518474423 	  0.000000000000 	
O	  1.000000000000 	  6.037518474423 	  2.980000000000 	
O	  3.980000000000 	  2.057518474423 	  0.000000000000 	
O	  4.980000000000 	  2.057518474423 	  2.980000000000 	
O	  3.980000000000 	  6.037518474423 	  0.000000000000 	
O	  4.980000000000 	  6.037518474423 	  2.980000000000 	
O	  0.245896108807 	  0.000000000000 	  1.811622365616 	
O	  1.245896108807 	  0.000000000000 	  4.791622365616 	
O	  0.245896108807 	  3.980000000000 	  1.811622365616 	
O	  1.245896108807 	  3.980000000000 	  4.791622365616 	
O	  4.225896108807 	  0.000000000000 	  1.811622365616 	
O	  5.225896108807 	  0.000000000000 	  4.791622365616 	
O	  4.225896108807 	  3.980000000000 	  1.811622365616 	
O	  5.225896108807 	  3.980000000000 	  4.791622365616 	
O	  2.500131470275 	  1.734410987451 	  1.811622365616 	
O	  3.500131470275 	  1.734410987451 	  4.791622365616 	
O	  2.500131470275 	  5.714410987451 	  1.811622365616 	
O	  3.500131470275 	  5.714410987451 	  4.791622365616 	
O	  6.480131470275 	  1.734410987451 	  1.811622365616 	
O	  7.480131470275 	  1.734410987451 	  4.791622365616 	
O	  6.480131470275 	  5.714410987451 	  1.811622365616 	
O	  7.480131470275 	  5.714410987451 	  4.791622365616 	
64 
Energy: 5.4182549363789771e+00 
Mg	  0.000000000000 	  0.000000000000 	  0.000000000000 	
Mg	  1.000000000000 	  0.000000000000 	  2.980000000000 	
Mg	  0.000000000000 	  3.980000000000 	  0.000000000000 	
Mg	  1.000000000000 	  3.980000000000 	  2.980000000000 	
Mg	  3.980000000000 	  0.000000000000 	  0.000000000000 	
Mg	  4.980000000000 	  0.000000000000 	  2.980000000000 	
Mg	  3.980000000000 	  3.980000000000 	  0.000000000000 	
Mg	  4.980000000000 	  3.980000000000 	  2.980000000000 	
Mg	  1.936873831832 	  1.979903075296 	  0.000000000000 	
Mg	  2.936873831832 	  1.979903075296 	  2.980000000000 	
Mg	  1.936873831832 	  5.959903075296 	  0.000000000000 	
Mg	  2.936873831832 	  5.959903075296 	  2.980000000000 	
Mg	  5.916873831832 	  1.979903075296 	  0.000000000000 	
Mg	  6.916873831832 	  1.979903075296 	  2.980000000000 	
Mg	  5.916873831832 	  5.959903075296 	  0.000000000000 	
Mg	  6.916873831832 	  5.959903075296 	  2.980000000000 	
Mg	  2.281107779537 	  0.000000000000 	  1.850815344906 	
Mg	  3.281107779537 	  0.000000000000 	  4.830815344906 	
Mg	  2.281107779537 	  3.980000000000 	  1.850815344906 	
Mg	  3.281107779537 	  3.980000000000 	  4.830815344906 	
Mg	  6.261107779537 	  0.000000000000 	  1.850815344906 	
Mg	  7.261107779537 	  0.000000000000 	  4.830815344906 	
Mg	  6.261107779537 	  3.980000000000 	  1.850815344906 	
Mg	  7.261107779537 	  3.980000000000 	  4.830815344906 	
Mg	  0.215146217316 	  2.065961562222 	  1.850815344906 	
Mg	  1.215146217316 	  2.065961562222 	  4.830815344906 	
Mg	  0.215146217316 	  6.045961562222 	  1.850815344906 	
Mg	  1.215146217316 	  6.045961562222 	  4.830815344906 	
Mg	  4.195146217316 	  2.065961562222 	  1.850815344906 	
Mg	  5.195146217316 	  2.065961562222 	  4.830815344906 	
Mg	  4.195146217316 	  6.045961562222 	  1.850815344906 	
Mg	  5.195146217316 	  6.045961562222 	  4.830815344906 	
O	  2.065961562222 	  0.000000000000 	  0.000000000000 	
O	  3.065961562222 	  0.000000000000 	  2.980000000000 	
O	  2.065961562222 	  3.980000000000 	  0.000000000000 	
O	  3.065961562222 	  3.980000000000 	  2.980000000000 	
O	  6.045961562222 	  0.000000000000 	  0.000000000000 	
O	  7.045961562222 	  0.000000000000 	  2.980000000000 	
O	  6.045961562222 	  3.980000000000 	  0.000000000000 	
O	  7.045961562222 	  3.980000000000 	  2.980000000000 	
O	  0.000000000000 	  2.065961562222 	  0.000000000000 	
O	  1.000000000000 	  2.065961562222 	  2.980000000000 	
O	  0.000000000000 	  6.045961562222 	  0.000000000000 	
O	  1.000000000000 	  6.045961562222 	  2.980000000000 	
O	  3.980000000000 	  2.065961562222 	  0.000000000000 	
O	  4.980000000000 	  2.065961562222 	  2.980000000000 	
O	  3.980000000000 	  6.045961562222 	  0.000000000000 	
O	  4.980000000000 	  6.045961562222 	  2.980000000000 	
O	  0.215146217316 	  0.000000000000 	  1.850815344906 	
O	  1.215146217316 	  0.000000000000 	  4.830815344906 	
O	  0.215146217316 	  3.980000000000 	  1.850815344906 	
O	  1.215146217316 	  3.980000000000 	  4.830815344906 	
O	  4.195146217316 	  0.000000000000 	  1.850815344906 	
O	  5.195146217316 	  0.000000000000 	  4.830815344906 	
O	  4.195146217316 	  3.980000000000 	  1.850815344906 	
O	  5.195146217316 	  3.980000000000 	  4.830815344906 	
O	  2.453224753390 	  1.783259432669 	  1.850815344906 	
O	  3.453224753390 	  1.783259432669 	  4.830815344906 	
O	  2.453224753390 	  5.763259432669 	  1.850815344906 	
O	  3.453224753390 	  5.763259432669 	  4.830815344906 	
O	  6.433224753390 	  1.783259432669 	  1.850815344906 	
O	  7.433224753390 	  1.783259432669 	  4.830815344906 	
O	  6.433224753390 	  5.763259432669 	  1.850815344906 	
O	  7.433224753390 	  5.763259432669 	  4.830815344906 	
64 
Energy: 4.8297304601012589e+00 
Mg	  0.000000000000 	  0.000000000000 	  0.000000000000 	
Mg	  1.000000000000 	  0.000000000000 	  2.980000000000 	
Mg	  0.000000000000 	  3.980000000000 	  0.000000000000 	
Mg	  1.000000000000 	  3.980000000000 	  2.980000000000 	
Mg	  3.980000000000 	  0.000000000000 	  0.000000000000 	
Mg	  4.980000000000 	  0.000000000000 	  2.980000000000 	
Mg	  3.980000000000 	  3.980000000000 	  0.000000000000 	
Mg	  4.980000000000 	  3.980000000000 	  2.980000000000 	
Mg	  1.963764401230 	  2.000644109933 	  0.000000000000 	
Mg	  2.963764401230 	  2.000644109933 	  2.980000000000 	
Mg	  1.963764401230 	  5.980644109933 	  0.000000000000 	
Mg	  2.963764401230 	  5.980644109933 	  2.980000000000 	
Mg	  5.943764401230 	  2.000644109933 	  0.000000000000 	
Mg	  6.943764401230 	  2.000644109933 	  2.980000000000 	
Mg	  5.943764401230 	  5.980644109933 	  0.000000000000 	
Mg	  6.943764401230 	  5.980644109933 	  2.980000000000 	
Mg	  2.258802070849 	  0.000000000000 	  1.890004983825 	
Mg	  3.258802070849 	  0.000000000000 	  4.870004983825 	
Mg	  2.258802070849 	  3.980000000000 	  1.890004983825 	
Mg	  3.258802070849 	  3.980000000000 	  4.870004983825 	
Mg	  6.238802070849 	  0.000000000000 	  1.890004983825 	
Mg	  7.238802070849 	  0.000000000000 	  4.870004983825 	
Mg	  6.238802070849 	  3.980000000000 	  1.890004983825 	
Mg	  7.238802070849 	  3.980000000000 	  4.870004983825 	
Mg	  0.184398543512 	  2.074403527337 	  1.890004983825 	
Mg	  1.184398543512 	  2.074403527337 	  4.870004983825 	
Mg	  0.184398543512 	  6.054403527337 	  1.890004983825 	
Mg	  1.184398543512 	  6.054403527337 	  4.870004983825 	
Mg	  4.164398543512 	  2.074403527337 	  1.890004983825 	
Mg	  5.164398543512 	  2.074403527337 	  4.870004983825 	
Mg	  4.164398543512 	  6.054403527337 	  1.890004983825 	
Mg	  5.164398543512 	  6.054403527337 	  4.870004983825 	
O	  2.074403527337 	  0.000000000000 	  0.000000000000 	
O	  3.074403527337 	  0.000000000000 	  2.980000000000 	
O	  2.074403527337 	  3.980000000000 	  0.000000000000 	
O	  3.074403527337 	  3.980000000000 	  2.980000000000 	
O	  6.054403527337 	  0.000000000000 	  0.000000000000 	
O	  7.054403527337 	  0.000000000000 	  2.980000000000 	
O	  6.054403527337 	  3.980000000000 	  0.000000000000 	
O	  7.054403527337 	  3.980000000000 	  2.980000000000 	
O	  0.000000000000 	  2.074403527337 	  0.000000000000 	
O	  1.000000000000 	  2.074403527337 	  2.980000000000 	
O	  0.000000000000 	  6.054403527337 	  0.000000000000 	
O	  1.000000000000 	  6.054403527337 	  2.980000000000 	
O	  3.980000000000 	  2.074403527337 	  0.000000000000 	
O	  4.980000000000 	  2.074403527337 	  2.980000000000 	
O	  3.980000000000 	  6.054403527337 	  0.000000000000 	
O	  4.980000000000 	  6.054403527337 	  2.980000000000 	
O	  0.184398543512 	  0.000000000000 	  1.890004983825 	
O	  1.184398543512 	  0.000000000000 	  4.870004983825 	
O	  0.184398543512 	  3.980000000000 	  1.890004983825 	
O	  1.184398543512 	  3.980000000000 	  4.870004983825 	
O	  4.164398543512 	  0.000000000000 	  1.890004983825 	
O	  5.164398543512 	  0.000000000000 	  4.870004983825 	
O	  4.164398543512 	  3.980000000000 	  1.890004983825 	
O	  5.164398543512 	  3.980000000000 	  4.870004983825 	
O	  2.406320905659 	  1.832103841163 	  1.890004983825 	
O	  3.406320905659 	  1.832103841163 	  4.870004983825 	
O	  2.406320905659 	  5.812103841163 	  1.890004983825 	
O	  3.406320905659 	  5.812103841163 	  4.870004983825 	
O	  6.386320905659 	  1.832103841163 	  1.890004983825 	
O	  7.386320905659 	  1.832103841163 	  4.870004983825 	
O	  6.386320905659 	  5.812103841163 	  1.890004983825 	
O	  7.386320905659 	  5.812103841163 	  4.870004983825 	
64 
Energy: 4.0153454429407018e+00 
Mg	  0.000000000000 	  0.000000000000 	  0.000000000000 	
Mg	  1.000000000000 	  0.000000000000 	  2.980000000000 	
Mg	  0.000000000000 	  3.980000000000 	  0.000000000000 	
Mg	  1.000000000000 	  3.980000000000 	  2.980000000000 	
Mg	  3.980000000000 	  0.000000000000 	  0.000000000000 	
Mg	  4.980000000000 	  0.000000000000 	  2.980000000000 	
Mg	  3.980000000000 	  3.980000000000 	  0.000000000000 	
Mg	  4.980000000000 	  3.980000000000 	  2.980000000000 	
Mg	  1.990651276426 	  2.021382090794 	  0.000000000000 	
Mg	  2.990651276426 	  2.021382090794 	  2.980000000000 	
Mg	  1.990651276426 	  6.001382090794 	  0.000000000000 	
Mg	  2.990651276426 	  6.001382090794 	  2.980000000000 	
Mg	  5.970651276426 	  2.021382090794 	  0.000000000000 	
Mg	  6.970651276426 	  2.021382090794 	  2.980000000000 	
Mg	  5.970651276426 	  6.001382090794 	  0.000000000000 	
Mg	  6.970651276426 	  6.001382090794 	  2.980000000000 	
Mg	  2.236497791374 	  0.000000000000 	  1.929189647688 	
Mg	  3.236497791374 	  0.000000000000 	  4.909189647688 	
Mg	  2.236497791374 	  3.980000000000 	  1.929189647688 	
Mg	  3.236497791374 	  3.980000000000 	  4.909189647688 	
Mg	  6.216497791374 	  0.000000000000 	  1.929189647688 	
Mg	  7.216497791374 	  0.000000000000 	  4.909189647688 	
Mg	  6.216497791374 	  3.980000000000 	  1.929189647688 	
Mg	  7.216497791374 	  3.980000000000 	  4.909189647688 	
Mg	  0.153654071843 	  2.082843719531 	  1.929189647688 	
Mg	  1.153654071843 	  2.082843719531 	  4.909189647688 	
Mg	  0.153654071843 	  6.062843719531 	  1.929189647688 	
Mg	  1.153654071843 	  6.062843719531 	  4.909189647688 	
Mg	  4.133654071843 	  2.082843719531 	  1.929189647688 	
Mg	  5.133654071843 	  2.082843719531 	  4.909189647688 	
Mg	  4.133654071843 	  6.062843719531 	  1.929189647688 	
Mg	  5.133654071843 	  6.062843719531 	  4.909189647688 	
O	  2.082843719531 	  0.000000000000 	  0.000000000000 	
O	  3.082843719531 	  0.000000000000 	  2.980000000000 	
O	  2.082843719531 	  3.980000000000 	  0.000000000000 	
O	  3.082843719531 	  3.980000000000 	  2.980000000000 	
O	  6.062843719531 	  0.000000000000 	  0.000000000000 	
O	  7.062843719531 	  0.000000000000 	  2.980000000000 	
O	  6.062843719531 	  3.980000000000 	  0.000000000000 	
O	  7.062843719531 	  3.980000000000 	  2.980000000000 	
O	  0.000000000000 	  2.082843719531 	  0.000000000000 	
O	  1.000000000000 	  2.082843719531 	  2.980000000000 	
O	  0.000000000000 	  6.062843719531 	  0.000000000000 	
O	  1.000000000000 	  6.062843719531 	  2.980000000000 	
O	  3.980000000000 	  2.082843719531 	  0.000000000000 	
O	  4.980000000000 	  2.082843719531 	  2.980000000000 	
O	  3.980000000000 	  6.062843719531 	  0.000000000000 	
O	  4.980000000000 	  6.062843719531 	  2.980000000000 	
O	  0.153654071843 	  0.000000000000 	  1.929189647688 	
O	  1.153654071843 	  0.000000000000 	  4.909189647688 	
O	  0.153654071843 	  3.980000000000 	  1.929189647688 	
O	  1.153654071843 	  3.980000000000 	  4.909189647688 	
O	  4.133654071843 	  0.000000000000 	  1.929189647688 	
O	  5.133654071843 	  0.000000000000 	  4.909189647688 	
O	  4.133654071843 	  3.980000000000 	  1.929189647688 	
O	  5.133654071843 	  3.980000000000 	  4.909189647688 	
O	  2.359421048848 	  1.880942269130 	  1.929189647688 	
O	  3.359421048848 	  1.880942269130 	  4.909189647688 	
O	  2.359421048848 	  5.860942269130 	  1.929189647688 	
O	  3.359421048848 	  5.860942269130 	  4.909189647688 	
O	  6.339421048848 	  1.880942269130 	  1.929189647688 	
O	  7.339421048848 	  1.880942269130 	  4.909189647688 	
O	  6.339421048848 	  5.860942269130 	  1.929189647688 	
O	  7.339421048848 	  5.860942269130 	  4.909189647688 	
64 
Energy: 3.0415450864084144e+00 
Mg	  0.000000000000 	  0.000000000000 	  0.000000000000 	
Mg	  1.000000000000 	  0.000000000000 	  2.980000000000 	
Mg	  0.000000000000 	  3.980000000000 	  0.000000000000 	
Mg	  1.000000000000 	  3.980000000000 	  2.980000000000 	
Mg	  3.980000000000 	  0.000000000000 	  0.000000000000 	
Mg	  4.980000000000 	  0.000000000000 	  2.980000000000 	
Mg	  3.980000000000 	  3.980000000000 	  0.000000000000 	
Mg	  4.980000000000 	  3.980000000000 	  2.980000000000 	
Mg	  2.017533405992 	  2.042116123704 	  0.000000000000 	
Mg	  3.017533405992 	  2.042116123704 	  2.980000000000 	
Mg	  2.017533405992 	  6.022116123704 	  0.000000000000 	
Mg	  3.017533405992 	  6.022116123704 	  2.980000000000 	
Mg	  5.997533405992 	  2.042116123704 	  0.000000000000 	
Mg	  6.997533405992 	  2.042116123704 	  2.980000000000 	
Mg	  5.997533405992 	  6.022116123704 	  0.000000000000 	
Mg	  6.997533405992 	  6.022116123704 	  2.980000000000 	
Mg	  2.214195147688 	  0.000000000000 	  1.968367970568 	
Mg	  3.214195147688 	  0.000000000000 	  4.948367970568 	
Mg	  2.214195147688 	  3.980000000000 	  1.968367970568 	
Mg	  3.214195147688 	  3.980000000000 	  4.948367970568 	
Mg	  6.194195147688 	  0.000000000000 	  1.968367970568 	
Mg	  7.194195147688 	  0.000000000000 	  4.948367970568 	
Mg	  6.194195147688 	  3.980000000000 	  1.968367970568 	
Mg	  7.194195147688 	  3.980000000000 	  4.948367970568 	
Mg	  0.122913588560 	  2.091281559128 	  1.968367970568 	
Mg	  1.122913588560 	  2.091281559128 	  4.948367970568 	
Mg	  0.122913588560 	  6.071281559128 	  1.968367970568 	
Mg	  1.122913588560 	  6.071281559128 	  4.948367970568 	
Mg	  4.102913588560 	  2.091281559128 	  1.968367970568 	
Mg	  5.102913588560 	  2.091281559128 	  4.948367970568 	
Mg	  4.102913588560 	  6.071281559128 	  1.968367970568 	
Mg	  5.102913588560 	  6.071281559128 	  4.948367970568 	
O	  2.091281559128 	  0.000000000000 	  0.000000000000 	
O	  3.091281559128 	  0.000000000000 	  2.980000000000 	
O	  2.091281559128 	  3.980000000000 	  0.000000000000 	
O	  3.091281559128 	  3.980000000000 	  2.980000000000 	
O	  6.071281559128 	  0.000000000000 	  0.000000000000 	
O	  7.071281559128 	  0.000000000000 	  2.980000000000 	
O	  6.071281559128 	  3.980000000000 	  0.000000000000 	
O	  7.071281559128 	  3.980000000000 	  2.980000000000 	
O	  0.000000000000 	  2.091281559128 	  0.000000000000 	
O	  1.000000000000 	  2.091281559128 	  2.980000000000 	
O	  0.000000000000 	  6.071281559128 	  0.000000000000 	
O	  1.000000000000 	  6.071281559128 	  2.980000000000 	
O	  3.980000000000 	  2.091281559128 	  0.000000000000 	
O	  4.980000000000 	  2.091281559128 	  2.980000000000 	
O	  3.980000000000 	  6.071281559128 	  0.000000000000 	
O	  4.980000000000 	  6.071281559128 	  2.980000000000 	
O	  0.122913588560 	  0.000000000000 	  1.968367970568 	
O	  1.122913588560 	  0.000000000000 	  4.948367970568 	
O	  0.122913588560 	  3.980000000000 	  1.968367970568 	
O	  1.122913588560 	  3.980000000000 	  4.948367970568 	
O	  4.102913588560 	  0.000000000000 	  1.968367970568 	
O	  5.102913588560 	  0.000000000000 	  4.948367970568 	
O	  4.102913588560 	  3.980000000000 	  1.968367970568 	
O	  5.102913588560 	  3.980000000000 	  4.948367970568 	
O	  2.312526018536 	  1.929773103760 	  1.968367970568 	
O	  3.312526018536 	  1.929773103760 	  4.948367970568 	
O	  2.312526018536 	  5.909773103760 	  1.968367970568 	
O	  3.312526018536 	  5.909773103760 	  4.948367970568 	
O	  6.292526018536 	  1.929773103760 	  1.968367970568 	
O	  7.292526018536 	  1.929773103760 	  4.948367970568 	
O	  6.292526018536 	  5.909773103760 	  1.968367970568 	
O	  7.292526018536 	  5.909773103760 	  4.948367970568 	
64 
Energy: 2.0050029783010976e+00 
Mg	  0.000000000000 	  0.000000000000 	  0.000000000000 	
Mg	  1.000000000000 	  0.000000000000 	  2.980000000000 	
Mg	  0.000000000000 	  3.980000000000 	  0.000000000000 	
Mg	  1.000000000000 	  3.980000000000 	  2.980000000000 	
Mg	  3.980000000000 	  0.000000000000 	  0.000000000000 	
Mg	  4.980000000000 	  0.000000000000 	  2.980000000000 	
Mg	  3.980000000000 	  3.980000000000 	  0.000000000000 	
Mg	  4.980000000000 	  3.980000000000 	  2.980000000000 	
Mg	  2.044409921608 	  2.062845457903 	  0.000000000000 	
Mg	  3.044409921608 	  2.062845457903 	  2.980000000000 	
Mg	  2.044409921608 	  6.042845457903 	  0.000000000000 	
Mg	  3.044409921608 	  6.042845457903 	  2.980000000000 	
Mg	  6.024409921608 	  2.062845457903 	  0.000000000000 	
Mg	  7.024409921608 	  2.062845457903 	  2.980000000000 	
Mg	  6.024409921608 	  6.042845457903 	  0.000000000000 	
Mg	  7.024409921608 	  6.042845457903 	  2.980000000000 	
Mg	  2.191894211967 	  0.000000000000 	  2.007538849018 	
Mg	  3.191894211967 	  0.000000000000 	  4.987538849018 	
Mg	  2.191894211967 	  3.980000000000 	  2.007538849018 	
Mg	  3.191894211967 	  3.980000000000 	  4.987538849018 	
Mg	  6.171894211967 	  0.000000000000 	  2.007538849018 	
Mg	  7.171894211967 	  0.000000000000 	  4.987538849018 	
Mg	  6.171894211967 	  3.980000000000 	  2.007538849018 	
Mg	  7.171894211967 	  3.980000000000 	  4.987538849018 	
Mg	  0.092177681474 	  2.099716530492 	  2.007538849018 	
Mg	  1.092177681474 	  2.099716530492 	  4.987538849018 	
Mg	  0.092177681474 	  6.079716530492 	  2.007538849018 	
Mg	  1.092177681474 	  6.079716530492 	  4.987538849018 	
Mg	  4.072177681474 	  2.099716530492 	  2.007538849018 	
Mg	  5.072177681474 	  2.099716530492 	  4.987538849018 	
Mg	  4.072177681474 	  6.079716530492 	  2.007538849018 	
Mg	  5.072177681474 	  6.079716530492 	  4.987538849018 	
O	  2.099716530492 	  0.000000000000 	  0.000000000000 	
O	  3.099716530492 	  0.000000000000 	  2.980000000000 	
O	  2.099716530492 	  3.980000000000 	  0.000000000000 	
O	  3.099716530492 	  3.980000000000 	  2.980000000000 	
O	  6.079716530492 	  0.000000000000 	  0.000000000000 	
O	  7.079716530492 	  0.000000000000 	  2.980000000000 	
O	  6.079716530492 	  3.980000000000 	  0.000000000000 	
O	  7.079716530492 	  3.980000000000 	  2.980000000000 	
O	  0.000000000000 	  2.099716530492 	  0.000000000000 	
O	  1.000000000000 	  2.099716530492 	  2.980000000000 	
O	  0.000000000000 	  6.079716530492 	  0.000000000000 	
O	  1.000000000000 	  6.079716530492 	  2.980000000000 	
O	  3.980000000000 	  2.099716530492 	  0.000000000000 	
O	  4.980000000000 	  2.099716530492 	  2.980000000000 	
O	  3.980000000000 	  6.079716530492 	  0.000000000000 	
O	  4.980000000000 	  6.079716530492 	  2.980000000000 	
O	  0.092177681474 	  0.000000000000 	  2.007538849018 	
O	  1.092177681474 	  0.000000000000 	  4.987538849018 	
O	  0.092177681474 	  3.980000000000 	  2.007538849018 	
O	  1.092177681474 	  3.980000000000 	  4.987538849018 	
O	  4.072177681474 	  0.000000000000 	  2.007538849018 	
O	  5.072177681474 	  0.000000000000 	  4.987538849018 	
O	  4.072177681474 	  3.980000000000 	  2.007538849018 	
O	  5.072177681474 	  3.980000000000 	  4.987538849018 	
O	  2.265636357146 	  1.978595057035 	  2.007538849018 	
O	  3.265636357146 	  1.978595057035 	  4.987538849018 	
O	  2.265636357146 	  5.958595057035 	  2.007538849018 	
O	  3.265636357146 	  5.958595057035 	  4.987538849018 	
O	  6.245636357146 	  1.978595057035 	  2.007538849018 	
O	  7.245636357146 	  1.978595057035 	  4.987538849018 	
O	  6.245636357146 	  5.958595057035 	  2.007538849018 	
O	  7.245636357146 	  5.958595057035 	  4.987538849018 	
64 
Energy: 1.0353682522620227e+00 
Mg	  0.000000000000 	  0.000000000000 	  0.000000000000 	
Mg	  1.000000000000 	  0.000000000000 	  2.980000000000 	
Mg	  0.000000000000 	  3.980000000000 	  0.000000000000 	
Mg	  1.000000000000 	  3.980000000000 	  2.980000000000 	
Mg	  3.980000000000 	  0.000000000000 	  0.000000000000 	
Mg	  4.980000000000 	  0.000000000000 	  2.980000000000 	
Mg	  3.980000000000 	  3.980000000000 	  0.000000000000 	
Mg	  4.980000000000 	  3.980000000000 	  2.980000000000 	
Mg	  2.071280144839 	  2.083569489759 	  0.000000000000 	
Mg	  3.071280144839 	  2.083569489759 	  2.980000000000 	
Mg	  2.071280144839 	  6.063569489759 	  0.000000000000 	
Mg	  3.071280144839 	  6.063569489759 	  2.980000000000 	
Mg	  6.051280144839 	  2.083569489759 	  0.000000000000 	
Mg	  7.051280144839 	  2.083569489759 	  2.980000000000 	
Mg	  6.051280144839 	  6.063569489759 	  0.000000000000 	
Mg	  7.051280144839 	  6.063569489759 	  2.980000000000 	
Mg	  2.169594904197 	  0.000000000000 	  2.046701455000 	
Mg	  3.169594904197 	  0.000000000000 	  5.026701455000 	
Mg	  2.169594904197 	  3.980000000000 	  2.046701455000 	
Mg	  3.169594904197 	  3.980000000000 	  5.026701455000 	
Mg	  6.149594904197 	  0.000000000000 	  2.046701455000 	
Mg	  7.149594904197 	  0.000000000000 	  5.026701455000 	
Mg	  6.149594904197 	  3.980000000000 	  2.046701455000 	
Mg	  7.149594904197 	  3.980000000000 	  5.026701455000 	
Mg	  0.061446724599 	  2.108148179598 	  2.046701455000 	
Mg	  1.061446724599 	  2.108148179598 	  5.026701455000 	
Mg	  0.061446724599 	  6.088148179598 	  2.046701455000 	
Mg	  1.061446724599 	  6.088148179598 	  5.026701455000 	
Mg	  4.041446724599 	  2.108148179598 	  2.046701455000 	
Mg	  5.041446724599 	  2.108148179598 	  5.026701455000 	
Mg	  4.041446724599 	  6.088148179598 	  2.046701455000 	
Mg	  5.041446724599 	  6.088148179598 	  5.026701455000 	
O	  2.108148179598 	  0.000000000000 	  0.000000000000 	
O	  3.108148179598 	  0.000000000000 	  2.980000000000 	
O	  2.108148179598 	  3.980000000000 	  0.000000000000 	
O	  3.108148179598 	  3.980000000000 	  2.980000000000 	
O	  6.088148179598 	  0.000000000000 	  0.000000000000 	
O	  7.088148179598 	  0.000000000000 	  2.980000000000 	
O	  6.088148179598 	  3.980000000000 	  0.000000000000 	
O	  7.088148179598 	  3.980000000000 	  2.980000000000 	
O	  0.000000000000 	  2.108148179598 	  0.000000000000 	
O	  1.000000000000 	  2.108148179598 	  2.980000000000 	
O	  0.000000000000 	  6.088148179598 	  0.000000000000 	
O	  1.000000000000 	  6.088148179598 	  2.980000000000 	
O	  3.980000000000 	  2.108148179598 	  0.000000000000 	
O	  4.980000000000 	  2.108148179598 	  2.980000000000 	
O	  3.980000000000 	  6.088148179598 	  0.000000000000 	
O	  4.980000000000 	  6.088148179598 	  2.980000000000 	
O	  0.061446724599 	  0.000000000000 	  2.046701455000 	
O	  1.061446724599 	  0.000000000000 	  5.026701455000 	
O	  0.061446724599 	  3.980000000000 	  2.046701455000 	
O	  1.061446724599 	  3.980000000000 	  5.026701455000 	
O	  4.041446724599 	  0.000000000000 	  2.046701455000 	
O	  5.041446724599 	  0.000000000000 	  5.026701455000 	
O	  4.041446724599 	  3.980000000000 	  2.046701455000 	
O	  5.041446724599 	  3.980000000000 	  5.026701455000 	
O	  2.218752283876 	  2.027407183476 	  2.046701455000 	
O	  3.218752283876 	  2.027407183476 	  5.026701455000 	
O	  2.218752283876 	  6.007407183476 	  2.046701455000 	
O	  3.218752283876 	  6.007407183476 	  5.026701455000 	
O	  6.198752283876 	  2.027407183476 	  2.046701455000 	
O	  7.198752283876 	  2.027407183476 	  5.026701455000 	
O	  6.198752283876 	  6.007407183476 	  2.046701455000 	
O	  7.198752283876 	  6.007407183476 	  5.026701455000 	
64 
Energy: 2.9848321826679142e-01 
Mg	  0.000000000000 	  0.000000000000 	  0.000000000000 	
Mg	  1.000000000000 	  0.000000000000 	  2.980000000000 	
Mg	  0.000000000000 	  3.980000000000 	  0.000000000000 	
Mg	  1.000000000000 	  3.980000000000 	  2.980000000000 	
Mg	  3.980000000000 	  0.000000000000 	  0.000000000000 	
Mg	  4.980000000000 	  0.000000000000 	  2.980000000000 	
Mg	  3.980000000000 	  3.980000000000 	  0.000000000000 	
Mg	  4.980000000000 	  3.980000000000 	  2.980000000000 	
Mg	  2.098143595469 	  2.104287768111 	  0.000000000000 	
Mg	  3.098143595469 	  2.104287768111 	  2.980000000000 	
Mg	  2.098143595469 	  6.084287768111 	  0.000000000000 	
Mg	  3.098143595469 	  6.084287768111 	  2.980000000000 	
Mg	  6.078143595469 	  2.104287768111 	  0.000000000000 	
Mg	  7.078143595469 	  2.104287768111 	  2.980000000000 	
Mg	  6.078143595469 	  6.084287768111 	  0.000000000000 	
Mg	  7.078143595469 	  6.084287768111 	  2.980000000000 	
Mg	  2.147296976602 	  0.000000000000 	  2.085855250186 	
Mg	  3.147296976602 	  0.000000000000 	  5.065855250186 	
Mg	  2.147296976602 	  3.980000000000 	  2.085855250186 	
Mg	  3.147296976602 	  3.980000000000 	  5.065855250186 	
Mg	  6.127296976602 	  0.000000000000 	  2.085855250186 	
Mg	  7.127296976602 	  0.000000000000 	  5.065855250186 	
Mg	  6.127296976602 	  3.980000000000 	  2.085855250186 	
Mg	  7.127296976602 	  3.980000000000 	  5.065855250186 	
Mg	  0.030720863208 	  2.116576113394 	  2.085855250186 	
Mg	  1.030720863208 	  2.116576113394 	  5.065855250186 	
Mg	  0.030720863208 	  6.096576113394 	  2.085855250186 	
Mg	  1.030720863208 	  6.096576113394 	  5.065855250186 	
Mg	  4.010720863208 	  2.116576113394 	  2.085855250186 	
Mg	  5.010720863208 	  2.116576113394 	  5.065855250186 	
Mg	  4.010720863208 	  6.096576113394 	  2.085855250186 	
Mg	  5.010720863208 	  6.096576113394 	  5.065855250186 	
O	  2.116576113394 	  0.000000000000 	  0.000000000000 	
O	  3.116576113394 	  0.000000000000 	  2.980000000000 	
O	  2.116576113394 	  3.980000000000 	  0.000000000000 	
O	  3.116576113394 	  3.980000000000 	  2.980000000000 	
O	  6.096576113394 	  0.000000000000 	  0.000000000000 	
O	  7.096576113394 	  0.000000000000 	  2.980000000000 	
O	  6.096576113394 	  3.980000000000 	  0.000000000000 	
O	  7.096576113394 	  3.980000000000 	  2.980000000000 	
O	  0.000000000000 	  2.116576113394 	  0.000000000000 	
O	  1.000000000000 	  2.116576113394 	  2.980000000000 	
O	  0.000000000000 	  6.096576113394 	  0.000000000000 	
O	  1.000000000000 	  6.096576113394 	  2.980000000000 	
O	  3.980000000000 	  2.116576113394 	  0.000000000000 	
O	  4.980000000000 	  2.116576113394 	  2.980000000000 	
O	  3.980000000000 	  6.096576113394 	  0.000000000000 	
O	  4.980000000000 	  6.096576113394 	  2.980000000000 	
O	  0.030720863208 	  0.000000000000 	  2.085855250186 	
O	  1.030720863208 	  0.000000000000 	  5.065855250186 	
O	  0.030720863208 	  3.980000000000 	  2.085855250186 	
O	  1.030720863208 	  3.980000000000 	  5.065855250186 	
O	  4.010720863208 	  0.000000000000 	  2.085855250186 	
O	  5.010720863208 	  0.000000000000 	  5.065855250186 	
O	  4.010720863208 	  3.980000000000 	  2.085855250186 	
O	  5.010720863208 	  3.980000000000 	  5.065855250186 	
O	  2.171873667169 	  2.076208899139 	  2.085855250186 	
O	  3.171873667169 	  2.076208899139 	  5.065855250186 	
O	  2.171873667169 	  6.056208899139 	  2.085855250186 	
O	  3.171873667169 	  6.056208899139 	  5.065855250186 	
O	  6.151873667169 	  2.076208899139 	  2.085855250186 	
O	  7.151873667169 	  2.076208899139 	  5.065855250186 	
O	  6.151873667169 	  6.056208899139 	  2.085855250186 	
O	  7.151873667169 	  6.056208899139 	  5.065855250186 	
64 
Energy: 0.0000000000000000e+00 
Mg	  0.000000000000 	  0.000000000000 	  0.000000000000 	
Mg	  1.000000000000 	  0.000000000000 	  2.980000000000 	
Mg	  0.000000000000 	  3.980000000000 	  0.000000000000 	
Mg	  1.000000000000 	  3.980000000000 	  2.980000000000 	
Mg	  3.980000000000 	  0.000000000000 	  0.000000000000 	
Mg	  4.980000000000 	  0.000000000000 	  2.980000000000 	
Mg	  3.980000000000 	  3.980000000000 	  0.000000000000 	
Mg	  4.980000000000 	  3.980000000000 	  2.980000000000 	
Mg	  2.125000000000 	  2.125000000000 	  0.000000000000 	
Mg	  3.125000000000 	  2.125000000000 	  2.980000000000 	
Mg	  2.125000000000 	  6.105000000000 	  0.000000000000 	
Mg	  3.125000000000 	  6.105000000000 	  2.980000000000 	
Mg	  6.105000000000 	  2.125000000000 	  0.000000000000 	
Mg	  7.105000000000 	  2.125000000000 	  2.980000000000 	
Mg	  6.105000000000 	  6.105000000000 	  0.000000000000 	
Mg	  7.105000000000 	  6.105000000000 	  2.980000000000 	
Mg	  2.125000000000 	  0.000000000000 	  2.125000000000 	
Mg	  3.125000000000 	  0.000000000000 	  5.105000000000 	
Mg	  2.125000000000 	  3.980000000000 	  2.125000000000 	
Mg	  3.125000000000 	  3.980000000000 	  5.105000000000 	
Mg	  6.105000000000 	  0.000000000000 	  2.125000000000 	
Mg	  7.105000000000 	  0.000000000000 	  5.105000000000 	
Mg	  6.105000000000 	  3.980000000000 	  2.125000000000 	
Mg	  7.105000000000 	  3.980000000000 	  5.105000000000 	
Mg	  0.000000000000 	  2.125000000000 	  2.125000000000 	
Mg	  1.000000000000 	  2.125000000000 	  5.105000000000 	
Mg	  0.000000000000 	  6.105000000000 	  2.125000000000 	
Mg	  1.000000000000 	  6.105000000000 	  5.105000000000 	
Mg	  3.980000000000 	  2.125000000000 	  2.125000000000 	
Mg	  4.980000000000 	  2.125000000000 	  5.105000000000 	
Mg	  3.980000000000 	  6.105000000000 	  2.125000000000 	
Mg	  4.980000000000 	  6.105000000000 	  5.105000000000 	
O	  2.125000000000 	  0.000000000000 	  0.000000000000 	
O	  3.125000000000 	  0.000000000000 	  2.980000000000 	
O	  2.125000000000 	  3.980000000000 	  0.000000000000 	
O	  3.125000000000 	  3.980000000000 	  2.980000000000 	
O	  6.105000000000 	  0.000000000000 	  0.000000000000 	
O	  7.105000000000 	  0.000000000000 	  2.980000000000 	
O	  6.105000000000 	  3.980000000000 	  0.000000000000 	
O	  7.105000000000 	  3.980000000000 	  2.980000000000 	
O	  0.000000000000 	  2.125000000000 	  0.000000000000 	
O	  1.000000000000 	  2.125000000000 	  2.980000000000 	
O	  0.000000000000 	  6.105000000000 	  0.000000000000 	
O	  1.000000000000 	  6.105000000000 	  2.980000000000 	
O	  3.980000000000 	  2.125000000000 	  0.000000000000 	
O	  4.980000000000 	  2.125000000000 	  2.980000000000 	
O	  3.980000000000 	  6.105000000000 	  0.000000000000 	
O	  4.980000000000 	  6.105000000000 	  2.980000000000 	
O	  0.000000000000 	  0.000000000000 	  2.125000000000 	
O	  1.000000000000 	  0.000000000000 	  5.105000000000 	
O	  0.000000000000 	  3.980000000000 	  2.125000000000 	
O	  1.000000000000 	  3.980000000000 	  5.105000000000 	
O	  3.980000000000 	  0.000000000000 	  2.125000000000 	
O	  4.980000000000 	  0.000000000000 	  5.105000000000 	
O	  3.980000000000 	  3.980000000000 	  2.125000000000 	
O	  4.980000000000 	  3.980000000000 	  5.105000000000 	
O	  2.125000000000 	  2.125000000000 	  2.125000000000 	
O	  3.125000000000 	  2.125000000000 	  5.105000000000 	
O	  2.125000000000 	  6.105000000000 	  2.125000000000 	
O	  3.125000000000 	  6.105000000000 	  5.105000000000 	
O	  6.105000000000 	  2.125000000000 	  2.125000000000 	
O	  7.105000000000 	  2.125000000000 	  5.105000000000 	
O	  6.105000000000 	  6.105000000000 	  2.125000000000 	
O	  7.105000000000 	  6.105000000000 	  5.105000000000 	
