  Invoking FHI-aims ...
  | Number of atoms                   :  96
  ...scf iterations...
  | Total energy corrected        :   -8.703932965041E+01 eV
  ...
  Total atomic forces (unitary forces cleaned)
     1  -2.4860519296E-01  5.9996957599E-01  1.8357919629E-01
     2  2.0874144378E-01  5.6765442153E-01  -1.9253527454E-01
     3  2.4860530053E-01  -5.9996948539E-01  -1.8357912659E-01
     4  -2.0874130436E-01  -5.6765420110E-01  1.9253533833E-01
     5  -8.1655187296E-01  1.4919508215E+00  2.3753969677E-01
     6  8.2516036834E-01  1.5885984367E+00  -4.4379553064E-01
     7  8.1655206836E-01  -1.4919506861E+00  -2.3753943189E-01
     8  -8.2516065721E-01  -1.5885985577E+00  4.4379583863E-01
     9  -3.0318159346E-01  2.0756195420E-01  -1.6232420845E-01
    10  5.9024630530E-01  4.6066850113E-01  1.4326355533E-01
    11  3.0318127844E-01  -2.0756159162E-01  1.6232395067E-01
    12  -5.9024674817E-01  -4.6066887336E-01  -1.4326328307E-01
    13  -4.8029760462E-01  -9.5770507600E-01  -1.0227915886E+00
    14  2.0720542323E-01  -1.2215414311E+00  1.0649289057E+00
    15  4.8029705493E-01  9.5770514575E-01  1.0227913015E+00
    16  -2.0720548204E-01  1.2215418953E+00  -1.0649282048E+00
    17  5.3796425630E-01  -7.5594845989E-01  -6.8199782126E-02
    18  -4.6763111292E-01  -9.2415800720E-01  3.4222669918E-01
    19  -5.3796357894E-01  7.5594868206E-01  6.8200265177E-02
    20  4.6763084070E-01  9.2415802118E-01  -3.4222718702E-01
    21  4.4928593902E-01  -9.7136545081E-01  -2.1931692588E-01
    22  -4.4673028097E-01  -9.8836208566E-01  2.4035477739E-01
    23  -4.4928631644E-01  9.7136565988E-01  2.1931639763E-01
    24  4.4673011601E-01  9.8836224670E-01  -2.4035502808E-01
    25  7.5911667251E-01  1.1975648219E-02  6.4944435846E-01
    26  -8.4353617337E-01  1.7707108535E-01  -9.3035234815E-01
    27  -7.5911668541E-01  -1.1976085709E-02  -6.4944456597E-01
    28  8.4353715380E-01  -1.7707095229E-01  9.3035208369E-01
    29  4.7720150455E-01  5.1963452296E-01  7.4287748440E-01
    30  -4.6662173936E-01  5.3870264186E-01  -7.4883447887E-01
    31  -4.7720144796E-01  -5.1963456499E-01  -7.4287748366E-01
    32  4.6662143880E-01  -5.3870280493E-01  7.4883416722E-01
    33  1.3011446768E-01  8.6419177897E-01  7.1466173492E-01
    34  -1.1767316881E-01  8.7650880229E-01  -6.9859790757E-01
    35  -1.3011447338E-01  -8.6419207061E-01  -7.1466150412E-01
    36  1.1767345281E-01  -8.7650905048E-01  6.9859772605E-01
    37  -7.9398748931E-01  7.1866269807E-01  -1.5844126130E-01
    38  7.9665606892E-01  7.3586372117E-01  1.4664770576E-01
    39  7.9398751655E-01  -7.1866287998E-01  1.5844132512E-01
    40  -7.9665595808E-01  -7.3586377534E-01  -1.4664730479E-01
    41  -6.9576144431E-01  9.4749294685E-01  5.2548280494E-02
    42  6.9759234669E-01  9.4819577428E-01  -5.5168410472E-02
    43  6.9576143079E-01  -9.4749294503E-01  -5.2548046012E-02
    44  -6.9759219224E-01  -9.4819559945E-01  5.5168573719E-02
    45  -1.9675278073E+00  1.5755892444E-01  -1.3200758173E+00
    46  1.7696914792E+00  -4.9018097867E-01  1.3200531951E+00
    47  1.9675258858E+00  -1.5755872723E-01  1.3200745938E+00
    48  -1.7696933405E+00  4.9017878966E-01  -1.3200529312E+00
    49  -4.8027538286E+00  2.1309157351E+00  4.3164214214E+00
    50  5.5568301347E+00  6.2704383607E+00  -7.8034098985E+00
    51  4.8026788641E+00  -2.1308649507E+00  -4.3163812538E+00
    52  -5.5568347485E+00  -6.2704359917E+00  7.8034143297E+00
    53  1.7617902685E+00  7.1571910192E-01  -1.1299738443E+00
    54  -2.3288466792E+00  8.1460296885E-01  1.5006569711E+00
    55  -1.7617432237E+00  -7.1570059847E-01  1.1299473223E+00
    56  2.3288541462E+00  -8.1460725102E-01  -1.5006620981E+00
    57  1.2001566862E+00  -2.1276701356E-01  1.0660051924E+00
    58  8.1317561745E-01  6.4240913761E-02  9.3974299411E-01
    59  -1.2001513588E+00  2.1276497539E-01  -1.0659996347E+00
    60  -8.1317752044E-01  -6.4241452401E-02  -9.3974360929E-01
    61  8.8350023860E-01  -1.7243725581E+00  -5.7579420597E-01
    62  -3.0787809766E+00  -6.0979577205E+00  1.6366762654E+00
    63  -8.8347792014E-01  1.7243099604E+00  5.7577875182E-01
    64  3.0787814812E+00  6.0979594655E+00  -1.6366745749E+00
    65  1.0904808129E-01  -3.7907945823E+00  -6.7460208819E-01
    66  1.0228226332E+00  -2.4505056737E+00  -6.2842714976E-01
    67  -1.0906421997E-01  3.7907681939E+00  6.7459174011E-01
    68  -1.0228212226E+00  2.4505052414E+00  6.2843082707E-01
    69  1.7802509856E-02  3.1440792018E-01  2.1700519466E-01
    70  2.3692875768E-02  2.7221347477E-01  -2.3554047198E-01
    71  -1.7789506119E-02  -3.1439182288E-01  -2.1700933688E-01
    72  -2.3693414824E-02  -2.7221252988E-01  2.3554046370E-01
    73  3.1575629999E-01  1.2571917306E-01  -2.8021896065E-01
    74  -7.9897903470E-01  -6.3068117108E-01  1.8973019149E+00
    75  -3.1575903016E-01  -1.2571300118E-01  2.8023355732E-01
    76  7.9897847704E-01  6.3068284803E-01  -1.8973045077E+00
    77  1.0035385113E+00  -2.5890116429E-01  6.7391661164E-01
    78  -1.4650505395E+00  -4.0862240696E-01  -1.0013026358E+00
    79  -1.0035344425E+00  2.5889952090E-01  -6.7391465197E-01
    80  1.4650505577E+00  4.0862229288E-01  1.0013017125E+00
    81  1.0955296903E+00  4.5346174623E+00  -2.8957051465E+00
    82  -1.1310481418E+00  4.5923945661E+00  2.9329127344E+00
    83  -1.0955336604E+00  -4.5345710408E+00  2.8956580440E+00
    84  1.1310507533E+00  -4.5923911347E+00  -2.9329231944E+00
    85  1.2386159525E+00  -2.3075071089E-03  6.5578659116E-01
    86  -1.2506942068E+00  1.8171591207E-03  -6.3710989978E-01
    87  -1.2386101811E+00  2.3078138104E-03  -6.5578370411E-01
    88  1.2506940893E+00  -1.8172467517E-03  6.3710989730E-01
    89  -1.2155792567E-01  -2.6598725434E-01  4.8025137088E-01
    90  1.1644978015E-01  -2.5559113326E-01  -4.6241097470E-01
    91  1.2155083621E-01  2.6598851328E-01  -4.8021956516E-01
    92  -1.1645171020E-01  2.5559073105E-01  4.6241926307E-01
    93  3.4370534578E-01  -1.8194365884E+00  2.8951234631E-01
    94  -3.4846142157E-01  -1.8010148828E+00  -2.8011807632E-01
    95  -3.4369574342E-01  1.8193890715E+00  -2.8950493272E-01
    96  3.4846067855E-01  1.8010128577E+00  2.8011937852E-01
  Stress tensor (eV/A^3):
  6.7303530830E-02  -3.9634709762E-03  3.3004766559E-02
  -3.9634709762E-03  5.0829492596E-02  -9.7602116988E-04
  3.3004766559E-02  -9.7602116988E-04  6.7750841160E-02
