  Invoking FHI-aims ...
  | Number of atoms                   :  96
  ...scf iterations...
  | Total energy corrected        :   -4.899813794628E+01 eV
  ...
  Total atomic forces (unitary forces cleaned)
     1  -2.2355129561E-01  5.8731768157E-01  1.9011689016E-01
     2  2.2199631269E-01  5.8418325666E-01  -1.9489489256E-01
     3  2.2355136182E-01  -5.8731760202E-01  -1.9011684366E-01
     4  -2.2199617646E-01  -5.8418311761E-01  1.9489497417E-01
     5  -8.5447119099E-01  1.0994106046E+00  4.0797336481E-02
     6  8.4139029560E-01  1.0733295724E+00  2.6120670182E-02
     7  8.5447149030E-01  -1.0994104750E+00  -4.0797004287E-02
     8  -8.4139041745E-01  -1.0733297063E+00  -2.6120392403E-02
     9  -1.8800793504E-01  1.5556873825E-01  -8.9704628998E-02
    10  1.0234083544E-01  7.2191900922E-02  9.7852236792E-02
    11  1.8800757558E-01  -1.5556860313E-01  8.9704366455E-02
    12  -1.0234118416E-01  -7.2191966237E-02  -9.7852259240E-02
    13  -3.8020833364E-01  -8.8515740174E-01  -8.6500515695E-01
    14  4.6621751565E-01  -7.9951587100E-01  8.5531077232E-01
    15  3.8020782332E-01  8.8515748520E-01  8.6500491310E-01
    16  -4.6621760603E-01  7.9951607377E-01  -8.5531027044E-01
    17  2.1342435586E+00  -3.0624921385E+00  -2.8668399069E-01
    18  -2.1695465234E+00  -2.9998301735E+00  1.9396226189E-01
    19  -2.1342452197E+00  3.0624955977E+00  2.8668422811E-01
    20  2.1695469413E+00  2.9998314288E+00  -1.9396306448E-01
    21  -1.2425293620E+00  1.4568391820E+00  1.7132458428E-03
    22  1.2470119030E+00  1.4749047079E+00  -1.1000484113E-02
    23  1.2425312591E+00  -1.4568425000E+00  -1.7134412289E-03
    24  -1.2470123682E+00  -1.4749058822E+00  1.1000757417E-02
    25  4.4171140128E-01  2.4627201913E-02  3.6069002976E-01
    26  -4.1612960041E-01  -5.2032931209E-02  -2.6737256897E-01
    27  -4.4171185042E-01  -2.4627441210E-02  -3.6069039024E-01
    28  4.1613004179E-01  5.2033151124E-02  2.6737244409E-01
    29  8.8109223160E-01  2.5865353288E+00  2.4948791734E+00
    30  -8.8176776983E-01  2.5844475885E+00  -2.4937623763E+00
    31  -8.8109230509E-01  -2.5865354785E+00  -2.4948788461E+00
    32  8.8176830869E-01  -2.5844490949E+00  2.4937627692E+00
    33  -4.0353914052E-01  -1.2441226168E+00  -1.1849528228E+00
    34  4.0101768472E-01  -1.2466575269E+00  1.1820908244E+00
    35  4.0353946864E-01  1.2441226034E+00  1.1849525773E+00
    36  -4.0101835698E-01  1.2466587074E+00  -1.1820915454E+00
    37  -2.3325441277E+00  2.9292063083E+00  1.8919659983E-01
    38  2.3310500077E+00  2.9269021602E+00  -1.8828968421E-01
    39  2.3325430331E+00  -2.9292047909E+00  -1.8919598524E-01
    40  -2.3310482308E+00  -2.9269002625E+00  1.8829013705E-01
    41  9.9751268998E-01  -1.3788389279E+00  -1.8933482558E-01
    42  -9.9862143115E-01  -1.3795592959E+00  1.9012936231E-01
    43  -9.9751159472E-01  1.3788372973E+00  1.8933444909E-01
    44  9.9862005589E-01  1.3795574260E+00  -1.9012933353E-01
    45  -1.8282526718E+00  1.3392273589E-01  -1.1580082367E+00
    46  1.7238514783E+00  2.0412501500E-02  1.0999909279E+00
    47  1.8282472580E+00  -1.3392309604E-01  1.1580047643E+00
    48  -1.7238516208E+00  -2.0411765619E-02  -1.0999907270E+00
    49  -4.5830100572E+01  2.8307265826E+00  2.2105432067E+01
    50  6.1344700086E+01  4.4840396998E+01  -3.1224358333E+01
    51  4.5828923873E+01  -2.8305493887E+00  -2.2105007153E+01
    52  -6.1344732795E+01  -4.4840284963E+01  3.1224354473E+01
    53  2.9069527355E+01  2.8290597278E+01  -8.7322803092E+00
    54  -2.3813956240E+01  2.4871451618E+01  7.0462424181E+00
    55  -2.9068780709E+01  -2.8289914521E+01  8.7320574488E+00
    56  2.3814015702E+01  -2.4871517834E+01  -7.0462732716E+00
    57  -1.1205217901E+00  1.3817538145E-01  -8.5415178487E-01
    58  -1.6551191140E-01  -3.7286735306E-02  -1.2113284243E-01
    59  1.1205547293E+00  -1.3817972879E-01  8.5417895552E-01
    60  1.6551648334E-01  3.7287140408E-02  1.2113663877E-01
    61  1.6795214456E+01  -3.1145192928E+01  -8.9058478413E+00
    62  -3.6292389410E+01  -6.9566902574E+01  2.0824838909E+01
    63  -1.6794820384E+01  3.1144339693E+01  8.9056273342E+00
    64  3.6292358882E+01  6.9566855614E+01  -2.0824807735E+01
    65  -3.1251846071E+00  -1.9556234061E+01  -1.1183280512E+01
    66  4.0125216753E+00  -1.9546647404E+01  9.6255544577E+00
    67  3.1250856988E+00  1.9556060647E+01  1.1183208004E+01
    68  -4.0125392714E+00  1.9546652631E+01  -9.6255240317E+00
    69  1.0324607261E+01  1.4595657278E+01  -2.0153715375E+00
    70  -1.0975322171E+01  1.5455063063E+01  2.1413079550E+00
    71  -1.0324493607E+01  -1.4595514257E+01  2.0153391902E+00
    72  1.0975327381E+01  -1.5455068055E+01  -2.1413170514E+00
    73  -3.2762164079E+00  1.6616070933E+00  1.4048224907E+01
    74  2.9984359486E+00  1.0556184750E+00  -1.2744006341E+01
    75  3.2762027213E+00  -1.6615853681E+00  -1.4048121969E+01
    76  -2.9984255740E+00  -1.0556189528E+00  1.2743983529E+01
    77  -1.9681141425E+00  -1.2276220131E-02  -1.5095164050E+00
    78  2.1143492736E+00  -1.0421804400E-01  1.5845130921E+00
    79  1.9681154002E+00  1.2275394348E-02  1.5095177448E+00
    80  -2.1143484331E+00  1.0421781850E-01  -1.5845113033E+00
    81  -9.1751339776E+00  3.5951657362E+01  -1.2658771508E+01
    82  9.1884704428E+00  3.5932036357E+01  1.2655199712E+01
    83  9.1748063659E+00  -3.5950919473E+01  1.2658636075E+01
    84  -9.1884658133E+00  -3.5932042103E+01  -1.2655265310E+01
    85  -1.5553428514E+00  9.8743269346E-02  -9.4819666819E-01
    86  1.5622258807E+00  9.1320022303E-02  9.4066035477E-01
    87  1.5553637633E+00  -9.8743127652E-02  9.4820853687E-01
    88  -1.5622230006E+00  -9.1320228159E-02  -9.4065821444E-01
    89  -3.1190889470E+00  -1.1498402057E+00  1.9200699443E+01
    90  3.1220037212E+00  -1.1532559779E+00  -1.9214113634E+01
    91  3.1190487844E+00  1.1498465353E+00  -1.9200459962E+01
    92  -3.1220105917E+00  1.1532530223E+00  1.9214164391E+01
    93  1.6101361152E+01  -3.1906713693E+01  -6.4848652109E+00
    94  -1.6104864340E+01  -3.1926481359E+01  6.4808251239E+00
    95  -1.6101007621E+01  3.1905976520E+01  6.4847446166E+00
    96  1.6104863912E+01  3.1926490834E+01  -6.4808133869E+00
  Stress tensor (eV/A^3):
  -1.4955279577E-01  -3.6830190171E-02  1.0267621033E-01
  -3.6830190171E-02  -3.7951125570E-01  2.1088590055E-02
  1.0267621033E-01  2.1088590055E-02  -1.2425630612E-01
