  Invoking FHI-aims ...
  | Number of atoms                   :  96
  ...scf iterations...
  | Total energy corrected        :   -8.603762417915E+01 eV
  ...
  Total atomic forces (unitary forces cleaned)
     1  -3.1356989920E-01  6.3621252556E-01  2.0148583990E-01
     2  2.2839563774E-01  5.8744852911E-01  -1.9577756138E-01
     3  3.1357001187E-01  -6.3621242488E-01  -2.0148574915E-01
     4  -2.2839552385E-01  -5.8744822014E-01  1.9577759370E-01
     5  -6.9981896233E-01  1.3186066956E+00  -2.7373872726E-02
     6  1.0370685640E+00  -1.5724521274E+00  2.3585501741E+00
     7  6.9981899240E-01  -1.3186065533E+00  2.7374008459E-02
     8  -1.0370691701E+00  1.5724520352E+00  -2.3585499619E+00
     9  -4.2087753418E-01  3.3276844118E-01  -2.0583612938E-01
    10  -4.8311990339E-01  -9.4143553786E-01  2.0590118494E-01
    11  4.2087732517E-01  -3.3276772921E-01  2.0583603463E-01
    12  4.8312201045E-01  9.4143756333E-01  -2.0590092546E-01
    13  -5.3891330064E-01  -1.0217148647E+00  -1.1538094204E+00
    14  1.3685061828E+00  1.4231544544E-01  1.1854599763E+00
    15  5.3891273202E-01  1.0217149110E+00  1.1538090773E+00
    16  -1.3685088738E+00  -1.4231745056E-01  -1.1854587212E+00
    17  5.2928675648E-01  -7.3452562487E-01  -5.5137962947E-02
    18  -1.0310485462E+00  2.0909735547E-01  -8.9984318967E-01
    19  -5.2928567913E-01  7.3452564048E-01  5.5138667216E-02
    20  1.0310493770E+00  -2.0909817574E-01  8.9984343530E-01
    21  5.9991964262E-01  -1.1171598124E+00  -2.1812123679E-01
    22  -5.6300633724E-01  -1.1660784039E+00  3.1375609499E-01
    23  -5.9991973438E-01  1.1171604546E+00  2.1812076743E-01
    24  5.6300590683E-01  1.1660784656E+00  -3.1375632588E-01
    25  9.7625994134E-01  1.3550050866E-02  8.8356207756E-01
    26  -5.5338350790E-01  -1.0334044276E+00  7.1432085996E-02
    27  -9.7625959711E-01  -1.3550779679E-02  -8.8356225243E-01
    28  5.5338382499E-01  1.0334054479E+00  -7.1433340733E-02
    29  5.3902403834E-01  4.0454082793E-01  7.4990058329E-01
    30  -4.8542900786E-01  4.9837620505E-01  -7.6838813299E-01
    31  -5.3902405794E-01  -4.0454065370E-01  -7.4990039212E-01
    32  4.8542884910E-01  -4.9837628416E-01  7.6838777354E-01
    33  1.3583198240E-01  9.5890815096E-01  8.4799974912E-01
    34  -4.0345561816E-02  1.0458005113E+00  -7.6833005139E-01
    35  -1.3583203931E-01  -9.5890871870E-01  -8.4799946947E-01
    36  4.0345959927E-02  -1.0458009191E+00  7.6832998675E-01
    37  -8.1625189494E-01  6.3386175132E-01  -2.6513889592E-01
    38  8.3713153811E-01  7.2518621523E-01  2.1067294871E-01
    39  8.1625194803E-01  -6.3386195706E-01  2.6513877525E-01
    40  -8.3713168246E-01  -7.2518621984E-01  -2.1067261157E-01
    41  -7.9359537683E-01  1.1043573104E+00  6.3840856817E-02
    42  8.1254681498E-01  1.1342774910E+00  -6.3931785481E-02
    43  7.9359536231E-01  -1.1043573889E+00  -6.3840512548E-02
    44  -8.1254665396E-01  -1.1342772596E+00  6.3932034958E-02
    45  -1.3204942252E+00  1.3743324460E-01  -9.1452271343E-01
    46  3.8458336584E-01  -3.0915253572E+00  1.5352972292E-02
    47  1.3204905153E+00  -1.3743266450E-01  9.1452144527E-01
    48  -3.8458399730E-01  3.0915238649E+00  -1.5352390508E-02
    49  1.2347129755E-01  4.5107742790E-01  1.3959223950E+00
    50  -9.0637608529E-01  6.4395661046E+00  -3.3636263393E+00
    51  -1.2346888121E-01  -4.5107729453E-01  -1.3959223874E+00
    52  9.0637762296E-01  -6.4395649795E+00  3.3636221557E+00
    53  -1.3466112630E+00  -6.2609195827E-01  6.4486165312E-01
    54  7.5763174523E-01  -6.0712380843E-01  -4.3060519587E-01
    55  1.3466083126E+00  6.2609410915E-01  -6.4485932299E-01
    56  -7.5763027991E-01  6.0712307217E-01  4.3060506644E-01
    57  8.2375930459E-01  -1.8676142418E-01  6.2434023818E-01
    58  1.9278704078E+00  -8.7185038367E-02  1.6446799960E+00
    59  -8.2375951096E-01  1.8676032992E-01  -6.2433971831E-01
    60  -1.9278715498E+00  8.7184543309E-02  -1.6446780135E+00
    61  -1.2106480623E-01  1.4986341101E+00  -1.7537402217E-02
    62  -1.4068367236E+00  -4.4832856441E+00  -1.7355413728E-01
    63  1.2106732171E-01  -1.4986317563E+00  1.7535579668E-02
    64  1.4068363817E+00  4.4832856218E+00  1.7355609133E-01
    65  5.8396600722E-01  -1.3677306108E+00  4.3655227432E-01
    66  1.8761253007E+00  3.3252101370E+00  -5.2172332604E-01
    67  -5.8396684730E-01  1.3677306892E+00  -4.3655033529E-01
    68  -1.8761246908E+00  -3.3252100412E+00  5.2172387593E-01
    69  -1.1431525278E+00  -6.0900400049E-01  5.9539027978E-01
    70  1.1521758733E+00  -5.1690787295E-01  -5.2871973136E-01
    71  1.1431502996E+00  6.0900467212E-01  -5.9538834598E-01
    72  -1.1521755137E+00  5.1690762056E-01  5.2872052447E-01
    73  4.7551403853E-01  -5.3874042148E-01  -1.2379381773E+00
    74  -7.2575422945E-01  -1.8975714214E+00  2.4347056180E+00
    75  -4.7551469557E-01  5.3873628434E-01  1.2379371804E+00
    76  7.2575240981E-01  1.8975719136E+00  -2.4347057330E+00
    77  7.9423243901E-01  -1.0924791832E-01  6.0939687466E-01
    78  -1.8531015945E+00  -7.1242215147E-01  -1.4603402012E+00
    79  -7.9423133510E-01  1.0924734591E-01  -6.0939685948E-01
    80  1.8531023531E+00  7.1242235908E-01  1.4603391488E+00
    81  1.3374458373E+00  5.1904258202E-01  -4.2696750942E-01
    82  -1.4512418421E+00  6.2186995026E-01  5.1804599721E-01
    83  -1.3374439783E+00  -5.1904412820E-01  4.2696778852E-01
    84  1.4512414291E+00  -6.2186959888E-01  -5.1804585143E-01
    85  8.1256610868E-01  -8.1927291504E-02  5.5083896083E-01
    86  -8.4321984965E-01  -5.5457946335E-02  -5.2184602573E-01
    87  -8.1256526654E-01  8.1927788042E-02  -5.5083845339E-01
    88  8.4321960225E-01  5.5457849864E-02  5.2184606641E-01
    89  2.0339641157E-01  -6.4260120192E-01  -1.3004835407E+00
    90  -2.2357242538E-01  -5.9344583988E-01  1.3542595309E+00
    91  -2.0339618841E-01  6.4259872025E-01  1.3004816260E+00
    92  2.2357190374E-01  5.9344655236E-01  -1.3542596046E+00
    93  -3.7760238951E-01  1.4108922698E+00  -1.7000490635E-01
    94  3.4829463362E-01  1.4895553803E+00  2.2322762257E-01
    95  3.7760355561E-01  -1.4108892667E+00  1.7000195901E-01
    96  -3.4829433631E-01  -1.4895553973E+00  -2.2322792341E-01
  Stress tensor (eV/A^3):
  8.3301065617E-02  -4.6835721396E-03  2.0103060199E-02
  -4.6835721396E-03  7.7878061639E-02  1.8314258299E-04
  2.0103060199E-02  1.8314258299E-04  8.2603957144E-02
