  Invoking FHI-aims ...
  | Number of atoms                   :  96
  ...scf iterations...
  | Total energy corrected        :   -8.395434369611E+01 eV
  ...
  Total atomic forces (unitary forces cleaned)
     1  -2.9281465435E-01  6.2602570240E-01  1.9479362999E-01
     2  2.1122722708E-01  5.7415766992E-01  -1.9571117568E-01
     3  2.9281477579E-01  -6.2602560421E-01  -1.9479353560E-01
     4  -2.1122711198E-01  -5.7415737598E-01  1.9571121450E-01
     5  -7.3799399322E-01  1.7017525426E+00  2.6222023425E-01
     6  8.2621271974E-01  1.4896459303E-01  5.7921947406E-01
     7  7.3799401152E-01  -1.7017523998E+00  -2.6222010854E-01
     8  -8.2621324509E-01  -1.4896470328E-01  -5.7921921972E-01
     9  -3.7232549049E-01  2.7749348331E-01  -1.9659723195E-01
    10  9.0089375363E-01  5.7005431423E-01  1.8861026825E-01
    11  3.7232529234E-01  -2.7749280060E-01  1.9659711828E-01
    12  -9.0089337429E-01  -5.7005399781E-01  -1.8860964896E-01
    13  -5.1589081857E-01  -9.8631902304E-01  -1.1066306377E+00
    14  -4.2396111985E-02  -1.3336793312E+00  1.1363590281E+00
    15  5.1589027698E-01  9.8631904849E-01  1.1066303141E+00
    16  4.2395224401E-02  1.3336790386E+00  -1.1363581570E+00
    17  4.3221624368E-01  -5.9279638031E-01  -4.7872399633E-02
    18  -3.3732438088E-01  -5.4138372739E-01  3.6728430614E-01
    19  -4.3221512557E-01  5.9279621486E-01  4.7873076269E-02
    20  3.3732410593E-01  5.4138347873E-01  -3.6728448064E-01
    21  6.4150726370E-01  -1.1932237880E+00  -2.2803589245E-01
    22  -6.5750427955E-01  -1.2958983427E+00  2.8974359254E-01
    23  -6.4150747700E-01  1.1932246049E+00  2.2803538606E-01
    24  6.5750391978E-01  1.2958985452E+00  -2.8974389083E-01
    25  8.7749764486E-01  -1.9339842661E-04  7.9290583462E-01
    26  -9.5819935695E-01  -2.0839724343E-02  -1.1117054164E+00
    27  -8.7749739126E-01  1.9278191839E-04  -7.9290601349E-01
    28  9.5820055491E-01  2.0840004522E-02  1.1117046592E+00
    29  4.8501313862E-01  3.2125933215E-01  6.2152965146E-01
    30  -4.6529030593E-01  3.6885990335E-01  -6.4116884666E-01
    31  -4.8501313873E-01  -3.2125910745E-01  -6.2152940443E-01
    32  4.6529010276E-01  -3.6885984832E-01  6.4116846517E-01
    33  1.5383514338E-01  1.0349003001E+00  9.0762766741E-01
    34  -9.6878342163E-02  1.0873599962E+00  -8.4933301081E-01
    35  -1.5383524824E-01  -1.0349009635E+00  -9.0762741011E-01
    36  9.6878818763E-02  -1.0873604717E+00  8.4933295861E-01
    37  -6.9312078149E-01  5.3719058468E-01  -2.4026674629E-01
    38  7.2132985966E-01  5.8432973235E-01  2.1983878166E-01
    39  6.9312087160E-01  -5.3719085571E-01  2.4026665487E-01
    40  -7.2133004726E-01  -5.8432977176E-01  -2.1983850723E-01
    41  -8.4709378355E-01  1.1851776512E+00  7.6732739269E-02
    42  8.5480850314E-01  1.1989914382E+00  -7.2639527980E-02
    43  8.4709373435E-01  -1.1851776798E+00  -7.6732363852E-02
    44  -8.5480831536E-01  -1.1989911659E+00  7.2639780602E-02
    45  -1.2331427732E+00  1.2616080057E-01  -8.5049170293E-01
    46  1.1994914546E+00  -3.2942565708E-01  4.9817017561E-01
    47  1.2331390523E+00  -1.2616018859E-01  8.5049030544E-01
    48  -1.1994923194E+00  3.2942349794E-01  -4.9816998518E-01
    49  3.3994890967E-01  2.6748962882E-01  1.2322395070E+00
    50  -1.1779349505E+00  6.4175925408E+00  -3.2799029318E+00
    51  -3.3994633642E-01  -2.6749011882E-01  -1.2322386920E+00
    52  1.1779376531E+00  -6.4175918612E+00  3.2798999928E+00
    53  -1.4603485552E+00  -6.6594662752E-01  7.1560427005E-01
    54  1.0602244998E+00  -6.2850745725E-01  -5.6940210012E-01
    55  1.4603456752E+00  6.6594911213E-01  -7.1560200035E-01
    56  -1.0602235171E+00  6.2850702232E-01  5.6940242518E-01
    57  7.9762264685E-01  -1.7904749326E-01  6.1059465811E-01
    58  1.8203428466E+00  7.3671399195E-02  1.6237166750E+00
    59  -7.9762338370E-01  1.7904655837E-01  -6.1059465786E-01
    60  -1.8203449858E+00  -7.3671846120E-02  -1.6237159633E+00
    61  -1.5466308917E-01  1.6710226323E+00  1.9372504640E-04
    62  -1.3095741117E+00  -4.6798616158E+00  -6.2444002244E-02
    63  1.5466581337E-01  -1.6710201788E+00  -1.9570697417E-04
    64  1.3095739932E+00  4.6798616195E+00  6.2445668440E-02
    65  6.8901833508E-01  -1.0940456278E+00  5.1193779083E-01
    66  5.6901555594E-01  8.5311909856E-01  -8.1468548933E-01
    67  -6.8901884896E-01  1.0940458263E+00  -5.1193615075E-01
    68  -5.6901482577E-01  -8.5311774888E-01  8.1468628262E-01
    69  -1.2440462434E+00  -7.4029719694E-01  6.4494107102E-01
    70  1.4520409040E+00  -8.5181433724E-01  -7.0923785736E-01
    71  1.2440440629E+00  7.4029795523E-01  -6.4493902156E-01
    72  -1.4520403010E+00  8.5181378695E-01  7.0923869803E-01
    73  5.1967350853E-01  -6.3697689313E-01  -1.3444646283E+00
    74  -8.0808711939E-01  -1.7956170517E+00  2.4631420475E+00
    75  -5.1967427247E-01  6.3697279669E-01  1.3444636719E+00
    76  8.0808531117E-01  1.7956175783E+00  -2.4631422980E+00
    77  7.6199662607E-01  -1.1125021880E-01  5.8276455609E-01
    78  -1.7797115929E+00  -5.8818363172E-01  -1.3904459555E+00
    79  -7.6199549650E-01  1.1124964049E-01  -5.8276446566E-01
    80  1.7797121913E+00  5.8818370338E-01  1.3904448440E+00
    81  1.2960325185E+00  3.7803607489E-01  -1.4520757397E-01
    82  -1.3324796918E+00  4.3836799166E-01  1.8806814328E-01
    83  -1.2960304601E+00  -3.7803711164E-01  1.4520854021E-01
    84  1.3324794429E+00  -4.3836782793E-01  -1.8806771310E-01
    85  7.7002276316E-01  -7.4797128548E-02  5.1627349268E-01
    86  -7.8246801451E-01  -5.8665696761E-02  -4.9926347359E-01
    87  -7.7002231507E-01  7.4797568684E-02  -5.1627321747E-01
    88  7.8246768256E-01  5.8665603938E-02  4.9926345407E-01
    89  2.4875935733E-01  -6.6910442532E-01  -1.4597863275E+00
    90  -2.6384980508E-01  -6.2979454882E-01  1.4880404265E+00
    91  -2.4875910308E-01  6.6910160589E-01  1.4597844438E+00
    92  2.6384933484E-01  6.2979537526E-01  -1.4880406681E+00
    93  -3.9630977578E-01  1.5781704832E+00  -1.9022139554E-01
    94  3.8025128115E-01  1.6116227064E+00  2.2429792161E-01
    95  3.9631102479E-01  -1.5781679399E+00  1.9021826758E-01
    96  -3.8025096966E-01  -1.6116226779E+00  -2.2429828525E-01
  Stress tensor (eV/A^3):
  8.5142862438E-02  -1.4414625200E-03  1.9662210888E-02
  -1.4414625200E-03  8.8687331605E-02  -1.5983391324E-03
  1.9662210888E-02  -1.5983391324E-03  8.5031590741E-02
