  Invoking FHI-aims ...
  | Number of atoms                   :  96
  ...scf iterations...
  | Total energy corrected        :   -9.963703975059E+01 eV
  ...
  Total atomic forces (unitary forces cleaned)
     1  -2.9886435918E-01  6.1339017783E-01  1.8507720319E-01
     2  2.2680250698E-01  5.8016303217E-01  -1.8503501387E-01
     3  2.9886438562E-01  -6.1339007402E-01  -1.8507715344E-01
     4  -2.2680233874E-01  -5.8016288482E-01  1.8503507637E-01
     5  -8.1281252370E-01  1.5013306804E+00  2.1048122342E-01
     6  9.6824475514E-01  -9.8460338886E-01  1.6311643445E+00
     7  8.1281303476E-01  -1.5013305236E+00  -2.1048069891E-01
     8  -9.6824485091E-01  9.8460324638E-01  -1.6311640187E+00
     9  -4.4386531736E-01  2.8912593373E-01  -2.0299296561E-01
    10  5.0008390937E-01  -2.4706025958E-02  1.7360486844E-01
    11  4.4386477411E-01  -2.8912592991E-01  2.0299247801E-01
    12  -5.0008355268E-01  2.4706689006E-02  -1.7360488170E-01
    13  -5.6345300387E-01  -1.0734430914E+00  -1.1366190228E+00
    14  4.5505057697E-01  -8.4183869937E-01  1.2060997781E+00
    15  5.6345231060E-01  1.0734433126E+00  1.1366187133E+00
    16  -4.5505144033E-01  8.4183826465E-01  -1.2060991722E+00
    17  3.5067196426E-01  -4.5994083979E-01  -2.8191093204E-02
    18  -5.7068744149E-01  1.0592619481E-01  -2.5698970599E-01
    19  -3.5067114402E-01  4.5994078917E-01  2.8191647936E-02
    20  5.7068763248E-01  -1.0592675260E-01  2.5698975292E-01
    21  7.6277424037E-01  -1.3922173990E+00  -2.5547974568E-01
    22  -7.2985743402E-01  -1.4794844290E+00  3.6496240043E-01
    23  -7.6277486748E-01  1.3922177829E+00  2.5547932253E-01
    24  7.2985742370E-01  1.4794846606E+00  -3.6496260502E-01
    25  9.4332074955E-01  7.6675605701E-02  7.7949920462E-01
    26  -5.9530701932E-01  -5.4713789999E-01  -3.6583522996E-01
    27  -9.4332451662E-01  -7.6675783255E-02  -7.7950183321E-01
    28  5.9530795530E-01  5.4713878510E-01  3.6583473472E-01
    29  4.9857901172E-01  2.3059216409E-01  5.3916342797E-01
    30  -4.4343890860E-01  3.2414322816E-01  -5.7709823674E-01
    31  -4.9857877836E-01  -2.3059222608E-01  -5.3916358588E-01
    32  4.4343822792E-01  -3.2414345432E-01  5.7709787639E-01
    33  2.5355322768E-01  1.2194633075E+00  1.0927669549E+00
    34  -2.3703930204E-01  1.2803997198E+00  -1.0741346220E+00
    35  -2.5355286109E-01  -1.2194635726E+00  -1.0927665711E+00
    36  2.3703964784E-01  -1.2804001046E+00  1.0741344483E+00
    37  -6.6259669385E-01  3.5164755499E-01  -2.7490613869E-01
    38  6.9409904505E-01  4.2875445362E-01  2.2455188729E-01
    39  6.6259680165E-01  -3.5164785254E-01  2.7490620016E-01
    40  -6.9409901331E-01  -4.2875491231E-01  -2.2455138280E-01
    41  -1.0254492677E+00  1.3417717407E+00  9.4550174584E-02
    42  1.0385575736E+00  1.3625108755E+00  -9.4695161867E-02
    43  1.0254491343E+00  -1.3417714667E+00  -9.4549937212E-02
    44  -1.0385572169E+00  -1.3625105002E+00  9.4695336561E-02
    45  2.0238801349E+00  1.4215860874E-01  1.9225898606E+00
    46  -5.9747753212E+00  -1.8057587448E+00  -3.5187986456E+00
    47  -2.0238152506E+00  -1.4215373431E-01  -1.9225335602E+00
    48  5.9747560939E+00  1.8057179601E+00  3.5188892645E+00
    49  -2.5391669716E+00  1.6453126841E-01  -8.1600412024E-01
    50  4.4315518922E+00  2.4329186572E+00  -3.5435163326E+00
    51  2.5390797580E+00  -1.6451672396E-01  8.1600394196E-01
    52  -4.4313635671E+00  -2.4327864715E+00  3.5432947738E+00
    53  -3.6938438817E-02  -1.1801769102E+00  -4.3778651171E-01
    54  1.4315072257E+00  1.2803422335E+00  -5.5147608061E-01
    55  3.6974525254E-02  1.1801749121E+00  4.3775788140E-01
    56  -1.4315096910E+00  -1.2802940326E+00  5.5147575236E-01
    57  1.5017943473E+00  -2.4706403640E-01  1.4192041161E+00
    58  5.5645606436E-01  2.9281449509E-01  1.5870436083E+00
    59  -1.5017827141E+00  2.4706106715E-01  -1.4191954091E+00
    60  -5.5645501598E-01  -2.9281245989E-01  -1.5870412816E+00
    61  1.5229575536E-01  1.3654300626E+00  -1.8922039616E-01
    62  -5.0147328921E+00  -5.3582674031E+00  3.9237743856E+00
    63  -1.5225923401E-01  -1.3654400570E+00  1.8919063184E-01
    64  5.0145488136E+00  5.3581071746E+00  -3.9236421359E+00
    65  -9.7226363229E-01  6.5542366477E-01  2.4224294734E-02
    66  5.2064224124E+00  3.0813140258E+00  -1.0557023546E+00
    67  9.7223917928E-01  -6.5542123946E-01  -2.4238406946E-02
    68  -5.2064054168E+00  -3.0812966171E+00  1.0557037492E+00
    69  -8.7472146730E-01  -1.0855145925E+00  6.4231173188E-01
    70  9.9863112948E-01  -9.5130589907E-01  -9.4552366452E-01
    71  8.7472847072E-01  1.0855318968E+00  -6.4230665981E-01
    72  -9.9862988287E-01  9.5130438553E-01  9.4552304736E-01
    73  7.9396209222E-01  2.1089890947E-02  -1.8106629707E+00
    74  -1.1892680320E+00  -3.0764918581E-01  2.6704593619E+00
    75  -7.9396326127E-01  -2.1084109532E-02  1.8106746591E+00
    76  1.1892670291E+00  3.0765180210E-01  -2.6704626643E+00
    77  1.1530733804E+00  -3.6509570510E-01  6.2685408555E-01
    78  -1.3856430298E+00  -4.9661304982E-01  -8.6151546456E-01
    79  -1.1530776291E+00  3.6509582796E-01  -6.2685778956E-01
    80  1.3856428521E+00  4.9661274452E-01  8.6151446638E-01
    81  -1.7349285784E+00  6.0413677289E-01  -3.6554087369E-01
    82  1.3910709202E+00  1.3667258906E+00  8.2175169786E-01
    83  1.7348811611E+00  -6.0409784344E-01  3.6552238086E-01
    84  -1.3910707121E+00  -1.3667280878E+00  -8.2175610927E-01
    85  1.4631643301E+00  1.1802323851E-01  7.1651287958E-01
    86  -1.5110225888E+00  1.8428834592E-01  -6.0123030357E-01
    87  -1.4631647413E+00  -1.1802436793E-01  -7.1651251417E-01
    88  1.5110220228E+00  -1.8428836127E-01  6.0123009589E-01
    89  4.8416370868E-01  -3.7575153964E-01  -1.6942020224E+00
    90  -5.4888529733E-01  -2.7196760127E-01  1.9049338626E+00
    91  -4.8416100919E-01  3.7573689139E-01  1.6942035955E+00
    92  5.4888462611E-01  2.7197036330E-01  -1.9049307530E+00
    93  -4.1196229175E-01  1.3774959698E-01  7.1321089871E-01
    94  3.9686737950E-01  4.8430111357E-01  -6.3081837334E-01
    95  4.1197213012E-01  -1.3780329028E-01  -7.1319787166E-01
    96  -3.9686780529E-01  -4.8430121556E-01  6.3081996813E-01
  Stress tensor (eV/A^3):
  6.9405103827E-02  -1.3121954096E-02  3.4796079147E-02
  -1.3121954096E-02  6.0335471949E-02  1.1088848712E-02
  3.4796079147E-02  1.1088848712E-02  5.9747996596E-02
