  Invoking FHI-aims ...
  | Number of atoms                   :  96
  ...scf iterations...
  | Total energy corrected        :   -8.951668468207E+01 eV
  ...
  Total atomic forces (unitary forces cleaned)
     1  -3.2071272025E-01  6.0101434559E-01  1.9702267780E-01
     2  2.6548280545E-01  5.9446123414E-01  -1.8254700060E-01
     3  3.2071258734E-01  -6.0101423747E-01  -1.9702267083E-01
     4  -2.6548275664E-01  -5.9446128544E-01  1.8254712739E-01
     5  -8.0005120622E-01  1.3230721483E+00  1.4702323639E-02
     6  1.0621283069E+00  -2.3464501286E+00  2.9540037100E+00
     7  8.0005235701E-01  -1.3230719045E+00  -1.4701355406E-02
     8  -1.0621279035E+00  2.3464499083E+00  -2.9540034099E+00
     9  -4.6281091636E-01  2.6210072734E-01  -1.8811704819E-01
    10  -7.0672176883E-01  -1.0575615284E+00  1.8702229461E-01
    11  4.6280998394E-01  -2.6210157966E-01  1.8811620483E-01
    12  7.0672036029E-01  1.0575613123E+00  -1.8702286741E-01
    13  -5.5279872219E-01  -1.1234587698E+00  -1.0595366167E+00
    14  1.6279264603E+00  8.7109894730E-02  1.0929215437E+00
    15  5.5279773386E-01  1.1234591776E+00  1.0595362513E+00
    16  -1.6279257044E+00  -8.7109180326E-02  -1.0929216624E+00
    17  5.5880741055E-01  -6.8146189240E-01  -2.6975029138E-02
    18  -1.4525495452E+00  9.1706128608E-01  -1.6781174914E+00
    19  -5.5880681392E-01  6.8146231045E-01  2.6975684572E-02
    20  1.4525494781E+00  -9.1706132718E-01  1.6781173500E+00
    21  6.3028240832E-01  -1.0788843608E+00  -1.2728716508E-01
    22  -5.3728254222E-01  -1.1372907140E+00  2.4712851185E-01
    23  -6.3028246341E-01  1.0788843796E+00  1.2728724275E-01
    24  5.3728259636E-01  1.1372909159E+00  -2.4712866439E-01
    25  1.0785581747E+00  1.4326044229E-01  7.4673737581E-01
    26  -3.5448413781E-01  -1.6175589706E+00  9.5862736712E-01
    27  -1.0785581162E+00  -1.4326129115E-01  -7.4673774395E-01
    28  3.5448469941E-01  1.6175596728E+00  -9.5862753713E-01
    29  5.2665260970E-01  4.7334038313E-01  7.0110625102E-01
    30  -4.6020928854E-01  5.9289101306E-01  -7.5363662300E-01
    31  -5.2665250983E-01  -4.7334033886E-01  -7.0110678080E-01
    32  4.6020822759E-01  -5.9289153785E-01  7.5363640321E-01
    33  1.2448624389E-01  1.0121645478E+00  8.0680366934E-01
    34  -1.3656577094E-01  1.0616123706E+00  -8.2388541221E-01
    35  -1.2448607026E-01  -1.0121642713E+00  -8.0680354408E-01
    36  1.3656570086E-01  -1.0616124629E+00  8.2388538376E-01
    37  -8.7562760623E-01  5.4858071460E-01  -2.0661092899E-01
    38  9.1568085560E-01  6.4742238919E-01  1.3757730749E-01
    39  8.7562774111E-01  -5.4858085629E-01  2.0661132165E-01
    40  -9.1568045021E-01  -6.4742309470E-01  -1.3757670867E-01
    41  -8.7698985357E-01  1.0515008433E+00  7.5076822868E-02
    42  9.0014319447E-01  1.0839895843E+00  -7.7842109034E-02
    43  8.7698975590E-01  -1.0515004387E+00  -7.5076842931E-02
    44  -9.0014291358E-01  -1.0839894129E+00  7.7842122255E-02
    45  -1.3672763129E+00  2.2081306851E-02  -8.8979441337E-01
    46  1.7662397171E+00  -8.5224487751E-01  2.7734698747E-01
    47  1.3672739673E+00  -2.2082059615E-02  8.8979248890E-01
    48  -1.7662398047E+00  8.5224420956E-01  -2.7734795258E-01
    49  5.0488728667E-02  -6.1300251290E-01  1.3286212510E+00
    50  3.4741390575E-01  -4.8258196906E-01  -4.4656149178E+00
    51  -5.0486922836E-02  6.1300206619E-01  -1.3286212954E+00
    52  -3.4741477294E-01  4.8258124093E-01  4.4656166216E+00
    53  -5.1709869512E-01  -1.3454004831E+00  -3.1062152204E-01
    54  -2.8187107300E-02  -2.0891582954E+00  6.7265679104E-01
    55  5.1709755393E-01  1.3453981172E+00  3.1062113570E-01
    56  2.8186970952E-02  2.0891589076E+00  -6.7265646499E-01
    57  8.1687878851E-01  -5.2019676074E-02  5.4537828204E-01
    58  1.4993148454E+00  2.8594701099E-01  1.1600466377E+00
    59  -8.1687808007E-01  5.2019035849E-02  -5.4537761533E-01
    60  -1.4993147808E+00  -2.8594723647E-01  -1.1600470714E+00
    61  -1.1435307269E+00  8.0076516020E-01  7.4078783007E-01
    62  -9.0708822113E-01  1.1664080082E+00  4.7950695235E-01
    63  1.1435288638E+00  -8.0076430204E-01  -7.4078564650E-01
    64  9.0708863701E-01  -1.1664080809E+00  -4.7950719168E-01
    65  1.3073674321E+00  -6.0681762501E-01  -5.2872697515E-01
    66  -7.3613000315E-01  -1.4803356153E-01  2.2034020148E+00
    67  -1.3073668385E+00  6.0681843616E-01  5.2872753036E-01
    68  7.3612951427E-01  1.4803388859E-01  -2.2034005671E+00
    69  -2.5221687636E-01  -1.3951927327E+00  -1.6449471425E-01
    70  8.8812839882E-01  -2.1220345682E+00  -1.4902826200E-01
    71  2.5221677060E-01  1.3951902353E+00  1.6449394746E-01
    72  -8.8812884191E-01  2.1220343298E+00  1.4902857754E-01
    73  2.3706459535E-01  6.1719733479E-01  -1.2611337143E+00
    74  -3.9814176336E-01  1.1933388418E+00  1.1408069257E+00
    75  -2.3706443088E-01  -6.1719646376E-01  1.2611318904E+00
    76  3.9814229080E-01  -1.1933381713E+00  -1.1408084918E+00
    77  7.9336102882E-01  1.0081464293E-02  5.4371390932E-01
    78  -2.2584963536E+00  -3.2475541318E-01  -1.3379974747E+00
    79  -7.9336000087E-01  -1.0081515276E-02  -5.4371383841E-01
    80  2.2584967762E+00  3.2475567862E-01  1.3379976940E+00
    81  8.1614290422E-01  1.2258450188E+00  4.5867393077E-01
    82  -8.7186473151E-01  1.6315512917E+00  -4.4731603090E-01
    83  -8.1614140803E-01  -1.2258453408E+00  -4.5867309672E-01
    84  8.7186527018E-01  -1.6315510139E+00  4.4731595520E-01
    85  9.3430228395E-01  -5.5046195339E-02  5.1082626661E-01
    86  -1.0069162824E+00  8.7926588376E-02  -4.8777668978E-01
    87  -9.3430103132E-01  5.5046340715E-02  -5.1082558681E-01
    88  1.0069160196E+00  -8.7926522501E-02  4.8777665616E-01
    89  1.6085493101E-01  6.6307601144E-01  -1.3212894228E+00
    90  -1.6806121657E-01  8.3493646725E-01  1.3968133980E+00
    91  -1.6085462987E-01  -6.6307353633E-01  1.3212873379E+00
    92  1.6806150050E-01  -8.3493618078E-01  -1.3968137383E+00
    93  -9.0244620914E-01  7.1535715314E-01  9.4027660751E-01
    94  9.4554856837E-01  8.9816315455E-01  -9.5507294237E-01
    95  9.0244427453E-01  -7.1535545521E-01  -9.4027445852E-01
    96  -9.4554840668E-01  -8.9816352736E-01  9.5507274058E-01
  Stress tensor (eV/A^3):
  9.1422183238E-02  -2.0179526761E-03  2.0529934259E-02
  -2.0179526761E-03  9.6284860098E-02  5.7960910318E-03
  2.0529934259E-02  5.7960910318E-03  7.2084791360E-02
