  Invoking FHI-aims ...
  | Number of atoms                   :  96
  ...scf iterations...
  | Total energy corrected        :   -9.257847940724E+01 eV
  ...
  Total atomic forces (unitary forces cleaned)
     1  -2.9218327569E-01  5.9359240545E-01  1.8976910185E-01
     2  2.2116386280E-01  5.7048268571E-01  -1.8297495256E-01
     3  2.9218322000E-01  -5.9359230363E-01  -1.8976908791E-01
     4  -2.2116376568E-01  -5.7048266641E-01  1.8297504874E-01
     5  -8.3914727603E-01  1.6512200307E+00  2.8767877383E-01
     6  8.6480903327E-01  8.2401922552E-01  -2.8296930774E-02
     7  8.3914805990E-01  -1.6512198498E+00  -2.8767806645E-01
     8  -8.6480886789E-01  -8.2401939970E-01  2.8297212388E-02
     9  -3.8681733572E-01  2.1975577260E-01  -1.7667740970E-01
    10  1.0105585215E+00  6.0488584272E-01  1.4244914272E-01
    11  3.8681662490E-01  -2.1975617984E-01  1.7667681157E-01
    12  -1.0105588622E+00  -6.0488566800E-01  -1.4244937462E-01
    13  -5.2966746190E-01  -1.0597937432E+00  -1.0358051152E+00
    14  -9.2956532347E-02  -1.4818235254E+00  1.1045267859E+00
    15  5.2966669017E-01  1.0597940379E+00  1.0358048064E+00
    16  9.2956375656E-02  1.4818236807E+00  -1.1045266402E+00
    17  4.0799616861E-01  -5.2851235779E-01  -2.5467419175E-02
    18  -2.8078967739E-01  -6.6193303850E-01  4.4831122182E-01
    19  -4.0799555342E-01  5.2851255183E-01  2.5467944671E-02
    20  2.8078970144E-01  6.6193271254E-01  -4.4831142287E-01
    21  6.6579983198E-01  -1.2186112735E+00  -2.0506491538E-01
    22  -6.7193864343E-01  -1.3248980382E+00  2.7066115969E-01
    23  -6.6580000694E-01  1.2186113948E+00  2.0506481337E-01
    24  6.7193884318E-01  1.3248982892E+00  -2.7066123282E-01
    25  9.6344747978E-01  8.9144233142E-02  6.9885380694E-01
    26  -1.0657724692E+00  2.3960708780E-01  -1.1060973290E+00
    27  -9.6344774153E-01  -8.9144844404E-02  -6.9885425438E-01
    28  1.0657729639E+00  -2.3960641912E-01  1.1060971131E+00
    29  4.7239135046E-01  3.4712570510E-01  5.7329523490E-01
    30  -4.5595315810E-01  3.9384388165E-01  -5.9957973832E-01
    31  -4.7239117425E-01  -3.4712577524E-01  -5.7329565808E-01
    32  4.5595227425E-01  -3.9384424842E-01  5.9957945240E-01
    33  1.6670106299E-01  1.1103781332E+00  9.2865123084E-01
    34  -1.6264263644E-01  1.1350286848E+00  -9.2741073102E-01
    35  -1.6670082146E-01  -1.1103779534E+00  -9.2865092568E-01
    36  1.6264272140E-01  -1.1350288387E+00  9.2741067780E-01
    37  -7.1567152883E-01  4.4376881781E-01  -1.9985742316E-01
    38  7.3428798034E-01  4.8445988831E-01  1.7751239477E-01
    39  7.1567163282E-01  -4.4376909785E-01  1.9985764597E-01
    40  -7.3428770183E-01  -4.8446047003E-01  -1.7751182650E-01
    41  -9.4268951187E-01  1.1767248932E+00  9.0011627119E-02
    42  9.4707871118E-01  1.1877036355E+00  -8.6813146874E-02
    43  9.4268938837E-01  -1.1767245111E+00  -9.0011559484E-02
    44  -9.4707836579E-01  -1.1877033336E+00  8.6813206576E-02
    45  -1.6744994009E+00  1.3367986393E-01  -1.1776622816E+00
    46  -1.5433707733E-01  -2.0842611232E+00  3.8483470795E-01
    47  1.6745096317E+00  -1.3367635628E-01  1.1776701511E+00
    48  1.5433407006E-01  2.0842582688E+00  -3.8483515846E-01
    49  -1.9085033383E+00  -9.1276332012E-01  2.0965664244E+00
    50  3.2398015992E+00  6.8463873076E-01  -5.4749701928E+00
    51  1.9084660139E+00  9.1275728864E-01  -2.0965589912E+00
    52  -3.2398034378E+00  -6.8463586498E-01  5.4749747375E+00
    53  -1.5754729447E-01  -6.5692074268E-01  -2.6354192600E-01
    54  -1.5842811275E-01  -1.0917582850E+00  4.9648030013E-01
    55  1.5756235172E-01  6.5693989867E-01  2.6353661883E-01
    56  1.5843032015E-01  1.0917553198E+00  -4.9648078982E-01
    57  1.3362571471E+00  -2.0843585912E-01  1.1835541435E+00
    58  1.1367916507E+00  2.5745275352E-01  1.2158794273E+00
    59  -1.3362527710E+00  2.0843422264E-01  -1.1835500080E+00
    60  -1.1367932696E+00  -2.5745321430E-01  -1.2158807491E+00
    61  -4.4981730271E-01  7.2080274741E-01  2.8094605804E-01
    62  -3.2274881928E+00  -5.5656225618E-01  2.1042798432E+00
    63  4.4983518252E-01  -7.2081279436E-01  -2.8095926341E-01
    64  3.2274889394E+00  5.5656258564E-01  -2.1042795016E+00
    65  9.5944365765E-01  -1.3059378649E+00  -7.1942956565E-01
    66  1.3799213257E+00  2.4963630506E-01  6.7459665611E-01
    67  -9.5945251590E-01  1.3059306498E+00  7.1942042790E-01
    68  -1.3799206978E+00  -2.4963221944E-01  -6.7459334885E-01
    69  -4.0893927501E-01  -1.3863252666E+00  1.5513166448E-01
    70  6.3326489670E-01  -1.5151628830E+00  -3.7539148041E-01
    71  4.0894215744E-01  1.3863358213E+00  -1.5512888162E-01
    72  -6.3326454597E-01  1.5151603389E+00  3.7539167460E-01
    73  4.9193366935E-01  4.6542643195E-01  -1.6371378166E+00
    74  -4.9464365773E-01  6.6294599877E-01  1.2167614038E+00
    75  -4.9193548496E-01  -4.6542620235E-01  1.6371441749E+00
    76  4.9464484886E-01  -6.6294489674E-01  -1.2167667394E+00
    77  1.3270259753E+00  -2.0100638954E-01  6.9974938410E-01
    78  -1.8283251896E+00  -3.7638216951E-01  -9.9368417514E-01
    79  -1.3270227978E+00  2.0100554506E-01  -6.9974889998E-01
    80  1.8283256862E+00  3.7638218348E-01  9.9368419505E-01
    81  1.3696200449E-01  2.4436413925E+00  8.9753397884E-02
    82  -1.6298109697E-01  2.6507450494E+00  -2.5668234704E-02
    83  -1.3698345672E-01  -2.4436207536E+00  -8.9756165383E-02
    84  1.6298149257E-01  -2.6507473993E+00  2.5666206594E-02
    85  1.5213223220E+00  1.5614879614E-01  8.1229740366E-01
    86  -1.5763322299E+00  2.3162311547E-01  -7.8894696334E-01
    87  -1.5213183852E+00  -1.5614811764E-01  -8.1229552176E-01
    88  1.5763316864E+00  -2.3162300648E-01  7.8894676788E-01
    89  2.7024110343E-01  3.6712339603E-01  -1.3472447929E+00
    90  -2.8031885937E-01  4.3415387950E-01  1.3971503381E+00
    91  -2.7024165967E-01  -3.6712990002E-01  1.3472526291E+00
    92  2.8031873776E-01  -4.3415220082E-01  -1.3971487289E+00
    93  -4.0356888506E-01  3.7834365353E-01  5.2556907222E-01
    94  4.0594948446E-01  4.7793211178E-01  -5.1321028105E-01
    95  4.0358157912E-01  -3.7836629937E-01  -5.2557747625E-01
    96  -4.0594872958E-01  -4.7793101773E-01  5.1321007263E-01
  Stress tensor (eV/A^3):
  8.3742279971E-02  -5.9586435627E-03  3.0998172924E-02
  -5.9586435627E-03  9.2185271655E-02  2.1024899174E-03
  3.0998172924E-02  2.1024899174E-03  7.1989696078E-02
