  Invoking FHI-aims ...
  | Number of atoms                   :  96
  ...scf iterations...
  | Total energy corrected        :   -9.029648357861E+01 eV
  ...
  Total atomic forces (unitary forces cleaned)
     1  -3.0432883571E-01  6.2393594824E-01  2.0129650604E-01
     2  2.2742824783E-01  5.7938194570E-01  -1.9401025353E-01
     3  3.0432894141E-01  -6.2393585761E-01  -2.0129641899E-01
     4  -2.2742811914E-01  -5.7938167158E-01  1.9401029901E-01
     5  -7.1871068653E-01  1.1998997988E+00  -8.4347878133E-02
     6  1.0573541946E+00  -1.9938906312E+00  2.7581402366E+00
     7  7.1871083756E-01  -1.1998996552E+00  8.4348114633E-02
     8  -1.0573546615E+00  1.9938905224E+00  -2.7581399791E+00
     9  -4.4106644859E-01  3.2945962107E-01  -2.1299437336E-01
    10  -1.7194434393E-01  -6.5897843450E-01  2.1102271485E-01
    11  4.4106615081E-01  -3.2945908380E-01  2.1299417442E-01
    12  1.7194637452E-01  6.5898042156E-01  -2.1102249654E-01
    13  -5.5683000650E-01  -1.0466235304E+00  -1.1685640016E+00
    14  1.1102207203E+00  -1.6177458624E-01  1.2128128499E+00
    15  5.5682942616E-01  1.0466236324E+00  1.1685636845E+00
    16  -1.1102232860E+00  1.6177267154E-01  -1.2128117302E+00
    17  4.0129862144E-01  -5.3679613069E-01  -3.8668751302E-02
    18  -8.8208533664E-01  4.5995781090E-01  -9.1010597642E-01
    19  -4.0129747329E-01  5.3679588563E-01  3.8669425100E-02
    20  8.8208610451E-01  -4.5995877302E-01  9.1010638955E-01
    21  7.2342611278E-01  -1.3311982530E+00  -2.4067555739E-01
    22  -7.0619302949E-01  -1.4074571377E+00  3.5123546204E-01
    23  -7.2342661548E-01  1.3311990882E+00  2.4067496531E-01
    24  7.0619269317E-01  1.4074572897E+00  -3.5123579512E-01
    25  1.0523221079E+00  2.3386396855E-02  9.2060587475E-01
    26  -5.9106048998E-01  -1.0575344326E+00  6.0430893289E-02
    27  -1.0523218636E+00  -2.3387087070E-02  -9.2060609063E-01
    28  5.9106079350E-01  1.0575355942E+00  -6.0432213909E-02
    29  4.9717746853E-01  2.6041630946E-01  5.8661241351E-01
    30  -4.3719910493E-01  3.5704276966E-01  -6.1959246647E-01
    31  -4.9717736080E-01  -2.6041607268E-01  -5.8661220083E-01
    32  4.3719872636E-01  -3.5704277247E-01  6.1959203917E-01
    33  2.0092483204E-01  1.1497012478E+00  1.0256944816E+00
    34  -1.1787641080E-01  1.2374375933E+00  -9.4048747655E-01
    35  -2.0092497898E-01  -1.1497018776E+00  -1.0256943207E+00
    36  1.1787682516E-01  -1.2374381374E+00  9.4048738167E-01
    37  -6.8762638923E-01  4.3659132843E-01  -2.9052780679E-01
    38  7.2332422866E-01  5.2590496587E-01  2.3277447875E-01
    39  6.8762644701E-01  -4.3659160302E-01  2.9052768710E-01
    40  -7.2332438217E-01  -5.2590513963E-01  -2.3277412431E-01
    41  -9.4972814115E-01  1.3044329402E+00  8.3846569965E-02
    42  9.6528543185E-01  1.3287620566E+00  -8.3741995421E-02
    43  9.4972806556E-01  -1.3044328959E+00  -8.3846200734E-02
    44  -9.6528518113E-01  -1.3287617268E+00  8.3742255020E-02
    45  -1.8628705243E+00  1.8040703254E-01  -1.2339381390E+00
    46  -5.9843187722E-01  -5.7954226961E+00  7.1856193458E-01
    47  1.8628703378E+00  -1.8040625533E-01  1.2339382323E+00
    48  5.9843044031E-01  5.7954222089E+00  -7.1856187779E-01
    49  3.0132240342E-01  1.8620918412E-01  1.2034186591E+00
    50  -2.8707042321E-01  7.2688356736E+00  -4.7672261219E+00
    51  -3.0132373681E-01  -1.8620765002E-01  -1.2034186397E+00
    52  2.8707247383E-01  -7.2688360354E+00  4.7672237528E+00
    53  -1.8480631873E+00  -9.8107628830E-01  9.2763263978E-01
    54  1.8108747729E+00  -1.3026844010E+00  -1.1840973002E+00
    55  1.8480617781E+00  9.8107979893E-01  -9.2763132466E-01
    56  -1.8108727766E+00  1.3026832686E+00  1.1840974618E+00
    57  1.1361656060E+00  -1.9193647400E-01  1.0324976827E+00
    58  1.6183256865E+00  -1.2036993721E-01  1.6979461961E+00
    59  -1.1361656392E+00  1.9193532917E-01  -1.0324968090E+00
    60  -1.6183276547E+00  1.2036943238E-01  -1.6979452111E+00
    61  -4.1740481458E-01  2.1907072829E+00  2.0574915877E-01
    62  -2.3772047876E+00  -4.2441733902E+00  7.4959870777E-01
    63  4.1740905817E-01  -2.1907074470E+00  -2.0575160647E-01
    64  2.3772044213E+00  4.2441743824E+00  -7.4959666531E-01
    65  7.7843772672E-01  -9.3688760817E-01  5.0105871642E-01
    66  2.7965352679E+00  5.2795798736E+00  -5.3476518561E-01
    67  -7.7843976712E-01  9.3688983600E-01  -5.0105800055E-01
    68  -2.7965342195E+00  -5.2795796844E+00  5.3476518963E-01
    69  -1.5876292551E+00  -1.3287950968E+00  8.2408913212E-01
    70  1.3695390540E+00  -8.9597980755E-01  -6.5049554518E-01
    71  1.5876272951E+00  1.3287959088E+00  -8.2408671761E-01
    72  -1.3695389467E+00  8.9597981388E-01  6.5049641275E-01
    73  7.4829100508E-01  -8.4700451585E-01  -1.9342518412E+00
    74  -8.4073204130E-01  -1.7379561316E+00  2.5879939339E+00
    75  -7.4829193232E-01  8.4700013829E-01  1.9342512132E+00
    76  8.4073016362E-01  1.7379564648E+00  -2.5879938193E+00
    77  1.1285723310E+00  -2.8243667310E-01  8.2285369725E-01
    78  -1.7711574654E+00  -7.4445401971E-01  -1.3166373318E+00
    79  -1.1285707545E+00  2.8243536056E-01  -8.2285348727E-01
    80  1.7711581167E+00  7.4445423567E-01  1.3166363723E+00
    81  1.2430317080E+00  4.6495574794E-01  -1.4280184727E-02
    82  -1.3436959917E+00  5.2591536711E-01  1.3216698777E-01
    83  -1.2430329371E+00  -4.6495622278E-01  1.4279944089E-02
    84  1.3436964414E+00  -5.2591509508E-01  -1.3216749496E-01
    85  1.2733213960E+00  -8.4295587462E-03  6.7986476185E-01
    86  -1.3276284633E+00  -3.9617733583E-03  -6.2100002121E-01
    87  -1.2733200014E+00  8.4299111061E-03  -6.7986427392E-01
    88  1.3276282350E+00  3.9617240494E-03  6.2099990980E-01
    89  4.6679247876E-01  -6.4599667844E-01  -2.1124164066E+00
    90  -4.8896336759E-01  -6.0646311030E-01  2.1846407517E+00
    91  -4.6679231579E-01  6.4599355037E-01  2.1124156785E+00
    92  4.8896267237E-01  6.0646411053E-01  -2.1846402815E+00
    93  -5.1114747959E-01  2.0945141829E+00  -1.6887029016E-01
    94  4.6564770192E-01  2.1991471095E+00  2.3522879594E-01
    95  5.1114913661E-01  -2.0945132132E+00  1.6886724635E-01
    96  -4.6564755469E-01  -2.1991475133E+00  -2.3522938149E-01
  Stress tensor (eV/A^3):
  9.4782715598E-02  -1.0212435444E-02  1.7028056317E-02
  -1.0212435444E-02  8.7343412219E-02  3.3518354495E-03
  1.7028056317E-02  3.3518354495E-03  9.5429507631E-02
