  Invoking FHI-aims ...
  | Number of atoms                   :  96
  ...scf iterations...
  | Total energy corrected        :   -3.884777157028E+01 eV
  ...
  Total atomic forces (unitary forces cleaned)
     1  -2.3536373222E-01  5.8553278174E-01  1.9435869702E-01
     2  2.3536171281E-01  5.8553694314E-01  -1.9434594861E-01
     3  2.3536371175E-01  -5.8553271328E-01  -1.9435868318E-01
     4  -2.3536161192E-01  -5.8553691091E-01  1.9434605427E-01
     5  -8.7179183969E-01  1.1488515719E+00  6.1755800454E-02
     6  8.7177503175E-01  1.1488565934E+00  -6.1761192348E-02
     7  8.7179236805E-01  -1.1488514198E+00  -6.1755310872E-02
     8  -8.7177495484E-01  -1.1488567597E+00  6.1761399588E-02
     9  -1.7977382690E-01  1.4587153830E-01  -7.3187498456E-02
    10  1.7978496212E-01  1.4590177462E-01  7.3199891085E-02
    11  1.7977333154E-01  -1.4587171201E-01  7.3187211270E-02
    12  -1.7978522158E-01  -1.4590158518E-01  -7.3200082852E-02
    13  -3.6222084914E-01  -8.9841042262E-01  -8.2437755468E-01
    14  3.6221873813E-01  -8.9843907351E-01  8.2435921669E-01
    15  3.6222033004E-01  8.9841061541E-01  8.2437735146E-01
    16  -3.6221886202E-01  8.9843910482E-01  -8.2435900717E-01
    17  2.7856750132E+00  -3.8196406165E+00  -3.5638653320E-01
    18  -2.7858960186E+00  -3.8200149911E+00  3.5639032228E-01
    19  -2.7856761808E+00  3.8196429898E+00  3.5638696934E-01
    20  2.7858975844E+00  3.8200179249E+00  -3.5639110945E-01
    21  -1.8961012175E+00  2.2467515759E+00  1.1531080904E-01
    22  1.8963581193E+00  2.2471160223E+00  -1.1532846378E-01
    23  1.8961026260E+00  -2.2467537841E+00  -1.1531107541E-01
    24  -1.8963595133E+00  -2.2471188850E+00  1.1532885540E-01
    25  4.5367235651E-01  5.0423277689E-02  3.1339316038E-01
    26  -4.5369413157E-01  5.0401921054E-02  -3.1337995812E-01
    27  -4.5367283494E-01  -5.0423572556E-02  -3.1339351206E-01
    28  4.5369433681E-01  -5.0401598882E-02  3.1337983008E-01
    29  1.0131489887E+00  3.3609759417E+00  3.0405806509E+00
    30  -1.0131521224E+00  3.3609889396E+00  -3.0405418445E+00
    31  -1.0131482457E+00  -3.3609731117E+00  -3.0405783527E+00
    32  1.0131522025E+00  -3.3609901286E+00  3.0405420960E+00
    33  -6.1994873399E-01  -2.0157888044E+00  -1.7808022294E+00
    34  6.1996886988E-01  -2.0157709747E+00  1.7807802196E+00
    35  6.1994830660E-01  2.0157860576E+00  1.7807997548E+00
    36  -6.1996940783E-01  2.0157718187E+00  -1.7807806648E+00
    37  -2.9627249517E+00  3.6211285746E+00  3.0482358489E-01
    38  2.9629171702E+00  3.6214734828E+00  -3.0483866308E-01
    39  2.9627224500E+00  -3.6211249179E+00  -3.0482296331E-01
    40  -2.9629139128E+00  -3.6214700651E+00  3.0483879748E-01
    41  1.6134125089E+00  -2.1194104422E+00  -2.7945023572E-01
    42  -1.6136352378E+00  -2.1197484391E+00  2.7947652436E-01
    43  -1.6134099773E+00  2.1194067364E+00  2.7944979409E-01
    44  1.6136324591E+00  2.1197448878E+00  -2.7947625550E-01
    45  -1.2274193838E+00  5.2097910578E-02  -7.6247598544E-01
    46  1.2274103324E+00  5.2153362447E-02  7.6247497832E-01
    47  1.2274148892E+00  -5.2098350131E-02  7.6247308976E-01
    48  -1.2274100561E+00  -5.2152844803E-02  -7.6247532804E-01
    49  -4.9893841329E+01  -1.1831146227E+01  2.0262824126E+01
    50  4.9891625980E+01  -1.1829397861E+01  -2.0261886660E+01
    51  4.9893346744E+01  1.1831074331E+01  -2.0262654992E+01
    52  -4.9891651612E+01  1.1829432727E+01  2.0261886065E+01
    53  2.2189231482E+01  4.0026476610E+01  1.0200701311E+00
    54  -2.2188288163E+01  4.0023892762E+01  -1.0201988941E+00
    55  -2.2189001159E+01  -4.0026104520E+01  -1.0200505699E+00
    56  2.2188306996E+01  -4.0023931878E+01  1.0201874673E+00
    57  -7.0599021729E-01  5.4740666730E-02  -5.4813223829E-01
    58  7.0593415185E-01  5.4734670638E-02  5.4807373026E-01
    59  7.0599324527E-01  -5.4740899726E-02  5.4813483240E-01
    60  -7.0592638810E-01  -5.4734215698E-02  -5.4806796952E-01
    61  2.7523027362E+01  -2.9080328989E+01  -1.8036894448E+01
    62  -2.7521686386E+01  -2.9079478477E+01  1.8036147021E+01
    63  -2.7522767918E+01  2.9080026931E+01  1.8036709203E+01
    64  2.7521685465E+01  2.9079481575E+01  -1.8036140365E+01
    65  -2.8664176277E+00  -2.4057538757E+01  -2.6395039938E+01
    66  2.8653149174E+00  -2.4053627691E+01  2.6393350893E+01
    67  2.8663546291E+00  2.4057360955E+01  2.6394856354E+01
    68  -2.8653457629E+00  2.4053670210E+01  -2.6393290992E+01
    69  1.1597884399E+01  2.7568544893E+01  1.1077065758E+00
    70  -1.1596534821E+01  2.7563942119E+01  -1.1076088388E+00
    71  -1.1597791151E+01  -2.7568334037E+01  -1.1077035918E+00
    72  1.1596548317E+01  -2.7563966624E+01  1.1076003388E+00
    73  -5.8137760281E+00  -5.4978848980E+00  2.4757234506E+01
    74  5.8135324959E+00  -5.4972069775E+00  -2.4755652272E+01
    75  5.8137473622E+00  5.4978477793E+00  -2.4757057781E+01
    76  -5.8135170925E+00  5.4971892197E+00  2.4755600502E+01
    77  -8.1407012254E-01  -6.3799307941E-02  -6.2817801489E-01
    78  8.1406891980E-01  -6.3808325832E-02  6.2818726237E-01
    79  8.1407197329E-01  6.3798964675E-02  6.2817903398E-01
    80  -8.1406798541E-01  6.3808145088E-02  -6.2818634409E-01
    81  -1.7821609490E+01  4.2789209259E+01  -1.2294184887E+01
    82  1.7821645287E+01  4.2791807404E+01  1.2296775391E+01
    83  1.7821396797E+01  -4.2788822633E+01  1.2294122591E+01
    84  -1.7821652918E+01  -4.2791835464E+01  -1.2296815583E+01
    85  -6.6034146239E-01  6.3372197361E-02  -3.8506686936E-01
    86  6.6020713644E-01  6.3350460786E-02  3.8499188654E-01
    87  6.6034545118E-01  -6.3372128140E-02  3.8506922704E-01
    88  -6.6020405358E-01  -6.3350410967E-02  -3.8498994309E-01
    89  -4.8568078299E+00  -1.1339521830E+01  3.1900126888E+01
    90  4.8580025181E+00  -1.1340650384E+01  -3.1903398477E+01
    91  4.8567715486E+00  1.1339435502E+01  -3.1899879205E+01
    92  -4.8580090205E+00  1.1340654863E+01  3.1903434717E+01
    93  2.4746412934E+01  -2.8689758160E+01  -1.9137870551E+01
    94  -2.4747521782E+01  -2.8691254158E+01  1.9138624776E+01
    95  -2.4746164691E+01  2.8689464483E+01  1.9137682706E+01
    96  2.4747533323E+01  2.8691277899E+01  -1.9138623406E+01
  Stress tensor (eV/A^3):
  -1.6372480725E-01  -5.1438437753E-06  1.4622109208E-01
  -5.1438437753E-06  -4.0387049137E-01  6.6585564772E-08
  1.4622109208E-01  6.6585564772E-08  -2.5611001327E-01
