  Invoking FHI-aims ...
  | Number of atoms                   :  96
  ...scf iterations...
  | Total energy corrected        :   -8.835353288601E+01 eV
  ...
  Total atomic forces (unitary forces cleaned)
     1  -2.6345716846E-01  5.9418546945E-01  1.8160246081E-01
     2  2.2116584072E-01  5.6379031305E-01  -1.8906165095E-01
     3  2.6345715957E-01  -5.9418537862E-01  -1.8160243818E-01
     4  -2.2116572521E-01  -5.6379025045E-01  1.8906174375E-01
     5  -8.5457897233E-01  1.4657027338E+00  2.2716931592E-01
     6  8.6978083785E-01  1.5629501072E+00  -4.2910057268E-01
     7  8.5457955806E-01  -1.4657025768E+00  -2.2716876012E-01
     8  -8.6978078069E-01  -1.5629502668E+00  4.2910084881E-01
     9  -3.1374236338E-01  1.8482891087E-01  -1.5317402756E-01
    10  5.8579054934E-01  4.0756123522E-01  1.3274154359E-01
    11  3.1374178744E-01  -1.8482909593E-01  1.5317357705E-01
    12  -5.8579087313E-01  -4.0756114397E-01  -1.3274166726E-01
    13  -4.8323843471E-01  -9.9717842497E-01  -9.9108453700E-01
    14  2.2903192631E-01  -1.2310514861E+00  1.0352272299E+00
    15  4.8323778401E-01  9.9717864523E-01  9.9108426700E-01
    16  -2.2903205222E-01  1.2310516352E+00  -1.0352269253E+00
    17  5.4742161227E-01  -7.4286768113E-01  -5.6417071921E-02
    18  -4.8221322353E-01  -9.1921660180E-01  3.0993162328E-01
    19  -5.4742109030E-01  7.4286788983E-01  5.6417511840E-02
    20  4.8221319510E-01  9.1921655241E-01  -3.0993200113E-01
    21  4.5445108107E-01  -9.6581833312E-01  -2.0168463586E-01
    22  -4.5130650801E-01  -9.8630102270E-01  2.2420291692E-01
    23  -4.5445122853E-01  9.6581836031E-01  2.0168448520E-01
    24  4.5130662805E-01  9.8630112340E-01  -2.2420293710E-01
    25  7.9291753298E-01  5.9708027661E-02  5.8971067029E-01
    26  -8.7233136202E-01  2.3024744630E-01  -8.4683031184E-01
    27  -7.9291793824E-01  -5.9708503915E-02  -5.8971111694E-01
    28  8.7233189815E-01  -2.3024702685E-01  8.4683017276E-01
    29  4.7704818287E-01  5.5412030463E-01  7.3062463964E-01
    30  -4.6609088568E-01  5.7426532182E-01  -7.3682589571E-01
    31  -4.7704798191E-01  -5.5412027626E-01  -7.3062486065E-01
    32  4.6609018803E-01  -5.7426564357E-01  7.3682560957E-01
    33  1.2203349347E-01  8.7344198752E-01  7.2882992231E-01
    34  -1.1983230553E-01  8.7654431215E-01  -7.2592128540E-01
    35  -1.2203322577E-01  -8.7344203591E-01  -7.2882971013E-01
    36  1.1983243522E-01  -8.7654443464E-01  7.2592121036E-01
    37  -8.2853730786E-01  6.8474115616E-01  -1.3634137731E-01
    38  8.3032064647E-01  7.0217821864E-01  1.2413753633E-01
    39  8.2853729385E-01  -6.8474129373E-01  1.3634155559E-01
    40  -8.3032028147E-01  -7.0217851415E-01  -1.2413703106E-01
    41  -7.2659705803E-01  9.2727844809E-01  5.6773287942E-02
    42  7.2808162077E-01  9.2781380727E-01  -5.9376162480E-02
    43  7.2659704942E-01  -9.2727830075E-01  -5.6773210089E-02
    44  -7.2808142903E-01  -9.2781365578E-01  5.9376237525E-02
    45  -1.7777211484E+00  1.3266345234E-01  -1.2009285280E+00
    46  1.3419846975E+00  -6.0439857172E-01  1.1640263359E+00
    47  1.7777313816E+00  -1.3265945867E-01  1.2009409129E+00
    48  -1.3419873369E+00  6.0439564059E-01  -1.1640260164E+00
    49  -9.5495863873E+00  -1.7569055476E+00  6.2290723730E+00
    50  1.1745932804E+01  3.6422058129E+00  -1.1126831786E+01
    51  9.5494772772E+00  1.7568856574E+00  -6.2290275693E+00
    52  -1.1745929796E+01  -3.6422005822E+00  1.1126831908E+01
    53  3.5650067541E+00  3.9380535358E+00  -1.5049848980E+00
    54  -2.3295472706E+00  2.1781726012E+00  1.1578664416E+00
    55  -3.5649475324E+00  -3.9379990660E+00  1.5049571835E+00
    56  2.3295501591E+00  -2.1781760535E+00  -1.1578682814E+00
    57  1.5311356248E+00  -2.3381778236E-01  1.3403804731E+00
    58  4.1818204846E-01  1.0645111213E-01  5.6783274175E-01
    59  -1.5311265117E+00  2.3381532055E-01  -1.3403715487E+00
    60  -4.1818463284E-01  -1.0645181299E-01  -5.6783478746E-01
    61  3.2005656341E+00  -2.6490620470E+00  -2.4840613022E+00
    62  -8.5686443034E+00  -6.5233883549E+00  5.9668892321E+00
    63  -3.2005250180E+00  2.6490320000E+00  2.4840255450E+00
    64  8.5686412553E+00  6.5233864397E+00  -5.9668840982E+00
    65  5.1491386720E-01  -4.8017300930E+00  -3.3463024698E+00
    66  9.8543012543E-02  -4.5042589491E+00  3.7683523549E+00
    67  -5.1493510109E-01  4.8016788322E+00  3.3462602364E+00
    68  -9.8547165670E-02  4.5042671278E+00  -3.7683399551E+00
    69  6.4938606085E-01  1.7868745031E+00  5.2892078291E-01
    70  -6.6018317054E-01  1.8212631868E+00  -5.7742934440E-01
    71  -6.4936746689E-01  -1.7868239351E+00  -5.2891496106E-01
    72  6.6018550355E-01  -1.8212690053E+00  5.7742843557E-01
    73  -1.0818519344E-01  3.6257836764E-01  7.9386287890E-01
    74  1.7039788342E-01  5.4037817058E-01  -1.2239325963E+00
    75  1.0817753673E-01  -3.6257535357E-01  -7.9382934070E-01
    76  -1.7039435047E-01  -5.4037735167E-01  1.2239205868E+00
    77  1.2866324410E+00  -2.3766014761E-01  6.9638052645E-01
    78  -1.4933757198E+00  -2.9856330310E-01  -8.2397101117E-01
    79  -1.2866261258E+00  2.3765866851E-01  -6.9637818372E-01
    80  1.4933756901E+00  2.9856312858E-01  8.2397066890E-01
    81  -1.6237683414E+00  9.0350171356E+00  -2.2288487074E+00
    82  1.5891716998E+00  9.1347211984E+00  2.2651269121E+00
    83  1.6237264997E+00  -9.0349112279E+00  2.2288027997E+00
    84  -1.5891708482E+00  -9.1347288739E+00  -2.2651395443E+00
    85  1.6348706463E+00  1.3235014436E-01  8.5941210732E-01
    86  -1.6535520233E+00  1.5826447894E-01  -8.4415703655E-01
    87  -1.6348611961E+00  -1.3234902805E-01  -8.5940729997E-01
    88  1.6535518974E+00  -1.5826444730E-01  8.4415706436E-01
    89  -3.6268210972E-01  -1.3363013401E+00  2.2109022781E+00
    90  3.5975073532E-01  -1.3139130295E+00  -2.1986656278E+00
    91  3.6267213099E-01  1.3362715245E+00  -2.2108454997E+00
    92  -3.5975247046E-01  1.3139173544E+00  2.1986758054E+00
    93  2.1738802300E+00  -4.3898986133E+00  -1.1214752638E+00
    94  -2.1812828820E+00  -4.3502743260E+00  1.1357000936E+00
    95  -2.1738436573E+00  4.3898143830E+00  1.1214573852E+00
    96  2.1812841835E+00  4.3502784660E+00  -1.1356985853E+00
  Stress tensor (eV/A^3):
  5.2215351482E-02  -9.8693613947E-03  5.0404136428E-02
  -9.8693613947E-03  2.4958582836E-02  4.1143680042E-03
  5.0404136428E-02  4.1143680042E-03  3.8399508024E-02
