64 
Energy: 3.0202484780580043e+00 
Mg	  0.000000000000 	  0.000000000000 	  0.000000000000 	
Mg	  1.000000000000 	  0.000000000000 	  2.980000000000 	
Mg	  0.000000000000 	  3.980000000000 	  0.000000000000 	
Mg	  1.000000000000 	  3.980000000000 	  2.980000000000 	
Mg	  3.980000000000 	  0.000000000000 	  0.000000000000 	
Mg	  4.980000000000 	  0.000000000000 	  2.980000000000 	
Mg	  3.980000000000 	  3.980000000000 	  0.000000000000 	
Mg	  4.980000000000 	  3.980000000000 	  2.980000000000 	
Mg	  1.692487311844 	  1.791658207896 	  0.000000000000 	
Mg	  2.692487311844 	  1.791658207896 	  2.980000000000 	
Mg	  1.692487311844 	  5.771658207896 	  0.000000000000 	
Mg	  2.692487311844 	  5.771658207896 	  2.980000000000 	
Mg	  5.672487311844 	  1.791658207896 	  0.000000000000 	
Mg	  6.672487311844 	  1.791658207896 	  2.980000000000 	
Mg	  5.672487311844 	  5.771658207896 	  0.000000000000 	
Mg	  6.672487311844 	  5.771658207896 	  2.980000000000 	
Mg	  2.485854480260 	  0.000000000000 	  1.494145519740 	
Mg	  3.485854480260 	  0.000000000000 	  4.474145519740 	
Mg	  2.485854480260 	  3.980000000000 	  1.494145519740 	
Mg	  3.485854480260 	  3.980000000000 	  4.474145519740 	
Mg	  6.465854480260 	  0.000000000000 	  1.494145519740 	
Mg	  7.465854480260 	  0.000000000000 	  4.474145519740 	
Mg	  6.465854480260 	  3.980000000000 	  1.494145519740 	
Mg	  7.465854480260 	  3.980000000000 	  4.474145519740 	
Mg	  0.495854480260 	  1.990000000000 	  1.494145519740 	
Mg	  1.495854480260 	  1.990000000000 	  4.474145519740 	
Mg	  0.495854480260 	  5.970000000000 	  1.494145519740 	
Mg	  1.495854480260 	  5.970000000000 	  4.474145519740 	
Mg	  4.475854480260 	  1.990000000000 	  1.494145519740 	
Mg	  5.475854480260 	  1.990000000000 	  4.474145519740 	
Mg	  4.475854480260 	  5.970000000000 	  1.494145519740 	
Mg	  5.475854480260 	  5.970000000000 	  4.474145519740 	
O	  1.990000000000 	  0.000000000000 	  0.000000000000 	
O	  2.990000000000 	  0.000000000000 	  2.980000000000 	
O	  1.990000000000 	  3.980000000000 	  0.000000000000 	
O	  2.990000000000 	  3.980000000000 	  2.980000000000 	
O	  5.970000000000 	  0.000000000000 	  0.000000000000 	
O	  6.970000000000 	  0.000000000000 	  2.980000000000 	
O	  5.970000000000 	  3.980000000000 	  0.000000000000 	
O	  6.970000000000 	  3.980000000000 	  2.980000000000 	
O	  0.000000000000 	  1.990000000000 	  0.000000000000 	
O	  1.000000000000 	  1.990000000000 	  2.980000000000 	
O	  0.000000000000 	  5.970000000000 	  0.000000000000 	
O	  1.000000000000 	  5.970000000000 	  2.980000000000 	
O	  3.980000000000 	  1.990000000000 	  0.000000000000 	
O	  4.980000000000 	  1.990000000000 	  2.980000000000 	
O	  3.980000000000 	  5.970000000000 	  0.000000000000 	
O	  4.980000000000 	  5.970000000000 	  2.980000000000 	
O	  0.495854480260 	  0.000000000000 	  1.494145519740 	
O	  1.495854480260 	  0.000000000000 	  4.474145519740 	
O	  0.495854480260 	  3.980000000000 	  1.494145519740 	
O	  1.495854480260 	  3.980000000000 	  4.474145519740 	
O	  4.475854480260 	  0.000000000000 	  1.494145519740 	
O	  5.475854480260 	  0.000000000000 	  4.474145519740 	
O	  4.475854480260 	  3.980000000000 	  1.494145519740 	
O	  5.475854480260 	  3.980000000000 	  4.474145519740 	
O	  2.882538064468 	  1.338447212938 	  1.494145519740 	
O	  3.882538064468 	  1.338447212938 	  4.474145519740 	
O	  2.882538064468 	  5.318447212938 	  1.494145519740 	
O	  3.882538064468 	  5.318447212938 	  4.474145519740 	
O	  6.862538064468 	  1.338447212938 	  1.494145519740 	
O	  7.862538064468 	  1.338447212938 	  4.474145519740 	
O	  6.862538064468 	  5.318447212938 	  1.494145519740 	
O	  7.862538064468 	  5.318447212938 	  4.474145519740 	
64 
Energy: 2.9419209890927362e+00 
Mg	  0.000000000000 	  0.000000000000 	  0.000000000000 	
Mg	  1.000000000000 	  0.000000000000 	  2.980000000000 	
Mg	  0.000000000000 	  3.980000000000 	  0.000000000000 	
Mg	  1.000000000000 	  3.980000000000 	  2.980000000000 	
Mg	  3.980000000000 	  0.000000000000 	  0.000000000000 	
Mg	  4.980000000000 	  0.000000000000 	  2.980000000000 	
Mg	  3.980000000000 	  3.980000000000 	  0.000000000000 	
Mg	  4.980000000000 	  3.980000000000 	  2.980000000000 	
Mg	  1.719486840611 	  1.812473062040 	  0.000000000000 	
Mg	  2.719486840611 	  1.812473062040 	  2.980000000000 	
Mg	  1.719486840611 	  5.792473062040 	  0.000000000000 	
Mg	  2.719486840611 	  5.792473062040 	  2.980000000000 	
Mg	  5.699486840611 	  1.812473062040 	  0.000000000000 	
Mg	  6.699486840611 	  1.812473062040 	  2.980000000000 	
Mg	  5.699486840611 	  5.792473062040 	  0.000000000000 	
Mg	  6.699486840611 	  5.792473062040 	  2.980000000000 	
Mg	  2.463376612040 	  0.000000000000 	  1.533514397754 	
Mg	  3.463376612040 	  0.000000000000 	  4.513514397754 	
Mg	  2.463376612040 	  3.980000000000 	  1.533514397754 	
Mg	  3.463376612040 	  3.980000000000 	  4.513514397754 	
Mg	  6.443376612040 	  0.000000000000 	  1.533514397754 	
Mg	  7.443376612040 	  0.000000000000 	  4.513514397754 	
Mg	  6.443376612040 	  3.980000000000 	  1.533514397754 	
Mg	  7.443376612040 	  3.980000000000 	  4.513514397754 	
Mg	  0.464931107143 	  1.998445504897 	  1.533514397754 	
Mg	  1.464931107143 	  1.998445504897 	  4.513514397754 	
Mg	  0.464931107143 	  5.978445504897 	  1.533514397754 	
Mg	  1.464931107143 	  5.978445504897 	  4.513514397754 	
Mg	  4.444931107143 	  1.998445504897 	  1.533514397754 	
Mg	  5.444931107143 	  1.998445504897 	  4.513514397754 	
Mg	  4.444931107143 	  5.978445504897 	  1.533514397754 	
Mg	  5.444931107143 	  5.978445504897 	  4.513514397754 	
O	  1.998445504897 	  0.000000000000 	  0.000000000000 	
O	  2.998445504897 	  0.000000000000 	  2.980000000000 	
O	  1.998445504897 	  3.980000000000 	  0.000000000000 	
O	  2.998445504897 	  3.980000000000 	  2.980000000000 	
O	  5.978445504897 	  0.000000000000 	  0.000000000000 	
O	  6.978445504897 	  0.000000000000 	  2.980000000000 	
O	  5.978445504897 	  3.980000000000 	  0.000000000000 	
O	  6.978445504897 	  3.980000000000 	  2.980000000000 	
O	  0.000000000000 	  1.998445504897 	  0.000000000000 	
O	  1.000000000000 	  1.998445504897 	  2.980000000000 	
O	  0.000000000000 	  5.978445504897 	  0.000000000000 	
O	  1.000000000000 	  5.978445504897 	  2.980000000000 	
O	  3.980000000000 	  1.998445504897 	  0.000000000000 	
O	  4.980000000000 	  1.998445504897 	  2.980000000000 	
O	  3.980000000000 	  5.978445504897 	  0.000000000000 	
O	  4.980000000000 	  5.978445504897 	  2.980000000000 	
O	  0.464931107143 	  0.000000000000 	  1.533514397754 	
O	  1.464931107143 	  0.000000000000 	  4.513514397754 	
O	  0.464931107143 	  3.980000000000 	  1.533514397754 	
O	  1.464931107143 	  3.980000000000 	  4.513514397754 	
O	  4.444931107143 	  0.000000000000 	  1.533514397754 	
O	  5.444931107143 	  0.000000000000 	  4.513514397754 	
O	  4.444931107143 	  3.980000000000 	  1.533514397754 	
O	  5.444931107143 	  3.980000000000 	  4.513514397754 	
O	  2.835321497754 	  1.387526030111 	  1.533514397754 	
O	  3.835321497754 	  1.387526030111 	  4.513514397754 	
O	  2.835321497754 	  5.367526030111 	  1.533514397754 	
O	  3.835321497754 	  5.367526030111 	  4.513514397754 	
O	  6.815321497754 	  1.387526030111 	  1.533514397754 	
O	  7.815321497754 	  1.387526030111 	  4.513514397754 	
O	  6.815321497754 	  5.367526030111 	  1.533514397754 	
O	  7.815321497754 	  5.367526030111 	  4.513514397754 	
64 
Energy: 3.3007082744839202e+00 
Mg	  0.000000000000 	  0.000000000000 	  0.000000000000 	
Mg	  1.000000000000 	  0.000000000000 	  2.980000000000 	
Mg	  0.000000000000 	  3.980000000000 	  0.000000000000 	
Mg	  1.000000000000 	  3.980000000000 	  2.980000000000 	
Mg	  3.980000000000 	  0.000000000000 	  0.000000000000 	
Mg	  4.980000000000 	  0.000000000000 	  2.980000000000 	
Mg	  3.980000000000 	  3.980000000000 	  0.000000000000 	
Mg	  4.980000000000 	  3.980000000000 	  2.980000000000 	
Mg	  1.746512755826 	  1.833301076607 	  0.000000000000 	
Mg	  2.746512755826 	  1.833301076607 	  2.980000000000 	
Mg	  1.746512755826 	  5.813301076607 	  0.000000000000 	
Mg	  2.746512755826 	  5.813301076607 	  2.980000000000 	
Mg	  5.726512755826 	  1.833301076607 	  0.000000000000 	
Mg	  6.726512755826 	  1.833301076607 	  2.980000000000 	
Mg	  5.726512755826 	  5.813301076607 	  0.000000000000 	
Mg	  6.726512755826 	  5.813301076607 	  2.980000000000 	
Mg	  2.440819322070 	  0.000000000000 	  1.572936114266 	
Mg	  3.440819322070 	  0.000000000000 	  4.552936114266 	
Mg	  2.440819322070 	  3.980000000000 	  1.572936114266 	
Mg	  3.440819322070 	  3.980000000000 	  4.552936114266 	
Mg	  6.420819322070 	  0.000000000000 	  1.572936114266 	
Mg	  7.420819322070 	  0.000000000000 	  4.552936114266 	
Mg	  6.420819322070 	  3.980000000000 	  1.572936114266 	
Mg	  7.420819322070 	  3.980000000000 	  4.552936114266 	
Mg	  0.433941603902 	  2.006877718168 	  1.572936114266 	
Mg	  1.433941603902 	  2.006877718168 	  4.552936114266 	
Mg	  0.433941603902 	  5.986877718168 	  1.572936114266 	
Mg	  1.433941603902 	  5.986877718168 	  4.552936114266 	
Mg	  4.413941603902 	  2.006877718168 	  1.572936114266 	
Mg	  5.413941603902 	  2.006877718168 	  4.552936114266 	
Mg	  4.413941603902 	  5.986877718168 	  1.572936114266 	
Mg	  5.413941603902 	  5.986877718168 	  4.552936114266 	
O	  2.006877718168 	  0.000000000000 	  0.000000000000 	
O	  3.006877718168 	  0.000000000000 	  2.980000000000 	
O	  2.006877718168 	  3.980000000000 	  0.000000000000 	
O	  3.006877718168 	  3.980000000000 	  2.980000000000 	
O	  5.986877718168 	  0.000000000000 	  0.000000000000 	
O	  6.986877718168 	  0.000000000000 	  2.980000000000 	
O	  5.986877718168 	  3.980000000000 	  0.000000000000 	
O	  6.986877718168 	  3.980000000000 	  2.980000000000 	
O	  0.000000000000 	  2.006877718168 	  0.000000000000 	
O	  1.000000000000 	  2.006877718168 	  2.980000000000 	
O	  0.000000000000 	  5.986877718168 	  0.000000000000 	
O	  1.000000000000 	  5.986877718168 	  2.980000000000 	
O	  3.980000000000 	  2.006877718168 	  0.000000000000 	
O	  4.980000000000 	  2.006877718168 	  2.980000000000 	
O	  3.980000000000 	  5.986877718168 	  0.000000000000 	
O	  4.980000000000 	  5.986877718168 	  2.980000000000 	
O	  0.433941603902 	  0.000000000000 	  1.572936114266 	
O	  1.433941603902 	  0.000000000000 	  4.552936114266 	
O	  0.433941603902 	  3.980000000000 	  1.572936114266 	
O	  1.433941603902 	  3.980000000000 	  4.552936114266 	
O	  4.413941603902 	  0.000000000000 	  1.572936114266 	
O	  5.413941603902 	  0.000000000000 	  4.552936114266 	
O	  4.413941603902 	  3.980000000000 	  1.572936114266 	
O	  5.413941603902 	  3.980000000000 	  4.552936114266 	
O	  2.787972605192 	  1.436678450640 	  1.572936114266 	
O	  3.787972605192 	  1.436678450640 	  4.552936114266 	
O	  2.787972605192 	  5.416678450640 	  1.572936114266 	
O	  3.787972605192 	  5.416678450640 	  4.552936114266 	
O	  6.767972605192 	  1.436678450640 	  1.572936114266 	
O	  7.767972605192 	  1.436678450640 	  4.552936114266 	
O	  6.767972605192 	  5.416678450640 	  1.572936114266 	
O	  7.767972605192 	  5.416678450640 	  4.552936114266 	
64 
Energy: 3.8910209809002225e+00 
Mg	  0.000000000000 	  0.000000000000 	  0.000000000000 	
Mg	  1.000000000000 	  0.000000000000 	  2.980000000000 	
Mg	  0.000000000000 	  3.980000000000 	  0.000000000000 	
Mg	  1.000000000000 	  3.980000000000 	  2.980000000000 	
Mg	  3.980000000000 	  0.000000000000 	  0.000000000000 	
Mg	  4.980000000000 	  0.000000000000 	  2.980000000000 	
Mg	  3.980000000000 	  3.980000000000 	  0.000000000000 	
Mg	  4.980000000000 	  3.980000000000 	  2.980000000000 	
Mg	  1.773543472355 	  1.854133145513 	  0.000000000000 	
Mg	  2.773543472355 	  1.854133145513 	  2.980000000000 	
Mg	  1.773543472355 	  5.834133145513 	  0.000000000000 	
Mg	  2.773543472355 	  5.834133145513 	  2.980000000000 	
Mg	  5.753543472355 	  1.854133145513 	  0.000000000000 	
Mg	  6.753543472355 	  1.854133145513 	  2.980000000000 	
Mg	  5.753543472355 	  5.834133145513 	  0.000000000000 	
Mg	  6.753543472355 	  5.834133145513 	  2.980000000000 	
Mg	  2.418260857618 	  0.000000000000 	  1.612364126039 	
Mg	  3.418260857618 	  0.000000000000 	  4.592364126039 	
Mg	  2.418260857618 	  3.980000000000 	  1.612364126039 	
Mg	  3.418260857618 	  3.980000000000 	  4.592364126039 	
Mg	  6.398260857618 	  0.000000000000 	  1.612364126039 	
Mg	  7.398260857618 	  0.000000000000 	  4.592364126039 	
Mg	  6.398260857618 	  3.980000000000 	  1.612364126039 	
Mg	  7.398260857618 	  3.980000000000 	  4.592364126039 	
Mg	  0.402948365790 	  2.015312491828 	  1.612364126039 	
Mg	  1.402948365790 	  2.015312491828 	  4.592364126039 	
Mg	  0.402948365790 	  5.995312491828 	  1.612364126039 	
Mg	  1.402948365790 	  5.995312491828 	  4.592364126039 	
Mg	  4.382948365790 	  2.015312491828 	  1.612364126039 	
Mg	  5.382948365790 	  2.015312491828 	  4.592364126039 	
Mg	  4.382948365790 	  5.995312491828 	  1.612364126039 	
Mg	  5.382948365790 	  5.995312491828 	  4.592364126039 	
O	  2.015312491828 	  0.000000000000 	  0.000000000000 	
O	  3.015312491828 	  0.000000000000 	  2.980000000000 	
O	  2.015312491828 	  3.980000000000 	  0.000000000000 	
O	  3.015312491828 	  3.980000000000 	  2.980000000000 	
O	  5.995312491828 	  0.000000000000 	  0.000000000000 	
O	  6.995312491828 	  0.000000000000 	  2.980000000000 	
O	  5.995312491828 	  3.980000000000 	  0.000000000000 	
O	  6.995312491828 	  3.980000000000 	  2.980000000000 	
O	  0.000000000000 	  2.015312491828 	  0.000000000000 	
O	  1.000000000000 	  2.015312491828 	  2.980000000000 	
O	  0.000000000000 	  5.995312491828 	  0.000000000000 	
O	  1.000000000000 	  5.995312491828 	  2.980000000000 	
O	  3.980000000000 	  2.015312491828 	  0.000000000000 	
O	  4.980000000000 	  2.015312491828 	  2.980000000000 	
O	  3.980000000000 	  5.995312491828 	  0.000000000000 	
O	  4.980000000000 	  5.995312491828 	  2.980000000000 	
O	  0.402948365790 	  0.000000000000 	  1.612364126039 	
O	  1.402948365790 	  0.000000000000 	  4.592364126039 	
O	  0.402948365790 	  3.980000000000 	  1.612364126039 	
O	  1.402948365790 	  3.980000000000 	  4.592364126039 	
O	  4.382948365790 	  0.000000000000 	  1.612364126039 	
O	  5.382948365790 	  0.000000000000 	  4.592364126039 	
O	  4.382948365790 	  3.980000000000 	  1.612364126039 	
O	  5.382948365790 	  3.980000000000 	  4.592364126039 	
O	  2.740619550250 	  1.485838339181 	  1.612364126039 	
O	  3.740619550250 	  1.485838339181 	  4.592364126039 	
O	  2.740619550250 	  5.465838339181 	  1.612364126039 	
O	  3.740619550250 	  5.465838339181 	  4.592364126039 	
O	  6.720619550250 	  1.485838339181 	  1.612364126039 	
O	  7.720619550250 	  1.485838339181 	  4.592364126039 	
O	  6.720619550250 	  5.465838339181 	  1.612364126039 	
O	  7.720619550250 	  5.465838339181 	  4.592364126039 	
64 
Energy: 4.5493009711351489e+00 
Mg	  0.000000000000 	  0.000000000000 	  0.000000000000 	
Mg	  1.000000000000 	  0.000000000000 	  2.980000000000 	
Mg	  0.000000000000 	  3.980000000000 	  0.000000000000 	
Mg	  1.000000000000 	  3.980000000000 	  2.980000000000 	
Mg	  3.980000000000 	  0.000000000000 	  0.000000000000 	
Mg	  4.980000000000 	  0.000000000000 	  2.980000000000 	
Mg	  3.980000000000 	  3.980000000000 	  0.000000000000 	
Mg	  4.980000000000 	  3.980000000000 	  2.980000000000 	
Mg	  1.800578142073 	  1.874968596237 	  0.000000000000 	
Mg	  2.800578142073 	  1.874968596237 	  2.980000000000 	
Mg	  1.800578142073 	  5.854968596237 	  0.000000000000 	
Mg	  2.800578142073 	  5.854968596237 	  2.980000000000 	
Mg	  5.780578142073 	  1.874968596237 	  0.000000000000 	
Mg	  6.780578142073 	  1.874968596237 	  2.980000000000 	
Mg	  5.780578142073 	  5.854968596237 	  0.000000000000 	
Mg	  6.780578142073 	  5.854968596237 	  2.980000000000 	
Mg	  2.395701775378 	  0.000000000000 	  1.651797233747 	
Mg	  3.395701775378 	  0.000000000000 	  4.631797233747 	
Mg	  2.395701775378 	  3.980000000000 	  1.651797233747 	
Mg	  3.395701775378 	  3.980000000000 	  4.631797233747 	
Mg	  6.375701775378 	  0.000000000000 	  1.651797233747 	
Mg	  7.375701775378 	  0.000000000000 	  4.631797233747 	
Mg	  6.375701775378 	  3.980000000000 	  1.651797233747 	
Mg	  7.375701775378 	  3.980000000000 	  4.631797233747 	
Mg	  0.371952270815 	  2.023749504563 	  1.651797233747 	
Mg	  1.371952270815 	  2.023749504563 	  4.631797233747 	
Mg	  0.371952270815 	  6.003749504563 	  1.651797233747 	
Mg	  1.371952270815 	  6.003749504563 	  4.631797233747 	
Mg	  4.351952270815 	  2.023749504563 	  1.651797233747 	
Mg	  5.351952270815 	  2.023749504563 	  4.631797233747 	
Mg	  4.351952270815 	  6.003749504563 	  1.651797233747 	
Mg	  5.351952270815 	  6.003749504563 	  4.631797233747 	
O	  2.023749504563 	  0.000000000000 	  0.000000000000 	
O	  3.023749504563 	  0.000000000000 	  2.980000000000 	
O	  2.023749504563 	  3.980000000000 	  0.000000000000 	
O	  3.023749504563 	  3.980000000000 	  2.980000000000 	
O	  6.003749504563 	  0.000000000000 	  0.000000000000 	
O	  7.003749504563 	  0.000000000000 	  2.980000000000 	
O	  6.003749504563 	  3.980000000000 	  0.000000000000 	
O	  7.003749504563 	  3.980000000000 	  2.980000000000 	
O	  0.000000000000 	  2.023749504563 	  0.000000000000 	
O	  1.000000000000 	  2.023749504563 	  2.980000000000 	
O	  0.000000000000 	  6.003749504563 	  0.000000000000 	
O	  1.000000000000 	  6.003749504563 	  2.980000000000 	
O	  3.980000000000 	  2.023749504563 	  0.000000000000 	
O	  4.980000000000 	  2.023749504563 	  2.980000000000 	
O	  3.980000000000 	  6.003749504563 	  0.000000000000 	
O	  4.980000000000 	  6.003749504563 	  2.980000000000 	
O	  0.371952270815 	  0.000000000000 	  1.651797233747 	
O	  1.371952270815 	  0.000000000000 	  4.631797233747 	
O	  0.371952270815 	  3.980000000000 	  1.651797233747 	
O	  1.371952270815 	  3.980000000000 	  4.631797233747 	
O	  4.351952270815 	  0.000000000000 	  1.651797233747 	
O	  5.351952270815 	  0.000000000000 	  4.631797233747 	
O	  4.351952270815 	  3.980000000000 	  1.651797233747 	
O	  5.351952270815 	  3.980000000000 	  4.631797233747 	
O	  2.693263592030 	  1.535004220711 	  1.651797233747 	
O	  3.693263592030 	  1.535004220711 	  4.631797233747 	
O	  2.693263592030 	  5.515004220711 	  1.651797233747 	
O	  3.693263592030 	  5.515004220711 	  4.631797233747 	
O	  6.673263592030 	  1.535004220711 	  1.651797233747 	
O	  7.673263592030 	  1.535004220711 	  4.631797233747 	
O	  6.673263592030 	  5.515004220711 	  1.651797233747 	
O	  7.673263592030 	  5.515004220711 	  4.631797233747 	
64 
Energy: 5.1473638449205339e+00 
Mg	  0.000000000000 	  0.000000000000 	  0.000000000000 	
Mg	  1.000000000000 	  0.000000000000 	  2.980000000000 	
Mg	  0.000000000000 	  3.980000000000 	  0.000000000000 	
Mg	  1.000000000000 	  3.980000000000 	  2.980000000000 	
Mg	  3.980000000000 	  0.000000000000 	  0.000000000000 	
Mg	  4.980000000000 	  0.000000000000 	  2.980000000000 	
Mg	  3.980000000000 	  3.980000000000 	  0.000000000000 	
Mg	  4.980000000000 	  3.980000000000 	  2.980000000000 	
Mg	  1.827615805229 	  1.895806602327 	  0.000000000000 	
Mg	  2.827615805229 	  1.895806602327 	  2.980000000000 	
Mg	  1.827615805229 	  5.875806602327 	  0.000000000000 	
Mg	  2.827615805229 	  5.875806602327 	  2.980000000000 	
Mg	  5.807615805229 	  1.895806602327 	  0.000000000000 	
Mg	  6.807615805229 	  1.895806602327 	  2.980000000000 	
Mg	  5.807615805229 	  5.875806602327 	  0.000000000000 	
Mg	  6.807615805229 	  5.875806602327 	  2.980000000000 	
Mg	  2.373142182018 	  0.000000000000 	  1.691234211031 	
Mg	  3.373142182018 	  0.000000000000 	  4.671234211031 	
Mg	  2.373142182018 	  3.980000000000 	  1.691234211031 	
Mg	  3.373142182018 	  3.980000000000 	  4.671234211031 	
Mg	  6.353142182018 	  0.000000000000 	  1.691234211031 	
Mg	  7.353142182018 	  0.000000000000 	  4.671234211031 	
Mg	  6.353142182018 	  3.980000000000 	  1.691234211031 	
Mg	  7.353142182018 	  3.980000000000 	  4.671234211031 	
Mg	  0.340953985494 	  2.032188196525 	  1.691234211031 	
Mg	  1.340953985494 	  2.032188196525 	  4.671234211031 	
Mg	  0.340953985494 	  6.012188196525 	  1.691234211031 	
Mg	  1.340953985494 	  6.012188196525 	  4.671234211031 	
Mg	  4.320953985494 	  2.032188196525 	  1.691234211031 	
Mg	  5.320953985494 	  2.032188196525 	  4.671234211031 	
Mg	  4.320953985494 	  6.012188196525 	  1.691234211031 	
Mg	  5.320953985494 	  6.012188196525 	  4.671234211031 	
O	  2.032188196525 	  0.000000000000 	  0.000000000000 	
O	  3.032188196525 	  0.000000000000 	  2.980000000000 	
O	  2.032188196525 	  3.980000000000 	  0.000000000000 	
O	  3.032188196525 	  3.980000000000 	  2.980000000000 	
O	  6.012188196525 	  0.000000000000 	  0.000000000000 	
O	  7.012188196525 	  0.000000000000 	  2.980000000000 	
O	  6.012188196525 	  3.980000000000 	  0.000000000000 	
O	  7.012188196525 	  3.980000000000 	  2.980000000000 	
O	  0.000000000000 	  2.032188196525 	  0.000000000000 	
O	  1.000000000000 	  2.032188196525 	  2.980000000000 	
O	  0.000000000000 	  6.012188196525 	  0.000000000000 	
O	  1.000000000000 	  6.012188196525 	  2.980000000000 	
O	  3.980000000000 	  2.032188196525 	  0.000000000000 	
O	  4.980000000000 	  2.032188196525 	  2.980000000000 	
O	  3.980000000000 	  6.012188196525 	  0.000000000000 	
O	  4.980000000000 	  6.012188196525 	  2.980000000000 	
O	  0.340953985494 	  0.000000000000 	  1.691234211031 	
O	  1.340953985494 	  0.000000000000 	  4.671234211031 	
O	  0.340953985494 	  3.980000000000 	  1.691234211031 	
O	  1.340953985494 	  3.980000000000 	  4.671234211031 	
O	  4.320953985494 	  0.000000000000 	  1.691234211031 	
O	  5.320953985494 	  0.000000000000 	  4.671234211031 	
O	  4.320953985494 	  3.980000000000 	  1.691234211031 	
O	  5.320953985494 	  3.980000000000 	  4.671234211031 	
O	  2.645905370413 	  1.584174659586 	  1.691234211031 	
O	  3.645905370413 	  1.584174659586 	  4.671234211031 	
O	  2.645905370413 	  5.564174659586 	  1.691234211031 	
O	  3.645905370413 	  5.564174659586 	  4.671234211031 	
O	  6.625905370413 	  1.584174659586 	  1.691234211031 	
O	  7.625905370413 	  1.584174659586 	  4.671234211031 	
O	  6.625905370413 	  5.564174659586 	  1.691234211031 	
O	  7.625905370413 	  5.564174659586 	  4.671234211031 	
64 
Energy: 5.5884055203451624e+00 
Mg	  0.000000000000 	  0.000000000000 	  0.000000000000 	
Mg	  1.000000000000 	  0.000000000000 	  2.980000000000 	
Mg	  0.000000000000 	  3.980000000000 	  0.000000000000 	
Mg	  1.000000000000 	  3.980000000000 	  2.980000000000 	
Mg	  3.980000000000 	  0.000000000000 	  0.000000000000 	
Mg	  4.980000000000 	  0.000000000000 	  2.980000000000 	
Mg	  3.980000000000 	  3.980000000000 	  0.000000000000 	
Mg	  4.980000000000 	  3.980000000000 	  2.980000000000 	
Mg	  1.854655530534 	  1.916646361383 	  0.000000000000 	
Mg	  2.854655530534 	  1.916646361383 	  2.980000000000 	
Mg	  1.854655530534 	  5.896646361383 	  0.000000000000 	
Mg	  2.854655530534 	  5.896646361383 	  2.980000000000 	
Mg	  5.834655530534 	  1.916646361383 	  0.000000000000 	
Mg	  6.834655530534 	  1.916646361383 	  2.980000000000 	
Mg	  5.834655530534 	  5.896646361383 	  0.000000000000 	
Mg	  6.834655530534 	  5.896646361383 	  2.980000000000 	
Mg	  2.350582177326 	  0.000000000000 	  1.730673868836 	
Mg	  3.350582177326 	  0.000000000000 	  4.710673868836 	
Mg	  2.350582177326 	  3.980000000000 	  1.730673868836 	
Mg	  3.350582177326 	  3.980000000000 	  4.710673868836 	
Mg	  6.330582177326 	  0.000000000000 	  1.730673868836 	
Mg	  7.330582177326 	  0.000000000000 	  4.710673868836 	
Mg	  6.330582177326 	  3.980000000000 	  1.730673868836 	
Mg	  7.330582177326 	  3.980000000000 	  4.710673868836 	
Mg	  0.309954154245 	  2.040628023081 	  1.730673868836 	
Mg	  1.309954154245 	  2.040628023081 	  4.710673868836 	
Mg	  0.309954154245 	  6.020628023081 	  1.730673868836 	
Mg	  1.309954154245 	  6.020628023081 	  4.710673868836 	
Mg	  4.289954154245 	  2.040628023081 	  1.730673868836 	
Mg	  5.289954154245 	  2.040628023081 	  4.710673868836 	
Mg	  4.289954154245 	  6.020628023081 	  1.730673868836 	
Mg	  5.289954154245 	  6.020628023081 	  4.710673868836 	
O	  2.040628023081 	  0.000000000000 	  0.000000000000 	
O	  3.040628023081 	  0.000000000000 	  2.980000000000 	
O	  2.040628023081 	  3.980000000000 	  0.000000000000 	
O	  3.040628023081 	  3.980000000000 	  2.980000000000 	
O	  6.020628023081 	  0.000000000000 	  0.000000000000 	
O	  7.020628023081 	  0.000000000000 	  2.980000000000 	
O	  6.020628023081 	  3.980000000000 	  0.000000000000 	
O	  7.020628023081 	  3.980000000000 	  2.980000000000 	
O	  0.000000000000 	  2.040628023081 	  0.000000000000 	
O	  1.000000000000 	  2.040628023081 	  2.980000000000 	
O	  0.000000000000 	  6.020628023081 	  0.000000000000 	
O	  1.000000000000 	  6.020628023081 	  2.980000000000 	
O	  3.980000000000 	  2.040628023081 	  0.000000000000 	
O	  4.980000000000 	  2.040628023081 	  2.980000000000 	
O	  3.980000000000 	  6.020628023081 	  0.000000000000 	
O	  4.980000000000 	  6.020628023081 	  2.980000000000 	
O	  0.309954154245 	  0.000000000000 	  1.730673868836 	
O	  1.309954154245 	  0.000000000000 	  4.710673868836 	
O	  0.309954154245 	  3.980000000000 	  1.730673868836 	
O	  1.309954154245 	  3.980000000000 	  4.710673868836 	
O	  4.289954154245 	  0.000000000000 	  1.730673868836 	
O	  5.289954154245 	  0.000000000000 	  4.710673868836 	
O	  4.289954154245 	  3.980000000000 	  1.730673868836 	
O	  5.289954154245 	  3.980000000000 	  4.710673868836 	
O	  2.598545500722 	  1.633348264403 	  1.730673868836 	
O	  3.598545500722 	  1.633348264403 	  4.710673868836 	
O	  2.598545500722 	  5.613348264403 	  1.730673868836 	
O	  3.598545500722 	  5.613348264403 	  4.710673868836 	
O	  6.578545500722 	  1.633348264403 	  1.730673868836 	
O	  7.578545500722 	  1.633348264403 	  4.710673868836 	
O	  6.578545500722 	  5.613348264403 	  1.730673868836 	
O	  7.578545500722 	  5.613348264403 	  4.710673868836 	
64 
Energy: 5.8044818897503454e+00 
Mg	  0.000000000000 	  0.000000000000 	  0.000000000000 	
Mg	  1.000000000000 	  0.000000000000 	  2.980000000000 	
Mg	  0.000000000000 	  3.980000000000 	  0.000000000000 	
Mg	  1.000000000000 	  3.980000000000 	  2.980000000000 	
Mg	  3.980000000000 	  0.000000000000 	  0.000000000000 	
Mg	  4.980000000000 	  0.000000000000 	  2.980000000000 	
Mg	  3.980000000000 	  3.980000000000 	  0.000000000000 	
Mg	  4.980000000000 	  3.980000000000 	  2.980000000000 	
Mg	  1.881696373075 	  1.937487076948 	  0.000000000000 	
Mg	  2.881696373075 	  1.937487076948 	  2.980000000000 	
Mg	  1.881696373075 	  5.917487076948 	  0.000000000000 	
Mg	  2.881696373075 	  5.917487076948 	  2.980000000000 	
Mg	  5.861696373075 	  1.937487076948 	  0.000000000000 	
Mg	  6.861696373075 	  1.937487076948 	  2.980000000000 	
Mg	  5.861696373075 	  5.917487076948 	  0.000000000000 	
Mg	  6.861696373075 	  5.917487076948 	  2.980000000000 	
Mg	  2.328022004058 	  0.000000000000 	  1.770114965329 	
Mg	  3.328022004058 	  0.000000000000 	  4.750114965329 	
Mg	  2.328022004058 	  3.980000000000 	  1.770114965329 	
Mg	  3.328022004058 	  3.980000000000 	  4.750114965329 	
Mg	  6.308022004058 	  0.000000000000 	  1.770114965329 	
Mg	  7.308022004058 	  0.000000000000 	  4.750114965329 	
Mg	  6.308022004058 	  3.980000000000 	  1.770114965329 	
Mg	  7.308022004058 	  3.980000000000 	  4.750114965329 	
Mg	  0.278953519365 	  2.049068484693 	  1.770114965329 	
Mg	  1.278953519365 	  2.049068484693 	  4.750114965329 	
Mg	  0.278953519365 	  6.029068484693 	  1.770114965329 	
Mg	  1.278953519365 	  6.029068484693 	  4.750114965329 	
Mg	  4.258953519365 	  2.049068484693 	  1.770114965329 	
Mg	  5.258953519365 	  2.049068484693 	  4.750114965329 	
Mg	  4.258953519365 	  6.029068484693 	  1.770114965329 	
Mg	  5.258953519365 	  6.029068484693 	  4.750114965329 	
O	  2.049068484693 	  0.000000000000 	  0.000000000000 	
O	  3.049068484693 	  0.000000000000 	  2.980000000000 	
O	  2.049068484693 	  3.980000000000 	  0.000000000000 	
O	  3.049068484693 	  3.980000000000 	  2.980000000000 	
O	  6.029068484693 	  0.000000000000 	  0.000000000000 	
O	  7.029068484693 	  0.000000000000 	  2.980000000000 	
O	  6.029068484693 	  3.980000000000 	  0.000000000000 	
O	  7.029068484693 	  3.980000000000 	  2.980000000000 	
O	  0.000000000000 	  2.049068484693 	  0.000000000000 	
O	  1.000000000000 	  2.049068484693 	  2.980000000000 	
O	  0.000000000000 	  6.029068484693 	  0.000000000000 	
O	  1.000000000000 	  6.029068484693 	  2.980000000000 	
O	  3.980000000000 	  2.049068484693 	  0.000000000000 	
O	  4.980000000000 	  2.049068484693 	  2.980000000000 	
O	  3.980000000000 	  6.029068484693 	  0.000000000000 	
O	  4.980000000000 	  6.029068484693 	  2.980000000000 	
O	  0.278953519365 	  0.000000000000 	  1.770114965329 	
O	  1.278953519365 	  0.000000000000 	  4.750114965329 	
O	  0.278953519365 	  3.980000000000 	  1.770114965329 	
O	  1.278953519365 	  3.980000000000 	  4.750114965329 	
O	  4.258953519365 	  0.000000000000 	  1.770114965329 	
O	  5.258953519365 	  0.000000000000 	  4.750114965329 	
O	  4.258953519365 	  3.980000000000 	  1.770114965329 	
O	  5.258953519365 	  3.980000000000 	  4.750114965329 	
O	  2.551184819549 	  1.682523560248 	  1.770114965329 	
O	  3.551184819549 	  1.682523560248 	  4.750114965329 	
O	  2.551184819549 	  5.662523560248 	  1.770114965329 	
O	  3.551184819549 	  5.662523560248 	  4.750114965329 	
O	  6.531184819549 	  1.682523560248 	  1.770114965329 	
O	  7.531184819549 	  1.682523560248 	  4.750114965329 	
O	  6.531184819549 	  5.662523560248 	  1.770114965329 	
O	  7.531184819549 	  5.662523560248 	  4.750114965329 	
64 
Energy: 5.7550346066830160e+00 
Mg	  0.000000000000 	  0.000000000000 	  0.000000000000 	
Mg	  1.000000000000 	  0.000000000000 	  2.980000000000 	
Mg	  0.000000000000 	  3.980000000000 	  0.000000000000 	
Mg	  1.000000000000 	  3.980000000000 	  2.980000000000 	
Mg	  3.980000000000 	  0.000000000000 	  0.000000000000 	
Mg	  4.980000000000 	  0.000000000000 	  2.980000000000 	
Mg	  3.980000000000 	  3.980000000000 	  0.000000000000 	
Mg	  4.980000000000 	  3.980000000000 	  2.980000000000 	
Mg	  1.908737561598 	  1.958328082536 	  0.000000000000 	
Mg	  2.908737561598 	  1.958328082536 	  2.980000000000 	
Mg	  1.908737561598 	  5.938328082536 	  0.000000000000 	
Mg	  2.908737561598 	  5.938328082536 	  2.980000000000 	
Mg	  5.888737561598 	  1.958328082536 	  0.000000000000 	
Mg	  6.888737561598 	  1.958328082536 	  2.980000000000 	
Mg	  5.888737561598 	  5.938328082536 	  0.000000000000 	
Mg	  6.888737561598 	  5.938328082536 	  2.980000000000 	
Mg	  2.305461729102 	  0.000000000000 	  1.809556519723 	
Mg	  3.305461729102 	  0.000000000000 	  4.789556519723 	
Mg	  2.305461729102 	  3.980000000000 	  1.809556519723 	
Mg	  3.305461729102 	  3.980000000000 	  4.789556519723 	
Mg	  6.285461729102 	  0.000000000000 	  1.809556519723 	
Mg	  7.285461729102 	  0.000000000000 	  4.789556519723 	
Mg	  6.285461729102 	  3.980000000000 	  1.809556519723 	
Mg	  7.285461729102 	  3.980000000000 	  4.789556519723 	
Mg	  0.247952604690 	  2.057509124412 	  1.809556519723 	
Mg	  1.247952604690 	  2.057509124412 	  4.789556519723 	
Mg	  0.247952604690 	  6.037509124412 	  1.809556519723 	
Mg	  1.247952604690 	  6.037509124412 	  4.789556519723 	
Mg	  4.227952604690 	  2.057509124412 	  1.809556519723 	
Mg	  5.227952604690 	  2.057509124412 	  4.789556519723 	
Mg	  4.227952604690 	  6.037509124412 	  1.809556519723 	
Mg	  5.227952604690 	  6.037509124412 	  4.789556519723 	
O	  2.057509124412 	  0.000000000000 	  0.000000000000 	
O	  3.057509124412 	  0.000000000000 	  2.980000000000 	
O	  2.057509124412 	  3.980000000000 	  0.000000000000 	
O	  3.057509124412 	  3.980000000000 	  2.980000000000 	
O	  6.037509124412 	  0.000000000000 	  0.000000000000 	
O	  7.037509124412 	  0.000000000000 	  2.980000000000 	
O	  6.037509124412 	  3.980000000000 	  0.000000000000 	
O	  7.037509124412 	  3.980000000000 	  2.980000000000 	
O	  0.000000000000 	  2.057509124412 	  0.000000000000 	
O	  1.000000000000 	  2.057509124412 	  2.980000000000 	
O	  0.000000000000 	  6.037509124412 	  0.000000000000 	
O	  1.000000000000 	  6.037509124412 	  2.980000000000 	
O	  3.980000000000 	  2.057509124412 	  0.000000000000 	
O	  4.980000000000 	  2.057509124412 	  2.980000000000 	
O	  3.980000000000 	  6.037509124412 	  0.000000000000 	
O	  4.980000000000 	  6.037509124412 	  2.980000000000 	
O	  0.247952604690 	  0.000000000000 	  1.809556519723 	
O	  1.247952604690 	  0.000000000000 	  4.789556519723 	
O	  0.247952604690 	  3.980000000000 	  1.809556519723 	
O	  1.247952604690 	  3.980000000000 	  4.789556519723 	
O	  4.227952604690 	  0.000000000000 	  1.809556519723 	
O	  5.227952604690 	  0.000000000000 	  4.789556519723 	
O	  4.227952604690 	  3.980000000000 	  1.809556519723 	
O	  5.227952604690 	  3.980000000000 	  4.789556519723 	
O	  2.503823812854 	  1.731699401850 	  1.809556519723 	
O	  3.503823812854 	  1.731699401850 	  4.789556519723 	
O	  2.503823812854 	  5.711699401850 	  1.809556519723 	
O	  3.503823812854 	  5.711699401850 	  4.789556519723 	
O	  6.483823812854 	  1.731699401850 	  1.809556519723 	
O	  7.483823812854 	  1.731699401850 	  4.789556519723 	
O	  6.483823812854 	  5.711699401850 	  1.809556519723 	
O	  7.483823812854 	  5.711699401850 	  4.789556519723 	
64 
Energy: 5.4262066833819818e+00 
Mg	  0.000000000000 	  0.000000000000 	  0.000000000000 	
Mg	  1.000000000000 	  0.000000000000 	  2.980000000000 	
Mg	  0.000000000000 	  3.980000000000 	  0.000000000000 	
Mg	  1.000000000000 	  3.980000000000 	  2.980000000000 	
Mg	  3.980000000000 	  0.000000000000 	  0.000000000000 	
Mg	  4.980000000000 	  0.000000000000 	  2.980000000000 	
Mg	  3.980000000000 	  3.980000000000 	  0.000000000000 	
Mg	  4.980000000000 	  3.980000000000 	  2.980000000000 	
Mg	  1.935778249269 	  1.979168680602 	  0.000000000000 	
Mg	  2.935778249269 	  1.979168680602 	  2.980000000000 	
Mg	  1.935778249269 	  5.959168680602 	  0.000000000000 	
Mg	  2.935778249269 	  5.959168680602 	  2.980000000000 	
Mg	  5.915778249269 	  1.979168680602 	  0.000000000000 	
Mg	  6.915778249269 	  1.979168680602 	  2.980000000000 	
Mg	  5.915778249269 	  5.959168680602 	  0.000000000000 	
Mg	  6.915778249269 	  5.959168680602 	  2.980000000000 	
Mg	  2.282901699939 	  0.000000000000 	  1.848997386601 	
Mg	  3.282901699939 	  0.000000000000 	  4.828997386601 	
Mg	  2.282901699939 	  3.980000000000 	  1.848997386601 	
Mg	  3.282901699939 	  3.980000000000 	  4.828997386601 	
Mg	  6.262901699939 	  0.000000000000 	  1.848997386601 	
Mg	  7.262901699939 	  0.000000000000 	  4.828997386601 	
Mg	  6.262901699939 	  3.980000000000 	  1.848997386601 	
Mg	  7.262901699939 	  3.980000000000 	  4.828997386601 	
Mg	  0.216952156669 	  2.065949543270 	  1.848997386601 	
Mg	  1.216952156669 	  2.065949543270 	  4.828997386601 	
Mg	  0.216952156669 	  6.045949543270 	  1.848997386601 	
Mg	  1.216952156669 	  6.045949543270 	  4.828997386601 	
Mg	  4.196952156669 	  2.065949543270 	  1.848997386601 	
Mg	  5.196952156669 	  2.065949543270 	  4.828997386601 	
Mg	  4.196952156669 	  6.045949543270 	  1.848997386601 	
Mg	  5.196952156669 	  6.045949543270 	  4.828997386601 	
O	  2.065949543270 	  0.000000000000 	  0.000000000000 	
O	  3.065949543270 	  0.000000000000 	  2.980000000000 	
O	  2.065949543270 	  3.980000000000 	  0.000000000000 	
O	  3.065949543270 	  3.980000000000 	  2.980000000000 	
O	  6.045949543270 	  0.000000000000 	  0.000000000000 	
O	  7.045949543270 	  0.000000000000 	  2.980000000000 	
O	  6.045949543270 	  3.980000000000 	  0.000000000000 	
O	  7.045949543270 	  3.980000000000 	  2.980000000000 	
O	  0.000000000000 	  2.065949543270 	  0.000000000000 	
O	  1.000000000000 	  2.065949543270 	  2.980000000000 	
O	  0.000000000000 	  6.045949543270 	  0.000000000000 	
O	  1.000000000000 	  6.045949543270 	  2.980000000000 	
O	  3.980000000000 	  2.065949543270 	  0.000000000000 	
O	  4.980000000000 	  2.065949543270 	  2.980000000000 	
O	  3.980000000000 	  6.045949543270 	  0.000000000000 	
O	  4.980000000000 	  6.045949543270 	  2.980000000000 	
O	  0.216952156669 	  0.000000000000 	  1.848997386601 	
O	  1.216952156669 	  0.000000000000 	  4.828997386601 	
O	  0.216952156669 	  3.980000000000 	  1.848997386601 	
O	  1.216952156669 	  3.980000000000 	  4.828997386601 	
O	  4.196952156669 	  0.000000000000 	  1.848997386601 	
O	  5.196952156669 	  0.000000000000 	  4.828997386601 	
O	  4.196952156669 	  3.980000000000 	  1.848997386601 	
O	  5.196952156669 	  3.980000000000 	  4.828997386601 	
O	  2.456463425275 	  1.780874409407 	  1.848997386601 	
O	  3.456463425275 	  1.780874409407 	  4.828997386601 	
O	  2.456463425275 	  5.760874409407 	  1.848997386601 	
O	  3.456463425275 	  5.760874409407 	  4.828997386601 	
O	  6.436463425275 	  1.780874409407 	  1.848997386601 	
O	  7.436463425275 	  1.780874409407 	  4.828997386601 	
O	  6.436463425275 	  5.760874409407 	  1.848997386601 	
O	  7.436463425275 	  5.760874409407 	  4.828997386601 	
64 
Energy: 4.8309447441629141e+00 
Mg	  0.000000000000 	  0.000000000000 	  0.000000000000 	
Mg	  1.000000000000 	  0.000000000000 	  2.980000000000 	
Mg	  0.000000000000 	  3.980000000000 	  0.000000000000 	
Mg	  1.000000000000 	  3.980000000000 	  2.980000000000 	
Mg	  3.980000000000 	  0.000000000000 	  0.000000000000 	
Mg	  4.980000000000 	  0.000000000000 	  2.980000000000 	
Mg	  3.980000000000 	  3.980000000000 	  0.000000000000 	
Mg	  4.980000000000 	  3.980000000000 	  2.980000000000 	
Mg	  1.962817688246 	  2.000008250143 	  0.000000000000 	
Mg	  2.962817688246 	  2.000008250143 	  2.980000000000 	
Mg	  1.962817688246 	  5.980008250143 	  0.000000000000 	
Mg	  2.962817688246 	  5.980008250143 	  2.980000000000 	
Mg	  5.942817688246 	  2.000008250143 	  0.000000000000 	
Mg	  6.942817688246 	  2.000008250143 	  2.980000000000 	
Mg	  5.942817688246 	  5.980008250143 	  0.000000000000 	
Mg	  6.942817688246 	  5.980008250143 	  2.980000000000 	
Mg	  2.260342183425 	  0.000000000000 	  1.888436564451 	
Mg	  3.260342183425 	  0.000000000000 	  4.868436564451 	
Mg	  2.260342183425 	  3.980000000000 	  1.888436564451 	
Mg	  3.260342183425 	  3.980000000000 	  4.868436564451 	
Mg	  6.240342183425 	  0.000000000000 	  1.888436564451 	
Mg	  7.240342183425 	  0.000000000000 	  4.868436564451 	
Mg	  6.240342183425 	  3.980000000000 	  1.888436564451 	
Mg	  7.240342183425 	  3.980000000000 	  4.868436564451 	
Mg	  0.185952809487 	  2.074389373938 	  1.888436564451 	
Mg	  1.185952809487 	  2.074389373938 	  4.868436564451 	
Mg	  0.185952809487 	  6.054389373938 	  1.888436564451 	
Mg	  1.185952809487 	  6.054389373938 	  4.868436564451 	
Mg	  4.165952809487 	  2.074389373938 	  1.888436564451 	
Mg	  5.165952809487 	  2.074389373938 	  4.868436564451 	
Mg	  4.165952809487 	  6.054389373938 	  1.888436564451 	
Mg	  5.165952809487 	  6.054389373938 	  4.868436564451 	
O	  2.074389373938 	  0.000000000000 	  0.000000000000 	
O	  3.074389373938 	  0.000000000000 	  2.980000000000 	
O	  2.074389373938 	  3.980000000000 	  0.000000000000 	
O	  3.074389373938 	  3.980000000000 	  2.980000000000 	
O	  6.054389373938 	  0.000000000000 	  0.000000000000 	
O	  7.054389373938 	  0.000000000000 	  2.980000000000 	
O	  6.054389373938 	  3.980000000000 	  0.000000000000 	
O	  7.054389373938 	  3.980000000000 	  2.980000000000 	
O	  0.000000000000 	  2.074389373938 	  0.000000000000 	
O	  1.000000000000 	  2.074389373938 	  2.980000000000 	
O	  0.000000000000 	  6.054389373938 	  0.000000000000 	
O	  1.000000000000 	  6.054389373938 	  2.980000000000 	
O	  3.980000000000 	  2.074389373938 	  0.000000000000 	
O	  4.980000000000 	  2.074389373938 	  2.980000000000 	
O	  3.980000000000 	  6.054389373938 	  0.000000000000 	
O	  4.980000000000 	  6.054389373938 	  2.980000000000 	
O	  0.185952809487 	  0.000000000000 	  1.888436564451 	
O	  1.185952809487 	  0.000000000000 	  4.868436564451 	
O	  0.185952809487 	  3.980000000000 	  1.888436564451 	
O	  1.185952809487 	  3.980000000000 	  4.868436564451 	
O	  4.165952809487 	  0.000000000000 	  1.888436564451 	
O	  5.165952809487 	  0.000000000000 	  4.868436564451 	
O	  4.165952809487 	  3.980000000000 	  1.888436564451 	
O	  5.165952809487 	  3.980000000000 	  4.868436564451 	
O	  2.409104431015 	  1.830047382272 	  1.888436564451 	
O	  3.409104431015 	  1.830047382272 	  4.868436564451 	
O	  2.409104431015 	  5.810047382272 	  1.888436564451 	
O	  3.409104431015 	  5.810047382272 	  4.868436564451 	
O	  6.389104431015 	  1.830047382272 	  1.888436564451 	
O	  7.389104431015 	  1.830047382272 	  4.868436564451 	
O	  6.389104431015 	  5.810047382272 	  1.888436564451 	
O	  7.389104431015 	  5.810047382272 	  4.868436564451 	
64 
Energy: 4.0095331594466082e+00 
Mg	  0.000000000000 	  0.000000000000 	  0.000000000000 	
Mg	  1.000000000000 	  0.000000000000 	  2.980000000000 	
Mg	  0.000000000000 	  3.980000000000 	  0.000000000000 	
Mg	  1.000000000000 	  3.980000000000 	  2.980000000000 	
Mg	  3.980000000000 	  0.000000000000 	  0.000000000000 	
Mg	  4.980000000000 	  0.000000000000 	  2.980000000000 	
Mg	  3.980000000000 	  3.980000000000 	  0.000000000000 	
Mg	  4.980000000000 	  3.980000000000 	  2.980000000000 	
Mg	  1.989855254581 	  2.020846264505 	  0.000000000000 	
Mg	  2.989855254581 	  2.020846264505 	  2.980000000000 	
Mg	  1.989855254581 	  6.000846264505 	  0.000000000000 	
Mg	  2.989855254581 	  6.000846264505 	  2.980000000000 	
Mg	  5.969855254581 	  2.020846264505 	  0.000000000000 	
Mg	  6.969855254581 	  2.020846264505 	  2.980000000000 	
Mg	  5.969855254581 	  6.000846264505 	  0.000000000000 	
Mg	  6.969855254581 	  6.000846264505 	  2.980000000000 	
Mg	  2.237783333970 	  0.000000000000 	  1.927873234734 	
Mg	  3.237783333970 	  0.000000000000 	  4.907873234734 	
Mg	  2.237783333970 	  3.980000000000 	  1.927873234734 	
Mg	  3.237783333970 	  3.980000000000 	  4.907873234734 	
Mg	  6.217783333970 	  0.000000000000 	  1.927873234734 	
Mg	  7.217783333970 	  0.000000000000 	  4.907873234734 	
Mg	  6.217783333970 	  3.980000000000 	  1.927873234734 	
Mg	  7.217783333970 	  3.980000000000 	  4.907873234734 	
Mg	  0.154955049618 	  2.082828284352 	  1.927873234734 	
Mg	  1.154955049618 	  2.082828284352 	  4.907873234734 	
Mg	  0.154955049618 	  6.062828284352 	  1.927873234734 	
Mg	  1.154955049618 	  6.062828284352 	  4.907873234734 	
Mg	  4.134955049618 	  2.082828284352 	  1.927873234734 	
Mg	  5.134955049618 	  2.082828284352 	  4.907873234734 	
Mg	  4.134955049618 	  6.062828284352 	  1.927873234734 	
Mg	  5.134955049618 	  6.062828284352 	  4.907873234734 	
O	  2.082828284352 	  0.000000000000 	  0.000000000000 	
O	  3.082828284352 	  0.000000000000 	  2.980000000000 	
O	  2.082828284352 	  3.980000000000 	  0.000000000000 	
O	  3.082828284352 	  3.980000000000 	  2.980000000000 	
O	  6.062828284352 	  0.000000000000 	  0.000000000000 	
O	  7.062828284352 	  0.000000000000 	  2.980000000000 	
O	  6.062828284352 	  3.980000000000 	  0.000000000000 	
O	  7.062828284352 	  3.980000000000 	  2.980000000000 	
O	  0.000000000000 	  2.082828284352 	  0.000000000000 	
O	  1.000000000000 	  2.082828284352 	  2.980000000000 	
O	  0.000000000000 	  6.062828284352 	  0.000000000000 	
O	  1.000000000000 	  6.062828284352 	  2.980000000000 	
O	  3.980000000000 	  2.082828284352 	  0.000000000000 	
O	  4.980000000000 	  2.082828284352 	  2.980000000000 	
O	  3.980000000000 	  6.062828284352 	  0.000000000000 	
O	  4.980000000000 	  6.062828284352 	  2.980000000000 	
O	  0.154955049618 	  0.000000000000 	  1.927873234734 	
O	  1.154955049618 	  0.000000000000 	  4.907873234734 	
O	  0.154955049618 	  3.980000000000 	  1.927873234734 	
O	  1.154955049618 	  3.980000000000 	  4.907873234734 	
O	  4.134955049618 	  0.000000000000 	  1.927873234734 	
O	  5.134955049618 	  0.000000000000 	  4.907873234734 	
O	  4.134955049618 	  3.980000000000 	  1.927873234734 	
O	  5.134955049618 	  3.980000000000 	  4.907873234734 	
O	  2.361747373665 	  1.879217349154 	  1.927873234734 	
O	  3.361747373665 	  1.879217349154 	  4.907873234734 	
O	  2.361747373665 	  5.859217349154 	  1.927873234734 	
O	  3.361747373665 	  5.859217349154 	  4.907873234734 	
O	  6.341747373665 	  1.879217349154 	  1.927873234734 	
O	  7.341747373665 	  1.879217349154 	  4.907873234734 	
O	  6.341747373665 	  5.859217349154 	  1.927873234734 	
O	  7.341747373665 	  5.859217349154 	  4.907873234734 	
64 
Energy: 3.0306293265933397e+00 
Mg	  0.000000000000 	  0.000000000000 	  0.000000000000 	
Mg	  1.000000000000 	  0.000000000000 	  2.980000000000 	
Mg	  0.000000000000 	  3.980000000000 	  0.000000000000 	
Mg	  1.000000000000 	  3.980000000000 	  2.980000000000 	
Mg	  3.980000000000 	  0.000000000000 	  0.000000000000 	
Mg	  4.980000000000 	  0.000000000000 	  2.980000000000 	
Mg	  3.980000000000 	  3.980000000000 	  0.000000000000 	
Mg	  4.980000000000 	  3.980000000000 	  2.980000000000 	
Mg	  2.016890422436 	  2.041682275410 	  0.000000000000 	
Mg	  3.016890422436 	  2.041682275410 	  2.980000000000 	
Mg	  2.016890422436 	  6.021682275410 	  0.000000000000 	
Mg	  3.016890422436 	  6.021682275410 	  2.980000000000 	
Mg	  5.996890422436 	  2.041682275410 	  0.000000000000 	
Mg	  6.996890422436 	  2.041682275410 	  2.980000000000 	
Mg	  5.996890422436 	  6.021682275410 	  0.000000000000 	
Mg	  6.996890422436 	  6.021682275410 	  2.980000000000 	
Mg	  2.215225246226 	  0.000000000000 	  1.967306716489 	
Mg	  3.215225246226 	  0.000000000000 	  4.947306716489 	
Mg	  2.215225246226 	  3.980000000000 	  1.967306716489 	
Mg	  3.215225246226 	  3.980000000000 	  4.947306716489 	
Mg	  6.195225246226 	  0.000000000000 	  1.967306716489 	
Mg	  7.195225246226 	  0.000000000000 	  4.947306716489 	
Mg	  6.195225246226 	  3.980000000000 	  1.967306716489 	
Mg	  7.195225246226 	  3.980000000000 	  4.947306716489 	
Mg	  0.123959264869 	  2.091265981357 	  1.967306716489 	
Mg	  1.123959264869 	  2.091265981357 	  4.947306716489 	
Mg	  0.123959264869 	  6.071265981357 	  1.967306716489 	
Mg	  1.123959264869 	  6.071265981357 	  4.947306716489 	
Mg	  4.103959264869 	  2.091265981357 	  1.967306716489 	
Mg	  5.103959264869 	  2.091265981357 	  4.947306716489 	
Mg	  4.103959264869 	  6.071265981357 	  1.967306716489 	
Mg	  5.103959264869 	  6.071265981357 	  4.947306716489 	
O	  2.091265981357 	  0.000000000000 	  0.000000000000 	
O	  3.091265981357 	  0.000000000000 	  2.980000000000 	
O	  2.091265981357 	  3.980000000000 	  0.000000000000 	
O	  3.091265981357 	  3.980000000000 	  2.980000000000 	
O	  6.071265981357 	  0.000000000000 	  0.000000000000 	
O	  7.071265981357 	  0.000000000000 	  2.980000000000 	
O	  6.071265981357 	  3.980000000000 	  0.000000000000 	
O	  7.071265981357 	  3.980000000000 	  2.980000000000 	
O	  0.000000000000 	  2.091265981357 	  0.000000000000 	
O	  1.000000000000 	  2.091265981357 	  2.980000000000 	
O	  0.000000000000 	  6.071265981357 	  0.000000000000 	
O	  1.000000000000 	  6.071265981357 	  2.980000000000 	
O	  3.980000000000 	  2.091265981357 	  0.000000000000 	
O	  4.980000000000 	  2.091265981357 	  2.980000000000 	
O	  3.980000000000 	  6.071265981357 	  0.000000000000 	
O	  4.980000000000 	  6.071265981357 	  2.980000000000 	
O	  0.123959264869 	  0.000000000000 	  1.967306716489 	
O	  1.123959264869 	  0.000000000000 	  4.947306716489 	
O	  0.123959264869 	  3.980000000000 	  1.967306716489 	
O	  1.123959264869 	  3.980000000000 	  4.947306716489 	
O	  4.103959264869 	  0.000000000000 	  1.967306716489 	
O	  5.103959264869 	  0.000000000000 	  4.947306716489 	
O	  4.103959264869 	  3.980000000000 	  1.967306716489 	
O	  5.103959264869 	  3.980000000000 	  4.947306716489 	
O	  2.314392658121 	  1.928383507320 	  1.967306716489 	
O	  3.314392658121 	  1.928383507320 	  4.947306716489 	
O	  2.314392658121 	  5.908383507320 	  1.967306716489 	
O	  3.314392658121 	  5.908383507320 	  4.947306716489 	
O	  6.294392658121 	  1.928383507320 	  1.967306716489 	
O	  7.294392658121 	  1.928383507320 	  4.947306716489 	
O	  6.294392658121 	  5.908383507320 	  1.967306716489 	
O	  7.294392658121 	  5.908383507320 	  4.947306716489 	
64 
Energy: 1.9927366350895146e+00 
Mg	  0.000000000000 	  0.000000000000 	  0.000000000000 	
Mg	  1.000000000000 	  0.000000000000 	  2.980000000000 	
Mg	  0.000000000000 	  3.980000000000 	  0.000000000000 	
Mg	  1.000000000000 	  3.980000000000 	  2.980000000000 	
Mg	  3.980000000000 	  0.000000000000 	  0.000000000000 	
Mg	  4.980000000000 	  0.000000000000 	  2.980000000000 	
Mg	  3.980000000000 	  3.980000000000 	  0.000000000000 	
Mg	  4.980000000000 	  3.980000000000 	  2.980000000000 	
Mg	  2.043922761658 	  2.062515910252 	  0.000000000000 	
Mg	  3.043922761658 	  2.062515910252 	  2.980000000000 	
Mg	  2.043922761658 	  6.042515910252 	  0.000000000000 	
Mg	  3.043922761658 	  6.042515910252 	  2.980000000000 	
Mg	  6.023922761658 	  2.062515910252 	  0.000000000000 	
Mg	  7.023922761658 	  2.062515910252 	  2.980000000000 	
Mg	  6.023922761658 	  6.042515910252 	  0.000000000000 	
Mg	  7.023922761658 	  6.042515910252 	  2.980000000000 	
Mg	  2.192667950413 	  0.000000000000 	  2.006736464469 	
Mg	  3.192667950413 	  0.000000000000 	  4.986736464469 	
Mg	  2.192667950413 	  3.980000000000 	  2.006736464469 	
Mg	  3.192667950413 	  3.980000000000 	  4.986736464469 	
Mg	  6.172667950413 	  0.000000000000 	  2.006736464469 	
Mg	  7.172667950413 	  0.000000000000 	  4.986736464469 	
Mg	  6.172667950413 	  3.980000000000 	  2.006736464469 	
Mg	  7.172667950413 	  3.980000000000 	  4.986736464469 	
Mg	  0.092965742972 	  2.099702207441 	  2.006736464469 	
Mg	  1.092965742972 	  2.099702207441 	  4.986736464469 	
Mg	  0.092965742972 	  6.079702207441 	  2.006736464469 	
Mg	  1.092965742972 	  6.079702207441 	  4.986736464469 	
Mg	  4.072965742972 	  2.099702207441 	  2.006736464469 	
Mg	  5.072965742972 	  2.099702207441 	  4.986736464469 	
Mg	  4.072965742972 	  6.079702207441 	  2.006736464469 	
Mg	  5.072965742972 	  6.079702207441 	  4.986736464469 	
O	  2.099702207441 	  0.000000000000 	  0.000000000000 	
O	  3.099702207441 	  0.000000000000 	  2.980000000000 	
O	  2.099702207441 	  3.980000000000 	  0.000000000000 	
O	  3.099702207441 	  3.980000000000 	  2.980000000000 	
O	  6.079702207441 	  0.000000000000 	  0.000000000000 	
O	  7.079702207441 	  0.000000000000 	  2.980000000000 	
O	  6.079702207441 	  3.980000000000 	  0.000000000000 	
O	  7.079702207441 	  3.980000000000 	  2.980000000000 	
O	  0.000000000000 	  2.099702207441 	  0.000000000000 	
O	  1.000000000000 	  2.099702207441 	  2.980000000000 	
O	  0.000000000000 	  6.079702207441 	  0.000000000000 	
O	  1.000000000000 	  6.079702207441 	  2.980000000000 	
O	  3.980000000000 	  2.099702207441 	  0.000000000000 	
O	  4.980000000000 	  2.099702207441 	  2.980000000000 	
O	  3.980000000000 	  6.079702207441 	  0.000000000000 	
O	  4.980000000000 	  6.079702207441 	  2.980000000000 	
O	  0.092965742972 	  0.000000000000 	  2.006736464469 	
O	  1.092965742972 	  0.000000000000 	  4.986736464469 	
O	  0.092965742972 	  3.980000000000 	  2.006736464469 	
O	  1.092965742972 	  3.980000000000 	  4.986736464469 	
O	  4.072965742972 	  0.000000000000 	  2.006736464469 	
O	  5.072965742972 	  0.000000000000 	  4.986736464469 	
O	  4.072965742972 	  3.980000000000 	  2.006736464469 	
O	  5.072965742972 	  3.980000000000 	  4.986736464469 	
O	  2.267040544791 	  1.977545221176 	  2.006736464469 	
O	  3.267040544791 	  1.977545221176 	  4.986736464469 	
O	  2.267040544791 	  5.957545221176 	  2.006736464469 	
O	  3.267040544791 	  5.957545221176 	  4.986736464469 	
O	  6.247040544791 	  1.977545221176 	  2.006736464469 	
O	  7.247040544791 	  1.977545221176 	  4.986736464469 	
O	  6.247040544791 	  5.957545221176 	  2.006736464469 	
O	  7.247040544791 	  5.957545221176 	  4.986736464469 	
64 
Energy: 1.0260809041471941e+00 
Mg	  0.000000000000 	  0.000000000000 	  0.000000000000 	
Mg	  1.000000000000 	  0.000000000000 	  2.980000000000 	
Mg	  0.000000000000 	  3.980000000000 	  0.000000000000 	
Mg	  1.000000000000 	  3.980000000000 	  2.980000000000 	
Mg	  3.980000000000 	  0.000000000000 	  0.000000000000 	
Mg	  4.980000000000 	  0.000000000000 	  2.980000000000 	
Mg	  3.980000000000 	  3.980000000000 	  0.000000000000 	
Mg	  4.980000000000 	  3.980000000000 	  2.980000000000 	
Mg	  2.070951940620 	  2.083346873634 	  0.000000000000 	
Mg	  3.070951940620 	  2.083346873634 	  2.980000000000 	
Mg	  2.070951940620 	  6.063346873634 	  0.000000000000 	
Mg	  3.070951940620 	  6.063346873634 	  2.980000000000 	
Mg	  6.050951940620 	  2.083346873634 	  0.000000000000 	
Mg	  7.050951940620 	  2.083346873634 	  2.980000000000 	
Mg	  6.050951940620 	  6.063346873634 	  0.000000000000 	
Mg	  7.050951940620 	  6.063346873634 	  2.980000000000 	
Mg	  2.170111404734 	  0.000000000000 	  2.046162074591 	
Mg	  3.170111404734 	  0.000000000000 	  5.026162074591 	
Mg	  2.170111404734 	  3.980000000000 	  2.046162074591 	
Mg	  3.170111404734 	  3.980000000000 	  5.026162074591 	
Mg	  6.150111404734 	  0.000000000000 	  2.046162074591 	
Mg	  7.150111404734 	  0.000000000000 	  5.026162074591 	
Mg	  6.150111404734 	  3.980000000000 	  2.046162074591 	
Mg	  7.150111404734 	  3.980000000000 	  5.026162074591 	
Mg	  0.061974665071 	  2.108136739663 	  2.046162074591 	
Mg	  1.061974665071 	  2.108136739663 	  5.026162074591 	
Mg	  0.061974665071 	  6.088136739663 	  2.046162074591 	
Mg	  1.061974665071 	  6.088136739663 	  5.026162074591 	
Mg	  4.041974665071 	  2.108136739663 	  2.046162074591 	
Mg	  5.041974665071 	  2.108136739663 	  5.026162074591 	
Mg	  4.041974665071 	  6.088136739663 	  2.046162074591 	
Mg	  5.041974665071 	  6.088136739663 	  5.026162074591 	
O	  2.108136739663 	  0.000000000000 	  0.000000000000 	
O	  3.108136739663 	  0.000000000000 	  2.980000000000 	
O	  2.108136739663 	  3.980000000000 	  0.000000000000 	
O	  3.108136739663 	  3.980000000000 	  2.980000000000 	
O	  6.088136739663 	  0.000000000000 	  0.000000000000 	
O	  7.088136739663 	  0.000000000000 	  2.980000000000 	
O	  6.088136739663 	  3.980000000000 	  0.000000000000 	
O	  7.088136739663 	  3.980000000000 	  2.980000000000 	
O	  0.000000000000 	  2.108136739663 	  0.000000000000 	
O	  1.000000000000 	  2.108136739663 	  2.980000000000 	
O	  0.000000000000 	  6.088136739663 	  0.000000000000 	
O	  1.000000000000 	  6.088136739663 	  2.980000000000 	
O	  3.980000000000 	  2.108136739663 	  0.000000000000 	
O	  4.980000000000 	  2.108136739663 	  2.980000000000 	
O	  3.980000000000 	  6.088136739663 	  0.000000000000 	
O	  4.980000000000 	  6.088136739663 	  2.980000000000 	
O	  0.061974665071 	  0.000000000000 	  2.046162074591 	
O	  1.061974665071 	  0.000000000000 	  5.026162074591 	
O	  0.061974665071 	  3.980000000000 	  2.046162074591 	
O	  1.061974665071 	  3.980000000000 	  5.026162074591 	
O	  4.041974665071 	  0.000000000000 	  2.046162074591 	
O	  5.041974665071 	  0.000000000000 	  5.026162074591 	
O	  4.041974665071 	  3.980000000000 	  2.046162074591 	
O	  5.041974665071 	  3.980000000000 	  5.026162074591 	
O	  2.219691136791 	  2.026702029759 	  2.046162074591 	
O	  3.219691136791 	  2.026702029759 	  5.026162074591 	
O	  2.219691136791 	  6.006702029759 	  2.046162074591 	
O	  3.219691136791 	  6.006702029759 	  5.026162074591 	
O	  6.199691136791 	  2.026702029759 	  2.046162074591 	
O	  7.199691136791 	  2.026702029759 	  5.026162074591 	
O	  6.199691136791 	  6.006702029759 	  2.046162074591 	
O	  7.199691136791 	  6.006702029759 	  5.026162074591 	
64 
Energy: 2.9487911276476797e-01 
Mg	  0.000000000000 	  0.000000000000 	  0.000000000000 	
Mg	  1.000000000000 	  0.000000000000 	  2.980000000000 	
Mg	  0.000000000000 	  3.980000000000 	  0.000000000000 	
Mg	  1.000000000000 	  3.980000000000 	  2.980000000000 	
Mg	  3.980000000000 	  0.000000000000 	  0.000000000000 	
Mg	  4.980000000000 	  0.000000000000 	  2.980000000000 	
Mg	  3.980000000000 	  3.980000000000 	  0.000000000000 	
Mg	  4.980000000000 	  3.980000000000 	  2.980000000000 	
Mg	  2.097977728929 	  2.104174948954 	  0.000000000000 	
Mg	  3.097977728929 	  2.104174948954 	  2.980000000000 	
Mg	  2.097977728929 	  6.084174948954 	  0.000000000000 	
Mg	  3.097977728929 	  6.084174948954 	  2.980000000000 	
Mg	  6.077977728929 	  2.104174948954 	  0.000000000000 	
Mg	  7.077977728929 	  2.104174948954 	  2.980000000000 	
Mg	  6.077977728929 	  6.084174948954 	  0.000000000000 	
Mg	  7.077977728929 	  6.084174948954 	  2.980000000000 	
Mg	  2.147555489126 	  0.000000000000 	  2.085583288880 	
Mg	  3.147555489126 	  0.000000000000 	  5.065583288880 	
Mg	  2.147555489126 	  3.980000000000 	  2.085583288880 	
Mg	  3.147555489126 	  3.980000000000 	  5.065583288880 	
Mg	  6.127555489126 	  0.000000000000 	  2.085583288880 	
Mg	  7.127555489126 	  0.000000000000 	  5.065583288880 	
Mg	  6.127555489126 	  3.980000000000 	  2.085583288880 	
Mg	  7.127555489126 	  3.980000000000 	  5.065583288880 	
Mg	  0.030986100123 	  2.116569389003 	  2.085583288880 	
Mg	  1.030986100123 	  2.116569389003 	  5.065583288880 	
Mg	  0.030986100123 	  6.096569389003 	  2.085583288880 	
Mg	  1.030986100123 	  6.096569389003 	  5.065583288880 	
Mg	  4.010986100123 	  2.116569389003 	  2.085583288880 	
Mg	  5.010986100123 	  2.116569389003 	  5.065583288880 	
Mg	  4.010986100123 	  6.096569389003 	  2.085583288880 	
Mg	  5.010986100123 	  6.096569389003 	  5.065583288880 	
O	  2.116569389003 	  0.000000000000 	  0.000000000000 	
O	  3.116569389003 	  0.000000000000 	  2.980000000000 	
O	  2.116569389003 	  3.980000000000 	  0.000000000000 	
O	  3.116569389003 	  3.980000000000 	  2.980000000000 	
O	  6.096569389003 	  0.000000000000 	  0.000000000000 	
O	  7.096569389003 	  0.000000000000 	  2.980000000000 	
O	  6.096569389003 	  3.980000000000 	  0.000000000000 	
O	  7.096569389003 	  3.980000000000 	  2.980000000000 	
O	  0.000000000000 	  2.116569389003 	  0.000000000000 	
O	  1.000000000000 	  2.116569389003 	  2.980000000000 	
O	  0.000000000000 	  6.096569389003 	  0.000000000000 	
O	  1.000000000000 	  6.096569389003 	  2.980000000000 	
O	  3.980000000000 	  2.116569389003 	  0.000000000000 	
O	  4.980000000000 	  2.116569389003 	  2.980000000000 	
O	  3.980000000000 	  6.096569389003 	  0.000000000000 	
O	  4.980000000000 	  6.096569389003 	  2.980000000000 	
O	  0.030986100123 	  0.000000000000 	  2.085583288880 	
O	  1.030986100123 	  0.000000000000 	  5.065583288880 	
O	  0.030986100123 	  3.980000000000 	  2.085583288880 	
O	  1.030986100123 	  3.980000000000 	  5.065583288880 	
O	  4.010986100123 	  0.000000000000 	  2.085583288880 	
O	  5.010986100123 	  0.000000000000 	  5.065583288880 	
O	  4.010986100123 	  3.980000000000 	  2.085583288880 	
O	  5.010986100123 	  3.980000000000 	  5.065583288880 	
O	  2.172344369225 	  2.075853653442 	  2.085583288880 	
O	  3.172344369225 	  2.075853653442 	  5.065583288880 	
O	  2.172344369225 	  6.055853653442 	  2.085583288880 	
O	  3.172344369225 	  6.055853653442 	  5.065583288880 	
O	  6.152344369225 	  2.075853653442 	  2.085583288880 	
O	  7.152344369225 	  2.075853653442 	  5.065583288880 	
O	  6.152344369225 	  6.055853653442 	  2.085583288880 	
O	  7.152344369225 	  6.055853653442 	  5.065583288880 	
64 
Energy: 0.0000000000000000e+00 
Mg	  0.000000000000 	  0.000000000000 	  0.000000000000 	
Mg	  1.000000000000 	  0.000000000000 	  2.980000000000 	
Mg	  0.000000000000 	  3.980000000000 	  0.000000000000 	
Mg	  1.000000000000 	  3.980000000000 	  2.980000000000 	
Mg	  3.980000000000 	  0.000000000000 	  0.000000000000 	
Mg	  4.980000000000 	  0.000000000000 	  2.980000000000 	
Mg	  3.980000000000 	  3.980000000000 	  0.000000000000 	
Mg	  4.980000000000 	  3.980000000000 	  2.980000000000 	
Mg	  2.125000000000 	  2.125000000000 	  0.000000000000 	
Mg	  3.125000000000 	  2.125000000000 	  2.980000000000 	
Mg	  2.125000000000 	  6.105000000000 	  0.000000000000 	
Mg	  3.125000000000 	  6.105000000000 	  2.980000000000 	
Mg	  6.105000000000 	  2.125000000000 	  0.000000000000 	
Mg	  7.105000000000 	  2.125000000000 	  2.980000000000 	
Mg	  6.105000000000 	  6.105000000000 	  0.000000000000 	
Mg	  7.105000000000 	  6.105000000000 	  2.980000000000 	
Mg	  2.125000000000 	  0.000000000000 	  2.125000000000 	
Mg	  3.125000000000 	  0.000000000000 	  5.105000000000 	
Mg	  2.125000000000 	  3.980000000000 	  2.125000000000 	
Mg	  3.125000000000 	  3.980000000000 	  5.105000000000 	
Mg	  6.105000000000 	  0.000000000000 	  2.125000000000 	
Mg	  7.105000000000 	  0.000000000000 	  5.105000000000 	
Mg	  6.105000000000 	  3.980000000000 	  2.125000000000 	
Mg	  7.105000000000 	  3.980000000000 	  5.105000000000 	
Mg	  0.000000000000 	  2.125000000000 	  2.125000000000 	
Mg	  1.000000000000 	  2.125000000000 	  5.105000000000 	
Mg	  0.000000000000 	  6.105000000000 	  2.125000000000 	
Mg	  1.000000000000 	  6.105000000000 	  5.105000000000 	
Mg	  3.980000000000 	  2.125000000000 	  2.125000000000 	
Mg	  4.980000000000 	  2.125000000000 	  5.105000000000 	
Mg	  3.980000000000 	  6.105000000000 	  2.125000000000 	
Mg	  4.980000000000 	  6.105000000000 	  5.105000000000 	
O	  2.125000000000 	  0.000000000000 	  0.000000000000 	
O	  3.125000000000 	  0.000000000000 	  2.980000000000 	
O	  2.125000000000 	  3.980000000000 	  0.000000000000 	
O	  3.125000000000 	  3.980000000000 	  2.980000000000 	
O	  6.105000000000 	  0.000000000000 	  0.000000000000 	
O	  7.105000000000 	  0.000000000000 	  2.980000000000 	
O	  6.105000000000 	  3.980000000000 	  0.000000000000 	
O	  7.105000000000 	  3.980000000000 	  2.980000000000 	
O	  0.000000000000 	  2.125000000000 	  0.000000000000 	
O	  1.000000000000 	  2.125000000000 	  2.980000000000 	
O	  0.000000000000 	  6.105000000000 	  0.000000000000 	
O	  1.000000000000 	  6.105000000000 	  2.980000000000 	
O	  3.980000000000 	  2.125000000000 	  0.000000000000 	
O	  4.980000000000 	  2.125000000000 	  2.980000000000 	
O	  3.980000000000 	  6.105000000000 	  0.000000000000 	
O	  4.980000000000 	  6.105000000000 	  2.980000000000 	
O	  0.000000000000 	  0.000000000000 	  2.125000000000 	
O	  1.000000000000 	  0.000000000000 	  5.105000000000 	
O	  0.000000000000 	  3.980000000000 	  2.125000000000 	
O	  1.000000000000 	  3.980000000000 	  5.105000000000 	
O	  3.980000000000 	  0.000000000000 	  2.125000000000 	
O	  4.980000000000 	  0.000000000000 	  5.105000000000 	
O	  3.980000000000 	  3.980000000000 	  2.125000000000 	
O	  4.980000000000 	  3.980000000000 	  5.105000000000 	
O	  2.125000000000 	  2.125000000000 	  2.125000000000 	
O	  3.125000000000 	  2.125000000000 	  5.105000000000 	
O	  2.125000000000 	  6.105000000000 	  2.125000000000 	
O	  3.125000000000 	  6.105000000000 	  5.105000000000 	
O	  6.105000000000 	  2.125000000000 	  2.125000000000 	
O	  7.105000000000 	  2.125000000000 	  5.105000000000 	
O	  6.105000000000 	  6.105000000000 	  2.125000000000 	
O	  7.105000000000 	  6.105000000000 	  5.105000000000 	
