64 
Energy: 2.6168838873746276e+00 
Mg	  0.000000000000 	  0.000000000000 	  0.000000000000 	
Mg	  1.000000000000 	  0.000000000000 	  2.980000000000 	
Mg	  0.000000000000 	  3.980000000000 	  0.000000000000 	
Mg	  1.000000000000 	  3.980000000000 	  2.980000000000 	
Mg	  3.980000000000 	  0.000000000000 	  0.000000000000 	
Mg	  4.980000000000 	  0.000000000000 	  2.980000000000 	
Mg	  3.980000000000 	  3.980000000000 	  0.000000000000 	
Mg	  4.980000000000 	  3.980000000000 	  2.980000000000 	
Mg	  1.713082624422 	  1.805388416282 	  0.000000000000 	
Mg	  2.713082624422 	  1.805388416282 	  2.980000000000 	
Mg	  1.713082624422 	  5.785388416282 	  0.000000000000 	
Mg	  2.713082624422 	  5.785388416282 	  2.980000000000 	
Mg	  5.693082624422 	  1.805388416282 	  0.000000000000 	
Mg	  6.693082624422 	  1.805388416282 	  2.980000000000 	
Mg	  5.693082624422 	  5.785388416282 	  0.000000000000 	
Mg	  6.693082624422 	  5.785388416282 	  2.980000000000 	
Mg	  2.451528959296 	  0.000000000000 	  1.528471040704 	
Mg	  3.451528959296 	  0.000000000000 	  4.508471040704 	
Mg	  2.451528959296 	  3.980000000000 	  1.528471040704 	
Mg	  3.451528959296 	  3.980000000000 	  4.508471040704 	
Mg	  6.431528959296 	  0.000000000000 	  1.528471040704 	
Mg	  7.431528959296 	  0.000000000000 	  4.508471040704 	
Mg	  6.431528959296 	  3.980000000000 	  1.528471040704 	
Mg	  7.431528959296 	  3.980000000000 	  4.508471040704 	
Mg	  0.461528959296 	  1.990000000000 	  1.528471040704 	
Mg	  1.461528959296 	  1.990000000000 	  4.508471040704 	
Mg	  0.461528959296 	  5.970000000000 	  1.528471040704 	
Mg	  1.461528959296 	  5.970000000000 	  4.508471040704 	
Mg	  4.441528959296 	  1.990000000000 	  1.528471040704 	
Mg	  5.441528959296 	  1.990000000000 	  4.508471040704 	
Mg	  4.441528959296 	  5.970000000000 	  1.528471040704 	
Mg	  5.441528959296 	  5.970000000000 	  4.508471040704 	
O	  1.990000000000 	  0.000000000000 	  0.000000000000 	
O	  2.990000000000 	  0.000000000000 	  2.980000000000 	
O	  1.990000000000 	  3.980000000000 	  0.000000000000 	
O	  2.990000000000 	  3.980000000000 	  2.980000000000 	
O	  5.970000000000 	  0.000000000000 	  0.000000000000 	
O	  6.970000000000 	  0.000000000000 	  2.980000000000 	
O	  5.970000000000 	  3.980000000000 	  0.000000000000 	
O	  6.970000000000 	  3.980000000000 	  2.980000000000 	
O	  0.000000000000 	  1.990000000000 	  0.000000000000 	
O	  1.000000000000 	  1.990000000000 	  2.980000000000 	
O	  0.000000000000 	  5.970000000000 	  0.000000000000 	
O	  1.000000000000 	  5.970000000000 	  2.980000000000 	
O	  3.980000000000 	  1.990000000000 	  0.000000000000 	
O	  4.980000000000 	  1.990000000000 	  2.980000000000 	
O	  3.980000000000 	  5.970000000000 	  0.000000000000 	
O	  4.980000000000 	  5.970000000000 	  2.980000000000 	
O	  0.461528959296 	  0.000000000000 	  1.528471040704 	
O	  1.461528959296 	  0.000000000000 	  4.508471040704 	
O	  0.461528959296 	  3.980000000000 	  1.528471040704 	
O	  1.461528959296 	  3.980000000000 	  4.508471040704 	
O	  4.441528959296 	  0.000000000000 	  1.528471040704 	
O	  5.441528959296 	  0.000000000000 	  4.508471040704 	
O	  4.441528959296 	  3.980000000000 	  1.528471040704 	
O	  5.441528959296 	  3.980000000000 	  4.508471040704 	
O	  2.820752126733 	  1.383550947485 	  1.528471040704 	
O	  3.820752126733 	  1.383550947485 	  4.508471040704 	
O	  2.820752126733 	  5.363550947485 	  1.528471040704 	
O	  3.820752126733 	  5.363550947485 	  4.508471040704 	
O	  6.800752126733 	  1.383550947485 	  1.528471040704 	
O	  7.800752126733 	  1.383550947485 	  4.508471040704 	
O	  6.800752126733 	  5.363550947485 	  1.528471040704 	
O	  7.800752126733 	  5.363550947485 	  4.508471040704 	
64 
Energy: 2.6832664364991525e+00 
Mg	  0.000000000000 	  0.000000000000 	  0.000000000000 	
Mg	  1.000000000000 	  0.000000000000 	  2.980000000000 	
Mg	  0.000000000000 	  3.980000000000 	  0.000000000000 	
Mg	  1.000000000000 	  3.980000000000 	  2.980000000000 	
Mg	  3.980000000000 	  0.000000000000 	  0.000000000000 	
Mg	  4.980000000000 	  0.000000000000 	  2.980000000000 	
Mg	  3.980000000000 	  3.980000000000 	  0.000000000000 	
Mg	  4.980000000000 	  3.980000000000 	  2.980000000000 	
Mg	  1.738488198271 	  1.825180609619 	  0.000000000000 	
Mg	  2.738488198271 	  1.825180609619 	  2.980000000000 	
Mg	  1.738488198271 	  5.805180609619 	  0.000000000000 	
Mg	  2.738488198271 	  5.805180609619 	  2.980000000000 	
Mg	  5.718488198271 	  1.825180609619 	  0.000000000000 	
Mg	  6.718488198271 	  1.825180609619 	  2.980000000000 	
Mg	  5.718488198271 	  5.805180609619 	  0.000000000000 	
Mg	  6.718488198271 	  5.805180609619 	  2.980000000000 	
Mg	  2.432027489056 	  0.000000000000 	  1.565103375575 	
Mg	  3.432027489056 	  0.000000000000 	  4.545103375575 	
Mg	  2.432027489056 	  3.980000000000 	  1.565103375575 	
Mg	  3.432027489056 	  3.980000000000 	  4.545103375575 	
Mg	  6.412027489056 	  0.000000000000 	  1.565103375575 	
Mg	  7.412027489056 	  0.000000000000 	  4.545103375575 	
Mg	  6.412027489056 	  3.980000000000 	  1.565103375575 	
Mg	  7.412027489056 	  3.980000000000 	  4.545103375575 	
Mg	  0.433462056741 	  1.998565432315 	  1.565103375575 	
Mg	  1.433462056741 	  1.998565432315 	  4.545103375575 	
Mg	  0.433462056741 	  5.978565432315 	  1.565103375575 	
Mg	  1.433462056741 	  5.978565432315 	  4.545103375575 	
Mg	  4.413462056741 	  1.998565432315 	  1.565103375575 	
Mg	  5.413462056741 	  1.998565432315 	  4.545103375575 	
Mg	  4.413462056741 	  5.978565432315 	  1.565103375575 	
Mg	  5.413462056741 	  5.978565432315 	  4.545103375575 	
O	  1.998565432315 	  0.000000000000 	  0.000000000000 	
O	  2.998565432315 	  0.000000000000 	  2.980000000000 	
O	  1.998565432315 	  3.980000000000 	  0.000000000000 	
O	  2.998565432315 	  3.980000000000 	  2.980000000000 	
O	  5.978565432315 	  0.000000000000 	  0.000000000000 	
O	  6.978565432315 	  0.000000000000 	  2.980000000000 	
O	  5.978565432315 	  3.980000000000 	  0.000000000000 	
O	  6.978565432315 	  3.980000000000 	  2.980000000000 	
O	  0.000000000000 	  1.998565432315 	  0.000000000000 	
O	  1.000000000000 	  1.998565432315 	  2.980000000000 	
O	  0.000000000000 	  5.978565432315 	  0.000000000000 	
O	  1.000000000000 	  5.978565432315 	  2.980000000000 	
O	  3.980000000000 	  1.998565432315 	  0.000000000000 	
O	  4.980000000000 	  1.998565432315 	  2.980000000000 	
O	  3.980000000000 	  5.978565432315 	  0.000000000000 	
O	  4.980000000000 	  5.978565432315 	  2.980000000000 	
O	  0.433462056741 	  0.000000000000 	  1.565103375575 	
O	  1.433462056741 	  0.000000000000 	  4.545103375575 	
O	  0.433462056741 	  3.980000000000 	  1.565103375575 	
O	  1.433462056741 	  3.980000000000 	  4.545103375575 	
O	  4.413462056741 	  0.000000000000 	  1.565103375575 	
O	  5.413462056741 	  0.000000000000 	  4.545103375575 	
O	  4.413462056741 	  3.980000000000 	  1.565103375575 	
O	  5.413462056741 	  3.980000000000 	  4.545103375575 	
O	  2.778797134449 	  1.428996289758 	  1.565103375575 	
O	  3.778797134449 	  1.428996289758 	  4.545103375575 	
O	  2.778797134449 	  5.408996289758 	  1.565103375575 	
O	  3.778797134449 	  5.408996289758 	  4.545103375575 	
O	  6.758797134449 	  1.428996289758 	  1.565103375575 	
O	  7.758797134449 	  1.428996289758 	  4.545103375575 	
O	  6.758797134449 	  5.408996289758 	  1.565103375575 	
O	  7.758797134449 	  5.408996289758 	  4.545103375575 	
64 
Energy: 3.1523761960844898e+00 
Mg	  0.000000000000 	  0.000000000000 	  0.000000000000 	
Mg	  1.000000000000 	  0.000000000000 	  2.980000000000 	
Mg	  0.000000000000 	  3.980000000000 	  0.000000000000 	
Mg	  1.000000000000 	  3.980000000000 	  2.980000000000 	
Mg	  3.980000000000 	  0.000000000000 	  0.000000000000 	
Mg	  4.980000000000 	  0.000000000000 	  2.980000000000 	
Mg	  3.980000000000 	  3.980000000000 	  0.000000000000 	
Mg	  4.980000000000 	  3.980000000000 	  2.980000000000 	
Mg	  1.764186510100 	  1.845108805072 	  0.000000000000 	
Mg	  2.764186510100 	  1.845108805072 	  2.980000000000 	
Mg	  1.764186510100 	  5.825108805072 	  0.000000000000 	
Mg	  2.764186510100 	  5.825108805072 	  2.980000000000 	
Mg	  5.744186510100 	  1.845108805072 	  0.000000000000 	
Mg	  6.744186510100 	  1.845108805072 	  2.980000000000 	
Mg	  5.744186510100 	  5.825108805072 	  0.000000000000 	
Mg	  6.744186510100 	  5.825108805072 	  2.980000000000 	
Mg	  2.411564869874 	  0.000000000000 	  1.602341920157 	
Mg	  3.411564869874 	  0.000000000000 	  4.582341920157 	
Mg	  2.411564869874 	  3.980000000000 	  1.602341920157 	
Mg	  3.411564869874 	  3.980000000000 	  4.582341920157 	
Mg	  6.391564869874 	  0.000000000000 	  1.602341920157 	
Mg	  7.391564869874 	  0.000000000000 	  4.582341920157 	
Mg	  6.391564869874 	  3.980000000000 	  1.602341920157 	
Mg	  7.391564869874 	  3.980000000000 	  4.582341920157 	
Mg	  0.404611474859 	  2.006953395015 	  1.602341920157 	
Mg	  1.404611474859 	  2.006953395015 	  4.582341920157 	
Mg	  0.404611474859 	  5.986953395015 	  1.602341920157 	
Mg	  1.404611474859 	  5.986953395015 	  4.582341920157 	
Mg	  4.384611474859 	  2.006953395015 	  1.602341920157 	
Mg	  5.384611474859 	  2.006953395015 	  4.582341920157 	
Mg	  4.384611474859 	  5.986953395015 	  1.602341920157 	
Mg	  5.384611474859 	  5.986953395015 	  4.582341920157 	
O	  2.006953395015 	  0.000000000000 	  0.000000000000 	
O	  3.006953395015 	  0.000000000000 	  2.980000000000 	
O	  2.006953395015 	  3.980000000000 	  0.000000000000 	
O	  3.006953395015 	  3.980000000000 	  2.980000000000 	
O	  5.986953395015 	  0.000000000000 	  0.000000000000 	
O	  6.986953395015 	  0.000000000000 	  2.980000000000 	
O	  5.986953395015 	  3.980000000000 	  0.000000000000 	
O	  6.986953395015 	  3.980000000000 	  2.980000000000 	
O	  0.000000000000 	  2.006953395015 	  0.000000000000 	
O	  1.000000000000 	  2.006953395015 	  2.980000000000 	
O	  0.000000000000 	  5.986953395015 	  0.000000000000 	
O	  1.000000000000 	  5.986953395015 	  2.980000000000 	
O	  3.980000000000 	  2.006953395015 	  0.000000000000 	
O	  4.980000000000 	  2.006953395015 	  2.980000000000 	
O	  3.980000000000 	  5.986953395015 	  0.000000000000 	
O	  4.980000000000 	  5.986953395015 	  2.980000000000 	
O	  0.404611474859 	  0.000000000000 	  1.602341920157 	
O	  1.404611474859 	  0.000000000000 	  4.582341920157 	
O	  0.404611474859 	  3.980000000000 	  1.602341920157 	
O	  1.404611474859 	  3.980000000000 	  4.582341920157 	
O	  4.384611474859 	  0.000000000000 	  1.602341920157 	
O	  5.384611474859 	  0.000000000000 	  4.582341920157 	
O	  4.384611474859 	  3.980000000000 	  1.602341920157 	
O	  5.384611474859 	  3.980000000000 	  4.582341920157 	
O	  2.735254049762 	  1.475293917051 	  1.602341920157 	
O	  3.735254049762 	  1.475293917051 	  4.582341920157 	
O	  2.735254049762 	  5.455293917051 	  1.602341920157 	
O	  3.735254049762 	  5.455293917051 	  4.582341920157 	
O	  6.715254049762 	  1.475293917051 	  1.602341920157 	
O	  7.715254049762 	  1.475293917051 	  4.582341920157 	
O	  6.715254049762 	  5.455293917051 	  1.602341920157 	
O	  7.715254049762 	  5.455293917051 	  4.582341920157 	
64 
Energy: 3.8091132930864839e+00 
Mg	  0.000000000000 	  0.000000000000 	  0.000000000000 	
Mg	  1.000000000000 	  0.000000000000 	  2.980000000000 	
Mg	  0.000000000000 	  3.980000000000 	  0.000000000000 	
Mg	  1.000000000000 	  3.980000000000 	  2.980000000000 	
Mg	  3.980000000000 	  0.000000000000 	  0.000000000000 	
Mg	  4.980000000000 	  0.000000000000 	  2.980000000000 	
Mg	  3.980000000000 	  3.980000000000 	  0.000000000000 	
Mg	  4.980000000000 	  3.980000000000 	  2.980000000000 	
Mg	  1.789923346379 	  1.865069732014 	  0.000000000000 	
Mg	  2.789923346379 	  1.865069732014 	  2.980000000000 	
Mg	  1.789923346379 	  5.845069732014 	  0.000000000000 	
Mg	  2.789923346379 	  5.845069732014 	  2.980000000000 	
Mg	  5.769923346379 	  1.865069732014 	  0.000000000000 	
Mg	  6.769923346379 	  1.865069732014 	  2.980000000000 	
Mg	  5.769923346379 	  5.845069732014 	  0.000000000000 	
Mg	  6.769923346379 	  5.845069732014 	  2.980000000000 	
Mg	  2.391094431461 	  0.000000000000 	  1.639630575108 	
Mg	  3.391094431461 	  0.000000000000 	  4.619630575108 	
Mg	  2.391094431461 	  3.980000000000 	  1.639630575108 	
Mg	  3.391094431461 	  3.980000000000 	  4.619630575108 	
Mg	  6.371094431461 	  0.000000000000 	  1.639630575108 	
Mg	  7.371094431461 	  0.000000000000 	  4.619630575108 	
Mg	  6.371094431461 	  3.980000000000 	  1.639630575108 	
Mg	  7.371094431461 	  3.980000000000 	  4.619630575108 	
Mg	  0.375731928176 	  2.015362503285 	  1.639630575108 	
Mg	  1.375731928176 	  2.015362503285 	  4.619630575108 	
Mg	  0.375731928176 	  5.995362503285 	  1.639630575108 	
Mg	  1.375731928176 	  5.995362503285 	  4.619630575108 	
Mg	  4.355731928176 	  2.015362503285 	  1.639630575108 	
Mg	  5.355731928176 	  2.015362503285 	  4.619630575108 	
Mg	  4.355731928176 	  5.995362503285 	  1.639630575108 	
Mg	  5.355731928176 	  5.995362503285 	  4.619630575108 	
O	  2.015362503285 	  0.000000000000 	  0.000000000000 	
O	  3.015362503285 	  0.000000000000 	  2.980000000000 	
O	  2.015362503285 	  3.980000000000 	  0.000000000000 	
O	  3.015362503285 	  3.980000000000 	  2.980000000000 	
O	  5.995362503285 	  0.000000000000 	  0.000000000000 	
O	  6.995362503285 	  0.000000000000 	  2.980000000000 	
O	  5.995362503285 	  3.980000000000 	  0.000000000000 	
O	  6.995362503285 	  3.980000000000 	  2.980000000000 	
O	  0.000000000000 	  2.015362503285 	  0.000000000000 	
O	  1.000000000000 	  2.015362503285 	  2.980000000000 	
O	  0.000000000000 	  5.995362503285 	  0.000000000000 	
O	  1.000000000000 	  5.995362503285 	  2.980000000000 	
O	  3.980000000000 	  2.015362503285 	  0.000000000000 	
O	  4.980000000000 	  2.015362503285 	  2.980000000000 	
O	  3.980000000000 	  5.995362503285 	  0.000000000000 	
O	  4.980000000000 	  5.995362503285 	  2.980000000000 	
O	  0.375731928176 	  0.000000000000 	  1.639630575108 	
O	  1.375731928176 	  0.000000000000 	  4.619630575108 	
O	  0.375731928176 	  3.980000000000 	  1.639630575108 	
O	  1.375731928176 	  3.980000000000 	  4.619630575108 	
O	  4.355731928176 	  0.000000000000 	  1.639630575108 	
O	  5.355731928176 	  0.000000000000 	  4.619630575108 	
O	  4.355731928176 	  3.980000000000 	  1.639630575108 	
O	  5.355731928176 	  3.980000000000 	  4.619630575108 	
O	  2.691679974002 	  1.521650749661 	  1.639630575108 	
O	  3.691679974002 	  1.521650749661 	  4.619630575108 	
O	  2.691679974002 	  5.501650749661 	  1.639630575108 	
O	  3.691679974002 	  5.501650749661 	  4.619630575108 	
O	  6.671679974002 	  1.521650749661 	  1.639630575108 	
O	  7.671679974002 	  1.521650749661 	  4.619630575108 	
O	  6.671679974002 	  5.501650749661 	  1.639630575108 	
O	  7.671679974002 	  5.501650749661 	  4.619630575108 	
64 
Energy: 4.4837167387137633e+00 
Mg	  0.000000000000 	  0.000000000000 	  0.000000000000 	
Mg	  1.000000000000 	  0.000000000000 	  2.980000000000 	
Mg	  0.000000000000 	  3.980000000000 	  0.000000000000 	
Mg	  1.000000000000 	  3.980000000000 	  2.980000000000 	
Mg	  3.980000000000 	  0.000000000000 	  0.000000000000 	
Mg	  4.980000000000 	  0.000000000000 	  2.980000000000 	
Mg	  3.980000000000 	  3.980000000000 	  0.000000000000 	
Mg	  4.980000000000 	  3.980000000000 	  2.980000000000 	
Mg	  1.815697455752 	  1.885061907739 	  0.000000000000 	
Mg	  2.815697455752 	  1.885061907739 	  2.980000000000 	
Mg	  1.815697455752 	  5.865061907739 	  0.000000000000 	
Mg	  2.815697455752 	  5.865061907739 	  2.980000000000 	
Mg	  5.795697455752 	  1.885061907739 	  0.000000000000 	
Mg	  6.795697455752 	  1.885061907739 	  2.980000000000 	
Mg	  5.795697455752 	  5.865061907739 	  0.000000000000 	
Mg	  6.795697455752 	  5.865061907739 	  2.980000000000 	
Mg	  2.370613071649 	  0.000000000000 	  1.676968551778 	
Mg	  3.370613071649 	  0.000000000000 	  4.656968551778 	
Mg	  2.370613071649 	  3.980000000000 	  1.676968551778 	
Mg	  3.370613071649 	  3.980000000000 	  4.656968551778 	
Mg	  6.350613071649 	  0.000000000000 	  1.676968551778 	
Mg	  7.350613071649 	  0.000000000000 	  4.656968551778 	
Mg	  6.350613071649 	  3.980000000000 	  1.676968551778 	
Mg	  7.350613071649 	  3.980000000000 	  4.656968551778 	
Mg	  0.346822259936 	  2.023790811713 	  1.676968551778 	
Mg	  1.346822259936 	  2.023790811713 	  4.656968551778 	
Mg	  0.346822259936 	  6.003790811713 	  1.676968551778 	
Mg	  1.346822259936 	  6.003790811713 	  4.656968551778 	
Mg	  4.326822259936 	  2.023790811713 	  1.676968551778 	
Mg	  5.326822259936 	  2.023790811713 	  4.656968551778 	
Mg	  4.326822259936 	  6.003790811713 	  1.676968551778 	
Mg	  5.326822259936 	  6.003790811713 	  4.656968551778 	
O	  2.023790811713 	  0.000000000000 	  0.000000000000 	
O	  3.023790811713 	  0.000000000000 	  2.980000000000 	
O	  2.023790811713 	  3.980000000000 	  0.000000000000 	
O	  3.023790811713 	  3.980000000000 	  2.980000000000 	
O	  6.003790811713 	  0.000000000000 	  0.000000000000 	
O	  7.003790811713 	  0.000000000000 	  2.980000000000 	
O	  6.003790811713 	  3.980000000000 	  0.000000000000 	
O	  7.003790811713 	  3.980000000000 	  2.980000000000 	
O	  0.000000000000 	  2.023790811713 	  0.000000000000 	
O	  1.000000000000 	  2.023790811713 	  2.980000000000 	
O	  0.000000000000 	  6.003790811713 	  0.000000000000 	
O	  1.000000000000 	  6.003790811713 	  2.980000000000 	
O	  3.980000000000 	  2.023790811713 	  0.000000000000 	
O	  4.980000000000 	  2.023790811713 	  2.980000000000 	
O	  3.980000000000 	  6.003790811713 	  0.000000000000 	
O	  4.980000000000 	  6.003790811713 	  2.980000000000 	
O	  0.346822259936 	  0.000000000000 	  1.676968551778 	
O	  1.346822259936 	  0.000000000000 	  4.656968551778 	
O	  0.346822259936 	  3.980000000000 	  1.676968551778 	
O	  1.346822259936 	  3.980000000000 	  4.656968551778 	
O	  4.326822259936 	  0.000000000000 	  1.676968551778 	
O	  5.326822259936 	  0.000000000000 	  4.656968551778 	
O	  4.326822259936 	  3.980000000000 	  1.676968551778 	
O	  5.326822259936 	  3.980000000000 	  4.656968551778 	
O	  2.648070879598 	  1.568066362158 	  1.676968551778 	
O	  3.648070879598 	  1.568066362158 	  4.656968551778 	
O	  2.648070879598 	  5.548066362158 	  1.676968551778 	
O	  3.648070879598 	  5.548066362158 	  4.656968551778 	
O	  6.628070879598 	  1.568066362158 	  1.676968551778 	
O	  7.628070879598 	  1.568066362158 	  4.656968551778 	
O	  6.628070879598 	  5.548066362158 	  1.676968551778 	
O	  7.628070879598 	  5.548066362158 	  4.656968551778 	
64 
Energy: 5.0682304547613732e+00 
Mg	  0.000000000000 	  0.000000000000 	  0.000000000000 	
Mg	  1.000000000000 	  0.000000000000 	  2.980000000000 	
Mg	  0.000000000000 	  3.980000000000 	  0.000000000000 	
Mg	  1.000000000000 	  3.980000000000 	  2.980000000000 	
Mg	  3.980000000000 	  0.000000000000 	  0.000000000000 	
Mg	  4.980000000000 	  0.000000000000 	  2.980000000000 	
Mg	  3.980000000000 	  3.980000000000 	  0.000000000000 	
Mg	  4.980000000000 	  3.980000000000 	  2.980000000000 	
Mg	  1.841495839354 	  1.905074877758 	  0.000000000000 	
Mg	  2.841495839354 	  1.905074877758 	  2.980000000000 	
Mg	  1.841495839354 	  5.885074877758 	  0.000000000000 	
Mg	  2.841495839354 	  5.885074877758 	  2.980000000000 	
Mg	  5.821495839354 	  1.905074877758 	  0.000000000000 	
Mg	  6.821495839354 	  1.905074877758 	  2.980000000000 	
Mg	  5.821495839354 	  5.885074877758 	  0.000000000000 	
Mg	  6.821495839354 	  5.885074877758 	  2.980000000000 	
Mg	  2.350128146584 	  0.000000000000 	  1.714337762546 	
Mg	  3.350128146584 	  0.000000000000 	  4.694337762546 	
Mg	  2.350128146584 	  3.980000000000 	  1.714337762546 	
Mg	  3.350128146584 	  3.980000000000 	  4.694337762546 	
Mg	  6.330128146584 	  0.000000000000 	  1.714337762546 	
Mg	  7.330128146584 	  0.000000000000 	  4.694337762546 	
Mg	  6.330128146584 	  3.980000000000 	  1.714337762546 	
Mg	  7.330128146584 	  3.980000000000 	  4.694337762546 	
Mg	  0.317895192019 	  2.032232954565 	  1.714337762546 	
Mg	  1.317895192019 	  2.032232954565 	  4.694337762546 	
Mg	  0.317895192019 	  6.012232954565 	  1.714337762546 	
Mg	  1.317895192019 	  6.012232954565 	  4.694337762546 	
Mg	  4.297895192019 	  2.032232954565 	  1.714337762546 	
Mg	  5.297895192019 	  2.032232954565 	  4.694337762546 	
Mg	  4.297895192019 	  6.012232954565 	  1.714337762546 	
Mg	  5.297895192019 	  6.012232954565 	  4.694337762546 	
O	  2.032232954565 	  0.000000000000 	  0.000000000000 	
O	  3.032232954565 	  0.000000000000 	  2.980000000000 	
O	  2.032232954565 	  3.980000000000 	  0.000000000000 	
O	  3.032232954565 	  3.980000000000 	  2.980000000000 	
O	  6.012232954565 	  0.000000000000 	  0.000000000000 	
O	  7.012232954565 	  0.000000000000 	  2.980000000000 	
O	  6.012232954565 	  3.980000000000 	  0.000000000000 	
O	  7.012232954565 	  3.980000000000 	  2.980000000000 	
O	  0.000000000000 	  2.032232954565 	  0.000000000000 	
O	  1.000000000000 	  2.032232954565 	  2.980000000000 	
O	  0.000000000000 	  6.012232954565 	  0.000000000000 	
O	  1.000000000000 	  6.012232954565 	  2.980000000000 	
O	  3.980000000000 	  2.032232954565 	  0.000000000000 	
O	  4.980000000000 	  2.032232954565 	  2.980000000000 	
O	  3.980000000000 	  6.012232954565 	  0.000000000000 	
O	  4.980000000000 	  6.012232954565 	  2.980000000000 	
O	  0.317895192019 	  0.000000000000 	  1.714337762546 	
O	  1.317895192019 	  0.000000000000 	  4.694337762546 	
O	  0.317895192019 	  3.980000000000 	  1.714337762546 	
O	  1.317895192019 	  3.980000000000 	  4.694337762546 	
O	  4.297895192019 	  0.000000000000 	  1.714337762546 	
O	  5.297895192019 	  0.000000000000 	  4.694337762546 	
O	  4.297895192019 	  3.980000000000 	  1.714337762546 	
O	  5.297895192019 	  3.980000000000 	  4.694337762546 	
O	  2.604444300199 	  1.614518672253 	  1.714337762546 	
O	  3.604444300199 	  1.614518672253 	  4.694337762546 	
O	  2.604444300199 	  5.594518672253 	  1.714337762546 	
O	  3.604444300199 	  5.594518672253 	  4.694337762546 	
O	  6.584444300199 	  1.614518672253 	  1.714337762546 	
O	  7.584444300199 	  1.614518672253 	  4.694337762546 	
O	  6.584444300199 	  5.594518672253 	  1.714337762546 	
O	  7.584444300199 	  5.594518672253 	  4.694337762546 	
64 
Energy: 5.4873728111984388e+00 
Mg	  0.000000000000 	  0.000000000000 	  0.000000000000 	
Mg	  1.000000000000 	  0.000000000000 	  2.980000000000 	
Mg	  0.000000000000 	  3.980000000000 	  0.000000000000 	
Mg	  1.000000000000 	  3.980000000000 	  2.980000000000 	
Mg	  3.980000000000 	  0.000000000000 	  0.000000000000 	
Mg	  4.980000000000 	  0.000000000000 	  2.980000000000 	
Mg	  3.980000000000 	  3.980000000000 	  0.000000000000 	
Mg	  4.980000000000 	  3.980000000000 	  2.980000000000 	
Mg	  1.867311776479 	  1.925102601752 	  0.000000000000 	
Mg	  2.867311776479 	  1.925102601752 	  2.980000000000 	
Mg	  1.867311776479 	  5.905102601752 	  0.000000000000 	
Mg	  2.867311776479 	  5.905102601752 	  2.980000000000 	
Mg	  5.847311776479 	  1.925102601752 	  0.000000000000 	
Mg	  6.847311776479 	  1.925102601752 	  2.980000000000 	
Mg	  5.847311776479 	  5.905102601752 	  0.000000000000 	
Mg	  6.847311776479 	  5.905102601752 	  2.980000000000 	
Mg	  2.329638378667 	  0.000000000000 	  1.751730125932 	
Mg	  3.329638378667 	  0.000000000000 	  4.731730125932 	
Mg	  2.329638378667 	  3.980000000000 	  1.751730125932 	
Mg	  3.329638378667 	  3.980000000000 	  4.731730125932 	
Mg	  6.309638378667 	  0.000000000000 	  1.751730125932 	
Mg	  7.309638378667 	  0.000000000000 	  4.731730125932 	
Mg	  6.309638378667 	  3.980000000000 	  1.751730125932 	
Mg	  7.309638378667 	  3.980000000000 	  4.731730125932 	
Mg	  0.288954126368 	  2.040684252299 	  1.751730125932 	
Mg	  1.288954126368 	  2.040684252299 	  4.731730125932 	
Mg	  0.288954126368 	  6.020684252299 	  1.751730125932 	
Mg	  1.288954126368 	  6.020684252299 	  4.731730125932 	
Mg	  4.268954126368 	  2.040684252299 	  1.751730125932 	
Mg	  5.268954126368 	  2.040684252299 	  4.731730125932 	
Mg	  4.268954126368 	  6.020684252299 	  1.751730125932 	
Mg	  5.268954126368 	  6.020684252299 	  4.731730125932 	
O	  2.040684252299 	  0.000000000000 	  0.000000000000 	
O	  3.040684252299 	  0.000000000000 	  2.980000000000 	
O	  2.040684252299 	  3.980000000000 	  0.000000000000 	
O	  3.040684252299 	  3.980000000000 	  2.980000000000 	
O	  6.020684252299 	  0.000000000000 	  0.000000000000 	
O	  7.020684252299 	  0.000000000000 	  2.980000000000 	
O	  6.020684252299 	  3.980000000000 	  0.000000000000 	
O	  7.020684252299 	  3.980000000000 	  2.980000000000 	
O	  0.000000000000 	  2.040684252299 	  0.000000000000 	
O	  1.000000000000 	  2.040684252299 	  2.980000000000 	
O	  0.000000000000 	  6.020684252299 	  0.000000000000 	
O	  1.000000000000 	  6.020684252299 	  2.980000000000 	
O	  3.980000000000 	  2.040684252299 	  0.000000000000 	
O	  4.980000000000 	  2.040684252299 	  2.980000000000 	
O	  3.980000000000 	  6.020684252299 	  0.000000000000 	
O	  4.980000000000 	  6.020684252299 	  2.980000000000 	
O	  0.288954126368 	  0.000000000000 	  1.751730125932 	
O	  1.288954126368 	  0.000000000000 	  4.731730125932 	
O	  0.288954126368 	  3.980000000000 	  1.751730125932 	
O	  1.288954126368 	  3.980000000000 	  4.731730125932 	
O	  4.268954126368 	  0.000000000000 	  1.751730125932 	
O	  5.268954126368 	  0.000000000000 	  4.731730125932 	
O	  4.268954126368 	  3.980000000000 	  1.751730125932 	
O	  5.268954126368 	  3.980000000000 	  4.731730125932 	
O	  2.560801679761 	  1.660998530252 	  1.751730125932 	
O	  3.560801679761 	  1.660998530252 	  4.731730125932 	
O	  2.560801679761 	  5.640998530252 	  1.751730125932 	
O	  3.560801679761 	  5.640998530252 	  4.731730125932 	
O	  6.540801679761 	  1.660998530252 	  1.751730125932 	
O	  7.540801679761 	  1.660998530252 	  4.731730125932 	
O	  6.540801679761 	  5.640998530252 	  1.751730125932 	
O	  7.540801679761 	  5.640998530252 	  4.731730125932 	
64 
Energy: 5.6928855722538483e+00 
Mg	  0.000000000000 	  0.000000000000 	  0.000000000000 	
Mg	  1.000000000000 	  0.000000000000 	  2.980000000000 	
Mg	  0.000000000000 	  3.980000000000 	  0.000000000000 	
Mg	  1.000000000000 	  3.980000000000 	  2.980000000000 	
Mg	  3.980000000000 	  0.000000000000 	  0.000000000000 	
Mg	  4.980000000000 	  0.000000000000 	  2.980000000000 	
Mg	  3.980000000000 	  3.980000000000 	  0.000000000000 	
Mg	  4.980000000000 	  3.980000000000 	  2.980000000000 	
Mg	  1.893136489398 	  1.945137878133 	  0.000000000000 	
Mg	  2.893136489398 	  1.945137878133 	  2.980000000000 	
Mg	  1.893136489398 	  5.925137878133 	  0.000000000000 	
Mg	  2.893136489398 	  5.925137878133 	  2.980000000000 	
Mg	  5.873136489398 	  1.945137878133 	  0.000000000000 	
Mg	  6.873136489398 	  1.945137878133 	  2.980000000000 	
Mg	  5.873136489398 	  5.925137878133 	  0.000000000000 	
Mg	  6.873136489398 	  5.925137878133 	  2.980000000000 	
Mg	  2.309147599276 	  0.000000000000 	  1.789133711928 	
Mg	  3.309147599276 	  0.000000000000 	  4.769133711928 	
Mg	  2.309147599276 	  3.980000000000 	  1.789133711928 	
Mg	  3.309147599276 	  3.980000000000 	  4.769133711928 	
Mg	  6.289147599276 	  0.000000000000 	  1.789133711928 	
Mg	  7.289147599276 	  0.000000000000 	  4.769133711928 	
Mg	  6.289147599276 	  3.980000000000 	  1.789133711928 	
Mg	  7.289147599276 	  3.980000000000 	  4.769133711928 	
Mg	  0.260006943674 	  2.049140655602 	  1.789133711928 	
Mg	  1.260006943674 	  2.049140655602 	  4.769133711928 	
Mg	  0.260006943674 	  6.029140655602 	  1.789133711928 	
Mg	  1.260006943674 	  6.029140655602 	  4.769133711928 	
Mg	  4.240006943674 	  2.049140655602 	  1.789133711928 	
Mg	  5.240006943674 	  2.049140655602 	  4.769133711928 	
Mg	  4.240006943674 	  6.029140655602 	  1.789133711928 	
Mg	  5.240006943674 	  6.029140655602 	  4.769133711928 	
O	  2.049140655602 	  0.000000000000 	  0.000000000000 	
O	  3.049140655602 	  0.000000000000 	  2.980000000000 	
O	  2.049140655602 	  3.980000000000 	  0.000000000000 	
O	  3.049140655602 	  3.980000000000 	  2.980000000000 	
O	  6.029140655602 	  0.000000000000 	  0.000000000000 	
O	  7.029140655602 	  0.000000000000 	  2.980000000000 	
O	  6.029140655602 	  3.980000000000 	  0.000000000000 	
O	  7.029140655602 	  3.980000000000 	  2.980000000000 	
O	  0.000000000000 	  2.049140655602 	  0.000000000000 	
O	  1.000000000000 	  2.049140655602 	  2.980000000000 	
O	  0.000000000000 	  6.029140655602 	  0.000000000000 	
O	  1.000000000000 	  6.029140655602 	  2.980000000000 	
O	  3.980000000000 	  2.049140655602 	  0.000000000000 	
O	  4.980000000000 	  2.049140655602 	  2.980000000000 	
O	  3.980000000000 	  6.029140655602 	  0.000000000000 	
O	  4.980000000000 	  6.029140655602 	  2.980000000000 	
O	  0.260006943674 	  0.000000000000 	  1.789133711928 	
O	  1.260006943674 	  0.000000000000 	  4.769133711928 	
O	  0.260006943674 	  3.980000000000 	  1.789133711928 	
O	  1.260006943674 	  3.980000000000 	  4.769133711928 	
O	  4.240006943674 	  0.000000000000 	  1.789133711928 	
O	  5.240006943674 	  0.000000000000 	  4.769133711928 	
O	  4.240006943674 	  3.980000000000 	  1.789133711928 	
O	  5.240006943674 	  3.980000000000 	  4.769133711928 	
O	  2.517153154215 	  1.707491531615 	  1.789133711928 	
O	  3.517153154215 	  1.707491531615 	  4.769133711928 	
O	  2.517153154215 	  5.687491531615 	  1.789133711928 	
O	  3.517153154215 	  5.687491531615 	  4.769133711928 	
O	  6.497153154215 	  1.707491531615 	  1.789133711928 	
O	  7.497153154215 	  1.707491531615 	  4.769133711928 	
O	  6.497153154215 	  5.687491531615 	  1.789133711928 	
O	  7.497153154215 	  5.687491531615 	  4.769133711928 	
64 
Energy: 5.6554397292916967e+00 
Mg	  0.000000000000 	  0.000000000000 	  0.000000000000 	
Mg	  1.000000000000 	  0.000000000000 	  2.980000000000 	
Mg	  0.000000000000 	  3.980000000000 	  0.000000000000 	
Mg	  1.000000000000 	  3.980000000000 	  2.980000000000 	
Mg	  3.980000000000 	  0.000000000000 	  0.000000000000 	
Mg	  4.980000000000 	  0.000000000000 	  2.980000000000 	
Mg	  3.980000000000 	  3.980000000000 	  0.000000000000 	
Mg	  4.980000000000 	  3.980000000000 	  2.980000000000 	
Mg	  1.918963058842 	  1.965174593826 	  0.000000000000 	
Mg	  2.918963058842 	  1.965174593826 	  2.980000000000 	
Mg	  1.918963058842 	  5.945174593826 	  0.000000000000 	
Mg	  2.918963058842 	  5.945174593826 	  2.980000000000 	
Mg	  5.898963058842 	  1.965174593826 	  0.000000000000 	
Mg	  6.898963058842 	  1.965174593826 	  2.980000000000 	
Mg	  5.898963058842 	  5.945174593826 	  0.000000000000 	
Mg	  6.898963058842 	  5.945174593826 	  2.980000000000 	
Mg	  2.288655338714 	  0.000000000000 	  1.826539988874 	
Mg	  3.288655338714 	  0.000000000000 	  4.806539988874 	
Mg	  2.288655338714 	  3.980000000000 	  1.826539988874 	
Mg	  3.288655338714 	  3.980000000000 	  4.806539988874 	
Mg	  6.268655338714 	  0.000000000000 	  1.826539988874 	
Mg	  7.268655338714 	  0.000000000000 	  4.806539988874 	
Mg	  6.268655338714 	  3.980000000000 	  1.826539988874 	
Mg	  7.268655338714 	  3.980000000000 	  4.806539988874 	
Mg	  0.231057674920 	  2.057597663794 	  1.826539988874 	
Mg	  1.231057674920 	  2.057597663794 	  4.806539988874 	
Mg	  0.231057674920 	  6.037597663794 	  1.826539988874 	
Mg	  1.231057674920 	  6.037597663794 	  4.806539988874 	
Mg	  4.211057674920 	  2.057597663794 	  1.826539988874 	
Mg	  5.211057674920 	  2.057597663794 	  4.806539988874 	
Mg	  4.211057674920 	  6.037597663794 	  1.826539988874 	
Mg	  5.211057674920 	  6.037597663794 	  4.806539988874 	
O	  2.057597663794 	  0.000000000000 	  0.000000000000 	
O	  3.057597663794 	  0.000000000000 	  2.980000000000 	
O	  2.057597663794 	  3.980000000000 	  0.000000000000 	
O	  3.057597663794 	  3.980000000000 	  2.980000000000 	
O	  6.037597663794 	  0.000000000000 	  0.000000000000 	
O	  7.037597663794 	  0.000000000000 	  2.980000000000 	
O	  6.037597663794 	  3.980000000000 	  0.000000000000 	
O	  7.037597663794 	  3.980000000000 	  2.980000000000 	
O	  0.000000000000 	  2.057597663794 	  0.000000000000 	
O	  1.000000000000 	  2.057597663794 	  2.980000000000 	
O	  0.000000000000 	  6.037597663794 	  0.000000000000 	
O	  1.000000000000 	  6.037597663794 	  2.980000000000 	
O	  3.980000000000 	  2.057597663794 	  0.000000000000 	
O	  4.980000000000 	  2.057597663794 	  2.980000000000 	
O	  3.980000000000 	  6.037597663794 	  0.000000000000 	
O	  4.980000000000 	  6.037597663794 	  2.980000000000 	
O	  0.231057674920 	  0.000000000000 	  1.826539988874 	
O	  1.231057674920 	  0.000000000000 	  4.806539988874 	
O	  0.231057674920 	  3.980000000000 	  1.826539988874 	
O	  1.231057674920 	  3.980000000000 	  4.806539988874 	
O	  4.211057674920 	  0.000000000000 	  1.826539988874 	
O	  5.211057674920 	  0.000000000000 	  4.806539988874 	
O	  4.211057674920 	  3.980000000000 	  1.826539988874 	
O	  5.211057674920 	  3.980000000000 	  4.806539988874 	
O	  2.473501478650 	  1.753987878950 	  1.826539988874 	
O	  3.473501478650 	  1.753987878950 	  4.806539988874 	
O	  2.473501478650 	  5.733987878950 	  1.826539988874 	
O	  3.473501478650 	  5.733987878950 	  4.806539988874 	
O	  6.453501478650 	  1.753987878950 	  1.826539988874 	
O	  7.453501478650 	  1.753987878950 	  4.806539988874 	
O	  6.453501478650 	  5.733987878950 	  1.826539988874 	
O	  7.453501478650 	  5.733987878950 	  4.806539988874 	
64 
Energy: 5.3633561949185369e+00 
Mg	  0.000000000000 	  0.000000000000 	  0.000000000000 	
Mg	  1.000000000000 	  0.000000000000 	  2.980000000000 	
Mg	  0.000000000000 	  3.980000000000 	  0.000000000000 	
Mg	  1.000000000000 	  3.980000000000 	  2.980000000000 	
Mg	  3.980000000000 	  0.000000000000 	  0.000000000000 	
Mg	  4.980000000000 	  0.000000000000 	  2.980000000000 	
Mg	  3.980000000000 	  3.980000000000 	  0.000000000000 	
Mg	  4.980000000000 	  3.980000000000 	  2.980000000000 	
Mg	  1.944785419364 	  1.985208110771 	  0.000000000000 	
Mg	  2.944785419364 	  1.985208110771 	  2.980000000000 	
Mg	  1.944785419364 	  5.965208110771 	  0.000000000000 	
Mg	  2.944785419364 	  5.965208110771 	  2.980000000000 	
Mg	  5.924785419364 	  1.985208110771 	  0.000000000000 	
Mg	  6.924785419364 	  1.985208110771 	  2.980000000000 	
Mg	  5.924785419364 	  5.965208110771 	  0.000000000000 	
Mg	  6.924785419364 	  5.965208110771 	  2.980000000000 	
Mg	  2.268166950620 	  0.000000000000 	  1.863940036550 	
Mg	  3.268166950620 	  0.000000000000 	  4.843940036550 	
Mg	  2.268166950620 	  3.980000000000 	  1.863940036550 	
Mg	  3.268166950620 	  3.980000000000 	  4.843940036550 	
Mg	  6.248166950620 	  0.000000000000 	  1.863940036550 	
Mg	  7.248166950620 	  0.000000000000 	  4.843940036550 	
Mg	  6.248166950620 	  3.980000000000 	  1.863940036550 	
Mg	  7.248166950620 	  3.980000000000 	  4.843940036550 	
Mg	  0.202113457035 	  2.066053493585 	  1.863940036550 	
Mg	  1.202113457035 	  2.066053493585 	  4.843940036550 	
Mg	  0.202113457035 	  6.046053493585 	  1.863940036550 	
Mg	  1.202113457035 	  6.046053493585 	  4.843940036550 	
Mg	  4.182113457035 	  2.066053493585 	  1.863940036550 	
Mg	  5.182113457035 	  2.066053493585 	  4.843940036550 	
Mg	  4.182113457035 	  6.046053493585 	  1.863940036550 	
Mg	  5.182113457035 	  6.046053493585 	  4.843940036550 	
O	  2.066053493585 	  0.000000000000 	  0.000000000000 	
O	  3.066053493585 	  0.000000000000 	  2.980000000000 	
O	  2.066053493585 	  3.980000000000 	  0.000000000000 	
O	  3.066053493585 	  3.980000000000 	  2.980000000000 	
O	  6.046053493585 	  0.000000000000 	  0.000000000000 	
O	  7.046053493585 	  0.000000000000 	  2.980000000000 	
O	  6.046053493585 	  3.980000000000 	  0.000000000000 	
O	  7.046053493585 	  3.980000000000 	  2.980000000000 	
O	  0.000000000000 	  2.066053493585 	  0.000000000000 	
O	  1.000000000000 	  2.066053493585 	  2.980000000000 	
O	  0.000000000000 	  6.046053493585 	  0.000000000000 	
O	  1.000000000000 	  6.046053493585 	  2.980000000000 	
O	  3.980000000000 	  2.066053493585 	  0.000000000000 	
O	  4.980000000000 	  2.066053493585 	  2.980000000000 	
O	  3.980000000000 	  6.046053493585 	  0.000000000000 	
O	  4.980000000000 	  6.046053493585 	  2.980000000000 	
O	  0.202113457035 	  0.000000000000 	  1.863940036550 	
O	  1.202113457035 	  0.000000000000 	  4.843940036550 	
O	  0.202113457035 	  3.980000000000 	  1.863940036550 	
O	  1.202113457035 	  3.980000000000 	  4.843940036550 	
O	  4.182113457035 	  0.000000000000 	  1.863940036550 	
O	  5.182113457035 	  0.000000000000 	  4.843940036550 	
O	  4.182113457035 	  3.980000000000 	  1.863940036550 	
O	  5.182113457035 	  3.980000000000 	  4.843940036550 	
O	  2.429857716248 	  1.800476411041 	  1.863940036550 	
O	  3.429857716248 	  1.800476411041 	  4.843940036550 	
O	  2.429857716248 	  5.780476411041 	  1.863940036550 	
O	  3.429857716248 	  5.780476411041 	  4.843940036550 	
O	  6.409857716248 	  1.800476411041 	  1.863940036550 	
O	  7.409857716248 	  1.800476411041 	  4.843940036550 	
O	  6.409857716248 	  5.780476411041 	  1.863940036550 	
O	  7.409857716248 	  5.780476411041 	  4.843940036550 	
64 
Energy: 4.8222835893990244e+00 
Mg	  0.000000000000 	  0.000000000000 	  0.000000000000 	
Mg	  1.000000000000 	  0.000000000000 	  2.980000000000 	
Mg	  0.000000000000 	  3.980000000000 	  0.000000000000 	
Mg	  1.000000000000 	  3.980000000000 	  2.980000000000 	
Mg	  3.980000000000 	  0.000000000000 	  0.000000000000 	
Mg	  4.980000000000 	  0.000000000000 	  2.980000000000 	
Mg	  3.980000000000 	  3.980000000000 	  0.000000000000 	
Mg	  4.980000000000 	  3.980000000000 	  2.980000000000 	
Mg	  1.970597805769 	  2.005233786004 	  0.000000000000 	
Mg	  2.970597805769 	  2.005233786004 	  2.980000000000 	
Mg	  1.970597805769 	  5.985233786004 	  0.000000000000 	
Mg	  2.970597805769 	  5.985233786004 	  2.980000000000 	
Mg	  5.950597805769 	  2.005233786004 	  0.000000000000 	
Mg	  6.950597805769 	  2.005233786004 	  2.980000000000 	
Mg	  5.950597805769 	  5.985233786004 	  0.000000000000 	
Mg	  6.950597805769 	  5.985233786004 	  2.980000000000 	
Mg	  2.247685647648 	  0.000000000000 	  1.901325845299 	
Mg	  3.247685647648 	  0.000000000000 	  4.881325845299 	
Mg	  2.247685647648 	  3.980000000000 	  1.901325845299 	
Mg	  3.247685647648 	  3.980000000000 	  4.881325845299 	
Mg	  6.227685647648 	  0.000000000000 	  1.901325845299 	
Mg	  7.227685647648 	  0.000000000000 	  4.881325845299 	
Mg	  6.227685647648 	  3.980000000000 	  1.901325845299 	
Mg	  7.227685647648 	  3.980000000000 	  4.881325845299 	
Mg	  0.173179901174 	  2.074505746474 	  1.901325845299 	
Mg	  1.173179901174 	  2.074505746474 	  4.881325845299 	
Mg	  0.173179901174 	  6.054505746474 	  1.901325845299 	
Mg	  1.173179901174 	  6.054505746474 	  4.881325845299 	
Mg	  4.153179901174 	  2.074505746474 	  1.901325845299 	
Mg	  5.153179901174 	  2.074505746474 	  4.881325845299 	
Mg	  4.153179901174 	  6.054505746474 	  1.901325845299 	
Mg	  5.153179901174 	  6.054505746474 	  4.881325845299 	
O	  2.074505746474 	  0.000000000000 	  0.000000000000 	
O	  3.074505746474 	  0.000000000000 	  2.980000000000 	
O	  2.074505746474 	  3.980000000000 	  0.000000000000 	
O	  3.074505746474 	  3.980000000000 	  2.980000000000 	
O	  6.054505746474 	  0.000000000000 	  0.000000000000 	
O	  7.054505746474 	  0.000000000000 	  2.980000000000 	
O	  6.054505746474 	  3.980000000000 	  0.000000000000 	
O	  7.054505746474 	  3.980000000000 	  2.980000000000 	
O	  0.000000000000 	  2.074505746474 	  0.000000000000 	
O	  1.000000000000 	  2.074505746474 	  2.980000000000 	
O	  0.000000000000 	  6.054505746474 	  0.000000000000 	
O	  1.000000000000 	  6.054505746474 	  2.980000000000 	
O	  3.980000000000 	  2.074505746474 	  0.000000000000 	
O	  4.980000000000 	  2.074505746474 	  2.980000000000 	
O	  3.980000000000 	  6.054505746474 	  0.000000000000 	
O	  4.980000000000 	  6.054505746474 	  2.980000000000 	
O	  0.173179901174 	  0.000000000000 	  1.901325845299 	
O	  1.173179901174 	  0.000000000000 	  4.881325845299 	
O	  0.173179901174 	  3.980000000000 	  1.901325845299 	
O	  1.173179901174 	  3.980000000000 	  4.881325845299 	
O	  4.153179901174 	  0.000000000000 	  1.901325845299 	
O	  5.153179901174 	  0.000000000000 	  4.881325845299 	
O	  4.153179901174 	  3.980000000000 	  1.901325845299 	
O	  5.153179901174 	  3.980000000000 	  4.881325845299 	
O	  2.386229568587 	  1.846947356331 	  1.901325845299 	
O	  3.386229568587 	  1.846947356331 	  4.881325845299 	
O	  2.386229568587 	  5.826947356331 	  1.901325845299 	
O	  3.386229568587 	  5.826947356331 	  4.881325845299 	
O	  6.366229568587 	  1.846947356331 	  1.901325845299 	
O	  7.366229568587 	  1.846947356331 	  4.881325845299 	
O	  6.366229568587 	  5.826947356331 	  1.901325845299 	
O	  7.366229568587 	  5.826947356331 	  4.881325845299 	
64 
Energy: 4.0579412024606967e+00 
Mg	  0.000000000000 	  0.000000000000 	  0.000000000000 	
Mg	  1.000000000000 	  0.000000000000 	  2.980000000000 	
Mg	  0.000000000000 	  3.980000000000 	  0.000000000000 	
Mg	  1.000000000000 	  3.980000000000 	  2.980000000000 	
Mg	  3.980000000000 	  0.000000000000 	  0.000000000000 	
Mg	  4.980000000000 	  0.000000000000 	  2.980000000000 	
Mg	  3.980000000000 	  3.980000000000 	  0.000000000000 	
Mg	  4.980000000000 	  3.980000000000 	  2.980000000000 	
Mg	  1.996394742514 	  2.025247100752 	  0.000000000000 	
Mg	  2.996394742514 	  2.025247100752 	  2.980000000000 	
Mg	  1.996394742514 	  6.005247100752 	  0.000000000000 	
Mg	  2.996394742514 	  6.005247100752 	  2.980000000000 	
Mg	  5.976394742514 	  2.025247100752 	  0.000000000000 	
Mg	  6.976394742514 	  2.025247100752 	  2.980000000000 	
Mg	  5.976394742514 	  6.005247100752 	  0.000000000000 	
Mg	  6.976394742514 	  6.005247100752 	  2.980000000000 	
Mg	  2.227213608423 	  0.000000000000 	  1.938690026036 	
Mg	  3.227213608423 	  0.000000000000 	  4.918690026036 	
Mg	  2.227213608423 	  3.980000000000 	  1.938690026036 	
Mg	  3.227213608423 	  3.980000000000 	  4.918690026036 	
Mg	  6.207213608423 	  0.000000000000 	  1.938690026036 	
Mg	  7.207213608423 	  0.000000000000 	  4.918690026036 	
Mg	  6.207213608423 	  3.980000000000 	  1.938690026036 	
Mg	  7.207213608423 	  3.980000000000 	  4.918690026036 	
Mg	  0.144261791194 	  2.082951817230 	  1.938690026036 	
Mg	  1.144261791194 	  2.082951817230 	  4.918690026036 	
Mg	  0.144261791194 	  6.062951817230 	  1.938690026036 	
Mg	  1.144261791194 	  6.062951817230 	  4.918690026036 	
Mg	  4.124261791194 	  2.082951817230 	  1.938690026036 	
Mg	  5.124261791194 	  2.082951817230 	  4.918690026036 	
Mg	  4.124261791194 	  6.062951817230 	  1.938690026036 	
Mg	  5.124261791194 	  6.062951817230 	  4.918690026036 	
O	  2.082951817230 	  0.000000000000 	  0.000000000000 	
O	  3.082951817230 	  0.000000000000 	  2.980000000000 	
O	  2.082951817230 	  3.980000000000 	  0.000000000000 	
O	  3.082951817230 	  3.980000000000 	  2.980000000000 	
O	  6.062951817230 	  0.000000000000 	  0.000000000000 	
O	  7.062951817230 	  0.000000000000 	  2.980000000000 	
O	  6.062951817230 	  3.980000000000 	  0.000000000000 	
O	  7.062951817230 	  3.980000000000 	  2.980000000000 	
O	  0.000000000000 	  2.082951817230 	  0.000000000000 	
O	  1.000000000000 	  2.082951817230 	  2.980000000000 	
O	  0.000000000000 	  6.062951817230 	  0.000000000000 	
O	  1.000000000000 	  6.062951817230 	  2.980000000000 	
O	  3.980000000000 	  2.082951817230 	  0.000000000000 	
O	  4.980000000000 	  2.082951817230 	  2.980000000000 	
O	  3.980000000000 	  6.062951817230 	  0.000000000000 	
O	  4.980000000000 	  6.062951817230 	  2.980000000000 	
O	  0.144261791194 	  0.000000000000 	  1.938690026036 	
O	  1.144261791194 	  0.000000000000 	  4.918690026036 	
O	  0.144261791194 	  3.980000000000 	  1.938690026036 	
O	  1.144261791194 	  3.980000000000 	  4.918690026036 	
O	  4.124261791194 	  0.000000000000 	  1.938690026036 	
O	  5.124261791194 	  0.000000000000 	  4.918690026036 	
O	  4.124261791194 	  3.980000000000 	  1.938690026036 	
O	  5.124261791194 	  3.980000000000 	  4.918690026036 	
O	  2.342623041378 	  1.893391823601 	  1.938690026036 	
O	  3.342623041378 	  1.893391823601 	  4.918690026036 	
O	  2.342623041378 	  5.873391823601 	  1.938690026036 	
O	  3.342623041378 	  5.873391823601 	  4.918690026036 	
O	  6.322623041378 	  1.893391823601 	  1.938690026036 	
O	  7.322623041378 	  1.893391823601 	  4.918690026036 	
O	  6.322623041378 	  5.873391823601 	  1.938690026036 	
O	  7.322623041378 	  5.873391823601 	  4.918690026036 	
64 
Energy: 3.1211816715416982e+00 
Mg	  0.000000000000 	  0.000000000000 	  0.000000000000 	
Mg	  1.000000000000 	  0.000000000000 	  2.980000000000 	
Mg	  0.000000000000 	  3.980000000000 	  0.000000000000 	
Mg	  1.000000000000 	  3.980000000000 	  2.980000000000 	
Mg	  3.980000000000 	  0.000000000000 	  0.000000000000 	
Mg	  4.980000000000 	  0.000000000000 	  2.980000000000 	
Mg	  3.980000000000 	  3.980000000000 	  0.000000000000 	
Mg	  4.980000000000 	  3.980000000000 	  2.980000000000 	
Mg	  2.022171362149 	  2.045243946526 	  0.000000000000 	
Mg	  3.022171362149 	  2.045243946526 	  2.980000000000 	
Mg	  2.022171362149 	  6.025243946526 	  0.000000000000 	
Mg	  3.022171362149 	  6.025243946526 	  2.980000000000 	
Mg	  6.002171362149 	  2.045243946526 	  0.000000000000 	
Mg	  7.002171362149 	  2.045243946526 	  2.980000000000 	
Mg	  6.002171362149 	  6.025243946526 	  0.000000000000 	
Mg	  7.002171362149 	  6.025243946526 	  2.980000000000 	
Mg	  2.206752037165 	  0.000000000000 	  1.976026193394 	
Mg	  3.206752037165 	  0.000000000000 	  4.956026193394 	
Mg	  2.206752037165 	  3.980000000000 	  1.976026193394 	
Mg	  3.206752037165 	  3.980000000000 	  4.956026193394 	
Mg	  6.186752037165 	  0.000000000000 	  1.976026193394 	
Mg	  7.186752037165 	  0.000000000000 	  4.956026193394 	
Mg	  6.186752037165 	  3.980000000000 	  1.976026193394 	
Mg	  7.186752037165 	  3.980000000000 	  4.956026193394 	
Mg	  0.115362921885 	  2.091389115280 	  1.976026193394 	
Mg	  1.115362921885 	  2.091389115280 	  4.956026193394 	
Mg	  0.115362921885 	  6.071389115280 	  1.976026193394 	
Mg	  1.115362921885 	  6.071389115280 	  4.956026193394 	
Mg	  4.095362921885 	  2.091389115280 	  1.976026193394 	
Mg	  5.095362921885 	  2.091389115280 	  4.956026193394 	
Mg	  4.095362921885 	  6.071389115280 	  1.976026193394 	
Mg	  5.095362921885 	  6.071389115280 	  4.956026193394 	
O	  2.091389115280 	  0.000000000000 	  0.000000000000 	
O	  3.091389115280 	  0.000000000000 	  2.980000000000 	
O	  2.091389115280 	  3.980000000000 	  0.000000000000 	
O	  3.091389115280 	  3.980000000000 	  2.980000000000 	
O	  6.071389115280 	  0.000000000000 	  0.000000000000 	
O	  7.071389115280 	  0.000000000000 	  2.980000000000 	
O	  6.071389115280 	  3.980000000000 	  0.000000000000 	
O	  7.071389115280 	  3.980000000000 	  2.980000000000 	
O	  0.000000000000 	  2.091389115280 	  0.000000000000 	
O	  1.000000000000 	  2.091389115280 	  2.980000000000 	
O	  0.000000000000 	  6.071389115280 	  0.000000000000 	
O	  1.000000000000 	  6.071389115280 	  2.980000000000 	
O	  3.980000000000 	  2.091389115280 	  0.000000000000 	
O	  4.980000000000 	  2.091389115280 	  2.980000000000 	
O	  3.980000000000 	  6.071389115280 	  0.000000000000 	
O	  4.980000000000 	  6.071389115280 	  2.980000000000 	
O	  0.115362921885 	  0.000000000000 	  1.976026193394 	
O	  1.115362921885 	  0.000000000000 	  4.956026193394 	
O	  0.115362921885 	  3.980000000000 	  1.976026193394 	
O	  1.115362921885 	  3.980000000000 	  4.956026193394 	
O	  4.095362921885 	  0.000000000000 	  1.976026193394 	
O	  5.095362921885 	  0.000000000000 	  4.956026193394 	
O	  4.095362921885 	  3.980000000000 	  1.976026193394 	
O	  5.095362921885 	  3.980000000000 	  4.956026193394 	
O	  2.299042374674 	  1.939802235922 	  1.976026193394 	
O	  3.299042374674 	  1.939802235922 	  4.956026193394 	
O	  2.299042374674 	  5.919802235922 	  1.976026193394 	
O	  3.299042374674 	  5.919802235922 	  4.956026193394 	
O	  6.279042374674 	  1.939802235922 	  1.976026193394 	
O	  7.279042374674 	  1.939802235922 	  4.956026193394 	
O	  6.279042374674 	  5.919802235922 	  1.976026193394 	
O	  7.279042374674 	  5.919802235922 	  4.956026193394 	
64 
Energy: 2.0951136389368026e+00 
Mg	  0.000000000000 	  0.000000000000 	  0.000000000000 	
Mg	  1.000000000000 	  0.000000000000 	  2.980000000000 	
Mg	  0.000000000000 	  3.980000000000 	  0.000000000000 	
Mg	  1.000000000000 	  3.980000000000 	  2.980000000000 	
Mg	  3.980000000000 	  0.000000000000 	  0.000000000000 	
Mg	  4.980000000000 	  0.000000000000 	  2.980000000000 	
Mg	  3.980000000000 	  3.980000000000 	  0.000000000000 	
Mg	  4.980000000000 	  3.980000000000 	  2.980000000000 	
Mg	  2.047923386423 	  2.065220624040 	  0.000000000000 	
Mg	  3.047923386423 	  2.065220624040 	  2.980000000000 	
Mg	  2.047923386423 	  6.045220624040 	  0.000000000000 	
Mg	  3.047923386423 	  6.045220624040 	  2.980000000000 	
Mg	  6.027923386423 	  2.065220624040 	  0.000000000000 	
Mg	  7.027923386423 	  2.065220624040 	  2.980000000000 	
Mg	  6.027923386423 	  6.045220624040 	  0.000000000000 	
Mg	  7.027923386423 	  6.045220624040 	  2.980000000000 	
Mg	  2.186301287357 	  0.000000000000 	  2.013328911190 	
Mg	  3.186301287357 	  0.000000000000 	  4.993328911190 	
Mg	  2.186301287357 	  3.980000000000 	  2.013328911190 	
Mg	  3.186301287357 	  3.980000000000 	  4.993328911190 	
Mg	  6.166301287357 	  0.000000000000 	  2.013328911190 	
Mg	  7.166301287357 	  0.000000000000 	  4.993328911190 	
Mg	  6.166301287357 	  3.980000000000 	  2.013328911190 	
Mg	  7.166301287357 	  3.980000000000 	  4.993328911190 	
Mg	  0.086486188083 	  2.099815099273 	  2.013328911190 	
Mg	  1.086486188083 	  2.099815099273 	  4.993328911190 	
Mg	  0.086486188083 	  6.079815099273 	  2.013328911190 	
Mg	  1.086486188083 	  6.079815099273 	  4.993328911190 	
Mg	  4.066486188083 	  2.099815099273 	  2.013328911190 	
Mg	  5.066486188083 	  2.099815099273 	  4.993328911190 	
Mg	  4.066486188083 	  6.079815099273 	  2.013328911190 	
Mg	  5.066486188083 	  6.079815099273 	  4.993328911190 	
O	  2.099815099273 	  0.000000000000 	  0.000000000000 	
O	  3.099815099273 	  0.000000000000 	  2.980000000000 	
O	  2.099815099273 	  3.980000000000 	  0.000000000000 	
O	  3.099815099273 	  3.980000000000 	  2.980000000000 	
O	  6.079815099273 	  0.000000000000 	  0.000000000000 	
O	  7.079815099273 	  0.000000000000 	  2.980000000000 	
O	  6.079815099273 	  3.980000000000 	  0.000000000000 	
O	  7.079815099273 	  3.980000000000 	  2.980000000000 	
O	  0.000000000000 	  2.099815099273 	  0.000000000000 	
O	  1.000000000000 	  2.099815099273 	  2.980000000000 	
O	  0.000000000000 	  6.079815099273 	  0.000000000000 	
O	  1.000000000000 	  6.079815099273 	  2.980000000000 	
O	  3.980000000000 	  2.099815099273 	  0.000000000000 	
O	  4.980000000000 	  2.099815099273 	  2.980000000000 	
O	  3.980000000000 	  6.079815099273 	  0.000000000000 	
O	  4.980000000000 	  6.079815099273 	  2.980000000000 	
O	  0.086486188083 	  0.000000000000 	  2.013328911190 	
O	  1.086486188083 	  0.000000000000 	  4.993328911190 	
O	  0.086486188083 	  3.980000000000 	  2.013328911190 	
O	  1.086486188083 	  3.980000000000 	  4.993328911190 	
O	  4.066486188083 	  0.000000000000 	  2.013328911190 	
O	  5.066486188083 	  0.000000000000 	  4.993328911190 	
O	  4.066486188083 	  3.980000000000 	  2.013328911190 	
O	  5.066486188083 	  3.980000000000 	  4.993328911190 	
O	  2.255490237823 	  1.986172248132 	  2.013328911190 	
O	  3.255490237823 	  1.986172248132 	  4.993328911190 	
O	  2.255490237823 	  5.966172248132 	  2.013328911190 	
O	  3.255490237823 	  5.966172248132 	  4.993328911190 	
O	  6.235490237823 	  1.986172248132 	  2.013328911190 	
O	  7.235490237823 	  1.986172248132 	  4.993328911190 	
O	  6.235490237823 	  5.966172248132 	  2.013328911190 	
O	  7.235490237823 	  5.966172248132 	  4.993328911190 	
64 
Energy: 1.1042631989306295e+00 
Mg	  0.000000000000 	  0.000000000000 	  0.000000000000 	
Mg	  1.000000000000 	  0.000000000000 	  2.980000000000 	
Mg	  0.000000000000 	  3.980000000000 	  0.000000000000 	
Mg	  1.000000000000 	  3.980000000000 	  2.980000000000 	
Mg	  3.980000000000 	  0.000000000000 	  0.000000000000 	
Mg	  4.980000000000 	  0.000000000000 	  2.980000000000 	
Mg	  3.980000000000 	  3.980000000000 	  0.000000000000 	
Mg	  4.980000000000 	  3.980000000000 	  2.980000000000 	
Mg	  2.073647201877 	  2.085173881458 	  0.000000000000 	
Mg	  3.073647201877 	  2.085173881458 	  2.980000000000 	
Mg	  2.073647201877 	  6.065173881458 	  0.000000000000 	
Mg	  3.073647201877 	  6.065173881458 	  2.980000000000 	
Mg	  6.053647201877 	  2.085173881458 	  0.000000000000 	
Mg	  7.053647201877 	  2.085173881458 	  2.980000000000 	
Mg	  6.053647201877 	  6.065173881458 	  0.000000000000 	
Mg	  7.053647201877 	  6.065173881458 	  2.980000000000 	
Mg	  2.165860638524 	  0.000000000000 	  2.050593842715 	
Mg	  3.165860638524 	  0.000000000000 	  5.030593842715 	
Mg	  2.165860638524 	  3.980000000000 	  2.050593842715 	
Mg	  3.165860638524 	  3.980000000000 	  5.030593842715 	
Mg	  6.145860638524 	  0.000000000000 	  2.050593842715 	
Mg	  7.145860638524 	  0.000000000000 	  5.030593842715 	
Mg	  6.145860638524 	  3.980000000000 	  2.050593842715 	
Mg	  7.145860638524 	  3.980000000000 	  5.030593842715 	
Mg	  0.057633397905 	  2.108227240620 	  2.050593842715 	
Mg	  1.057633397905 	  2.108227240620 	  5.030593842715 	
Mg	  0.057633397905 	  6.088227240620 	  2.050593842715 	
Mg	  1.057633397905 	  6.088227240620 	  5.030593842715 	
Mg	  4.037633397905 	  2.108227240620 	  2.050593842715 	
Mg	  5.037633397905 	  2.108227240620 	  5.030593842715 	
Mg	  4.037633397905 	  6.088227240620 	  2.050593842715 	
Mg	  5.037633397905 	  6.088227240620 	  5.030593842715 	
O	  2.108227240620 	  0.000000000000 	  0.000000000000 	
O	  3.108227240620 	  0.000000000000 	  2.980000000000 	
O	  2.108227240620 	  3.980000000000 	  0.000000000000 	
O	  3.108227240620 	  3.980000000000 	  2.980000000000 	
O	  6.088227240620 	  0.000000000000 	  0.000000000000 	
O	  7.088227240620 	  0.000000000000 	  2.980000000000 	
O	  6.088227240620 	  3.980000000000 	  0.000000000000 	
O	  7.088227240620 	  3.980000000000 	  2.980000000000 	
O	  0.000000000000 	  2.108227240620 	  0.000000000000 	
O	  1.000000000000 	  2.108227240620 	  2.980000000000 	
O	  0.000000000000 	  6.088227240620 	  0.000000000000 	
O	  1.000000000000 	  6.088227240620 	  2.980000000000 	
O	  3.980000000000 	  2.108227240620 	  0.000000000000 	
O	  4.980000000000 	  2.108227240620 	  2.980000000000 	
O	  3.980000000000 	  6.088227240620 	  0.000000000000 	
O	  4.980000000000 	  6.088227240620 	  2.980000000000 	
O	  0.057633397905 	  0.000000000000 	  2.050593842715 	
O	  1.057633397905 	  0.000000000000 	  5.030593842715 	
O	  0.057633397905 	  3.980000000000 	  2.050593842715 	
O	  1.057633397905 	  3.980000000000 	  5.030593842715 	
O	  4.037633397905 	  0.000000000000 	  2.050593842715 	
O	  5.037633397905 	  0.000000000000 	  5.030593842715 	
O	  4.037633397905 	  3.980000000000 	  2.050593842715 	
O	  5.037633397905 	  3.980000000000 	  5.030593842715 	
O	  2.211967356848 	  2.032496955773 	  2.050593842715 	
O	  3.211967356848 	  2.032496955773 	  5.030593842715 	
O	  2.211967356848 	  6.012496955773 	  2.050593842715 	
O	  3.211967356848 	  6.012496955773 	  5.030593842715 	
O	  6.191967356848 	  2.032496955773 	  2.050593842715 	
O	  7.191967356848 	  2.032496955773 	  5.030593842715 	
O	  6.191967356848 	  6.012496955773 	  2.050593842715 	
O	  7.191967356848 	  6.012496955773 	  5.030593842715 	
64 
Energy: 3.2549905184418676e-01 
Mg	  0.000000000000 	  0.000000000000 	  0.000000000000 	
Mg	  1.000000000000 	  0.000000000000 	  2.980000000000 	
Mg	  0.000000000000 	  3.980000000000 	  0.000000000000 	
Mg	  1.000000000000 	  3.980000000000 	  2.980000000000 	
Mg	  3.980000000000 	  0.000000000000 	  0.000000000000 	
Mg	  4.980000000000 	  0.000000000000 	  2.980000000000 	
Mg	  3.980000000000 	  3.980000000000 	  0.000000000000 	
Mg	  4.980000000000 	  3.980000000000 	  2.980000000000 	
Mg	  2.099340007552 	  2.105101014679 	  0.000000000000 	
Mg	  3.099340007552 	  2.105101014679 	  2.980000000000 	
Mg	  2.099340007552 	  6.085101014679 	  0.000000000000 	
Mg	  3.099340007552 	  6.085101014679 	  2.980000000000 	
Mg	  6.079340007552 	  2.105101014679 	  0.000000000000 	
Mg	  7.079340007552 	  2.105101014679 	  2.980000000000 	
Mg	  6.079340007552 	  6.085101014679 	  0.000000000000 	
Mg	  7.079340007552 	  6.085101014679 	  2.980000000000 	
Mg	  2.145428064564 	  0.000000000000 	  2.087817993299 	
Mg	  3.145428064564 	  0.000000000000 	  5.067817993299 	
Mg	  2.145428064564 	  3.980000000000 	  2.087817993299 	
Mg	  3.145428064564 	  3.980000000000 	  5.067817993299 	
Mg	  6.125428064564 	  0.000000000000 	  2.087817993299 	
Mg	  7.125428064564 	  0.000000000000 	  5.067817993299 	
Mg	  6.125428064564 	  3.980000000000 	  2.087817993299 	
Mg	  7.125428064564 	  3.980000000000 	  5.067817993299 	
Mg	  0.028805035633 	  2.116623028932 	  2.087817993299 	
Mg	  1.028805035633 	  2.116623028932 	  5.067817993299 	
Mg	  0.028805035633 	  6.096623028932 	  2.087817993299 	
Mg	  1.028805035633 	  6.096623028932 	  5.067817993299 	
Mg	  4.008805035633 	  2.116623028932 	  2.087817993299 	
Mg	  5.008805035633 	  2.116623028932 	  5.067817993299 	
Mg	  4.008805035633 	  6.096623028932 	  2.087817993299 	
Mg	  5.008805035633 	  6.096623028932 	  5.067817993299 	
O	  2.116623028932 	  0.000000000000 	  0.000000000000 	
O	  3.116623028932 	  0.000000000000 	  2.980000000000 	
O	  2.116623028932 	  3.980000000000 	  0.000000000000 	
O	  3.116623028932 	  3.980000000000 	  2.980000000000 	
O	  6.096623028932 	  0.000000000000 	  0.000000000000 	
O	  7.096623028932 	  0.000000000000 	  2.980000000000 	
O	  6.096623028932 	  3.980000000000 	  0.000000000000 	
O	  7.096623028932 	  3.980000000000 	  2.980000000000 	
O	  0.000000000000 	  2.116623028932 	  0.000000000000 	
O	  1.000000000000 	  2.116623028932 	  2.980000000000 	
O	  0.000000000000 	  6.096623028932 	  0.000000000000 	
O	  1.000000000000 	  6.096623028932 	  2.980000000000 	
O	  3.980000000000 	  2.116623028932 	  0.000000000000 	
O	  4.980000000000 	  2.116623028932 	  2.980000000000 	
O	  3.980000000000 	  6.096623028932 	  0.000000000000 	
O	  4.980000000000 	  6.096623028932 	  2.980000000000 	
O	  0.028805035633 	  0.000000000000 	  2.087817993299 	
O	  1.028805035633 	  0.000000000000 	  5.067817993299 	
O	  0.028805035633 	  3.980000000000 	  2.087817993299 	
O	  1.028805035633 	  3.980000000000 	  5.067817993299 	
O	  4.008805035633 	  0.000000000000 	  2.087817993299 	
O	  5.008805035633 	  0.000000000000 	  5.067817993299 	
O	  4.008805035633 	  3.980000000000 	  2.087817993299 	
O	  5.008805035633 	  3.980000000000 	  5.067817993299 	
O	  2.168472093071 	  2.078773212111 	  2.087817993299 	
O	  3.168472093071 	  2.078773212111 	  5.067817993299 	
O	  2.168472093071 	  6.058773212111 	  2.087817993299 	
O	  3.168472093071 	  6.058773212111 	  5.067817993299 	
O	  6.148472093071 	  2.078773212111 	  2.087817993299 	
O	  7.148472093071 	  2.078773212111 	  5.067817993299 	
O	  6.148472093071 	  6.058773212111 	  2.087817993299 	
O	  7.148472093071 	  6.058773212111 	  5.067817993299 	
64 
Energy: 0.0000000000000000e+00 
Mg	  0.000000000000 	  0.000000000000 	  0.000000000000 	
Mg	  1.000000000000 	  0.000000000000 	  2.980000000000 	
Mg	  0.000000000000 	  3.980000000000 	  0.000000000000 	
Mg	  1.000000000000 	  3.980000000000 	  2.980000000000 	
Mg	  3.980000000000 	  0.000000000000 	  0.000000000000 	
Mg	  4.980000000000 	  0.000000000000 	  2.980000000000 	
Mg	  3.980000000000 	  3.980000000000 	  0.000000000000 	
Mg	  4.980000000000 	  3.980000000000 	  2.980000000000 	
Mg	  2.125000000000 	  2.125000000000 	  0.000000000000 	
Mg	  3.125000000000 	  2.125000000000 	  2.980000000000 	
Mg	  2.125000000000 	  6.105000000000 	  0.000000000000 	
Mg	  3.125000000000 	  6.105000000000 	  2.980000000000 	
Mg	  6.105000000000 	  2.125000000000 	  0.000000000000 	
Mg	  7.105000000000 	  2.125000000000 	  2.980000000000 	
Mg	  6.105000000000 	  6.105000000000 	  0.000000000000 	
Mg	  7.105000000000 	  6.105000000000 	  2.980000000000 	
Mg	  2.125000000000 	  0.000000000000 	  2.125000000000 	
Mg	  3.125000000000 	  0.000000000000 	  5.105000000000 	
Mg	  2.125000000000 	  3.980000000000 	  2.125000000000 	
Mg	  3.125000000000 	  3.980000000000 	  5.105000000000 	
Mg	  6.105000000000 	  0.000000000000 	  2.125000000000 	
Mg	  7.105000000000 	  0.000000000000 	  5.105000000000 	
Mg	  6.105000000000 	  3.980000000000 	  2.125000000000 	
Mg	  7.105000000000 	  3.980000000000 	  5.105000000000 	
Mg	  0.000000000000 	  2.125000000000 	  2.125000000000 	
Mg	  1.000000000000 	  2.125000000000 	  5.105000000000 	
Mg	  0.000000000000 	  6.105000000000 	  2.125000000000 	
Mg	  1.000000000000 	  6.105000000000 	  5.105000000000 	
Mg	  3.980000000000 	  2.125000000000 	  2.125000000000 	
Mg	  4.980000000000 	  2.125000000000 	  5.105000000000 	
Mg	  3.980000000000 	  6.105000000000 	  2.125000000000 	
Mg	  4.980000000000 	  6.105000000000 	  5.105000000000 	
O	  2.125000000000 	  0.000000000000 	  0.000000000000 	
O	  3.125000000000 	  0.000000000000 	  2.980000000000 	
O	  2.125000000000 	  3.980000000000 	  0.000000000000 	
O	  3.125000000000 	  3.980000000000 	  2.980000000000 	
O	  6.105000000000 	  0.000000000000 	  0.000000000000 	
O	  7.105000000000 	  0.000000000000 	  2.980000000000 	
O	  6.105000000000 	  3.980000000000 	  0.000000000000 	
O	  7.105000000000 	  3.980000000000 	  2.980000000000 	
O	  0.000000000000 	  2.125000000000 	  0.000000000000 	
O	  1.000000000000 	  2.125000000000 	  2.980000000000 	
O	  0.000000000000 	  6.105000000000 	  0.000000000000 	
O	  1.000000000000 	  6.105000000000 	  2.980000000000 	
O	  3.980000000000 	  2.125000000000 	  0.000000000000 	
O	  4.980000000000 	  2.125000000000 	  2.980000000000 	
O	  3.980000000000 	  6.105000000000 	  0.000000000000 	
O	  4.980000000000 	  6.105000000000 	  2.980000000000 	
O	  0.000000000000 	  0.000000000000 	  2.125000000000 	
O	  1.000000000000 	  0.000000000000 	  5.105000000000 	
O	  0.000000000000 	  3.980000000000 	  2.125000000000 	
O	  1.000000000000 	  3.980000000000 	  5.105000000000 	
O	  3.980000000000 	  0.000000000000 	  2.125000000000 	
O	  4.980000000000 	  0.000000000000 	  5.105000000000 	
O	  3.980000000000 	  3.980000000000 	  2.125000000000 	
O	  4.980000000000 	  3.980000000000 	  5.105000000000 	
O	  2.125000000000 	  2.125000000000 	  2.125000000000 	
O	  3.125000000000 	  2.125000000000 	  5.105000000000 	
O	  2.125000000000 	  6.105000000000 	  2.125000000000 	
O	  3.125000000000 	  6.105000000000 	  5.105000000000 	
O	  6.105000000000 	  2.125000000000 	  2.125000000000 	
O	  7.105000000000 	  2.125000000000 	  5.105000000000 	
O	  6.105000000000 	  6.105000000000 	  2.125000000000 	
O	  7.105000000000 	  6.105000000000 	  5.105000000000 	
