  Invoking FHI-aims ...
  | Number of atoms                   :  96
  ...scf iterations...
  | Total energy corrected        :   -1.010437172699E+02 eV
  ...
  Total atomic forces (unitary forces cleaned)
     1  -3.0689964693E-01  6.1249778273E-01  1.8535090050E-01
     2  2.3171748820E-01  5.7972029661E-01  -1.8292623578E-01
     3  3.0689963875E-01  -6.1249766995E-01  -1.8535086321E-01
     4  -2.3171733935E-01  -5.7972019732E-01  1.8292630537E-01
     5  -8.1091484718E-01  1.3785260038E+00  1.2952296015E-01
     6  1.0057611790E+00  -1.3460647030E+00  1.9915395757E+00
     7  8.1091550571E-01  -1.3785258357E+00  -1.2952232331E-01
     8  -1.0057611605E+00  1.3460645479E+00  -1.9915392388E+00
     9  -4.6157234581E-01  2.9542354823E-01  -2.0221690018E-01
    10  2.6549894259E-01  -2.6321231200E-01  1.7717064039E-01
    11  4.6157170793E-01  -2.9542373541E-01  2.0221630953E-01
    12  -2.6549876196E-01  2.6321293638E-01  -1.7717082264E-01
    13  -5.6924493439E-01  -1.0936748902E+00  -1.1368162437E+00
    14  7.0321072030E-01  -6.2729051257E-01  1.2034495234E+00
    15  5.6924417786E-01  1.0936751589E+00  1.1368159230E+00
    16  -7.0321143208E-01  6.2729017908E-01  -1.2034490179E+00
    17  4.0082175351E-01  -5.2531645118E-01  -3.0251896782E-02
    18  -7.5007749134E-01  2.5449008605E-01  -5.3780636649E-01
    19  -4.0082102163E-01  5.2531652706E-01  3.0252456182E-02
    20  7.5007773010E-01  -2.5449062740E-01  5.3780639118E-01
    21  7.3022774643E-01  -1.3237315929E+00  -2.3809932587E-01
    22  -6.7717933295E-01  -1.4138769688E+00  3.5867747719E-01
    23  -7.3022823329E-01  1.3237318390E+00  2.3809898773E-01
    24  6.7717941840E-01  1.4138771448E+00  -3.5867757196E-01
    25  9.5432528089E-01  9.7166279802E-02  7.6892019237E-01
    26  -4.5236677111E-01  -7.6033472401E-01  -4.5545586825E-02
    27  -9.5432968493E-01  -9.7166487387E-02  -7.6892318136E-01
    28  4.5236726392E-01  7.6033561124E-01  4.5545081168E-02
    29  5.2076960750E-01  2.9508700467E-01  5.9081508583E-01
    30  -4.5869897186E-01  3.9628940535E-01  -6.3186705790E-01
    31  -5.2076937466E-01  -2.9508712866E-01  -5.9081533285E-01
    32  4.5869821728E-01  -3.9628974286E-01  6.3186674301E-01
    33  2.4168536256E-01  1.1681688492E+00  1.0480185409E+00
    34  -2.2961847980E-01  1.2331685127E+00  -1.0379305934E+00
    35  -2.4168493189E-01  -1.1681689894E+00  -1.0480181533E+00
    36  2.2961875345E-01  -1.2331688109E+00  1.0379304846E+00
    37  -7.2156422985E-01  3.9985386585E-01  -2.6996271436E-01
    38  7.5422508350E-01  4.8311702995E-01  2.1321204989E-01
    39  7.2156434302E-01  -3.9985413577E-01  2.6996285507E-01
    40  -7.5422498434E-01  -4.8311755978E-01  -2.1321150222E-01
    41  -9.9722147715E-01  1.2798585516E+00  8.9216530466E-02
    42  1.0130497731E+00  1.3040683903E+00  -9.0329047590E-02
    43  9.9722134191E-01  -1.2798582337E+00  -8.9216352604E-02
    44  -1.0130494143E+00  -1.3040680434E+00  9.0329187990E-02
    45  1.6766233266E+00  1.1907031255E-01  1.5777483148E+00
    46  -4.6255035100E+00  -7.3446700088E-01  -3.8012752763E+00
    47  -1.6765718122E+00  -1.1906740851E-01  -1.5777026922E+00
    48  4.6255112769E+00  7.3447663591E-01  3.8012549430E+00
    49  -2.1640965296E+00  -1.0384685113E-03  -1.3147936001E-01
    50  1.0125092072E+00  -3.2959021154E-01  -2.5887032073E+00
    51  2.1640351677E+00  1.0434299824E-03  1.3148141008E-01
    52  -1.0124988894E+00  3.2959618069E-01  2.5887295474E+00
    53  -5.5253589408E-02  -1.2822559322E+00  -4.8216606992E-01
    54  1.2612439454E+00  1.0138049153E+00  -4.7097290258E-01
    55  5.5276111710E-02  1.2822472276E+00  4.8214566801E-01
    56  -1.2612337346E+00  -1.0138062445E+00  4.7096554886E-01
    57  1.2222328462E+00  -1.9533991801E-01  1.0506095389E+00
    58  1.5507448170E+00  5.4146129559E-01  2.5822263462E+00
    59  -1.2222251064E+00  1.9533806209E-01  -1.0506062193E+00
    60  -1.5507545873E+00  -5.4146151309E-01  -2.5822365811E+00
    61  -3.0624463198E-02  1.4810055936E+00  -2.2695015188E-02
    62  -2.2502935367E+00  -2.6525704102E+00  1.9309418014E+00
    63  3.0650383601E-02  -1.4809971511E+00  2.2675287892E-02
    64  2.2502824572E+00  2.6525600171E+00  -1.9309312788E+00
    65  -5.7171906678E-01  3.1462865131E-02  -1.3211605274E-01
    66  3.7496785868E+00  6.5946953991E-01  -3.1174553382E-01
    67  5.7170495813E-01  -3.1470027794E-02  1.3210218452E-01
    68  -3.7496878899E+00  -6.5947670509E-01  3.1175136013E-01
    69  -6.6957142085E-01  -1.0299553300E+00  5.6177263132E-01
    70  1.0032190134E+00  -1.1746896874E+00  -1.0394852023E+00
    71  6.6957644940E-01  1.0299713545E+00  -5.6176598487E-01
    72  -1.0032183273E+00  1.1746886017E+00  1.0394846678E+00
    73  6.7482683760E-01  2.8907489064E-01  -1.5845093669E+00
    74  -1.1223010056E+00  3.9848064431E-01  2.1517333747E+00
    75  -6.7482798237E-01  -2.8906942572E-01  1.5845211575E+00
    76  1.1223009089E+00  -3.9847727260E-01  -2.1517388395E+00
    77  9.3964070312E-01  -2.8419070964E-01  4.6815172116E-01
    78  -1.2088804251E+00  -3.4308061437E-01  -6.9952564742E-01
    79  -9.3964852302E-01  2.8419147859E-01  -4.6815728700E-01
    80  1.2088822705E+00  3.4308121280E-01  6.9952636073E-01
    81  -1.0967288544E+00  8.4533351382E-01  -3.6363013854E-01
    82  6.0489569067E-01  1.8740453580E+00  7.7880506000E-01
    83  1.0966998766E+00  -8.4530284232E-01  3.6361755959E-01
    84  -6.0489541960E-01  -1.8740476028E+00  -7.7880732308E-01
    85  1.1159992488E+00  8.8663436615E-02  5.7750437474E-01
    86  -1.2064962824E+00  2.0199077985E-01  -4.7333626359E-01
    87  -1.1160056259E+00  -8.8665579498E-02  -5.7750653197E-01
    88  1.2064953031E+00  -2.0199065063E-01  4.7333602308E-01
    89  4.6166686321E-01  -2.4705923147E-01  -1.5793876307E+00
    90  -5.3836456204E-01  -6.2496139166E-02  1.8645008403E+00
    91  -4.6166238478E-01  2.4704560375E-01  1.5793845609E+00
    92  5.3836456179E-01  6.2498653947E-02  -1.8644994453E+00
    93  -4.8052740847E-01  1.7119085667E-01  8.0628069823E-01
    94  4.9612862074E-01  5.9759706364E-01  -7.4035485787E-01
    95  4.8053431549E-01  -1.7122695933E-01  -8.0627056132E-01
    96  -4.9612897936E-01  -5.9759668695E-01  7.4035641562E-01
  Stress tensor (eV/A^3):
  7.2629218512E-02  -8.9495605833E-03  2.7446645285E-02
  -8.9495605833E-03  6.8854224089E-02  9.5747349260E-03
  2.7446645285E-02  9.5747349260E-03  5.5846423631E-02
