  Invoking FHI-aims ...
  | Number of atoms                   :  96
  ...scf iterations...
  | Total energy corrected        :   -7.565117345015E+01 eV
  ...
  Total atomic forces (unitary forces cleaned)
     1  -2.1547822064E-01  5.9334703083E-01  1.9493239583E-01
     2  2.0906247115E-01  5.8543592782E-01  -1.9748648060E-01
     3  2.1547837839E-01  -5.9334694032E-01  -1.9493229839E-01
     4  -2.0906235938E-01  -5.8543564958E-01  1.9748652476E-01
     5  -8.1082756723E-01  1.2042184115E+00  7.4907457940E-02
     6  8.0573564149E-01  1.1585554380E+00  -2.2996832456E-02
     7  8.1082756219E-01  -1.2042182843E+00  -7.4907361922E-02
     8  -8.0573608746E-01  -1.1585555382E+00  2.2997138535E-02
     9  -1.9403596440E-01  1.7171436154E-01  -1.0899613556E-01
    10  1.4872809122E-01  1.2099089439E-01  1.1339447665E-01
    11  1.9403581363E-01  -1.7171376785E-01  1.0899598800E-01
    12  -1.4872850542E-01  -1.2099130956E-01  -1.1339420632E-01
    13  -3.8465431413E-01  -8.5973645869E-01  -9.0150729121E-01
    14  4.3160484421E-01  -8.0853746167E-01  8.9800182215E-01
    15  3.8465383131E-01  8.5973639496E-01  9.0150699783E-01
    16  -4.3160502356E-01  8.0853790830E-01  -8.9800101436E-01
    17  1.6205324498E+00  -2.4472871773E+00  -2.2502981297E-01
    18  -1.6382561550E+00  -2.4133333946E+00  1.7515612098E-01
    19  -1.6205338656E+00  2.4472909302E+00  2.2502999179E-01
    20  1.6382559598E+00  2.4133337114E+00  -1.7515698462E-01
    21  -7.1165072677E-01  8.4480652709E-01  -6.1525108055E-02
    22  7.1422706267E-01  8.4997536440E-01  5.8870815395E-02
    23  7.1165282063E-01  -8.4480971956E-01  6.1524871343E-02
    24  -7.1422726174E-01  -8.4997557941E-01  -5.8870637628E-02
    25  5.0000035536E-01  -1.7036304492E-02  4.6942258153E-01
    26  -4.8397342659E-01  -5.5519659660E-02  -4.1826309328E-01
    27  -5.0000025679E-01  1.7036016314E-02  -4.6942266978E-01
    28  4.8397422134E-01  5.5519659110E-02  4.1826289844E-01
    29  7.5546735277E-01  1.9448906670E+00  2.0313763831E+00
    30  -7.5555937588E-01  1.9433111943E+00  -2.0299775075E+00
    31  -7.5546809803E-01  -1.9448925611E+00  -2.0313772403E+00
    32  7.5556044766E-01  -1.9433128262E+00  2.0299781333E+00
    33  -2.9722261331E-01  -6.5256564081E-01  -7.4557873563E-01
    34  2.9812681967E-01  -6.5314160653E-01  7.4659412320E-01
    35  2.9722321965E-01  6.5256707383E-01  7.4558005732E-01
    36  -2.9812757295E-01  6.5314297198E-01  -7.4659507863E-01
    37  -1.8023277298E+00  2.3709523480E+00  9.5914441958E-02
    38  1.8014134519E+00  2.3691743119E+00  -9.5323173984E-02
    39  1.8023273384E+00  -2.3709519939E+00  -9.5913814484E-02
    40  -1.8014127722E+00  -2.3691732989E+00  9.5323701658E-02
    41  5.1663919219E-01  -7.6652115671E-01  -1.1887288520E-01
    42  -5.1697369817E-01  -7.6656554110E-01  1.1919340855E-01
    43  -5.1663876042E-01  7.6652053696E-01  1.1887258151E-01
    44  5.1697314699E-01  7.6656472856E-01  -1.1919348595E-01
    45  -6.5807155298E-01  6.8459805958E-02  -4.2534708844E-01
    46  6.3202828394E-01  1.1152664117E-03  4.4012379492E-01
    47  6.5806907417E-01  -6.8459475213E-02  4.2534612171E-01
    48  -6.3202852526E-01  -1.1154712825E-03  -4.4012391911E-01
    49  -2.5516160625E+00  2.7366758306E+00  4.3105083266E+00
    50  2.1347623296E+00  1.9621221688E+00  -4.4795124048E+00
    51  2.5516118298E+00  -2.7366581942E+00  -4.3105077675E+00
    52  -2.1347639493E+00  -1.9621217589E+00  4.4795107269E+00
    53  2.5525303299E+00  1.0522993640E+00  -1.4841548935E+00
    54  -2.4242115635E+00  1.0287729618E+00  1.4289042336E+00
    55  -2.5525224692E+00  -1.0523033005E+00  1.4841506714E+00
    56  2.4242121737E+00  -1.0287733494E+00  -1.4289058599E+00
    57  -9.1498781837E-01  1.5221934042E-01  -8.0196028922E-01
    58  1.1243904526E+00  2.1850883106E-01  9.8636789644E-01
    59  9.1498956030E-01  -1.5221923828E-01  8.0196186412E-01
    60  -1.1243884364E+00  -2.1850845162E-01  -9.8636507290E-01
    61  5.6384939385E-01  -3.0914493397E+00  1.9670842366E-03
    62  -4.7127288135E-01  -2.3550709037E+00  9.0287666594E-03
    63  -5.6385347935E-01  3.0914383390E+00  -1.9643183065E-03
    64  4.7127292911E-01  2.3550702075E+00  -9.0281765417E-03
    65  6.9789972276E-02  -5.0853085088E+00  -3.2790552618E-01
    66  -1.7372647619E-01  -5.1571809297E+00  5.6419939374E-01
    67  -6.9795586975E-02  5.0852996592E+00  3.2790902815E-01
    68  1.7372599045E-01  5.1571785872E+00  -5.6419967433E-01
    69  1.9410468063E+00  1.6152914910E+00  -9.2256524790E-01
    70  -2.0101643323E+00  1.6623187914E+00  9.5070019891E-01
    71  -1.9410419585E+00  -1.6152911561E+00  9.2256070427E-01
    72  2.0101620023E+00  -1.6623168993E+00  -9.5070035676E-01
    73  -5.3143105266E-01  1.2557259323E+00  2.2578072499E+00
    74  6.2598347716E-01  1.3707980944E+00  -2.5809349618E+00
    75  5.3143243960E-01  -1.2557201248E+00  -2.2578023888E+00
    76  -6.2598145695E-01  -1.3707978775E+00  2.5809340453E+00
    77  -8.3341122445E-01  1.0033896907E-01  -6.7206528689E-01
    78  9.2103232656E-01  7.7522566379E-02  7.4856932569E-01
    79  8.3340883318E-01  -1.0033875763E-01  6.7206370370E-01
    80  -9.2103181382E-01  -7.7522529560E-02  -7.4856803735E-01
    81  2.5777386723E+00  3.1096826100E+00  -3.5598514726E+00
    82  -2.5765616158E+00  3.1080457991E+00  3.5585317416E+00
    83  -2.5777336610E+00  -3.1096852596E+00  3.5598364029E+00
    84  2.5765619826E+00  -3.1080414929E+00  -3.5585365757E+00
    85  -9.6421914102E-01  2.2978844440E-02  -5.6004619519E-01
    86  9.6552813619E-01  2.2894588235E-02  5.5970113652E-01
    87  9.6421875738E-01  -2.2978545724E-02  5.6004566122E-01
    88  -9.6552834112E-01  -2.2894871260E-02  -5.5970056868E-01
    89  -5.9957259481E-01  8.5976460662E-01  2.6517529332E+00
    90  5.9993424330E-01  8.5905975380E-01  -2.6527778842E+00
    91  5.9957151414E-01  -8.5975690421E-01  -2.6517457814E+00
    92  -5.9993431289E-01  -8.5906179254E-01  2.6527804555E+00
    93  5.4002838965E-01  -2.9548632203E+00  4.5898645372E-01
    94  -5.3961629371E-01  -2.9548557204E+00  -4.6031082516E-01
    95  -5.4002906577E-01  2.9548565642E+00  -4.5898074835E-01
    96  5.3961564895E-01  2.9548545619E+00  4.6031233783E-01
  Stress tensor (eV/A^3):
  1.9038555350E-02  -5.3141796812E-05  2.7327057501E-02
  -5.3141796812E-05  9.7379955305E-03  3.0227633531E-04
  2.7327057501E-02  3.0227633531E-04  1.6345926184E-02
