  Invoking FHI-aims ...
  | Number of atoms                   :  96
  ...scf iterations...
  | Total energy corrected        :   -8.015307134179E+01 eV
  ...
  Total atomic forces (unitary forces cleaned)
     1  -2.4724964764E-01  5.8205797260E-01  1.8278325642E-01
     2  2.3044345948E-01  5.6776710757E-01  -1.8858146700E-01
     3  2.4724959162E-01  -5.8205790211E-01  -1.8278325195E-01
     4  -2.3044336379E-01  -5.6776710692E-01  1.8858157960E-01
     5  -8.8564286165E-01  1.2089239485E+00  1.2313280408E-01
     6  8.8261550210E-01  1.1785131440E+00  -7.4281737293E-02
     7  8.8564354426E-01  -1.2089237753E+00  -1.2313219758E-01
     8  -8.8261533859E-01  -1.1785133217E+00  7.4281937828E-02
     9  -2.5902731049E-01  1.4211189041E-01  -1.2662918168E-01
    10  2.1108673658E-01  9.6843148700E-02  1.3041380580E-01
    11  2.5902668209E-01  -1.4211224951E-01  1.2662877124E-01
    12  -2.1108696306E-01  -9.6842854352E-02  -1.3041405873E-01
    13  -4.3120939353E-01  -9.6534224365E-01  -9.0412384194E-01
    14  4.8723336685E-01  -9.1982564867E-01  9.0602492951E-01
    15  4.3120878566E-01  9.6534250238E-01  9.0412361866E-01
    16  -4.8723356172E-01  9.1982562592E-01  -9.0602483632E-01
    17  8.6489907942E-01  -1.1639447380E+00  -9.7147244353E-02
    18  -9.0308615630E-01  -1.1366919551E+00  4.3004400994E-02
    19  -8.6489875175E-01  1.1639450689E+00  9.7147655140E-02
    20  9.0308631303E-01  1.1366921425E+00  -4.3004756125E-02
    21  9.2499215696E-02  -4.5419759584E-01  -1.1301332074E-01
    22  -7.9836192612E-02  -4.3278867852E-01  1.0762891558E-01
    23  -9.2499275940E-02  4.5419751627E-01  1.1301325409E-01
    24  7.9836242606E-02  4.3278860396E-01  -1.0762901272E-01
    25  6.6947588747E-01  6.9397042621E-02  4.5132769461E-01
    26  -6.5094676586E-01  2.0271372262E-02  -3.9769988007E-01
    27  -6.6947612958E-01  -6.9397518734E-02  -4.5132800163E-01
    28  6.5094698068E-01  -2.0270980867E-02  3.9769979684E-01
    29  5.0995098383E-01  9.7575070838E-01  1.0346862301E+00
    30  -5.0712486099E-01  9.7765861335E-01  -1.0335120196E+00
    31  -5.0995073703E-01  -9.7575039501E-01  -1.0346863983E+00
    32  5.0712418294E-01  -9.7765897075E-01  1.0335118203E+00
    33  -4.4806335196E-02  4.2575927640E-01  3.0553734449E-01
    34  4.5339112462E-02  4.2453433280E-01  -3.0457479411E-01
    35  4.4806438482E-02  -4.2575939571E-01  -3.0553743721E-01
    36  -4.5339158325E-02  -4.2453435786E-01  3.0457476285E-01
    37  -1.1232246891E+00  1.1146128510E+00  -2.3164525497E-02
    38  1.1209171737E+00  1.1159679359E+00  2.1114902496E-02
    39  1.1232245134E+00  -1.1146127011E+00  2.3164750014E-02
    40  -1.1209165748E+00  -1.1159680380E+00  -2.1114492453E-02
    41  -3.6026451121E-01  4.3374295098E-01  8.5839846873E-03
    42  3.5895467899E-01  4.3272462638E-01  -8.3321834681E-03
    43  3.6026468160E-01  -4.3374306804E-01  -8.5840110205E-03
    44  -3.5895472003E-01  -4.3272475870E-01  8.3322152798E-03
    45  -1.4240191607E+00  4.8504854036E-02  -9.0591913936E-01
    46  1.3474897282E+00  -5.1307708983E-02  8.2392370549E-01
    47  1.4240153140E+00  -4.8505204355E-02  9.0591648293E-01
    48  -1.3474894698E+00  5.1307963866E-02  -8.2392403720E-01
    49  -2.8567588338E+00  -1.9601692946E+00  3.4312184996E+00
    50  6.5898644311E+00  1.3757305296E+00  -6.6122741915E+00
    51  2.8567118755E+00  1.9601523862E+00  -3.4312030682E+00
    52  -6.5898660055E+00  -1.3757262415E+00  6.6122727983E+00
    53  8.3310238925E-01  1.5319460216E+00  -1.3585377830E-01
    54  -7.4884757538E-01  1.4845834413E+00  1.1743584141E-01
    55  -8.3308525349E-01  -1.5319133485E+00  1.3585516430E-01
    56  7.4884974005E-01  -1.4845881680E+00  -1.1743599442E-01
    57  2.1525854815E-01  -2.1404696909E-02  8.8831953140E-02
    58  2.0008229185E-01  4.4271729612E-02  2.5856326902E-01
    59  -2.1525309374E-01  2.1403820807E-02  -8.8827429555E-02
    60  -2.0008234781E-01  -4.4271944437E-02  -2.5856323100E-01
    61  1.0033946869E+00  -6.3209007366E-01  -7.9171594445E-01
    62  -5.2452888676E+00  -3.9266108341E+00  3.7713825544E+00
    63  -1.0033714585E+00  6.3207253743E-01  7.9169895901E-01
    64  5.2452882799E+00  3.9266108445E+00  -3.7713806970E+00
    65  2.1139308111E+00  -2.4487016016E+00  -1.8904319970E+00
    66  -2.3279107916E+00  -2.0013256480E+00  3.3019316491E+00
    67  -2.1139335845E+00  2.4486872463E+00  1.8904181131E+00
    68  2.3279066971E+00  2.0013331313E+00  -3.3019222648E+00
    69  2.3064469855E-01  5.6893372327E-01  2.9877664443E-01
    70  -2.5801570862E-01  6.2319646349E-01  -2.9108892549E-01
    71  -2.3064061254E-01  -5.6892023792E-01  -2.9877424335E-01
    72  2.5801682748E-01  -6.2320075099E-01  2.9108910762E-01
    73  -8.2046782931E-02  1.0312649310E-01  3.0917324566E-01
    74  4.4353724290E-01  -3.2741418837E-01  -1.7431028985E+00
    75  8.2045470425E-02  -1.0312802335E-01  -3.0916594782E-01
    76  -4.4353490450E-01  3.2741133905E-01  1.7430940831E+00
    77  -2.7314491587E-02  -2.1070551539E-02  -2.1293497802E-02
    78  -1.5107557059E-02  -3.6100339324E-02  -1.0021115356E-02
    79  2.7317558254E-02  2.1070326863E-02  2.1295049872E-02
    80  1.5107337948E-02  3.6100227194E-02  1.0021003621E-02
    81  2.6571873334E-01  4.4256472152E+00  3.8482742501E-01
    82  -2.6468575459E-01  4.4202217258E+00  -3.8470000220E-01
    83  -2.6574504137E-01  -4.4256092505E+00  -3.8481833698E-01
    84  2.6468505292E-01  -4.4202245154E+00  3.8469781641E-01
    85  1.7265425997E-01  -9.8855459319E-03  9.9777228212E-02
    86  -1.7142399545E-01  -1.4500875128E-02  -1.0178310228E-01
    87  -1.7264871594E-01  9.8857730441E-03  -9.9774141256E-02
    88  1.7142395450E-01  1.4500850293E-02  1.0178320971E-01
    89  -5.8780895017E-02  -4.7565046982E-01  5.1608946639E-01
    90  5.9089109818E-02  -4.7871569227E-01  -5.2067406656E-01
    91  5.8779980856E-02  4.7564513923E-01  -5.1608102066E-01
    92  -5.9089334594E-02  4.7871679868E-01  5.2067608261E-01
    93  9.3353849286E-01  -1.0982783133E+00  -6.1543523390E-01
    94  -9.3564969088E-01  -1.1020472653E+00  6.1602112667E-01
    95  -9.3351466560E-01  1.0982508412E+00  6.1541568754E-01
    96  9.3565122635E-01  1.1020492334E+00  -6.1602164269E-01
  Stress tensor (eV/A^3):
  5.0150041385E-02  -5.3375133922E-03  2.9802178794E-02
  -5.3375133922E-03  4.5122404569E-02  2.6623160968E-03
  2.9802178794E-02  2.6623160968E-03  3.7640373617E-02
