  Invoking FHI-aims ...
  | Number of atoms                   :  96
  ...scf iterations...
  | Total energy corrected        :   -8.172704923194E+01 eV
  ...
  Total atomic forces (unitary forces cleaned)
     1  -2.5435870605E-01  5.8370249435E-01  1.8192145860E-01
     2  2.2937361517E-01  5.6491918108E-01  -1.8804925740E-01
     3  2.5435864538E-01  -5.8370241930E-01  -1.8192145420E-01
     4  -2.2937352066E-01  -5.6491918161E-01  1.8804936950E-01
     5  -8.8160882496E-01  1.2990397553E+00  1.6500845082E-01
     6  8.8876161063E-01  1.3442650070E+00  -2.1482777173E-01
     7  8.8160954295E-01  -1.2990395785E+00  -1.6500781458E-01
     8  -8.8876143426E-01  -1.3442651858E+00  2.1482798262E-01
     9  -2.8252487454E-01  1.5180909578E-01  -1.3692991720E-01
    10  3.4667121749E-01  2.0436668563E-01  1.3042386159E-01
    11  2.8252422009E-01  -1.5180948490E-01  1.3692946815E-01
    12  -3.4667144231E-01  -2.0436637564E-01  -1.3042412977E-01
    13  -4.5024858198E-01  -9.8432406720E-01  -9.2990724884E-01
    14  3.9749025192E-01  -1.0400890020E+00  9.4766303073E-01
    15  4.5024793705E-01  9.8432433707E-01  9.2990700915E-01
    16  -3.9749046594E-01  1.0400889809E+00  -9.4766294499E-01
    17  7.0283518260E-01  -9.3998623196E-01  -7.2646051093E-02
    18  -7.0458005546E-01  -1.0032956397E+00  1.3302263680E-01
    19  -7.0283480463E-01  9.3998654464E-01  7.2646484344E-02
    20  7.0458018446E-01  1.0032957072E+00  -1.3302297834E-01
    21  2.7713787312E-01  -7.0054452786E-01  -1.3382098483E-01
    22  -2.6699090574E-01  -6.9195628759E-01  1.3685581439E-01
    23  -2.7713795295E-01  7.0054448645E-01  1.3382093204E-01
    24  2.6699098660E-01  6.9195632428E-01  -1.3685593026E-01
    25  7.2718292742E-01  7.4573216931E-02  4.9475699618E-01
    26  -7.4523144760E-01  1.2000449313E-01  -5.5688338921E-01
    27  -7.2718311852E-01  -7.4573730568E-02  -4.9475729440E-01
    28  7.4523168954E-01  -1.2000406554E-01  5.5688331174E-01
    29  4.8095416202E-01  7.6265566079E-01  8.6894426486E-01
    30  -4.7122887753E-01  7.7432122949E-01  -8.6144311923E-01
    31  -4.8095393669E-01  -7.6265545706E-01  -8.6894453113E-01
    32  4.7122813007E-01  -7.7432158738E-01  8.6144290036E-01
    33  1.2443346360E-02  6.5462474324E-01  5.0107336032E-01
    34  -1.1639203126E-02  6.5412480805E-01  -4.9975068658E-01
    35  -1.2443218961E-02  -6.5462475076E-01  -5.0107335789E-01
    36  1.1639177699E-02  -6.5412485622E-01  4.9975065067E-01
    37  -9.7149129704E-01  8.8896628008E-01  -6.6423001925E-02
    38  9.7057839991E-01  8.9578878083E-01  6.1085479598E-02
    39  9.7149119653E-01  -8.8896626601E-01  6.6423231040E-02
    40  -9.7057788168E-01  -8.9578902198E-01  -6.1085035184E-02
    41  -5.4851279857E-01  6.7339095437E-01  3.4350928894E-02
    42  5.4804359374E-01  6.7271904494E-01  -3.5168863347E-02
    43  5.4851289118E-01  -6.7339091758E-01  -3.4350944457E-02
    44  -5.4804352747E-01  -6.7271905900E-01  3.5168893284E-02
    45  -1.5270715057E+00  5.1664432992E-02  -9.7596907928E-01
    46  1.5372209260E+00  3.4762651951E-03  9.5676891087E-01
    47  1.5270676118E+00  -5.1664766439E-02  9.7596630632E-01
    48  -1.5372207353E+00  -3.4760185493E-03  -9.5676921954E-01
    49  -2.6770275685E+00  -1.7166763279E+00  2.9589565618E+00
    50  5.4052899448E+00  4.9675168541E-01  -6.6055893508E+00
    51  2.6769876603E+00  1.7166619307E+00  -2.9589410729E+00
    52  -5.4052920582E+00  -4.9674867802E-01  6.6055897035E+00
    53  5.6315266057E-01  9.7494617470E-01  -1.8469008101E-01
    54  -6.9630851864E-01  1.2402840570E+00  1.8845060985E-01
    55  -5.6313830604E-01  -9.7491888703E-01  1.8469062763E-01
    56  6.9631056928E-01  -1.2402883915E+00  -1.8845082005E-01
    57  6.5461276036E-01  -7.2645118274E-02  4.5170945928E-01
    58  5.7226677728E-01  9.9013555194E-02  5.6466493622E-01
    59  -6.5460861144E-01  7.2644156823E-02  -4.5170600821E-01
    60  -5.7226752524E-01  -9.9013852733E-02  -5.6466548033E-01
    61  6.1435729860E-01  -3.1274328188E-01  -5.3224141113E-01
    62  -4.4229197988E+00  -2.9346641612E+00  3.1349026695E+00
    63  -6.1433709210E-01  3.1272858573E-01  5.3222646391E-01
    64  4.4229205775E+00  2.9346650578E+00  -3.1349019412E+00
    65  1.7038274540E+00  -2.1515583603E+00  -1.7728374554E+00
    66  -2.1490149117E+00  -1.8442847073E+00  3.5199386217E+00
    67  -1.7038297048E+00  2.1515451021E+00  1.7728241283E+00
    68  2.1490110941E+00  1.8442911517E+00  -3.5199302222E+00
    69  8.4200932089E-02  1.0117619940E-01  2.3903297533E-01
    70  -8.6658221662E-02  1.4656513770E-01  -2.5920608846E-01
    71  -8.4197410362E-02  -1.0116399736E-01  -2.3903069450E-01
    72  8.6659091873E-02  -1.4656899457E-01  2.5920635744E-01
    73  2.1131212227E-02  2.2777920043E-01  -1.2863021576E-01
    74  4.0163744423E-01  -1.4207292677E-01  -1.5606116807E+00
    75  -2.1132687927E-02  -2.2778054161E-01  1.2863712649E-01
    76  -4.0163527359E-01  1.4207075698E-01  1.5606037709E+00
    77  4.9478257856E-01  -4.0862095626E-02  2.9617256273E-01
    78  -5.0582195325E-01  -3.2348179070E-02  -3.0937731780E-01
    79  -4.9477928749E-01  4.0861799394E-02  -2.9617117305E-01
    80  5.0582187733E-01  3.2348081127E-02  3.0937724000E-01
    81  9.4212449534E-02  3.9271180726E+00  2.3335300277E-01
    82  -9.6257985323E-02  3.9427958992E+00  -2.3042641453E-01
    83  -9.4233337165E-02  -3.9270841545E+00  -2.3334656424E-01
    84  9.6257545160E-02  -3.9427986062E+00  2.3042439260E-01
    85  6.9225645998E-01  8.6771177891E-03  3.8266078488E-01
    86  -6.9606433316E-01  1.3039378911E-02  -3.8220317569E-01
    87  -6.9225187336E-01  -8.6768155585E-03  -3.8265833143E-01
    88  6.9606417452E-01  -1.3039362334E-02  3.8220321862E-01
    89  -1.0101487614E-03  -2.6324978382E-01  9.3812943193E-02
    90  1.3912514646E-03  -2.6047656991E-01  -9.6662166029E-02
    91  1.0091886460E-03  2.6324441509E-01  -9.3804639272E-02
    92  -1.3914520863E-03  2.6047779503E-01  9.6664099421E-02
    93  5.6296576492E-01  -7.2211799736E-01  -3.1374161038E-01
    94  -5.6591672509E-01  -7.1832047572E-01  3.1641232373E-01
    95  -5.6294631540E-01  7.2209471629E-01  3.1372549527E-01
    96  5.6591813060E-01  7.1832220902E-01  -3.1641288739E-01
  Stress tensor (eV/A^3):
  6.1016532553E-02  -4.1777886230E-03  3.0140276371E-02
  -4.1777886230E-03  5.7310301668E-02  1.6352912881E-03
  3.0140276371E-02  1.6352912881E-03  4.6637654509E-02
