  Invoking FHI-aims ...
  | Number of atoms                   :  96
  ...scf iterations...
  | Total energy corrected        :   -1.003108485595E+02 eV
  ...
  Total atomic forces (unitary forces cleaned)
     1  -3.1434258836E-01  6.0819457760E-01  1.9034394436E-01
     2  2.3915212473E-01  5.8342098503E-01  -1.8187698203E-01
     3  3.1434254305E-01  -6.0819445560E-01  -1.9034391713E-01
     4  -2.3915201101E-01  -5.8342093222E-01  1.8187706445E-01
     5  -7.9337691766E-01  1.1624041375E+00  -2.9725468770E-02
     6  1.0796269850E+00  -2.0939323088E+00  2.7945329131E+00
     7  7.9337773465E-01  -1.1624039528E+00  2.9726221663E-02
     8  -1.0796268496E+00  2.0939321389E+00  -2.7945325649E+00
     9  -4.7888883484E-01  3.0246068272E-01  -2.0168696467E-01
    10  -3.0079729996E-01  -7.6394231242E-01  1.8803985105E-01
    11  4.7888809674E-01  -3.0246107004E-01  2.0168626435E-01
    12  3.0079724544E-01  7.6394289135E-01  -1.8804023089E-01
    13  -5.7762111338E-01  -1.1180013698E+00  -1.1269228471E+00
    14  1.2848177036E+00  -1.5828179201E-01  1.1872703369E+00
    15  5.7762028243E-01  1.1180016874E+00  1.1269225049E+00
    16  -1.2848182311E+00  1.5828157266E-01  -1.1872699210E+00
    17  4.5063455166E-01  -5.8561589372E-01  -3.0828234821E-02
    18  -1.1069371564E+00  6.7313246135E-01  -1.2134223266E+00
    19  -4.5063385091E-01  5.8561606098E-01  3.0828814067E-02
    20  1.1069374824E+00  -6.7313294830E-01  1.2134223322E+00
    21  7.0271822336E-01  -1.2675787894E+00  -2.1640030678E-01
    22  -6.2907623755E-01  -1.3524211616E+00  3.5316642564E-01
    23  -7.0271854051E-01  1.2675789697E+00  2.1640008580E-01
    24  6.2907638368E-01  1.3524212847E+00  -3.5316642398E-01
    25  1.0466494898E+00  1.1111652620E-01  8.0806971941E-01
    26  -2.9497955630E-01  -1.2682317079E+00  5.7595625072E-01
    27  -1.0466521222E+00  -1.1111699649E-01  -8.0807169449E-01
    28  2.9498011772E-01  1.2682326945E+00  -5.7595669048E-01
    29  5.2777025051E-01  3.5895789236E-01  6.3224370225E-01
    30  -4.5273309750E-01  4.7453763775E-01  -6.7779307773E-01
    31  -5.2777005471E-01  -3.5895798527E-01  -6.3224403539E-01
    32  4.5273226797E-01  -4.7453807032E-01  6.7779281143E-01
    33  2.2386794617E-01  1.1323368949E+00  9.8316206939E-01
    34  -2.0591767320E-01  1.1942445319E+00  -9.8234141529E-01
    35  -2.2386763110E-01  -1.1323368835E+00  -9.8316173881E-01
    36  2.0591783727E-01  -1.1942447663E+00  9.8234134292E-01
    37  -7.7752951296E-01  4.4455965501E-01  -2.6359235740E-01
    38  8.1345961155E-01  5.4236870823E-01  1.9404971752E-01
    39  7.7752963685E-01  -4.4455988695E-01  2.6359257900E-01
    40  -8.1345944723E-01  -5.4236930598E-01  -1.9404913939E-01
    41  -9.6973428677E-01  1.2211651755E+00  8.4177600455E-02
    42  9.8911356992E-01  1.2498725080E+00  -8.6667584431E-02
    43  9.6973415123E-01  -1.2211648186E+00  -8.4177476208E-02
    44  -9.8911321979E-01  -1.2498722020E+00  8.6667693509E-02
    45  6.1855366307E-01  1.1762142453E-01  6.8233558350E-01
    46  -4.0252811413E+00  -9.8168352344E-01  -3.5671075237E+00
    47  -6.1851676295E-01  -1.1761993836E-01  -6.8230448641E-01
    48  4.0252808249E+00  9.8168185446E-01  3.5671058087E+00
    49  -1.1745711768E+00  -1.4196845630E-01  3.2311393586E-01
    50  9.9956795004E-01  -5.3823428137E-01  -2.5194744501E+00
    51  1.1745459884E+00  1.4196846072E-01  -3.2311757385E-01
    52  -9.9956854339E-01  5.3823432623E-01  2.5194763506E+00
    53  -3.6222537649E-01  -1.2977022949E+00  -2.9686655141E-01
    54  5.4861292992E-01  -1.4845243610E+00  4.7715742252E-02
    55  3.6223852107E-01  1.2977031130E+00  2.9685677188E-01
    56  -5.4861262952E-01  1.4845223735E+00  -4.7715199389E-02
    57  1.0124594356E+00  -1.6016285182E-01  8.4791606491E-01
    58  2.2183402218E+00  5.4663263237E-01  2.6838346330E+00
    59  -1.0124623685E+00  1.6016296315E-01  -8.4792189948E-01
    60  -2.2183406447E+00  -5.4663266730E-01  -2.6838343350E+00
    61  -4.8925082123E-01  1.3291700691E+00  3.2881448765E-01
    62  -2.4646991463E+00  9.6842661506E-02  1.6074922620E+00
    63  4.8926500889E-01  -1.3291658487E+00  -3.2882369924E-01
    64  2.4646993736E+00  -9.6840932311E-02  -1.6074919848E+00
    65  -5.1202811540E-02  -2.0286021405E-01  -9.0323725990E-02
    66  3.8049451615E+00  4.2196070803E-01  -2.0762501075E-01
    67  5.1192022969E-02  2.0285805366E-01  9.0316799371E-02
    68  -3.8049459613E+00  -4.2196071598E-01  2.0762823207E-01
    69  -5.8468165106E-01  -1.3270233469E+00  3.6784430014E-01
    70  1.0680864052E+00  -1.5316948250E+00  -9.8278617384E-01
    71  5.8468484309E-01  1.3270355435E+00  -3.6783921679E-01
    72  -1.0680859724E+00  1.5316933415E+00  9.8278578806E-01
    73  5.8774181531E-01  4.0833373504E-01  -1.6310553731E+00
    74  -1.0557765917E+00  7.8265707848E-01  2.0611823926E+00
    75  -5.8774358682E-01  -4.0833083938E-01  1.6310648739E+00
    76  1.0557764891E+00  -7.8265460246E-01  -2.0611862925E+00
    77  9.6468181078E-01  -2.3591527730E-01  4.7839254554E-01
    78  -1.5104706604E+00  -3.9374628227E-01  -8.6857577162E-01
    79  -9.6468833057E-01  2.3591575612E-01  -4.7839715661E-01
    80  1.5104717456E+00  3.9374649249E-01  8.6857603256E-01
    81  -3.5513433298E-01  7.0953856823E-01  -9.7003544269E-02
    82  1.1052395421E-01  1.6133372601E+00  3.8212724704E-01
    83  3.5511932706E-01  -7.0952837400E-01  9.6994338192E-02
    84  -1.1052359630E-01  -1.6133385502E+00  -3.8212911971E-01
    85  1.0472555207E+00  9.5118753692E-02  5.5776241273E-01
    86  -1.0999639381E+00  2.4525606659E-01  -4.3551819429E-01
    87  -1.0472642500E+00  -9.5120726121E-02  -5.5776629264E-01
    88  1.0999630902E+00  -2.4525594487E-01  4.3551793384E-01
    89  3.8478431633E-01  1.0079541882E-01  -1.5571090296E+00
    90  -4.4041476438E-01  2.9775990006E-01  1.7662097181E+00
    91  -3.8478303430E-01  -1.0080641296E-01  1.5571150885E+00
    92  4.4041487791E-01  -2.9775799603E-01  -1.7662088900E+00
    93  -6.3658728030E-01  5.9688415621E-01  7.8910252629E-01
    94  6.3690087188E-01  9.5396317818E-01  -7.3182974815E-01
    95  6.3659214246E-01  -5.9690166544E-01  -7.8909993940E-01
    96  -6.3690094107E-01  -9.5396302518E-01  7.3183046628E-01
  Stress tensor (eV/A^3):
  7.2751400187E-02  -8.3337852679E-03  2.6986599871E-02
  -8.3337852679E-03  8.1128440524E-02  9.9864427978E-03
  2.6986599871E-02  9.9864427978E-03  5.4705740963E-02
