  Invoking FHI-aims ...
  | Number of atoms                   :  96
  ...scf iterations...
  | Total energy corrected        :   -1.025497673634E+02 eV
  ...
  Total atomic forces (unitary forces cleaned)
     1  -3.1604542331E-01  6.2079876399E-01  1.8751159906E-01
     2  2.3776212047E-01  5.8648090083E-01  -1.8417398789E-01
     3  3.1604542504E-01  -6.2079864703E-01  -1.8751155155E-01
     4  -2.3776195529E-01  -5.8648075136E-01  1.8417404771E-01
     5  -7.7773231419E-01  8.0283714873E-01  -2.2528431984E-01
     6  1.0972598637E+00  -1.5483305364E+00  2.3737414792E+00
     7  7.7773288017E-01  -8.0283698644E-01  2.2528489148E-01
     8  -1.0972599621E+00  1.5483303996E+00  -2.3737411440E+00
     9  -4.8224541426E-01  3.3369755235E-01  -2.0449515228E-01
    10  -6.7703237394E-01  -1.0799735205E+00  1.9250736990E-01
    11  4.8224483649E-01  -3.3369758613E-01  2.0449461671E-01
    12  6.7703303554E-01  1.0799745265E+00  -1.9250762614E-01
    13  -5.7798085629E-01  -1.1022977223E+00  -1.1682430196E+00
    14  1.6598530058E+00  1.9254967204E-01  1.2382749629E+00
    15  5.7798013532E-01  1.1022979684E+00  1.1682427027E+00
    16  -1.6598542634E+00  -1.9255042411E-01  -1.2382741694E+00
    17  4.9303521906E-01  -6.6055169151E-01  -4.4595652027E-02
    18  -1.1704979935E+00  4.7186251376E-01  -1.1613538969E+00
    19  -4.9303449180E-01  6.6055184871E-01  4.4596232992E-02
    20  1.1704985871E+00  -4.7186309752E-01  1.1613539418E+00
    21  6.6692521203E-01  -1.2498575863E+00  -2.4436411738E-01
    22  -5.6610045769E-01  -1.2721629595E+00  3.8370748461E-01
    23  -6.6692580138E-01  1.2498578682E+00  2.4436366744E-01
    24  5.6610039579E-01  1.2721630377E+00  -3.8370761596E-01
    25  9.5366590334E-01  9.9590211987E-02  8.0418555248E-01
    26  -1.4671235010E-01  -1.2106604805E+00  5.8503881499E-01
    27  -9.5367105206E-01  -9.9590253483E-02  -8.0418907398E-01
    28  1.4671283124E-01  1.2106615276E+00  -5.8503938088E-01
    29  5.6056539509E-01  3.8810940077E-01  6.9885887537E-01
    30  -4.6793064626E-01  5.1327598578E-01  -7.4153202818E-01
    31  -5.6056513768E-01  -3.8810953569E-01  -6.9885900052E-01
    32  4.6793001307E-01  -5.1327633580E-01  7.4153170370E-01
    33  2.2265180122E-01  1.0761401923E+00  9.7017540553E-01
    34  -2.0567985954E-01  1.1693998539E+00  -9.4918533614E-01
    35  -2.2265144601E-01  -1.0761404949E+00  -9.7017509110E-01
    36  2.0568014297E-01  -1.1694002039E+00  9.4918517226E-01
    37  -8.1317641425E-01  5.1232006172E-01  -2.8406376063E-01
    38  8.3978133036E-01  6.1772392513E-01  1.9748253536E-01
    39  8.1317647285E-01  -5.1232026230E-01  2.8406385921E-01
    40  -8.3978125222E-01  -6.1772432607E-01  -1.9748200726E-01
    41  -9.1567981876E-01  1.1893876867E+00  7.4006567020E-02
    42  9.4010805545E-01  1.2257991655E+00  -7.8945092178E-02
    43  9.1567973053E-01  -1.1893874897E+00  -7.4006359045E-02
    44  -9.4010776584E-01  -1.2257988833E+00  7.8945264102E-02
    45  1.3711517321E+00  1.1181676077E-01  1.2582297477E+00
    46  -4.0071802373E+00  -6.6599317125E-01  -2.7599789736E+00
    47  -1.3711123982E+00  -1.1181598338E-01  -1.2581987755E+00
    48  4.0071820366E+00  6.6599756358E-01  2.7599700520E+00
    49  -1.5182071456E+00  1.8671839338E-01  7.2045542983E-01
    50  -5.4220230142E-02  1.6904966479E-01  -3.3219134274E+00
    51  1.5181782517E+00  -1.8671157066E-01  -7.2044594474E-01
    52  5.4206795557E-02  -1.6905739867E-01  3.3219339178E+00
    53  -4.1806056442E-01  -1.5524981409E+00  -2.4574424967E-01
    54  1.8981488568E+00  2.5033558315E+00  -7.7950589713E-01
    55  4.1806398821E-01  1.5524735333E+00  2.4573524158E-01
    56  -1.8981393261E+00  -2.5033615538E+00  7.7949788092E-01
    57  7.8804835041E-01  -1.4801952747E-01  5.2812485663E-01
    58  1.3685639344E+00  4.3147196515E-01  2.6726913815E+00
    59  -7.8804662961E-01  1.4801820692E-01  -5.2813008674E-01
    60  -1.3685682862E+00  -4.3147041886E-01  -2.6726934428E+00
    61  6.3710151301E-02  1.6315472729E+00  -1.2804872196E-01
    62  -1.3312520601E+00  -4.3026495053E+00  1.1681525973E+00
    63  -6.3694210892E-02  -1.6315272461E+00  1.2803661121E-01
    64  1.3312622000E+00  4.3026558666E+00  -1.1681552900E+00
    65  -9.4750094905E-02  -5.9476960326E-01  -3.2663330658E-01
    66  3.3762660170E+00  2.2851807332E-01  -5.5673255656E-01
    67  9.4745016125E-02  5.9475867214E-01  3.2662353770E-01
    68  -3.3762685510E+00  -2.2852125807E-01  5.5673611237E-01
    69  -7.3419259463E-01  -7.0876114376E-01  6.8052459899E-01
    70  1.1479243257E+00  -1.0029682175E+00  -1.1652434740E+00
    71  7.3419594191E-01  7.0877072159E-01  -6.8051865114E-01
    72  -1.1479236511E+00  1.0029678214E+00  1.1652430007E+00
    73  6.5910259505E-01  2.3044487600E-01  -1.2704378657E+00
    74  -1.2954434757E+00  -1.6322574363E-01  2.6193102755E+00
    75  -6.5910156284E-01  -2.3043929984E-01  1.2704453736E+00
    76  1.2954423184E+00  1.6322875987E-01  -2.6193136549E+00
    77  5.9942101841E-01  -2.3279260338E-01  2.9424460102E-01
    78  -1.1158842906E+00  -3.4855635567E-01  -6.8728637127E-01
    79  -5.9943138549E-01  2.3279405548E-01  -2.9425196837E-01
    80  1.1158854882E+00  3.4855674737E-01  6.8728655062E-01
    81  -1.7963395615E-01  1.0503608917E+00  -5.6193986551E-01
    82  -4.8612727166E-01  2.1797472418E+00  1.1055334043E+00
    83  1.7962902176E-01  -1.0503427866E+00  5.6192712372E-01
    84  4.8612685353E-01  -2.1797475075E+00  -1.1055346989E+00
    85  6.2462524559E-01  -8.6757049268E-03  3.4968109170E-01
    86  -8.3044637003E-01  9.9355141543E-02  -2.5878476361E-01
    87  -6.2463780540E-01  8.6728220453E-03  -3.4968532634E-01
    88  8.3044518016E-01  -9.9355075091E-02  2.5878457742E-01
    89  4.0847629499E-01  -5.3761541965E-01  -1.3339072768E+00
    90  -5.3789781349E-01  -3.4444680083E-01  1.8021392441E+00
    91  -4.0847175457E-01  5.3760112409E-01  1.3339024272E+00
    92  5.3789769875E-01  3.4444914458E-01  -1.8021381142E+00
    93  -5.6258728627E-01  5.1916093389E-01  7.8958186006E-01
    94  5.8380834937E-01  1.1105766981E+00  -6.8064316424E-01
    95  5.6258495185E-01  -5.1916978570E-01  -7.8956771962E-01
    96  -5.8380900423E-01  -1.1105773990E+00  6.8064472827E-01
  Stress tensor (eV/A^3):
  7.4575330243E-02  -8.8594520653E-03  2.1778437102E-02
  -8.8594520653E-03  6.6453531896E-02  8.6548088067E-03
  2.1778437102E-02  8.6548088067E-03  6.0747436413E-02
