  Invoking FHI-aims ...
  | Number of atoms                   :  96
  ...scf iterations...
  | Total energy corrected        :   -6.633071336801E+01 eV
  ...
  Total atomic forces (unitary forces cleaned)
     1  -2.2960960193E-01  5.8402813877E-01  1.8801949064E-01
     2  2.2216510087E-01  5.7664332329E-01  -1.9222113808E-01
     3  2.2960963497E-01  -5.8402805774E-01  -1.8801945582E-01
     4  -2.2216498880E-01  -5.7664322690E-01  1.9222122605E-01
     5  -8.6139489191E-01  1.1710573798E+00  8.1380272732E-02
     6  8.5634924700E-01  1.1246018224E+00  -1.4176426885E-02
     7  8.6139529466E-01  -1.1710572414E+00  -8.1379862141E-02
     8  -8.5634929066E-01  -1.1246019676E+00  1.4176694878E-02
     9  -2.2608782044E-01  1.5245847139E-01  -1.1550759673E-01
    10  1.5247625434E-01  8.1070799658E-02  1.2113573100E-01
    11  2.2608737929E-01  -1.5245846686E-01  1.1550727679E-01
    12  -1.5247658445E-01  -8.1070793527E-02  -1.2113579568E-01
    13  -4.1528850153E-01  -9.2159655833E-01  -9.0362580778E-01
    14  4.9546915432E-01  -8.4862936552E-01  9.0168985160E-01
    15  4.1528796822E-01  9.2159669969E-01  9.0362557686E-01
    16  -4.9546925224E-01  8.4862952517E-01  -9.0168942921E-01
    17  1.1764459490E+00  -1.6615383649E+00  -1.5575434485E-01
    18  -1.2248616612E+00  -1.6174229946E+00  7.1900465412E-02
    19  -1.1764459419E+00  1.6615392304E+00  1.5575463142E-01
    20  1.2248617532E+00  1.6174233575E+00  -7.1900993632E-02
    21  -2.5469795942E-01  2.8304826877E-02  -1.2303168392E-01
    22  2.6752279467E-01  5.6406266243E-02  1.1669013148E-01
    23  2.5469823128E-01  -2.8305548042E-02  1.2303153162E-01
    24  -2.6752284383E-01  -5.6406583101E-02  -1.1669000373E-01
    25  5.4954729105E-01  3.5158719459E-02  4.2457887288E-01
    26  -5.2414893545E-01  -3.6190560042E-02  -3.4297582549E-01
    27  -5.4954773774E-01  -3.5159023003E-02  -4.2457919152E-01
    28  5.2414936879E-01  3.6190849283E-02  3.4297570436E-01
    29  6.1387490948E-01  1.3844995324E+00  1.4209795383E+00
    30  -6.1188933203E-01  1.3854663583E+00  -1.4196723154E+00
    31  -6.1387478226E-01  -1.3844994309E+00  -1.4209794491E+00
    32  6.1188910193E-01  -1.3854668834E+00  1.4196721425E+00
    33  -9.3368160543E-02  -1.6807252912E-02  -5.8299639201E-02
    34  9.3335230089E-02  -1.8871481865E-02  5.8903236938E-02
    35  9.3368340894E-02  1.6807060893E-02  5.8299525508E-02
    36  -9.3335304200E-02  1.8871654100E-02  -5.8903396524E-02
    37  -1.4153326010E+00  1.6027042748E+00  2.3918115795E-02
    38  1.4128735909E+00  1.6031618559E+00  -2.5514072875E-02
    39  1.4153322883E+00  -1.6027039196E+00  -2.3917836264E-02
    40  -1.4128728538E+00  -1.6031614742E+00  2.5514522521E-02
    41  5.0856640737E-03  -3.1901985686E-02  -4.4282910630E-02
    42  -6.7276985560E-03  -3.3226344335E-02  4.4804651536E-02
    43  -5.0853594307E-03  3.1901561105E-02  4.4282865406E-02
    44  6.7274191938E-03  3.3225928652E-02  -4.4804603689E-02
    45  -1.9950024579E+00  1.1422780511E-01  -1.3066127065E+00
    46  1.9262526915E+00  5.5041209679E-02  1.2789249611E+00
    47  1.9949963011E+00  -1.1422762623E-01  1.3066087999E+00
    48  -1.9262529731E+00  -5.5040411018E-02  -1.2789249876E+00
    49  -3.3051808913E+01  7.1820921190E-01  1.7396820975E+01
    50  2.8235397960E+01  6.9549459692E+00  -1.6841994650E+01
    51  3.3051782193E+01  -7.1826174998E-01  -1.7396795138E+01
    52  -2.8235393518E+01  -6.9549869756E+00  1.6841999437E+01
    53  1.7011889874E+01  1.9025752141E+01  -4.8740801454E+00
    54  -1.2085967898E+01  1.3942485462E+01  3.4132170086E+00
    55  -1.7011823702E+01  -1.9025741288E+01  4.8740542166E+00
    56  1.2085949352E+01  -1.3942465705E+01  -3.4132178298E+00
    57  5.4147434667E-01  -9.4574753067E-02  4.2811639411E-01
    58  -9.3034841915E-02  -2.3368396786E-02  -3.2909279436E-02
    59  -5.4147931619E-01  9.4574801625E-02  -4.2811983994E-01
    60  9.3034729867E-02  2.3367986503E-02  3.2909465458E-02
    61  1.4300617545E+01  -1.9941512283E+01  -9.1397990535E+00
    62  -1.4884539043E+01  -2.1172836235E+01  9.7305247298E+00
    63  -1.4300654240E+01  1.9941554308E+01  9.1398130676E+00
    64  1.4884553964E+01  2.1172856867E+01  -9.7305285014E+00
    65  -2.4752053946E+00  -1.5851183899E+01  -9.7409710029E+00
    66  2.6712269082E+00  -1.5792265928E+01  1.0363656271E+01
    67  2.4751093976E+00  1.5850946501E+01  9.7407951644E+00
    68  -2.6712478166E+00  1.5792277727E+01  -1.0363606593E+01
    69  6.7416615731E+00  1.2174912991E+01  -3.5357585867E-01
    70  -7.1627364113E+00  1.2659558686E+01  4.7816409573E-01
    71  -6.7415353556E+00  -1.2174694189E+01  3.5355773173E-01
    72  7.1627431632E+00  -1.2659568518E+01  -4.7816999184E-01
    73  -2.1570926403E+00  5.4893387891E-01  9.0655969376E+00
    74  2.3960367798E+00  1.3318508170E-01  -9.8904584163E+00
    75  2.1570515083E+00  -5.4892193817E-01  -9.0654134624E+00
    76  -2.3960227283E+00  -1.3318702319E-01  9.8904158086E+00
    77  1.7234084725E-01  -1.4136159233E-01  1.1941851665E-02
    78  -1.0354642286E-01  -1.6593416075E-01  2.9188183057E-02
    79  -1.7232751085E-01  1.4135965424E-01  -1.1933886335E-02
    80  1.0354531862E-01  1.6593392360E-01  -2.9188832002E-02
    81  -5.9692486495E+00  2.7382962302E+01  -1.4593453354E+01
    82  5.9723883868E+00  2.7359085074E+01  1.4607419522E+01
    83  5.9692845330E+00  -2.7382780130E+01  1.4593026235E+01
    84  -5.9723835402E+00  -2.7359103533E+01  -1.4607483167E+01
    85  5.7830905018E-01  4.2252257344E-02  2.9315403832E-01
    86  -5.7079119855E-01  3.6056166519E-02  -2.9608384537E-01
    87  -5.7830235640E-01  -4.2251733971E-02  -2.9315032952E-01
    88  5.7079183071E-01  -3.6056268963E-02  2.9608440988E-01
    89  -3.3252926235E+00  -4.1091229641E+00  1.9480334005E+01
    90  3.3280577967E+00  -4.1108263697E+00  -1.9507095848E+01
    91  3.3252209316E+00  4.1090373939E+00  -1.9479908017E+01
    92  -3.3280665454E+00  4.1108326884E+00  1.9507152489E+01
    93  1.0907514323E+01  -1.9908822913E+01  -5.8048847814E+00
    94  -1.0910592051E+01  -1.9914904087E+01  5.8023606168E+00
    95  -1.0907478800E+01  1.9908733660E+01  5.8048780437E+00
    96  1.0910595778E+01  1.9914916814E+01  -5.8023552189E+00
  Stress tensor (eV/A^3):
  -5.0395208731E-02  -7.6637361865E-03  9.1647244471E-02
  -7.6637361865E-03  -1.8136906192E-01  2.2847325178E-03
  9.1647244471E-02  2.2847325178E-03  -8.9885369729E-02
