  Invoking FHI-aims ...
  | Number of atoms                   :  96
  ...scf iterations...
  | Total energy corrected        :   -7.968576931654E+01 eV
  ...
  Total atomic forces (unitary forces cleaned)
     1  -2.2334734619E-01  5.8786271157E-01  1.8746680552E-01
     2  2.1094204698E-01  5.7497066906E-01  -1.9368818029E-01
     3  2.2334745984E-01  -5.8786262545E-01  -1.8746673287E-01
     4  -2.1094191111E-01  -5.7497045374E-01  1.9368824528E-01
     5  -8.3659533798E-01  1.2487557679E+00  1.2153932237E-01
     6  8.3318566856E-01  1.2449903735E+00  -9.7490983829E-02
     7  8.3659550345E-01  -1.2487556384E+00  -1.2153908731E-01
     8  -8.3318594888E-01  -1.2449904910E+00  9.7491290459E-02
     9  -2.4397112189E-01  1.7262945390E-01  -1.3663181588E-01
    10  2.2993885100E-01  1.5504582338E-01  1.3497023589E-01
    11  2.4397083744E-01  -1.7262909438E-01  1.3663157763E-01
    12  -2.2993926047E-01  -1.5504611487E-01  -1.3497006491E-01
    13  -4.3420142048E-01  -9.1297680916E-01  -9.5328842825E-01
    14  4.5692038859E-01  -8.9503258369E-01  9.6294616691E-01
    15  4.3420091411E-01  9.1297685015E-01  9.5328816602E-01
    16  -4.5692049173E-01  8.9503295682E-01  -9.6294546052E-01
    17  8.2850397934E-01  -1.2015688376E+00  -1.1599483227E-01
    18  -8.5953174451E-01  -1.2043466506E+00  9.4777337446E-02
    19  -8.2850365698E-01  1.2015695331E+00  1.1599517014E-01
    20  8.5953160897E-01  1.2043467183E+00  -9.4777904529E-02
    21  1.0182145494E-01  -4.6278765442E-01  -1.7927700064E-01
    22  -8.8415317902E-02  -4.4095918361E-01  1.7492849634E-01
    23  -1.0182153889E-01  4.6278734622E-01  1.7927655894E-01
    24  8.8415181408E-02  4.4095921832E-01  -1.7492863886E-01
    25  6.0353684653E-01  5.3126388869E-03  5.2224068315E-01
    26  -5.9510785922E-01  -1.7248935330E-02  -5.0386692510E-01
    27  -6.0353696694E-01  -5.3129677803E-03  -5.2224089147E-01
    28  5.9510859879E-01  1.7249071621E-02  5.0386674644E-01
    29  5.2375775035E-01  9.2685524341E-01  1.0720969200E+00
    30  -5.2013534389E-01  9.3141268758E-01  -1.0718497745E+00
    31  -5.2375779163E-01  -9.2685548666E-01  -1.0720969434E+00
    32  5.2013529644E-01  -9.3141303748E-01  1.0718495615E+00
    33  1.2713725872E-02  4.2881210732E-01  3.0342182617E-01
    34  -1.1888058456E-02  4.2783576054E-01  -3.0066915601E-01
    35  -1.2713652834E-02  -4.2881218006E-01  -3.0342158379E-01
    36  1.1888141752E-02  -4.2783575561E-01  3.0066893812E-01
    37  -1.0607150760E+00  1.1744180465E+00  -5.9633297900E-02
    38  1.0584710574E+00  1.1776558575E+00  5.5750285298E-02
    39  1.0607150208E+00  -1.1744181042E+00  5.9633491446E-02
    40  -1.0584707826E+00  -1.1776557025E+00  -5.5749860120E-02
    41  -3.3949565015E-01  4.5138851091E-01  5.2872249859E-03
    42  3.3847489706E-01  4.5036515482E-01  -5.5105405671E-03
    43  3.3949572515E-01  -4.5138863644E-01  -5.2871240290E-03
    44  -3.3847489721E-01  -4.5036518822E-01  5.5106327673E-03
    45  -1.7709060692E+00  1.6515595481E-01  -1.1561587928E+00
    46  1.7503005880E+00  1.4585712378E-01  1.1521624042E+00
    47  1.7709008541E+00  -1.6515575961E-01  1.1561561116E+00
    48  -1.7503011754E+00  -1.4585691505E-01  -1.1521619174E+00
    49  -1.1197383754E+01  4.5760845212E+00  7.5690756797E+00
    50  1.2707659150E+01  4.8574360173E+00  -9.5169342890E+00
    51  1.1197221447E+01  -4.5759733172E+00  -7.5689949825E+00
    52  -1.2707670345E+01  -4.8574308745E+00  9.5169427780E+00
    53  6.7617873316E+00  4.0258044616E+00  -3.4243173169E+00
    54  -8.4216351888E+00  5.1845828051E+00  4.2420890040E+00
    55  -6.7616724591E+00  -4.0257522632E+00  3.4242599753E+00
    56  8.4216471983E+00  -5.1845912217E+00  -4.2420992262E+00
    57  8.0386061056E-01  -1.5920429547E-01  6.6290007397E-01
    58  5.4227084368E-02  -8.3727954124E-03  1.2748865796E-01
    59  -8.0385519116E-01  1.5920242918E-01  -6.6289491334E-01
    60  -5.4227675706E-02  8.3723257711E-03  -1.2748881819E-01
    61  2.7837436438E+00  -7.6182842975E+00  -1.4084551039E+00
    62  -3.4946719571E+00  -9.2132333311E+00  1.7695760895E+00
    63  -2.7837019913E+00  7.6181275757E+00  1.4084325004E+00
    64  3.4946730640E+00  9.2132364896E+00  -1.7695741457E+00
    65  -7.6650491679E-01  -6.6279402512E+00  -1.6319223349E+00
    66  1.3573825314E+00  -6.1005308522E+00  -3.8937390781E-02
    67  7.6646632653E-01  6.6278771414E+00  1.6318963931E+00
    68  -1.3573821591E+00  6.1005256262E+00  3.8945427613E-02
    69  2.0685553862E+00  2.5126726533E+00  -5.5833962216E-01
    70  -2.2034477270E+00  2.6348216043E+00  5.8528996021E-01
    71  -2.0685164959E+00  -2.5126326427E+00  5.5832350108E-01
    72  2.2034457327E+00  -2.6348188617E+00  -5.8529086597E-01
    73  -2.9715270194E-01  8.7765533319E-01  1.9159372444E+00
    74  -1.5271926279E-01  2.6210765584E-01  -2.9406103109E-01
    75  2.9714488209E-01  -8.7763831855E-01  -1.9158976497E+00
    76  1.5272099158E-01  -2.6210537395E-01  2.9405482727E-01
    77  4.0671404413E-01  -1.3755565162E-01  2.4769140745E-01
    78  -3.9844245939E-01  -1.4351863942E-01  -2.3998390084E-01
    79  -4.0670696124E-01  1.3755396163E-01  -2.4768686919E-01
    80  3.9844160036E-01  1.4351842252E-01  2.3998309914E-01
    81  5.0349474589E-01  9.1788257481E+00  -6.1832147912E+00
    82  -5.0216942323E-01  9.1781735587E+00  6.1822060238E+00
    83  -5.0350377854E-01  -9.1787265581E+00  6.1830908216E+00
    84  5.0217418830E-01  -9.1781666222E+00  -6.1822323503E+00
    85  7.0348714969E-01  -2.5661143007E-02  3.8795843006E-01
    86  -7.0224352909E-01  -2.6939487989E-02  -3.8772189407E-01
    87  -7.0347872309E-01  2.5661247330E-02  -3.8795373237E-01
    88  7.0224401981E-01  2.6939347257E-02  3.8772236449E-01
    89  -8.7643902807E-01  2.7319849067E-01  4.2135714354E+00
    90  8.7685709833E-01  2.7377020578E-01  -4.2157951147E+00
    91  8.7641819513E-01  -2.7318211548E-01  -4.2134704076E+00
    92  -8.7686107596E-01  -2.7377396264E-01  4.2158167901E+00
    93  2.0599783025E+00  -7.1448503963E+00  2.5175370034E-01
    94  -2.0615052297E+00  -7.1503772353E+00  -2.5440539650E-01
    95  -2.0599503906E+00  7.1447370240E+00  -2.5174104762E-01
    96  2.0615037244E+00  7.1503750888E+00  2.5440874841E-01
  Stress tensor (eV/A^3):
  2.5757109779E-02  7.4650015220E-04  4.6656229683E-02
  7.4650015220E-04  -1.8515165222E-02  -1.7564748876E-03
  4.6656229683E-02  -1.7564748876E-03  2.8999975364E-02
