  Invoking FHI-aims ...
  | Number of atoms                   :  96
  ...scf iterations...
  | Total energy corrected        :   -9.117107166363E+01 eV
  ...
  Total atomic forces (unitary forces cleaned)
     1  -3.1827150439E-01  6.3189359885E-01  2.0240111348E-01
     2  2.3293628538E-01  5.8398320463E-01  -1.9461602303E-01
     3  3.1827158728E-01  -6.3189349326E-01  -2.0240103453E-01
     4  -2.3293615787E-01  -5.8398292660E-01  1.9461606697E-01
     5  -7.0829740507E-01  8.8220993844E-01  -2.7550715922E-01
     6  1.1251238939E+00  -2.2223019420E+00  3.1166893384E+00
     7  7.0829756348E-01  -8.8220979506E-01  2.7550740144E-01
     8  -1.1251243841E+00  2.2223018406E+00  -3.1166890909E+00
     9  -4.5127220820E-01  3.4530861884E-01  -2.1243699621E-01
    10  -8.3961231054E-01  -1.2634790773E+00  2.1072196658E-01
    11  4.5127190533E-01  -3.4530807802E-01  2.1243679838E-01
    12  8.3961460522E-01  1.2634812620E+00  -2.1072190454E-01
    13  -5.6111252090E-01  -1.0558882804E+00  -1.1793395864E+00
    14  1.7851505093E+00  4.3348134945E-01  1.2324509123E+00
    15  5.6111193521E-01  1.0558883871E+00  1.1793392658E+00
    16  -1.7851533829E+00  -4.3348346371E-01  -1.2324496456E+00
    17  4.4727027920E-01  -6.0509349090E-01  -4.3870628320E-02
    18  -1.1811516528E+00  6.9459361927E-01  -1.4439984284E+00
    19  -4.4726916621E-01  6.0509332341E-01  4.3871298025E-02
    20  1.1811527979E+00  -6.9459467686E-01  1.4439988906E+00
    21  6.9255693543E-01  -1.2811177450E+00  -2.3604060409E-01
    22  -6.5310280902E-01  -1.3297159882E+00  3.5640697377E-01
    23  -6.9255738320E-01  1.2811185024E+00  2.3604002660E-01
    24  6.5310244484E-01  1.3297160761E+00  -3.5640727484E-01
    25  1.0771917546E+00  2.7924726421E-02  9.4362464896E-01
    26  -4.0686085694E-01  -1.4148459380E+00  5.7378074203E-01
    27  -1.0771915065E+00  -2.7925439031E-02  -9.4362487690E-01
    28  4.0686087103E-01  1.4148472708E+00  -5.7378213063E-01
    29  5.1782792075E-01  3.1127072840E-01  6.4109851381E-01
    30  -4.4052040913E-01  4.2281171937E-01  -6.7499704709E-01
    31  -5.1782782878E-01  -3.1127052061E-01  -6.4109830348E-01
    32  4.4052005360E-01  -4.2281177233E-01  6.7499663237E-01
    33  1.8931286644E-01  1.1029380428E+00  9.8510025891E-01
    34  -9.2954966299E-02  1.2039171690E+00  -8.9152368275E-01
    35  -1.8931299884E-01  -1.1029386391E+00  -9.8510009605E-01
    36  9.2955336281E-02  -1.2039176849E+00  8.9152357743E-01
    37  -7.3696936893E-01  4.9181049188E-01  -2.9441285538E-01
    38  7.7046956704E-01  5.9521835975E-01  2.1970750857E-01
    39  7.3696939921E-01  -4.9181074112E-01  2.9441274318E-01
    40  -7.7046969565E-01  -5.9521851221E-01  -2.1970713608E-01
    41  -9.1382247765E-01  1.2526026166E+00  7.7118365518E-02
    42  9.3347988469E-01  1.2831229780E+00  -7.8881371695E-02
    43  9.1382241800E-01  -1.2526025951E+00  -7.7118012751E-02
    44  -9.3347965088E-01  -1.2831226737E+00  7.8881626788E-02
    45  -1.8442367819E+00  1.7745374345E-01  -1.2195395681E+00
    46  -6.2905505115E-01  -5.6333421644E+00  7.0044166346E-01
    47  1.8442370442E+00  -1.7745293283E-01  1.2195398980E+00
    48  6.2905382768E-01  5.6333423842E+00  -7.0044194350E-01
    49  1.6161093034E-01  2.7972246194E-01  1.3256044635E+00
    50  -2.7706118993E-01  6.9539722815E+00  -4.7863882998E+00
    51  -1.6161188560E-01  -2.7972072621E-01  -1.3256047443E+00
    52  2.7706294044E-01  -6.9539727278E+00  4.7863860084E+00
    53  -1.7415174144E+00  -9.4315600659E-01  8.5897500657E-01
    54  1.7122047132E+00  -1.3151193308E+00  -1.1542615319E+00
    55  1.7415160404E+00  9.4315920826E-01  -8.5897375057E-01
    56  -1.7122026088E+00  1.3151180716E+00  1.1542615832E+00
    57  1.1143974455E+00  -1.9700147602E-01  1.0117338761E+00
    58  1.6553356679E+00  -1.7536965430E-01  1.7188286931E+00
    59  -1.1143976007E+00  1.9700034372E-01  -1.0117331276E+00
    60  -1.6553373620E+00  1.7536912386E-01  -1.7188272819E+00
    61  -3.7721594522E-01  2.0627219276E+00  1.7466910642E-01
    62  -2.3196129755E+00  -3.8643061215E+00  7.2710819990E-01
    63  3.7721999466E-01  -2.0627221421E+00  -1.7467148299E-01
    64  2.3196125178E+00  3.8643071160E+00  -7.2710614447E-01
    65  7.2857964442E-01  -1.1179252322E+00  4.2951779985E-01
    66  2.9667026622E+00  4.9158374312E+00  -7.0758920992E-01
    67  -7.2858182718E-01  1.1179275868E+00  -4.2951679828E-01
    68  -2.9667017418E+00  -4.9158377423E+00  7.0758928851E-01
    69  -1.5057566256E+00  -1.2224910719E+00  7.9276097395E-01
    70  1.1633673056E+00  -6.6377321341E-01  -5.5974100008E-01
    71  1.5057547659E+00  1.2224918590E+00  -7.9275869051E-01
    72  -1.1633672182E+00  6.6377327515E-01  5.5974173374E-01
    73  7.1546542888E-01  -7.7101113650E-01  -1.8264657896E+00
    74  -8.2083676684E-01  -1.7759191298E+00  2.6020686189E+00
    75  -7.1546623574E-01  7.7100696641E-01  1.8264651483E+00
    76  8.2083486551E-01  1.7759194348E+00  -2.6020684576E+00
    77  1.1122043640E+00  -2.7267322687E-01  8.1237554986E-01
    78  -1.7232849467E+00  -7.3079198266E-01  -1.2872055164E+00
    79  -1.1122030086E+00  2.7267198813E-01  -8.1237551436E-01
    80  1.7232855724E+00  7.3079220951E-01  1.2872045583E+00
    81  1.2721463359E+00  5.8231699696E-01  -1.7993901841E-01
    82  -1.3606965018E+00  6.2767625827E-01  2.9378900267E-01
    83  -1.2721475552E+00  -5.8231795268E-01  1.7993872024E-01
    84  1.3606969475E+00  -6.2767596914E-01  -2.9378962832E-01
    85  1.2537759897E+00  -1.2991116066E-02  6.7538001937E-01
    86  -1.3154009678E+00  -9.0303477323E-03  -6.1124058141E-01
    87  -1.2537748312E+00  1.2991466838E-02  -6.7537961780E-01
    88  1.3154007862E+00  9.0302862359E-03  6.1124050558E-01
    89  4.2989345657E-01  -6.3639467036E-01  -1.9758085084E+00
    90  -4.6134611807E-01  -5.9541217580E-01  2.0720284729E+00
    91  -4.2989334684E-01  6.3639172578E-01  1.9758078599E+00
    92  4.6134543286E-01  5.9541314357E-01  -2.0720280032E+00
    93  -4.9394028375E-01  1.9669851074E+00  -1.5528788881E-01
    94  4.4133499821E-01  2.0759033994E+00  2.2046705788E-01
    95  4.9394181074E-01  -1.9669840887E+00  1.5528508494E-01
    96  -4.4133486749E-01  -2.0759038095E+00  -2.2046757617E-01
  Stress tensor (eV/A^3):
  9.2561759910E-02  -1.0358411780E-02  1.7387314001E-02
  -1.0358411780E-02  8.4934033151E-02  3.8234973052E-03
  1.7387314001E-02  3.8234973052E-03  9.3344391561E-02
