  Invoking FHI-aims ...
  | Number of atoms                   :  96
  ...scf iterations...
  | Total energy corrected        :   -7.196389517048E+01 eV
  ...
  Total atomic forces (unitary forces cleaned)
     1  -2.1574828928E-01  5.9174955257E-01  1.9452366111E-01
     2  2.1256687495E-01  5.8606585459E-01  -1.9709940483E-01
     3  2.1574842663E-01  -5.9174946561E-01  -1.9452357661E-01
     4  -2.1256675578E-01  -5.8606561196E-01  1.9709945919E-01
     5  -8.2401331072E-01  1.1601048699E+00  5.6467344698E-02
     6  8.1432231619E-01  1.0863610742E+00  2.9920837248E-02
     7  8.2401337942E-01  -1.1601047460E+00  -5.6467189103E-02
     8  -8.1432267389E-01  -1.0863611811E+00  -2.9920530715E-02
     9  -1.8247238427E-01  1.6757244472E-01  -9.5323006011E-02
    10  9.6646787114E-02  7.3995617262E-02  1.0315922644E-01
    11  1.8247218314E-01  -1.6757197095E-01  9.5322824762E-02
    12  -9.6647184874E-02  -7.3995927458E-02  -1.0315905531E-01
    13  -3.7517445049E-01  -8.5937202252E-01  -8.8063008163E-01
    14  4.6212847288E-01  -7.6425585418E-01  8.7220456969E-01
    15  3.7517395461E-01  8.5937198855E-01  8.8062979297E-01
    16  -4.6212862026E-01  7.6425622472E-01  -8.7220383133E-01
    17  2.0592010112E+00  -3.0779471457E+00  -2.8243884455E-01
    18  -2.0897864705E+00  -3.0095882038E+00  1.8917222805E-01
    19  -2.0592035052E+00  3.0779524467E+00  2.8243900184E-01
    20  2.0897864407E+00  3.0095888920E+00  -1.8917318899E-01
    21  -1.1693993498E+00  1.4803285536E+00  -1.8154499263E-02
    22  1.1713135228E+00  1.4881951756E+00  1.2001192940E-02
    23  1.1694022518E+00  -1.4803333964E+00  1.8154203788E-02
    24  -1.1713137666E+00  -1.4881958016E+00  -1.2000923734E-02
    25  4.5761528858E-01  -5.0634838975E-03  4.2082492322E-01
    26  -4.2855384621E-01  -7.9492352008E-02  -3.2554640334E-01
    27  -4.5761531902E-01  5.0632479926E-03  -4.2082504595E-01
    28  4.2855451082E-01  7.9492408283E-02  3.2554624767E-01
    29  8.7155994880E-01  2.5004564147E+00  2.5152074518E+00
    30  -8.7232321782E-01  2.4973330644E+00  -2.5131297995E+00
    31  -8.7156073770E-01  -2.5004586255E+00  -2.5152084652E+00
    32  8.7232452169E-01  -2.4973353249E+00  2.5131307827E+00
    33  -4.2273228554E-01  -1.1976803710E+00  -1.2380173346E+00
    34  4.2135526140E-01  -1.1996779869E+00  1.2367418990E+00
    35  4.2273298474E-01  1.1976821942E+00  1.2380186611E+00
    36  -4.2135636320E-01  1.1996799635E+00  -1.2367432340E+00
    37  -2.2351169442E+00  2.9556070322E+00  1.7168603259E-01
    38  2.2335389110E+00  2.9521009309E+00  -1.7025019926E-01
    39  2.2351161912E+00  -2.9556061448E+00  -1.7168524332E-01
    40  -2.2335376469E+00  -2.9520992665E+00  1.7025077678E-01
    41  9.5093272248E-01  -1.3737265059E+00  -1.8271291197E-01
    42  -9.5150063641E-01  -1.3737633317E+00  1.8336699003E-01
    43  -9.5093195234E-01  1.3737254020E+00  1.8271241888E-01
    44  9.5149959251E-01  1.3737618308E+00  -1.8336709662E-01
    45  -1.0369921975E+00  1.0988153454E-01  -6.5760455173E-01
    46  9.7183806440E-01  -1.8677312516E-02  6.8194670084E-01
    47  1.0369877137E+00  -1.0988109881E-01  6.5760245353E-01
    48  -9.7183840086E-01  1.8677417316E-02  -6.8194660834E-01
    49  -9.2814130741E+00  5.7776666891E+00  8.1000351714E+00
    50  8.4476636325E+00  3.0708868796E+00  -7.7093750344E+00
    51  9.2813786871E+00  -5.7776126046E+00  -8.1000195121E+00
    52  -8.4476684416E+00  -3.0708845525E+00  7.7093749568E+00
    53  7.9260265665E+00  4.2552589790E+00  -3.8947068451E+00
    54  -7.4986873812E+00  4.1227790306E+00  3.7104652827E+00
    55  -7.9259878381E+00  -4.2552600242E+00  3.8946876381E+00
    56  7.4986896860E+00  -4.1227809468E+00  -3.7104707270E+00
    57  -1.4949724513E+00  2.5129503791E-01  -1.2183930366E+00
    58  1.2520761694E+00  2.3860356472E-01  1.0554793469E+00
    59  1.4949734320E+00  -2.5129432169E-01  1.2183939809E+00
    60  -1.2520723764E+00  -2.3860292531E-01  -1.0554751637E+00
    61  2.3087850757E+00  -9.4409585725E+00  -4.5015728399E-01
    62  -1.6502633392E+00  -6.6062137811E+00  3.7682247385E-01
    63  -2.3087896739E+00  9.4409087397E+00  4.5016321565E-01
    64  1.6502631813E+00  6.6062123167E+00  -3.7682097833E-01
    65  -1.6779138076E+00  -1.0496756603E+01  -3.1393501775E+00
    66  1.3949594946E+00  -1.0592312928E+01  4.0678879207E+00
    67  1.6778943337E+00  1.0496724245E+01  3.1393481435E+00
    68  -1.3949625415E+00  1.0592308769E+01  -4.0678852142E+00
    69  5.6237394910E+00  4.9968033595E+00  -2.3509198517E+00
    70  -5.7880262197E+00  5.1286394096E+00  2.4080948554E+00
    71  -5.6237179670E+00  -4.9967949460E+00  2.3509052323E+00
    72  5.7880223701E+00  -5.1286354783E+00  -2.4080972028E+00
    73  -1.6953000847E+00  2.8292260564E+00  6.7506642195E+00
    74  2.0111211926E+00  3.0102354901E+00  -7.8505820967E+00
    75  1.6953016273E+00  -2.8292075799E+00  -6.7506421929E+00
    76  -2.0111157597E+00  -3.0102355989E+00  7.8505796714E+00
    77  -1.3079305480E+00  7.2746384080E-02  -1.0492343259E+00
    78  1.4903729341E+00  1.5987431940E-02  1.1835838528E+00
    79  1.3079260369E+00  -7.2746165169E-02  1.0492314282E+00
    80  -1.4903719584E+00  -1.5987463217E-02  -1.1835818580E+00
    81  2.4153990696E+00  8.4312312983E+00  -8.9984821420E+00
    82  -2.4122503225E+00  8.4258790243E+00  8.9943452754E+00
    83  -2.4153910503E+00  -8.4312168816E+00  8.9984314495E+00
    84  2.4122515739E+00  -8.4258708574E+00  -8.9943582449E+00
    85  -1.4706371206E+00  5.5918889345E-02  -9.0473425914E-01
    86  1.4737280372E+00  5.5446625168E-02  9.0185169056E-01
    87  1.4706352700E+00  -5.5918603694E-02  9.0473270540E-01
    88  -1.4737278728E+00  -5.5446944103E-02  -9.0185080675E-01
    89  -1.5623015210E+00  2.0685697302E+00  8.1497514913E+00
    90  1.5633045628E+00  2.0667702376E+00  -8.1526711449E+00
    91  1.5622968866E+00  -2.0685488879E+00  -8.1497197072E+00
    92  -1.5633045361E+00  -2.0667753389E+00  8.1526785616E+00
    93  2.5008990532E+00  -9.0479786851E+00  6.0074434168E-01
    94  -2.4996560941E+00  -9.0494863325E+00  -6.0422268866E-01
    95  -2.5008956703E+00  9.0479434483E+00  -6.0072795406E-01
    96  2.4996542627E+00  9.0494843832E+00  6.0422688802E-01
  Stress tensor (eV/A^3):
  -2.3048220882E-02  1.0418521362E-03  4.4876382195E-02
  1.0418521362E-03  -6.2970127889E-02  6.7242093561E-04
  4.4876382195E-02  6.7242093561E-04  -3.5645039770E-02
