  Invoking FHI-aims ...
  | Number of atoms                   :  96
  ...scf iterations...
  | Total energy corrected        :   -8.049051763244E+01 eV
  ...
  Total atomic forces (unitary forces cleaned)
     1  -2.7277383781E-01  5.9557057988E-01  1.7814702773E-01
     2  2.2699234182E-01  5.7107793685E-01  -1.8212675746E-01
     3  2.7277374577E-01  -5.9557051711E-01  -1.7814702496E-01
     4  -2.2699226182E-01  -5.7107796881E-01  1.8212687816E-01
     5  -8.8074823403E-01  1.4017665746E+00  2.0811873702E-01
     6  8.9330949117E-01  1.5307274966E+00  -4.0360675390E-01
     7  8.8074907533E-01  -1.4017663776E+00  -2.0811801601E-01
     8  -8.9330924395E-01  -1.5307276866E+00  4.0360694131E-01
     9  -3.0468433577E-01  1.5615543362E-01  -1.4268253167E-01
    10  5.5236874359E-01  3.5490165294E-01  1.2473329365E-01
    11  3.0468360360E-01  -1.5615596999E-01  1.4268202930E-01
    12  -5.5236890871E-01  -3.5490122536E-01  -1.2473364452E-01
    13  -4.6306607787E-01  -1.0095161881E+00  -9.2664952362E-01
    14  2.2056235586E-01  -1.2175079318E+00  9.5668317527E-01
    15  4.6306537628E-01  1.0095165023E+00  9.2664927508E-01
    16  -2.2056266344E-01  1.2175078450E+00  -9.5668322643E-01
    17  6.4258627352E-01  -8.4121960604E-01  -5.8201134573E-02
    18  -5.6155142182E-01  -1.0212587821E+00  2.9771744193E-01
    19  -6.4258587060E-01  8.4121992930E-01  5.8201610892E-02
    20  5.6155160300E-01  1.0212587482E+00  -2.9771773014E-01
    21  3.8232164605E-01  -8.0543236586E-01  -1.1925433400E-01
    22  -3.8728301190E-01  -8.3256667582E-01  1.3851297031E-01
    23  -3.8232172971E-01  8.0543235710E-01  1.1925437415E-01
    24  3.8728303679E-01  8.3256680220E-01  -1.3851314398E-01
    25  7.7723507205E-01  9.1850073500E-02  5.1166690967E-01
    26  -8.5868091570E-01  2.8007043330E-01  -7.5207940749E-01
    27  -7.7723523492E-01  -9.1850667467E-02  -5.1166723299E-01
    28  8.5868105268E-01  -2.8006992589E-01  7.5207936446E-01
    29  4.6449355462E-01  6.6673813638E-01  7.9409021973E-01
    30  -4.6103247358E-01  6.8055196655E-01  -8.0232807020E-01
    31  -4.6449334407E-01  -6.6673793569E-01  -7.9409057510E-01
    32  4.6103163185E-01  -6.8055234618E-01  8.0232786296E-01
    33  4.2788604701E-02  7.5360088088E-01  5.6057817211E-01
    34  -4.1916544200E-02  7.5420851883E-01  -5.6040733875E-01
    35  -4.2788466587E-02  -7.5360079645E-01  -5.6057818419E-01
    36  4.1916492509E-02  -7.5420856316E-01  5.6040730467E-01
    37  -9.1478856350E-01  7.7929043122E-01  -8.2150537564E-02
    38  9.1960951081E-01  7.9103436760E-01  7.5999393563E-02
    39  9.1478850394E-01  -7.7929046695E-01  8.2150798162E-02
    40  -9.1960900738E-01  -7.9103473708E-01  -7.5998943720E-02
    41  -6.3977854993E-01  7.7732961246E-01  4.6019134694E-02
    42  6.4146890710E-01  7.7782963322E-01  -4.7985930389E-02
    43  6.3977861318E-01  -7.7732948127E-01  -4.6019179596E-02
    44  -6.4146879555E-01  -7.7782960997E-01  4.7985939903E-02
    45  -1.0009129320E+00  2.2400637125E-02  -6.5283424546E-01
    46  1.1272455307E+00  9.8714361308E-02  7.6753700956E-01
    47  1.0009107445E+00  -2.2401187778E-02  6.5283255803E-01
    48  -1.1272453270E+00  -9.8714359438E-02  -7.6753725340E-01
    49  -3.0413469071E-01  -8.8158265437E-01  1.7549643965E+00
    50  1.2167890212E+00  -3.3052256304E-02  -4.7058199714E+00
    51  3.0413302761E-01  8.8158034081E-01  -1.7549629485E+00
    52  -1.2167885837E+00  3.3051844821E-02  4.7058206409E+00
    53  -2.1420518687E-01  -6.1720691856E-01  -2.4747884634E-01
    54  1.4297093431E-01  -5.9917386773E-01  2.8426716935E-01
    55  2.1420539358E-01  6.1720770966E-01  2.4747889688E-01
    56  -1.4297093226E-01  5.9917377533E-01  -2.8426711723E-01
    57  4.2821823600E-01  -8.5959841840E-03  2.2278057082E-01
    58  1.0310603591E+00  1.6708373034E-01  9.0119472533E-01
    59  -4.2821755161E-01  8.5956010140E-03  -2.2277995461E-01
    60  -1.0310610795E+00  -1.6708398322E-01  -9.0119546673E-01
    61  -5.3966881227E-01  4.5169362964E-01  2.8147049721E-01
    62  -1.6789061690E+00  -6.5510686797E-01  1.2496803229E+00
    63  5.3966921067E-01  -4.5169387754E-01  -2.8147039514E-01
    64  1.6789062910E+00  6.5510700873E-01  -1.2496799825E+00
    65  1.5500307885E+00  -9.4707424064E-01  -8.0651356331E-01
    66  -1.9997967616E+00  -6.6123596767E-01  2.2753499803E+00
    67  -1.5500300108E+00  9.4707330120E-01  8.0651222363E-01
    68  1.9997957513E+00  6.6123771634E-01  -2.2753479864E+00
    69  -1.2136479478E-01  -7.2210580099E-01  1.8848544358E-02
    70  1.8759707084E-01  -8.1464362625E-01  -4.3685782390E-02
    71  1.2136500022E-01  7.2210569855E-01  -1.8848618555E-02
    72  -1.8759720358E-01  8.1464302229E-01  4.3686050929E-02
    73  1.0753873366E-01  4.0033591757E-01  -6.5792451068E-01
    74  1.8372571015E-01  9.1341972731E-02  -5.8428752928E-01
    75  -1.0753876070E-01  -4.0033554186E-01  6.5792410270E-01
    76  -1.8372520970E-01  -9.1342607525E-02  5.8428577407E-01
    77  3.6250672734E-01  1.7451945935E-02  2.8267135900E-01
    78  -4.6695412912E-01  5.0294899810E-02  -3.4570193086E-01
    79  -3.6250603669E-01  -1.7451959861E-02  -2.8267123925E-01
    80  4.6695432807E-01  -5.0294918624E-02  3.4570202976E-01
    81  8.1978203507E-01  1.7979197290E+00  4.6248692621E-01
    82  -8.2219872294E-01  1.8299842783E+00  -4.5872263782E-01
    83  -8.1978315466E-01  -1.7979165754E+00  -4.6248427627E-01
    84  8.2219915175E-01  -1.8299842349E+00  4.5872248213E-01
    85  4.8551170974E-01  -4.9697013905E-02  2.6472702178E-01
    86  -4.9457157187E-01  -3.5047487028E-02  -2.6104573805E-01
    87  -4.8551060810E-01  4.9697031316E-02  -2.6472638636E-01
    88  4.9457121858E-01  3.5047505802E-02  2.6104564364E-01
    89  7.9928239681E-02  2.6575981682E-01  -7.0151779374E-01
    90  -8.0598241757E-02  2.7916950893E-01  7.0498720555E-01
    91  -7.9927994907E-02  -2.6575868766E-01  7.0151645909E-01
    92  8.0598413583E-02  -2.7916927780E-01  -7.0498732828E-01
    93  -4.1191353286E-01  3.0608650699E-01  4.8499212230E-01
    94  4.1353686155E-01  3.2115479091E-01  -4.8256948842E-01
    95  4.1191434811E-01  -3.0608763759E-01  -4.8499272795E-01
    96  -4.1353658115E-01  -3.2115483368E-01  4.8256937237E-01
  Stress tensor (eV/A^3):
  7.0091301923E-02  -1.9795022771E-03  2.1788105309E-02
  -1.9795022771E-03  7.6971789973E-02  -1.9322268301E-04
  2.1788105309E-02  -1.9322268301E-04  5.6909380297E-02
