  Invoking FHI-aims ...
  | Number of atoms                   :  96
  ...scf iterations...
  | Total energy corrected        :   -9.578325141769E+01 eV
  ...
  Total atomic forces (unitary forces cleaned)
     1  -2.8464284278E-01  6.0665231296E-01  1.8634723301E-01
     2  2.2139336775E-01  5.6867215832E-01  -1.9304522377E-01
     3  2.8464288160E-01  -6.0665221892E-01  -1.8634718288E-01
     4  -2.2139321094E-01  -5.6867200726E-01  1.9304529758E-01
     5  -8.3008625264E-01  1.6458961460E+00  3.1538768062E-01
     6  8.5009855420E-01  6.6180744748E-01  1.1132398823E-01
     7  8.3008670094E-01  -1.6458959975E+00  -3.1538721256E-01
     8  -8.5009865411E-01  -6.6180758997E-01  -1.1132367626E-01
     9  -3.7537102575E-01  2.4078499233E-01  -1.8083163796E-01
    10  9.9694262157E-01  6.2104775602E-01  1.4516453357E-01
    11  3.7537053075E-01  -2.4078494416E-01  1.8083121416E-01
    12  -9.9694285423E-01  -6.2104772794E-01  -1.4516441871E-01
    13  -5.2706638716E-01  -1.0260475866E+00  -1.0757119564E+00
    14  -9.8928838527E-02  -1.4464392113E+00  1.1481988722E+00
    15  5.2706573285E-01  1.0260477694E+00  1.0757116559E+00
    16  9.8928610780E-02  1.4464393801E+00  -1.1481983783E+00
    17  4.0291295764E-01  -5.4038435405E-01  -3.8605901227E-02
    18  -2.8905080607E-01  -6.1807690947E-01  4.6179077266E-01
    19  -4.0291219883E-01  5.4038434619E-01  3.8606401054E-02
    20  2.8905062745E-01  6.1807668939E-01  -4.6179103666E-01
    21  6.5450067378E-01  -1.2424761172E+00  -2.4386251212E-01
    22  -6.4765118609E-01  -1.3301399818E+00  3.0814941956E-01
    23  -6.5450118348E-01  1.2424763738E+00  2.4386213215E-01
    24  6.4765118214E-01  1.3301402215E+00  -3.0814963221E-01
    25  8.7667174852E-01  5.4044505601E-02  7.1185923379E-01
    26  -9.1791015261E-01  1.3689796951E-01  -1.0847154917E+00
    27  -8.7667385002E-01  -5.4044805412E-02  -7.1186077480E-01
    28  9.1791107680E-01  -1.3689752281E-01  1.0847151906E+00
    29  4.8848916191E-01  3.2787913584E-01  5.9924253925E-01
    30  -4.5911006616E-01  3.8495937241E-01  -6.2043868835E-01
    31  -4.8848896405E-01  -3.2787914798E-01  -5.9924266707E-01
    32  4.5910942652E-01  -3.8495958894E-01  6.2043832412E-01
    33  2.0485722833E-01  1.1001951866E+00  9.7193827079E-01
    34  -2.0260685823E-01  1.1272689284E+00  -9.5572977835E-01
    35  -2.0485687814E-01  -1.1001954272E+00  -9.7193793012E-01
    36  2.0260717341E-01  -1.1272692322E+00  9.5572964370E-01
    37  -7.0051346976E-01  4.6685509329E-01  -2.2378297072E-01
    38  7.2046336425E-01  5.1181851944E-01  1.9834704513E-01
    39  7.0051354114E-01  -4.6685535234E-01  2.2378304777E-01
    40  -7.2046323420E-01  -5.1181887173E-01  -1.9834654411E-01
    41  -9.1547312768E-01  1.1998882821E+00  8.5378060039E-02
    42  9.2123904222E-01  1.2120343006E+00  -8.2463601211E-02
    43  9.1547303593E-01  -1.1998880706E+00  -8.5377852421E-02
    44  -9.2123874301E-01  -1.2120339864E+00  8.2463751776E-02
    45  4.3155246917E-01  3.1787485245E-01  1.0713625086E+00
    46  -4.0268018850E+00  -2.6015262483E+00  -2.8167205648E+00
    47  -4.3149072586E-01  -3.1786234729E-01  -1.0712833843E+00
    48  4.0268025615E+00  2.6015267307E+00  2.8167014347E+00
    49  -5.9161915434E+00  4.4172105343E-01  1.8697169638E+00
    50  1.0947289959E+01  6.9214628246E+00  -7.7248913035E+00
    51  5.9160652304E+00  -4.4170021426E-01  -1.8697216210E+00
    52  -1.0947333179E+01  -6.9214781101E+00  7.7249386145E+00
    53  1.8843409129E+00  4.3390099786E-01  -1.4772907339E+00
    54  -2.3923295379E-01  -1.1686333620E+00  6.5639840563E-01
    55  -1.8842729153E+00  -4.3387985851E-01  1.4772402544E+00
    56  2.3925673554E-01  1.1686163207E+00  -6.5641250569E-01
    57  1.8131909249E+00  -2.8269377356E-01  1.7306025191E+00
    58  1.5221255478E-01  1.2691800961E-01  8.6253976725E-01
    59  -1.8131744175E+00  2.8268998825E-01  -1.7305868996E+00
    60  -1.5221562889E-01  -1.2691832418E-01  -8.6254171336E-01
    61  1.2861201264E+00  -4.7722835532E-01  -1.1190910262E+00
    62  -9.9790015706E+00  -6.6338546182E+00  7.4345572223E+00
    63  -1.2860704715E+00  4.7718958364E-01  1.1190452633E+00
    64  9.9790226294E+00  6.6338820380E+00  -7.4345688729E+00
    65  -8.5485987903E-01  -1.9311200435E+00  -1.2028047163E+00
    66  5.1128222242E+00  1.4363050384E+00  -1.4141888448E-01
    67  8.5482217467E-01  1.9311119700E+00  1.2027829261E+00
    68  -5.1128226786E+00  -1.4363042301E+00  1.4142586727E-01
    69  -1.8670294222E-01  1.6726851723E-01  5.4295234036E-01
    70  -3.0334618272E-02  6.0340413336E-01  -6.6934016326E-01
    71  1.8671817484E-01  -1.6723625070E-01  -5.4294937730E-01
    72  3.0335626824E-02  -6.0340534661E-01  6.6933911916E-01
    73  4.7754637329E-01  2.8682761773E-01  -7.4702250273E-01
    74  -8.5128982051E-01  1.3977129093E-01  1.5526418251E+00
    75  -4.7755022966E-01  -2.8681831181E-01  7.4704515052E-01
    76  8.5129050010E-01  -1.3976769123E-01  -1.5526487338E+00
    77  1.4203182787E+00  -3.9555850977E-01  8.0798990899E-01
    78  -1.6340171082E+00  -5.3809595991E-01  -1.0086769470E+00
    79  -1.4203166025E+00  3.9555720153E-01  -8.0799017774E-01
    80  1.6340178893E+00  5.3809604016E-01  1.0086766772E+00
    81  -1.6542753055E+00  4.2419283095E+00  -2.0198459762E+00
    82  1.8425009639E+00  4.2973878460E+00  2.1900768710E+00
    83  1.6542019735E+00  -4.2418442341E+00  2.0198173402E+00
    84  -1.8425008778E+00  -4.2973904900E+00  -2.1900850593E+00
    85  1.8494371886E+00  1.4275305776E-01  9.0956607000E-01
    86  -1.8842710428E+00  1.8572498204E-01  -8.3893369948E-01
    87  -1.8494294093E+00  -1.4275298316E-01  -9.0956245335E-01
    88  1.8842708010E+00  -1.8572495022E-01  8.3893364557E-01
    89  9.7679165973E-02  -6.8639247613E-01  -9.6546596182E-02
    90  -1.2670488026E-01  -6.3160583595E-01  1.7659216629E-01
    91  -9.7681084905E-02  6.8637664978E-01  9.6563346329E-02
    92  1.2670350219E-01  6.3160868456E-01  -1.7658562364E-01
    93  3.8489366140E-01  -2.2980256659E+00  4.8169955159E-01
    94  -4.1660133110E-01  -2.1877537541E+00  -4.3872499751E-01
    95  -3.8486908713E-01  2.2979128903E+00  -4.8168784066E-01
    96  4.1660112994E-01  2.1877550808E+00  4.3872737536E-01
  Stress tensor (eV/A^3):
  5.7225754378E-02  -1.7471679173E-02  5.1128332743E-02
  -1.7471679173E-02  4.0454943232E-02  1.1234770525E-02
  5.1128332743E-02  1.1234770525E-02  4.5420051356E-02
