64 
Energy: 3.0196144481910663e+00 
Mg	  0.000000000000 	  0.000000000000 	  0.000000000000 	
Mg	  1.000000000000 	  0.000000000000 	  2.980000000000 	
Mg	  0.000000000000 	  3.980000000000 	  0.000000000000 	
Mg	  1.000000000000 	  3.980000000000 	  2.980000000000 	
Mg	  3.980000000000 	  0.000000000000 	  0.000000000000 	
Mg	  4.980000000000 	  0.000000000000 	  2.980000000000 	
Mg	  3.980000000000 	  3.980000000000 	  0.000000000000 	
Mg	  4.980000000000 	  3.980000000000 	  2.980000000000 	
Mg	  1.697399985663 	  1.794933323775 	  0.000000000000 	
Mg	  2.697399985663 	  1.794933323775 	  2.980000000000 	
Mg	  1.697399985663 	  5.774933323775 	  0.000000000000 	
Mg	  2.697399985663 	  5.774933323775 	  2.980000000000 	
Mg	  5.677399985663 	  1.794933323775 	  0.000000000000 	
Mg	  6.677399985663 	  1.794933323775 	  2.980000000000 	
Mg	  5.677399985663 	  5.774933323775 	  0.000000000000 	
Mg	  6.677399985663 	  5.774933323775 	  2.980000000000 	
Mg	  2.477666690562 	  0.000000000000 	  1.502333309438 	
Mg	  3.477666690562 	  0.000000000000 	  4.482333309438 	
Mg	  2.477666690562 	  3.980000000000 	  1.502333309438 	
Mg	  3.477666690562 	  3.980000000000 	  4.482333309438 	
Mg	  6.457666690562 	  0.000000000000 	  1.502333309438 	
Mg	  7.457666690562 	  0.000000000000 	  4.482333309438 	
Mg	  6.457666690562 	  3.980000000000 	  1.502333309438 	
Mg	  7.457666690562 	  3.980000000000 	  4.482333309438 	
Mg	  0.487666690562 	  1.990000000000 	  1.502333309438 	
Mg	  1.487666690562 	  1.990000000000 	  4.482333309438 	
Mg	  0.487666690562 	  5.970000000000 	  1.502333309438 	
Mg	  1.487666690562 	  5.970000000000 	  4.482333309438 	
Mg	  4.467666690562 	  1.990000000000 	  1.502333309438 	
Mg	  5.467666690562 	  1.990000000000 	  4.482333309438 	
Mg	  4.467666690562 	  5.970000000000 	  1.502333309438 	
Mg	  5.467666690562 	  5.970000000000 	  4.482333309438 	
O	  1.990000000000 	  0.000000000000 	  0.000000000000 	
O	  2.990000000000 	  0.000000000000 	  2.980000000000 	
O	  1.990000000000 	  3.980000000000 	  0.000000000000 	
O	  2.990000000000 	  3.980000000000 	  2.980000000000 	
O	  5.970000000000 	  0.000000000000 	  0.000000000000 	
O	  6.970000000000 	  0.000000000000 	  2.980000000000 	
O	  5.970000000000 	  3.980000000000 	  0.000000000000 	
O	  6.970000000000 	  3.980000000000 	  2.980000000000 	
O	  0.000000000000 	  1.990000000000 	  0.000000000000 	
O	  1.000000000000 	  1.990000000000 	  2.980000000000 	
O	  0.000000000000 	  5.970000000000 	  0.000000000000 	
O	  1.000000000000 	  5.970000000000 	  2.980000000000 	
O	  3.980000000000 	  1.990000000000 	  0.000000000000 	
O	  4.980000000000 	  1.990000000000 	  2.980000000000 	
O	  3.980000000000 	  5.970000000000 	  0.000000000000 	
O	  4.980000000000 	  5.970000000000 	  2.980000000000 	
O	  0.487666690562 	  0.000000000000 	  1.502333309438 	
O	  1.487666690562 	  0.000000000000 	  4.482333309438 	
O	  0.487666690562 	  3.980000000000 	  1.502333309438 	
O	  1.487666690562 	  3.980000000000 	  4.482333309438 	
O	  4.467666690562 	  0.000000000000 	  1.502333309438 	
O	  5.467666690562 	  0.000000000000 	  4.482333309438 	
O	  4.467666690562 	  3.980000000000 	  1.502333309438 	
O	  5.467666690562 	  3.980000000000 	  4.482333309438 	
O	  2.867800043012 	  1.349205968601 	  1.502333309438 	
O	  3.867800043012 	  1.349205968601 	  4.482333309438 	
O	  2.867800043012 	  5.329205968601 	  1.502333309438 	
O	  3.867800043012 	  5.329205968601 	  4.482333309438 	
O	  6.847800043012 	  1.349205968601 	  1.502333309438 	
O	  7.847800043012 	  1.349205968601 	  4.482333309438 	
O	  6.847800043012 	  5.329205968601 	  1.502333309438 	
O	  7.847800043012 	  5.329205968601 	  4.482333309438 	
64 
Energy: 2.9454326154167934e+00 
Mg	  0.000000000000 	  0.000000000000 	  0.000000000000 	
Mg	  1.000000000000 	  0.000000000000 	  2.980000000000 	
Mg	  0.000000000000 	  3.980000000000 	  0.000000000000 	
Mg	  1.000000000000 	  3.980000000000 	  2.980000000000 	
Mg	  3.980000000000 	  0.000000000000 	  0.000000000000 	
Mg	  4.980000000000 	  0.000000000000 	  2.980000000000 	
Mg	  3.980000000000 	  3.980000000000 	  0.000000000000 	
Mg	  4.980000000000 	  3.980000000000 	  2.980000000000 	
Mg	  1.724070233366 	  1.815526128715 	  0.000000000000 	
Mg	  2.724070233366 	  1.815526128715 	  2.980000000000 	
Mg	  1.724070233366 	  5.795526128715 	  0.000000000000 	
Mg	  2.724070233366 	  5.795526128715 	  2.980000000000 	
Mg	  5.704070233366 	  1.815526128715 	  0.000000000000 	
Mg	  6.704070233366 	  1.815526128715 	  2.980000000000 	
Mg	  5.704070233366 	  5.795526128715 	  0.000000000000 	
Mg	  6.704070233366 	  5.795526128715 	  2.980000000000 	
Mg	  2.455717396157 	  0.000000000000 	  1.541158442669 	
Mg	  3.455717396157 	  0.000000000000 	  4.521158442669 	
Mg	  2.455717396157 	  3.980000000000 	  1.541158442669 	
Mg	  3.455717396157 	  3.980000000000 	  4.521158442669 	
Mg	  6.435717396157 	  0.000000000000 	  1.541158442669 	
Mg	  7.435717396157 	  0.000000000000 	  4.521158442669 	
Mg	  6.435717396157 	  3.980000000000 	  1.541158442669 	
Mg	  7.435717396157 	  3.980000000000 	  4.521158442669 	
Mg	  0.457279476744 	  1.998437919413 	  1.541158442669 	
Mg	  1.457279476744 	  1.998437919413 	  4.521158442669 	
Mg	  0.457279476744 	  5.978437919413 	  1.541158442669 	
Mg	  1.457279476744 	  5.978437919413 	  4.521158442669 	
Mg	  4.437279476744 	  1.998437919413 	  1.541158442669 	
Mg	  5.437279476744 	  1.998437919413 	  4.521158442669 	
Mg	  4.437279476744 	  5.978437919413 	  1.541158442669 	
Mg	  5.437279476744 	  5.978437919413 	  4.521158442669 	
O	  1.998437919413 	  0.000000000000 	  0.000000000000 	
O	  2.998437919413 	  0.000000000000 	  2.980000000000 	
O	  1.998437919413 	  3.980000000000 	  0.000000000000 	
O	  2.998437919413 	  3.980000000000 	  2.980000000000 	
O	  5.978437919413 	  0.000000000000 	  0.000000000000 	
O	  6.978437919413 	  0.000000000000 	  2.980000000000 	
O	  5.978437919413 	  3.980000000000 	  0.000000000000 	
O	  6.978437919413 	  3.980000000000 	  2.980000000000 	
O	  0.000000000000 	  1.998437919413 	  0.000000000000 	
O	  1.000000000000 	  1.998437919413 	  2.980000000000 	
O	  0.000000000000 	  5.978437919413 	  0.000000000000 	
O	  1.000000000000 	  5.978437919413 	  2.980000000000 	
O	  3.980000000000 	  1.998437919413 	  0.000000000000 	
O	  4.980000000000 	  1.998437919413 	  2.980000000000 	
O	  3.980000000000 	  5.978437919413 	  0.000000000000 	
O	  4.980000000000 	  5.978437919413 	  2.980000000000 	
O	  0.457279476744 	  0.000000000000 	  1.541158442669 	
O	  1.457279476744 	  0.000000000000 	  4.521158442669 	
O	  0.457279476744 	  3.980000000000 	  1.541158442669 	
O	  1.457279476744 	  3.980000000000 	  4.521158442669 	
O	  4.437279476744 	  0.000000000000 	  1.541158442669 	
O	  5.437279476744 	  0.000000000000 	  4.521158442669 	
O	  4.437279476744 	  3.980000000000 	  1.541158442669 	
O	  5.437279476744 	  3.980000000000 	  4.521158442669 	
O	  2.821540977552 	  1.397572686971 	  1.541158442669 	
O	  3.821540977552 	  1.397572686971 	  4.521158442669 	
O	  2.821540977552 	  5.377572686971 	  1.541158442669 	
O	  3.821540977552 	  5.377572686971 	  4.521158442669 	
O	  6.801540977552 	  1.397572686971 	  1.541158442669 	
O	  7.801540977552 	  1.397572686971 	  4.521158442669 	
O	  6.801540977552 	  5.377572686971 	  1.541158442669 	
O	  7.801540977552 	  5.377572686971 	  4.521158442669 	
64 
Energy: 3.3028284530743588e+00 
Mg	  0.000000000000 	  0.000000000000 	  0.000000000000 	
Mg	  1.000000000000 	  0.000000000000 	  2.980000000000 	
Mg	  0.000000000000 	  3.980000000000 	  0.000000000000 	
Mg	  1.000000000000 	  3.980000000000 	  2.980000000000 	
Mg	  3.980000000000 	  0.000000000000 	  0.000000000000 	
Mg	  4.980000000000 	  0.000000000000 	  2.980000000000 	
Mg	  3.980000000000 	  3.980000000000 	  0.000000000000 	
Mg	  4.980000000000 	  3.980000000000 	  2.980000000000 	
Mg	  1.750775441096 	  1.836139224236 	  0.000000000000 	
Mg	  2.750775441096 	  1.836139224236 	  2.980000000000 	
Mg	  1.750775441096 	  5.816139224236 	  0.000000000000 	
Mg	  2.750775441096 	  5.816139224236 	  2.980000000000 	
Mg	  5.730775441096 	  1.836139224236 	  0.000000000000 	
Mg	  6.730775441096 	  1.836139224236 	  2.980000000000 	
Mg	  5.730775441096 	  5.816139224236 	  0.000000000000 	
Mg	  6.730775441096 	  5.816139224236 	  2.980000000000 	
Mg	  2.433685706218 	  0.000000000000 	  1.580047874816 	
Mg	  3.433685706218 	  0.000000000000 	  4.560047874816 	
Mg	  2.433685706218 	  3.980000000000 	  1.580047874816 	
Mg	  3.433685706218 	  3.980000000000 	  4.560047874816 	
Mg	  6.413685706218 	  0.000000000000 	  1.580047874816 	
Mg	  7.413685706218 	  0.000000000000 	  4.560047874816 	
Mg	  6.413685706218 	  3.980000000000 	  1.580047874816 	
Mg	  7.413685706218 	  3.980000000000 	  4.560047874816 	
Mg	  0.426818915701 	  2.006866790517 	  1.580047874816 	
Mg	  1.426818915701 	  2.006866790517 	  4.560047874816 	
Mg	  0.426818915701 	  5.986866790517 	  1.580047874816 	
Mg	  1.426818915701 	  5.986866790517 	  4.560047874816 	
Mg	  4.406818915701 	  2.006866790517 	  1.580047874816 	
Mg	  5.406818915701 	  2.006866790517 	  4.560047874816 	
Mg	  4.406818915701 	  5.986866790517 	  1.580047874816 	
Mg	  5.406818915701 	  5.986866790517 	  4.560047874816 	
O	  2.006866790517 	  0.000000000000 	  0.000000000000 	
O	  3.006866790517 	  0.000000000000 	  2.980000000000 	
O	  2.006866790517 	  3.980000000000 	  0.000000000000 	
O	  3.006866790517 	  3.980000000000 	  2.980000000000 	
O	  5.986866790517 	  0.000000000000 	  0.000000000000 	
O	  6.986866790517 	  0.000000000000 	  2.980000000000 	
O	  5.986866790517 	  3.980000000000 	  0.000000000000 	
O	  6.986866790517 	  3.980000000000 	  2.980000000000 	
O	  0.000000000000 	  2.006866790517 	  0.000000000000 	
O	  1.000000000000 	  2.006866790517 	  2.980000000000 	
O	  0.000000000000 	  5.986866790517 	  0.000000000000 	
O	  1.000000000000 	  5.986866790517 	  2.980000000000 	
O	  3.980000000000 	  2.006866790517 	  0.000000000000 	
O	  4.980000000000 	  2.006866790517 	  2.980000000000 	
O	  3.980000000000 	  5.986866790517 	  0.000000000000 	
O	  4.980000000000 	  5.986866790517 	  2.980000000000 	
O	  0.426818915701 	  0.000000000000 	  1.580047874816 	
O	  1.426818915701 	  0.000000000000 	  4.560047874816 	
O	  0.426818915701 	  3.980000000000 	  1.580047874816 	
O	  1.426818915701 	  3.980000000000 	  4.560047874816 	
O	  4.406818915701 	  0.000000000000 	  1.580047874816 	
O	  5.406818915701 	  0.000000000000 	  4.560047874816 	
O	  4.406818915701 	  3.980000000000 	  1.580047874816 	
O	  5.406818915701 	  3.980000000000 	  4.560047874816 	
O	  2.775140838779 	  1.446026735285 	  1.580047874816 	
O	  3.775140838779 	  1.446026735285 	  4.560047874816 	
O	  2.775140838779 	  5.426026735285 	  1.580047874816 	
O	  3.775140838779 	  5.426026735285 	  4.560047874816 	
O	  6.755140838779 	  1.446026735285 	  1.580047874816 	
O	  7.755140838779 	  1.446026735285 	  4.560047874816 	
O	  6.755140838779 	  5.426026735285 	  1.580047874816 	
O	  7.755140838779 	  5.426026735285 	  4.560047874816 	
64 
Energy: 3.8918974564095374e+00 
Mg	  0.000000000000 	  0.000000000000 	  0.000000000000 	
Mg	  1.000000000000 	  0.000000000000 	  2.980000000000 	
Mg	  0.000000000000 	  3.980000000000 	  0.000000000000 	
Mg	  1.000000000000 	  3.980000000000 	  2.980000000000 	
Mg	  3.980000000000 	  0.000000000000 	  0.000000000000 	
Mg	  4.980000000000 	  0.000000000000 	  2.980000000000 	
Mg	  3.980000000000 	  3.980000000000 	  0.000000000000 	
Mg	  4.980000000000 	  3.980000000000 	  2.980000000000 	
Mg	  1.777493954396 	  1.856762979624 	  0.000000000000 	
Mg	  2.777493954396 	  1.856762979624 	  2.980000000000 	
Mg	  1.777493954396 	  5.836762979624 	  0.000000000000 	
Mg	  2.777493954396 	  5.836762979624 	  2.980000000000 	
Mg	  5.757493954396 	  1.856762979624 	  0.000000000000 	
Mg	  6.757493954396 	  1.856762979624 	  2.980000000000 	
Mg	  5.757493954396 	  5.836762979624 	  0.000000000000 	
Mg	  6.757493954396 	  5.836762979624 	  2.980000000000 	
Mg	  2.411646156223 	  0.000000000000 	  1.618955903939 	
Mg	  3.411646156223 	  0.000000000000 	  4.598955903939 	
Mg	  2.411646156223 	  3.980000000000 	  1.618955903939 	
Mg	  3.411646156223 	  3.980000000000 	  4.598955903939 	
Mg	  6.391646156223 	  0.000000000000 	  1.618955903939 	
Mg	  7.391646156223 	  0.000000000000 	  4.598955903939 	
Mg	  6.391646156223 	  3.980000000000 	  1.618955903939 	
Mg	  7.391646156223 	  3.980000000000 	  4.598955903939 	
Mg	  0.396345126142 	  2.015301030081 	  1.618955903939 	
Mg	  1.396345126142 	  2.015301030081 	  4.598955903939 	
Mg	  0.396345126142 	  5.995301030081 	  1.618955903939 	
Mg	  1.396345126142 	  5.995301030081 	  4.598955903939 	
Mg	  4.376345126142 	  2.015301030081 	  1.618955903939 	
Mg	  5.376345126142 	  2.015301030081 	  4.598955903939 	
Mg	  4.376345126142 	  5.995301030081 	  1.618955903939 	
Mg	  5.376345126142 	  5.995301030081 	  4.598955903939 	
O	  2.015301030081 	  0.000000000000 	  0.000000000000 	
O	  3.015301030081 	  0.000000000000 	  2.980000000000 	
O	  2.015301030081 	  3.980000000000 	  0.000000000000 	
O	  3.015301030081 	  3.980000000000 	  2.980000000000 	
O	  5.995301030081 	  0.000000000000 	  0.000000000000 	
O	  6.995301030081 	  0.000000000000 	  2.980000000000 	
O	  5.995301030081 	  3.980000000000 	  0.000000000000 	
O	  6.995301030081 	  3.980000000000 	  2.980000000000 	
O	  0.000000000000 	  2.015301030081 	  0.000000000000 	
O	  1.000000000000 	  2.015301030081 	  2.980000000000 	
O	  0.000000000000 	  5.995301030081 	  0.000000000000 	
O	  1.000000000000 	  5.995301030081 	  2.980000000000 	
O	  3.980000000000 	  2.015301030081 	  0.000000000000 	
O	  4.980000000000 	  2.015301030081 	  2.980000000000 	
O	  3.980000000000 	  5.995301030081 	  0.000000000000 	
O	  4.980000000000 	  5.995301030081 	  2.980000000000 	
O	  0.396345126142 	  0.000000000000 	  1.618955903939 	
O	  1.396345126142 	  0.000000000000 	  4.598955903939 	
O	  0.396345126142 	  3.980000000000 	  1.618955903939 	
O	  1.396345126142 	  3.980000000000 	  4.598955903939 	
O	  4.376345126142 	  0.000000000000 	  1.618955903939 	
O	  5.376345126142 	  0.000000000000 	  4.598955903939 	
O	  4.376345126142 	  3.980000000000 	  1.618955903939 	
O	  5.376345126142 	  3.980000000000 	  4.598955903939 	
O	  2.728722257137 	  1.494503534330 	  1.618955903939 	
O	  3.728722257137 	  1.494503534330 	  4.598955903939 	
O	  2.728722257137 	  5.474503534330 	  1.618955903939 	
O	  3.728722257137 	  5.474503534330 	  4.598955903939 	
O	  6.708722257137 	  1.494503534330 	  1.618955903939 	
O	  7.708722257137 	  1.494503534330 	  4.598955903939 	
O	  6.708722257137 	  5.474503534330 	  1.618955903939 	
O	  7.708722257137 	  5.474503534330 	  4.598955903939 	
64 
Energy: 4.5493712143605576e+00 
Mg	  0.000000000000 	  0.000000000000 	  0.000000000000 	
Mg	  1.000000000000 	  0.000000000000 	  2.980000000000 	
Mg	  0.000000000000 	  3.980000000000 	  0.000000000000 	
Mg	  1.000000000000 	  3.980000000000 	  2.980000000000 	
Mg	  3.980000000000 	  0.000000000000 	  0.000000000000 	
Mg	  4.980000000000 	  0.000000000000 	  2.980000000000 	
Mg	  3.980000000000 	  3.980000000000 	  0.000000000000 	
Mg	  4.980000000000 	  3.980000000000 	  2.980000000000 	
Mg	  1.804223521421 	  1.877395209158 	  0.000000000000 	
Mg	  2.804223521421 	  1.877395209158 	  2.980000000000 	
Mg	  1.804223521421 	  5.857395209158 	  0.000000000000 	
Mg	  2.804223521421 	  5.857395209158 	  2.980000000000 	
Mg	  5.784223521421 	  1.877395209158 	  0.000000000000 	
Mg	  6.784223521421 	  1.877395209158 	  2.980000000000 	
Mg	  5.784223521421 	  5.857395209158 	  0.000000000000 	
Mg	  6.784223521421 	  5.857395209158 	  2.980000000000 	
Mg	  2.389597023323 	  0.000000000000 	  1.657880145945 	
Mg	  3.389597023323 	  0.000000000000 	  4.637880145945 	
Mg	  2.389597023323 	  3.980000000000 	  1.657880145945 	
Mg	  3.389597023323 	  3.980000000000 	  4.637880145945 	
Mg	  6.369597023323 	  0.000000000000 	  1.657880145945 	
Mg	  7.369597023323 	  0.000000000000 	  4.637880145945 	
Mg	  6.369597023323 	  3.980000000000 	  1.657880145945 	
Mg	  7.369597023323 	  3.980000000000 	  4.637880145945 	
Mg	  0.365858438689 	  2.023738584634 	  1.657880145945 	
Mg	  1.365858438689 	  2.023738584634 	  4.637880145945 	
Mg	  0.365858438689 	  6.003738584634 	  1.657880145945 	
Mg	  1.365858438689 	  6.003738584634 	  4.637880145945 	
Mg	  4.345858438689 	  2.023738584634 	  1.657880145945 	
Mg	  5.345858438689 	  2.023738584634 	  4.637880145945 	
Mg	  4.345858438689 	  6.003738584634 	  1.657880145945 	
Mg	  5.345858438689 	  6.003738584634 	  4.637880145945 	
O	  2.023738584634 	  0.000000000000 	  0.000000000000 	
O	  3.023738584634 	  0.000000000000 	  2.980000000000 	
O	  2.023738584634 	  3.980000000000 	  0.000000000000 	
O	  3.023738584634 	  3.980000000000 	  2.980000000000 	
O	  6.003738584634 	  0.000000000000 	  0.000000000000 	
O	  7.003738584634 	  0.000000000000 	  2.980000000000 	
O	  6.003738584634 	  3.980000000000 	  0.000000000000 	
O	  7.003738584634 	  3.980000000000 	  2.980000000000 	
O	  0.000000000000 	  2.023738584634 	  0.000000000000 	
O	  1.000000000000 	  2.023738584634 	  2.980000000000 	
O	  0.000000000000 	  6.003738584634 	  0.000000000000 	
O	  1.000000000000 	  6.003738584634 	  2.980000000000 	
O	  3.980000000000 	  2.023738584634 	  0.000000000000 	
O	  4.980000000000 	  2.023738584634 	  2.980000000000 	
O	  3.980000000000 	  6.003738584634 	  0.000000000000 	
O	  4.980000000000 	  6.003738584634 	  2.980000000000 	
O	  0.365858438689 	  0.000000000000 	  1.657880145945 	
O	  1.365858438689 	  0.000000000000 	  4.637880145945 	
O	  0.365858438689 	  3.980000000000 	  1.657880145945 	
O	  1.365858438689 	  3.980000000000 	  4.637880145945 	
O	  4.345858438689 	  0.000000000000 	  1.657880145945 	
O	  5.345858438689 	  0.000000000000 	  4.637880145945 	
O	  4.345858438689 	  3.980000000000 	  1.657880145945 	
O	  5.345858438689 	  3.980000000000 	  4.637880145945 	
O	  2.682283774274 	  1.543000596197 	  1.657880145945 	
O	  3.682283774274 	  1.543000596197 	  4.637880145945 	
O	  2.682283774274 	  5.523000596197 	  1.657880145945 	
O	  3.682283774274 	  5.523000596197 	  4.637880145945 	
O	  6.662283774274 	  1.543000596197 	  1.657880145945 	
O	  7.662283774274 	  1.543000596197 	  4.637880145945 	
O	  6.662283774274 	  5.523000596197 	  1.657880145945 	
O	  7.662283774274 	  5.523000596197 	  4.637880145945 	
64 
Energy: 5.1471208068669547e+00 
Mg	  0.000000000000 	  0.000000000000 	  0.000000000000 	
Mg	  1.000000000000 	  0.000000000000 	  2.980000000000 	
Mg	  0.000000000000 	  3.980000000000 	  0.000000000000 	
Mg	  1.000000000000 	  3.980000000000 	  2.980000000000 	
Mg	  3.980000000000 	  0.000000000000 	  0.000000000000 	
Mg	  4.980000000000 	  0.000000000000 	  2.980000000000 	
Mg	  3.980000000000 	  3.980000000000 	  0.000000000000 	
Mg	  4.980000000000 	  3.980000000000 	  2.980000000000 	
Mg	  1.830960814112 	  1.898033485475 	  0.000000000000 	
Mg	  2.830960814112 	  1.898033485475 	  2.980000000000 	
Mg	  1.830960814112 	  5.878033485475 	  0.000000000000 	
Mg	  2.830960814112 	  5.878033485475 	  2.980000000000 	
Mg	  5.810960814112 	  1.898033485475 	  0.000000000000 	
Mg	  6.810960814112 	  1.898033485475 	  2.980000000000 	
Mg	  5.810960814112 	  5.878033485475 	  0.000000000000 	
Mg	  6.810960814112 	  5.878033485475 	  2.980000000000 	
Mg	  2.367542185012 	  0.000000000000 	  1.696815471387 	
Mg	  3.367542185012 	  0.000000000000 	  4.676815471387 	
Mg	  2.367542185012 	  3.980000000000 	  1.696815471387 	
Mg	  3.367542185012 	  3.980000000000 	  4.676815471387 	
Mg	  6.347542185012 	  0.000000000000 	  1.696815471387 	
Mg	  7.347542185012 	  0.000000000000 	  4.676815471387 	
Mg	  6.347542185012 	  3.980000000000 	  1.696815471387 	
Mg	  7.347542185012 	  3.980000000000 	  4.676815471387 	
Mg	  0.335363356813 	  2.032178828200 	  1.696815471387 	
Mg	  1.335363356813 	  2.032178828200 	  4.676815471387 	
Mg	  0.335363356813 	  6.012178828200 	  1.696815471387 	
Mg	  1.335363356813 	  6.012178828200 	  4.676815471387 	
Mg	  4.315363356813 	  2.032178828200 	  1.696815471387 	
Mg	  5.315363356813 	  2.032178828200 	  4.676815471387 	
Mg	  4.315363356813 	  6.012178828200 	  1.696815471387 	
Mg	  5.315363356813 	  6.012178828200 	  4.676815471387 	
O	  2.032178828200 	  0.000000000000 	  0.000000000000 	
O	  3.032178828200 	  0.000000000000 	  2.980000000000 	
O	  2.032178828200 	  3.980000000000 	  0.000000000000 	
O	  3.032178828200 	  3.980000000000 	  2.980000000000 	
O	  6.012178828200 	  0.000000000000 	  0.000000000000 	
O	  7.012178828200 	  0.000000000000 	  2.980000000000 	
O	  6.012178828200 	  3.980000000000 	  0.000000000000 	
O	  7.012178828200 	  3.980000000000 	  2.980000000000 	
O	  0.000000000000 	  2.032178828200 	  0.000000000000 	
O	  1.000000000000 	  2.032178828200 	  2.980000000000 	
O	  0.000000000000 	  6.012178828200 	  0.000000000000 	
O	  1.000000000000 	  6.012178828200 	  2.980000000000 	
O	  3.980000000000 	  2.032178828200 	  0.000000000000 	
O	  4.980000000000 	  2.032178828200 	  2.980000000000 	
O	  3.980000000000 	  6.012178828200 	  0.000000000000 	
O	  4.980000000000 	  6.012178828200 	  2.980000000000 	
O	  0.335363356813 	  0.000000000000 	  1.696815471387 	
O	  1.335363356813 	  0.000000000000 	  4.676815471387 	
O	  0.335363356813 	  3.980000000000 	  1.696815471387 	
O	  1.335363356813 	  3.980000000000 	  4.676815471387 	
O	  4.315363356813 	  0.000000000000 	  1.696815471387 	
O	  5.315363356813 	  0.000000000000 	  4.676815471387 	
O	  4.315363356813 	  3.980000000000 	  1.696815471387 	
O	  5.315363356813 	  3.980000000000 	  4.676815471387 	
O	  2.635832870463 	  1.591511377348 	  1.696815471387 	
O	  3.635832870463 	  1.591511377348 	  4.676815471387 	
O	  2.635832870463 	  5.571511377348 	  1.696815471387 	
O	  3.635832870463 	  5.571511377348 	  4.676815471387 	
O	  6.615832870463 	  1.591511377348 	  1.696815471387 	
O	  7.615832870463 	  1.591511377348 	  4.676815471387 	
O	  6.615832870463 	  5.571511377348 	  1.696815471387 	
O	  7.615832870463 	  5.571511377348 	  4.676815471387 	
64 
Energy: 5.5881449904711555e+00 
Mg	  0.000000000000 	  0.000000000000 	  0.000000000000 	
Mg	  1.000000000000 	  0.000000000000 	  2.980000000000 	
Mg	  0.000000000000 	  3.980000000000 	  0.000000000000 	
Mg	  1.000000000000 	  3.980000000000 	  2.980000000000 	
Mg	  3.980000000000 	  0.000000000000 	  0.000000000000 	
Mg	  4.980000000000 	  0.000000000000 	  2.980000000000 	
Mg	  3.980000000000 	  3.980000000000 	  0.000000000000 	
Mg	  4.980000000000 	  3.980000000000 	  2.980000000000 	
Mg	  1.857703356305 	  1.918675836821 	  0.000000000000 	
Mg	  2.857703356305 	  1.918675836821 	  2.980000000000 	
Mg	  1.857703356305 	  5.898675836821 	  0.000000000000 	
Mg	  2.857703356305 	  5.898675836821 	  2.980000000000 	
Mg	  5.837703356305 	  1.918675836821 	  0.000000000000 	
Mg	  6.837703356305 	  1.918675836821 	  2.980000000000 	
Mg	  5.837703356305 	  5.898675836821 	  0.000000000000 	
Mg	  6.837703356305 	  5.898675836821 	  2.980000000000 	
Mg	  2.345483200435 	  0.000000000000 	  1.735758395272 	
Mg	  3.345483200435 	  0.000000000000 	  4.715758395272 	
Mg	  2.345483200435 	  3.980000000000 	  1.735758395272 	
Mg	  3.345483200435 	  3.980000000000 	  4.715758395272 	
Mg	  6.325483200435 	  0.000000000000 	  1.735758395272 	
Mg	  7.325483200435 	  0.000000000000 	  4.715758395272 	
Mg	  6.325483200435 	  3.980000000000 	  1.735758395272 	
Mg	  7.325483200435 	  3.980000000000 	  4.715758395272 	
Mg	  0.304862402581 	  2.040620797854 	  1.735758395272 	
Mg	  1.304862402581 	  2.040620797854 	  4.715758395272 	
Mg	  0.304862402581 	  6.020620797854 	  1.735758395272 	
Mg	  1.304862402581 	  6.020620797854 	  4.715758395272 	
Mg	  4.284862402581 	  2.040620797854 	  1.735758395272 	
Mg	  5.284862402581 	  2.040620797854 	  4.715758395272 	
Mg	  4.284862402581 	  6.020620797854 	  1.735758395272 	
Mg	  5.284862402581 	  6.020620797854 	  4.715758395272 	
O	  2.040620797854 	  0.000000000000 	  0.000000000000 	
O	  3.040620797854 	  0.000000000000 	  2.980000000000 	
O	  2.040620797854 	  3.980000000000 	  0.000000000000 	
O	  3.040620797854 	  3.980000000000 	  2.980000000000 	
O	  6.020620797854 	  0.000000000000 	  0.000000000000 	
O	  7.020620797854 	  0.000000000000 	  2.980000000000 	
O	  6.020620797854 	  3.980000000000 	  0.000000000000 	
O	  7.020620797854 	  3.980000000000 	  2.980000000000 	
O	  0.000000000000 	  2.040620797854 	  0.000000000000 	
O	  1.000000000000 	  2.040620797854 	  2.980000000000 	
O	  0.000000000000 	  6.020620797854 	  0.000000000000 	
O	  1.000000000000 	  6.020620797854 	  2.980000000000 	
O	  3.980000000000 	  2.040620797854 	  0.000000000000 	
O	  4.980000000000 	  2.040620797854 	  2.980000000000 	
O	  3.980000000000 	  6.020620797854 	  0.000000000000 	
O	  4.980000000000 	  6.020620797854 	  2.980000000000 	
O	  0.304862402581 	  0.000000000000 	  1.735758395272 	
O	  1.304862402581 	  0.000000000000 	  4.715758395272 	
O	  0.304862402581 	  3.980000000000 	  1.735758395272 	
O	  1.304862402581 	  3.980000000000 	  4.715758395272 	
O	  4.284862402581 	  0.000000000000 	  1.735758395272 	
O	  5.284862402581 	  0.000000000000 	  4.715758395272 	
O	  4.284862402581 	  3.980000000000 	  1.735758395272 	
O	  5.284862402581 	  3.980000000000 	  4.715758395272 	
O	  2.589373122500 	  1.640031600862 	  1.735758395272 	
O	  3.589373122500 	  1.640031600862 	  4.715758395272 	
O	  2.589373122500 	  5.620031600862 	  1.735758395272 	
O	  3.589373122500 	  5.620031600862 	  4.715758395272 	
O	  6.569373122500 	  1.640031600862 	  1.735758395272 	
O	  7.569373122500 	  1.640031600862 	  4.715758395272 	
O	  6.569373122500 	  5.620031600862 	  1.735758395272 	
O	  7.569373122500 	  5.620031600862 	  4.715758395272 	
64 
Energy: 5.8043640966641181e+00 
Mg	  0.000000000000 	  0.000000000000 	  0.000000000000 	
Mg	  1.000000000000 	  0.000000000000 	  2.980000000000 	
Mg	  0.000000000000 	  3.980000000000 	  0.000000000000 	
Mg	  1.000000000000 	  3.980000000000 	  2.980000000000 	
Mg	  3.980000000000 	  0.000000000000 	  0.000000000000 	
Mg	  4.980000000000 	  0.000000000000 	  2.980000000000 	
Mg	  3.980000000000 	  3.980000000000 	  0.000000000000 	
Mg	  4.980000000000 	  3.980000000000 	  2.980000000000 	
Mg	  1.884448770031 	  1.939320430053 	  0.000000000000 	
Mg	  2.884448770031 	  1.939320430053 	  2.980000000000 	
Mg	  1.884448770031 	  5.919320430053 	  0.000000000000 	
Mg	  2.884448770031 	  5.919320430053 	  2.980000000000 	
Mg	  5.864448770031 	  1.939320430053 	  0.000000000000 	
Mg	  6.864448770031 	  1.939320430053 	  2.980000000000 	
Mg	  5.864448770031 	  5.919320430053 	  0.000000000000 	
Mg	  6.864448770031 	  5.919320430053 	  2.980000000000 	
Mg	  2.323422050209 	  0.000000000000 	  1.774705449986 	
Mg	  3.323422050209 	  0.000000000000 	  4.754705449986 	
Mg	  2.323422050209 	  3.980000000000 	  1.774705449986 	
Mg	  3.323422050209 	  3.980000000000 	  4.754705449986 	
Mg	  6.303422050209 	  0.000000000000 	  1.774705449986 	
Mg	  7.303422050209 	  0.000000000000 	  4.754705449986 	
Mg	  6.303422050209 	  3.980000000000 	  1.774705449986 	
Mg	  7.303422050209 	  3.980000000000 	  4.754705449986 	
Mg	  0.274358300112 	  2.049063750098 	  1.774705449986 	
Mg	  1.274358300112 	  2.049063750098 	  4.754705449986 	
Mg	  0.274358300112 	  6.029063750098 	  1.774705449986 	
Mg	  1.274358300112 	  6.029063750098 	  4.754705449986 	
Mg	  4.254358300112 	  2.049063750098 	  1.774705449986 	
Mg	  5.254358300112 	  2.049063750098 	  4.754705449986 	
Mg	  4.254358300112 	  6.029063750098 	  1.774705449986 	
Mg	  5.254358300112 	  6.029063750098 	  4.754705449986 	
O	  2.049063750098 	  0.000000000000 	  0.000000000000 	
O	  3.049063750098 	  0.000000000000 	  2.980000000000 	
O	  2.049063750098 	  3.980000000000 	  0.000000000000 	
O	  3.049063750098 	  3.980000000000 	  2.980000000000 	
O	  6.029063750098 	  0.000000000000 	  0.000000000000 	
O	  7.029063750098 	  0.000000000000 	  2.980000000000 	
O	  6.029063750098 	  3.980000000000 	  0.000000000000 	
O	  7.029063750098 	  3.980000000000 	  2.980000000000 	
O	  0.000000000000 	  2.049063750098 	  0.000000000000 	
O	  1.000000000000 	  2.049063750098 	  2.980000000000 	
O	  0.000000000000 	  6.029063750098 	  0.000000000000 	
O	  1.000000000000 	  6.029063750098 	  2.980000000000 	
O	  3.980000000000 	  2.049063750098 	  0.000000000000 	
O	  4.980000000000 	  2.049063750098 	  2.980000000000 	
O	  3.980000000000 	  6.029063750098 	  0.000000000000 	
O	  4.980000000000 	  6.029063750098 	  2.980000000000 	
O	  0.274358300112 	  0.000000000000 	  1.774705449986 	
O	  1.274358300112 	  0.000000000000 	  4.754705449986 	
O	  0.274358300112 	  3.980000000000 	  1.774705449986 	
O	  1.274358300112 	  3.980000000000 	  4.754705449986 	
O	  4.254358300112 	  0.000000000000 	  1.774705449986 	
O	  5.254358300112 	  0.000000000000 	  4.754705449986 	
O	  4.254358300112 	  3.980000000000 	  1.774705449986 	
O	  5.254358300112 	  3.980000000000 	  4.754705449986 	
O	  2.542908690298 	  1.688556943751 	  1.774705449986 	
O	  3.542908690298 	  1.688556943751 	  4.754705449986 	
O	  2.542908690298 	  5.668556943751 	  1.774705449986 	
O	  3.542908690298 	  5.668556943751 	  4.754705449986 	
O	  6.522908690298 	  1.688556943751 	  1.774705449986 	
O	  7.522908690298 	  1.688556943751 	  4.754705449986 	
O	  6.522908690298 	  5.668556943751 	  1.774705449986 	
O	  7.522908690298 	  5.668556943751 	  4.754705449986 	
64 
Energy: 5.7550575204551313e+00 
Mg	  0.000000000000 	  0.000000000000 	  0.000000000000 	
Mg	  1.000000000000 	  0.000000000000 	  2.980000000000 	
Mg	  0.000000000000 	  3.980000000000 	  0.000000000000 	
Mg	  1.000000000000 	  3.980000000000 	  2.980000000000 	
Mg	  3.980000000000 	  0.000000000000 	  0.000000000000 	
Mg	  4.980000000000 	  0.000000000000 	  2.980000000000 	
Mg	  3.980000000000 	  3.980000000000 	  0.000000000000 	
Mg	  4.980000000000 	  3.980000000000 	  2.980000000000 	
Mg	  1.911194944222 	  1.959965609905 	  0.000000000000 	
Mg	  2.911194944222 	  1.959965609905 	  2.980000000000 	
Mg	  1.911194944222 	  5.939965609905 	  0.000000000000 	
Mg	  2.911194944222 	  5.939965609905 	  2.980000000000 	
Mg	  5.891194944222 	  1.959965609905 	  0.000000000000 	
Mg	  6.891194944222 	  1.959965609905 	  2.980000000000 	
Mg	  5.891194944222 	  5.939965609905 	  0.000000000000 	
Mg	  6.891194944222 	  5.939965609905 	  2.980000000000 	
Mg	  2.301360269690 	  0.000000000000 	  1.813653612855 	
Mg	  3.301360269690 	  0.000000000000 	  4.793653612855 	
Mg	  2.301360269690 	  3.980000000000 	  1.813653612855 	
Mg	  3.301360269690 	  3.980000000000 	  4.793653612855 	
Mg	  6.281360269690 	  0.000000000000 	  1.813653612855 	
Mg	  7.281360269690 	  0.000000000000 	  4.793653612855 	
Mg	  6.281360269690 	  3.980000000000 	  1.813653612855 	
Mg	  7.281360269690 	  3.980000000000 	  4.793653612855 	
Mg	  0.243853328418 	  2.057506941272 	  1.813653612855 	
Mg	  1.243853328418 	  2.057506941272 	  4.793653612855 	
Mg	  0.243853328418 	  6.037506941272 	  1.813653612855 	
Mg	  1.243853328418 	  6.037506941272 	  4.793653612855 	
Mg	  4.223853328418 	  2.057506941272 	  1.813653612855 	
Mg	  5.223853328418 	  2.057506941272 	  4.793653612855 	
Mg	  4.223853328418 	  6.037506941272 	  1.813653612855 	
Mg	  5.223853328418 	  6.037506941272 	  4.793653612855 	
O	  2.057506941272 	  0.000000000000 	  0.000000000000 	
O	  3.057506941272 	  0.000000000000 	  2.980000000000 	
O	  2.057506941272 	  3.980000000000 	  0.000000000000 	
O	  3.057506941272 	  3.980000000000 	  2.980000000000 	
O	  6.037506941272 	  0.000000000000 	  0.000000000000 	
O	  7.037506941272 	  0.000000000000 	  2.980000000000 	
O	  6.037506941272 	  3.980000000000 	  0.000000000000 	
O	  7.037506941272 	  3.980000000000 	  2.980000000000 	
O	  0.000000000000 	  2.057506941272 	  0.000000000000 	
O	  1.000000000000 	  2.057506941272 	  2.980000000000 	
O	  0.000000000000 	  6.037506941272 	  0.000000000000 	
O	  1.000000000000 	  6.037506941272 	  2.980000000000 	
O	  3.980000000000 	  2.057506941272 	  0.000000000000 	
O	  4.980000000000 	  2.057506941272 	  2.980000000000 	
O	  3.980000000000 	  6.037506941272 	  0.000000000000 	
O	  4.980000000000 	  6.037506941272 	  2.980000000000 	
O	  0.243853328418 	  0.000000000000 	  1.813653612855 	
O	  1.243853328418 	  0.000000000000 	  4.793653612855 	
O	  0.243853328418 	  3.980000000000 	  1.813653612855 	
O	  1.243853328418 	  3.980000000000 	  4.793653612855 	
O	  4.223853328418 	  0.000000000000 	  1.813653612855 	
O	  5.223853328418 	  0.000000000000 	  4.793653612855 	
O	  4.223853328418 	  3.980000000000 	  1.813653612855 	
O	  5.223853328418 	  3.980000000000 	  4.793653612855 	
O	  2.496442932424 	  1.737083667731 	  1.813653612855 	
O	  3.496442932424 	  1.737083667731 	  4.793653612855 	
O	  2.496442932424 	  5.717083667731 	  1.813653612855 	
O	  3.496442932424 	  5.717083667731 	  4.793653612855 	
O	  6.476442932424 	  1.737083667731 	  1.813653612855 	
O	  7.476442932424 	  1.737083667731 	  4.793653612855 	
O	  6.476442932424 	  5.717083667731 	  1.813653612855 	
O	  7.476442932424 	  5.717083667731 	  4.793653612855 	
64 
Energy: 5.4263171637562522e+00 
Mg	  0.000000000000 	  0.000000000000 	  0.000000000000 	
Mg	  1.000000000000 	  0.000000000000 	  2.980000000000 	
Mg	  0.000000000000 	  3.980000000000 	  0.000000000000 	
Mg	  1.000000000000 	  3.980000000000 	  2.980000000000 	
Mg	  3.980000000000 	  0.000000000000 	  0.000000000000 	
Mg	  4.980000000000 	  0.000000000000 	  2.980000000000 	
Mg	  3.980000000000 	  3.980000000000 	  0.000000000000 	
Mg	  4.980000000000 	  3.980000000000 	  2.980000000000 	
Mg	  1.937940015589 	  1.980609946528 	  0.000000000000 	
Mg	  2.937940015589 	  1.980609946528 	  2.980000000000 	
Mg	  1.937940015589 	  5.960609946528 	  0.000000000000 	
Mg	  2.937940015589 	  5.960609946528 	  2.980000000000 	
Mg	  5.917940015589 	  1.980609946528 	  0.000000000000 	
Mg	  6.917940015589 	  1.980609946528 	  2.980000000000 	
Mg	  5.917940015589 	  5.960609946528 	  0.000000000000 	
Mg	  6.917940015589 	  5.960609946528 	  2.980000000000 	
Mg	  2.279299463102 	  0.000000000000 	  1.852600153711 	
Mg	  3.279299463102 	  0.000000000000 	  4.832600153711 	
Mg	  2.279299463102 	  3.980000000000 	  1.852600153711 	
Mg	  3.279299463102 	  3.980000000000 	  4.832600153711 	
Mg	  6.259299463102 	  0.000000000000 	  1.852600153711 	
Mg	  7.259299463102 	  0.000000000000 	  4.832600153711 	
Mg	  6.259299463102 	  3.980000000000 	  1.852600153711 	
Mg	  7.259299463102 	  3.980000000000 	  4.832600153711 	
Mg	  0.213349654696 	  2.065949808407 	  1.852600153711 	
Mg	  1.213349654696 	  2.065949808407 	  4.832600153711 	
Mg	  0.213349654696 	  6.045949808407 	  1.852600153711 	
Mg	  1.213349654696 	  6.045949808407 	  4.832600153711 	
Mg	  4.193349654696 	  2.065949808407 	  1.852600153711 	
Mg	  5.193349654696 	  2.065949808407 	  4.832600153711 	
Mg	  4.193349654696 	  6.045949808407 	  1.852600153711 	
Mg	  5.193349654696 	  6.045949808407 	  4.832600153711 	
O	  2.065949808407 	  0.000000000000 	  0.000000000000 	
O	  3.065949808407 	  0.000000000000 	  2.980000000000 	
O	  2.065949808407 	  3.980000000000 	  0.000000000000 	
O	  3.065949808407 	  3.980000000000 	  2.980000000000 	
O	  6.045949808407 	  0.000000000000 	  0.000000000000 	
O	  7.045949808407 	  0.000000000000 	  2.980000000000 	
O	  6.045949808407 	  3.980000000000 	  0.000000000000 	
O	  7.045949808407 	  3.980000000000 	  2.980000000000 	
O	  0.000000000000 	  2.065949808407 	  0.000000000000 	
O	  1.000000000000 	  2.065949808407 	  2.980000000000 	
O	  0.000000000000 	  6.045949808407 	  0.000000000000 	
O	  1.000000000000 	  6.045949808407 	  2.980000000000 	
O	  3.980000000000 	  2.065949808407 	  0.000000000000 	
O	  4.980000000000 	  2.065949808407 	  2.980000000000 	
O	  3.980000000000 	  6.045949808407 	  0.000000000000 	
O	  4.980000000000 	  6.045949808407 	  2.980000000000 	
O	  0.213349654696 	  0.000000000000 	  1.852600153711 	
O	  1.213349654696 	  0.000000000000 	  4.832600153711 	
O	  0.213349654696 	  3.980000000000 	  1.852600153711 	
O	  1.213349654696 	  3.980000000000 	  4.832600153711 	
O	  4.193349654696 	  0.000000000000 	  1.852600153711 	
O	  5.193349654696 	  0.000000000000 	  4.832600153711 	
O	  4.193349654696 	  3.980000000000 	  1.852600153711 	
O	  5.193349654696 	  3.980000000000 	  4.832600153711 	
O	  2.449979186859 	  1.785608362136 	  1.852600153711 	
O	  3.449979186859 	  1.785608362136 	  4.832600153711 	
O	  2.449979186859 	  5.765608362136 	  1.852600153711 	
O	  3.449979186859 	  5.765608362136 	  4.832600153711 	
O	  6.429979186859 	  1.785608362136 	  1.852600153711 	
O	  7.429979186859 	  1.785608362136 	  4.832600153711 	
O	  6.429979186859 	  5.765608362136 	  1.852600153711 	
O	  7.429979186859 	  5.765608362136 	  4.832600153711 	
64 
Energy: 4.8309565784562256e+00 
Mg	  0.000000000000 	  0.000000000000 	  0.000000000000 	
Mg	  1.000000000000 	  0.000000000000 	  2.980000000000 	
Mg	  0.000000000000 	  3.980000000000 	  0.000000000000 	
Mg	  1.000000000000 	  3.980000000000 	  2.980000000000 	
Mg	  3.980000000000 	  0.000000000000 	  0.000000000000 	
Mg	  4.980000000000 	  0.000000000000 	  2.980000000000 	
Mg	  3.980000000000 	  3.980000000000 	  0.000000000000 	
Mg	  4.980000000000 	  3.980000000000 	  2.980000000000 	
Mg	  1.964682281047 	  2.001252126134 	  0.000000000000 	
Mg	  2.964682281047 	  2.001252126134 	  2.980000000000 	
Mg	  1.964682281047 	  5.981252126134 	  0.000000000000 	
Mg	  2.964682281047 	  5.981252126134 	  2.980000000000 	
Mg	  5.944682281047 	  2.001252126134 	  0.000000000000 	
Mg	  6.944682281047 	  2.001252126134 	  2.980000000000 	
Mg	  5.944682281047 	  5.981252126134 	  0.000000000000 	
Mg	  6.944682281047 	  5.981252126134 	  2.980000000000 	
Mg	  2.257241041747 	  0.000000000000 	  1.891542590871 	
Mg	  3.257241041747 	  0.000000000000 	  4.871542590871 	
Mg	  2.257241041747 	  3.980000000000 	  1.891542590871 	
Mg	  3.257241041747 	  3.980000000000 	  4.871542590871 	
Mg	  6.237241041747 	  0.000000000000 	  1.891542590871 	
Mg	  7.237241041747 	  0.000000000000 	  4.871542590871 	
Mg	  6.237241041747 	  3.980000000000 	  1.891542590871 	
Mg	  7.237241041747 	  3.980000000000 	  4.871542590871 	
Mg	  0.182849225438 	  2.074391816309 	  1.891542590871 	
Mg	  1.182849225438 	  2.074391816309 	  4.871542590871 	
Mg	  0.182849225438 	  6.054391816309 	  1.891542590871 	
Mg	  1.182849225438 	  6.054391816309 	  4.871542590871 	
Mg	  4.162849225438 	  2.074391816309 	  1.891542590871 	
Mg	  5.162849225438 	  2.074391816309 	  4.871542590871 	
Mg	  4.162849225438 	  6.054391816309 	  1.891542590871 	
Mg	  5.162849225438 	  6.054391816309 	  4.871542590871 	
O	  2.074391816309 	  0.000000000000 	  0.000000000000 	
O	  3.074391816309 	  0.000000000000 	  2.980000000000 	
O	  2.074391816309 	  3.980000000000 	  0.000000000000 	
O	  3.074391816309 	  3.980000000000 	  2.980000000000 	
O	  6.054391816309 	  0.000000000000 	  0.000000000000 	
O	  7.054391816309 	  0.000000000000 	  2.980000000000 	
O	  6.054391816309 	  3.980000000000 	  0.000000000000 	
O	  7.054391816309 	  3.980000000000 	  2.980000000000 	
O	  0.000000000000 	  2.074391816309 	  0.000000000000 	
O	  1.000000000000 	  2.074391816309 	  2.980000000000 	
O	  0.000000000000 	  6.054391816309 	  0.000000000000 	
O	  1.000000000000 	  6.054391816309 	  2.980000000000 	
O	  3.980000000000 	  2.074391816309 	  0.000000000000 	
O	  4.980000000000 	  2.074391816309 	  2.980000000000 	
O	  3.980000000000 	  6.054391816309 	  0.000000000000 	
O	  4.980000000000 	  6.054391816309 	  2.980000000000 	
O	  0.182849225438 	  0.000000000000 	  1.891542590871 	
O	  1.182849225438 	  0.000000000000 	  4.871542590871 	
O	  0.182849225438 	  3.980000000000 	  1.891542590871 	
O	  1.182849225438 	  3.980000000000 	  4.871542590871 	
O	  4.162849225438 	  0.000000000000 	  1.891542590871 	
O	  5.162849225438 	  0.000000000000 	  4.871542590871 	
O	  4.162849225438 	  3.980000000000 	  1.891542590871 	
O	  5.162849225438 	  3.980000000000 	  4.871542590871 	
O	  2.403520422097 	  1.834127934084 	  1.891542590871 	
O	  3.403520422097 	  1.834127934084 	  4.871542590871 	
O	  2.403520422097 	  5.814127934084 	  1.891542590871 	
O	  3.403520422097 	  5.814127934084 	  4.871542590871 	
O	  6.383520422097 	  1.834127934084 	  1.891542590871 	
O	  7.383520422097 	  1.834127934084 	  4.871542590871 	
O	  6.383520422097 	  5.814127934084 	  1.891542590871 	
O	  7.383520422097 	  5.814127934084 	  4.871542590871 	
64 
Energy: 4.0091862988257452e+00 
Mg	  0.000000000000 	  0.000000000000 	  0.000000000000 	
Mg	  1.000000000000 	  0.000000000000 	  2.980000000000 	
Mg	  0.000000000000 	  3.980000000000 	  0.000000000000 	
Mg	  1.000000000000 	  3.980000000000 	  2.980000000000 	
Mg	  3.980000000000 	  0.000000000000 	  0.000000000000 	
Mg	  4.980000000000 	  0.000000000000 	  2.980000000000 	
Mg	  3.980000000000 	  3.980000000000 	  0.000000000000 	
Mg	  4.980000000000 	  3.980000000000 	  2.980000000000 	
Mg	  1.991420188110 	  2.021890944453 	  0.000000000000 	
Mg	  2.991420188110 	  2.021890944453 	  2.980000000000 	
Mg	  1.991420188110 	  6.001890944453 	  0.000000000000 	
Mg	  2.991420188110 	  6.001890944453 	  2.980000000000 	
Mg	  5.971420188110 	  2.021890944453 	  0.000000000000 	
Mg	  6.971420188110 	  2.021890944453 	  2.980000000000 	
Mg	  5.971420188110 	  6.001890944453 	  0.000000000000 	
Mg	  6.971420188110 	  6.001890944453 	  2.980000000000 	
Mg	  2.235186238854 	  0.000000000000 	  1.930478675425 	
Mg	  3.235186238854 	  0.000000000000 	  4.910478675425 	
Mg	  2.235186238854 	  3.980000000000 	  1.930478675425 	
Mg	  3.235186238854 	  3.980000000000 	  4.910478675425 	
Mg	  6.215186238854 	  0.000000000000 	  1.930478675425 	
Mg	  7.215186238854 	  0.000000000000 	  4.910478675425 	
Mg	  6.215186238854 	  3.980000000000 	  1.930478675425 	
Mg	  7.215186238854 	  3.980000000000 	  4.910478675425 	
Mg	  0.152353781714 	  2.082832457139 	  1.930478675425 	
Mg	  1.152353781714 	  2.082832457139 	  4.910478675425 	
Mg	  0.152353781714 	  6.062832457139 	  1.930478675425 	
Mg	  1.152353781714 	  6.062832457139 	  4.910478675425 	
Mg	  4.132353781714 	  2.082832457139 	  1.930478675425 	
Mg	  5.132353781714 	  2.082832457139 	  4.910478675425 	
Mg	  4.132353781714 	  6.062832457139 	  1.930478675425 	
Mg	  5.132353781714 	  6.062832457139 	  4.910478675425 	
O	  2.082832457139 	  0.000000000000 	  0.000000000000 	
O	  3.082832457139 	  0.000000000000 	  2.980000000000 	
O	  2.082832457139 	  3.980000000000 	  0.000000000000 	
O	  3.082832457139 	  3.980000000000 	  2.980000000000 	
O	  6.062832457139 	  0.000000000000 	  0.000000000000 	
O	  7.062832457139 	  0.000000000000 	  2.980000000000 	
O	  6.062832457139 	  3.980000000000 	  0.000000000000 	
O	  7.062832457139 	  3.980000000000 	  2.980000000000 	
O	  0.000000000000 	  2.082832457139 	  0.000000000000 	
O	  1.000000000000 	  2.082832457139 	  2.980000000000 	
O	  0.000000000000 	  6.062832457139 	  0.000000000000 	
O	  1.000000000000 	  6.062832457139 	  2.980000000000 	
O	  3.980000000000 	  2.082832457139 	  0.000000000000 	
O	  4.980000000000 	  2.082832457139 	  2.980000000000 	
O	  3.980000000000 	  6.062832457139 	  0.000000000000 	
O	  4.980000000000 	  6.062832457139 	  2.980000000000 	
O	  0.152353781714 	  0.000000000000 	  1.930478675425 	
O	  1.152353781714 	  0.000000000000 	  4.910478675425 	
O	  0.152353781714 	  3.980000000000 	  1.930478675425 	
O	  1.152353781714 	  3.980000000000 	  4.910478675425 	
O	  4.132353781714 	  0.000000000000 	  1.930478675425 	
O	  5.132353781714 	  0.000000000000 	  4.910478675425 	
O	  4.132353781714 	  3.980000000000 	  1.930478675425 	
O	  5.132353781714 	  3.980000000000 	  4.910478675425 	
O	  2.357069264225 	  1.882639587966 	  1.930478675425 	
O	  3.357069264225 	  1.882639587966 	  4.910478675425 	
O	  2.357069264225 	  5.862639587966 	  1.930478675425 	
O	  3.357069264225 	  5.862639587966 	  4.910478675425 	
O	  6.337069264225 	  1.882639587966 	  1.930478675425 	
O	  7.337069264225 	  1.882639587966 	  4.910478675425 	
O	  6.337069264225 	  5.862639587966 	  1.930478675425 	
O	  7.337069264225 	  5.862639587966 	  4.910478675425 	
64 
Energy: 3.0297494094855884e+00 
Mg	  0.000000000000 	  0.000000000000 	  0.000000000000 	
Mg	  1.000000000000 	  0.000000000000 	  2.980000000000 	
Mg	  0.000000000000 	  3.980000000000 	  0.000000000000 	
Mg	  1.000000000000 	  3.980000000000 	  2.980000000000 	
Mg	  3.980000000000 	  0.000000000000 	  0.000000000000 	
Mg	  4.980000000000 	  0.000000000000 	  2.980000000000 	
Mg	  3.980000000000 	  3.980000000000 	  0.000000000000 	
Mg	  4.980000000000 	  3.980000000000 	  2.980000000000 	
Mg	  2.018152338183 	  2.042525313707 	  0.000000000000 	
Mg	  3.018152338183 	  2.042525313707 	  2.980000000000 	
Mg	  2.018152338183 	  6.022525313707 	  0.000000000000 	
Mg	  3.018152338183 	  6.022525313707 	  2.980000000000 	
Mg	  5.998152338183 	  2.042525313707 	  0.000000000000 	
Mg	  6.998152338183 	  2.042525313707 	  2.980000000000 	
Mg	  5.998152338183 	  6.022525313707 	  0.000000000000 	
Mg	  6.998152338183 	  6.022525313707 	  2.980000000000 	
Mg	  2.213136142374 	  0.000000000000 	  1.969406387135 	
Mg	  3.213136142374 	  0.000000000000 	  4.949406387135 	
Mg	  2.213136142374 	  3.980000000000 	  1.969406387135 	
Mg	  3.213136142374 	  3.980000000000 	  4.949406387135 	
Mg	  6.193136142374 	  0.000000000000 	  1.969406387135 	
Mg	  7.193136142374 	  0.000000000000 	  4.949406387135 	
Mg	  6.193136142374 	  3.980000000000 	  1.969406387135 	
Mg	  7.193136142374 	  3.980000000000 	  4.949406387135 	
Mg	  0.121864877620 	  2.091271264755 	  1.969406387135 	
Mg	  1.121864877620 	  2.091271264755 	  4.949406387135 	
Mg	  0.121864877620 	  6.071271264755 	  1.969406387135 	
Mg	  1.121864877620 	  6.071271264755 	  4.949406387135 	
Mg	  4.101864877620 	  2.091271264755 	  1.969406387135 	
Mg	  5.101864877620 	  2.091271264755 	  4.949406387135 	
Mg	  4.101864877620 	  6.071271264755 	  1.969406387135 	
Mg	  5.101864877620 	  6.071271264755 	  4.949406387135 	
O	  2.091271264755 	  0.000000000000 	  0.000000000000 	
O	  3.091271264755 	  0.000000000000 	  2.980000000000 	
O	  2.091271264755 	  3.980000000000 	  0.000000000000 	
O	  3.091271264755 	  3.980000000000 	  2.980000000000 	
O	  6.071271264755 	  0.000000000000 	  0.000000000000 	
O	  7.071271264755 	  0.000000000000 	  2.980000000000 	
O	  6.071271264755 	  3.980000000000 	  0.000000000000 	
O	  7.071271264755 	  3.980000000000 	  2.980000000000 	
O	  0.000000000000 	  2.091271264755 	  0.000000000000 	
O	  1.000000000000 	  2.091271264755 	  2.980000000000 	
O	  0.000000000000 	  6.071271264755 	  0.000000000000 	
O	  1.000000000000 	  6.071271264755 	  2.980000000000 	
O	  3.980000000000 	  2.091271264755 	  0.000000000000 	
O	  4.980000000000 	  2.091271264755 	  2.980000000000 	
O	  3.980000000000 	  6.071271264755 	  0.000000000000 	
O	  4.980000000000 	  6.071271264755 	  2.980000000000 	
O	  0.121864877620 	  0.000000000000 	  1.969406387135 	
O	  1.121864877620 	  0.000000000000 	  4.949406387135 	
O	  0.121864877620 	  3.980000000000 	  1.969406387135 	
O	  1.121864877620 	  3.980000000000 	  4.949406387135 	
O	  4.101864877620 	  0.000000000000 	  1.969406387135 	
O	  5.101864877620 	  0.000000000000 	  4.949406387135 	
O	  4.101864877620 	  3.980000000000 	  1.969406387135 	
O	  5.101864877620 	  3.980000000000 	  4.949406387135 	
O	  2.310628044470 	  1.931140815562 	  1.969406387135 	
O	  3.310628044470 	  1.931140815562 	  4.949406387135 	
O	  2.310628044470 	  5.911140815562 	  1.969406387135 	
O	  3.310628044470 	  5.911140815562 	  4.949406387135 	
O	  6.290628044470 	  1.931140815562 	  1.969406387135 	
O	  7.290628044470 	  1.931140815562 	  4.949406387135 	
O	  6.290628044470 	  5.911140815562 	  1.969406387135 	
O	  7.290628044470 	  5.911140815562 	  4.949406387135 	
64 
Energy: 1.9914215419804213e+00 
Mg	  0.000000000000 	  0.000000000000 	  0.000000000000 	
Mg	  1.000000000000 	  0.000000000000 	  2.980000000000 	
Mg	  0.000000000000 	  3.980000000000 	  0.000000000000 	
Mg	  1.000000000000 	  3.980000000000 	  2.980000000000 	
Mg	  3.980000000000 	  0.000000000000 	  0.000000000000 	
Mg	  4.980000000000 	  0.000000000000 	  2.980000000000 	
Mg	  3.980000000000 	  3.980000000000 	  0.000000000000 	
Mg	  4.980000000000 	  3.980000000000 	  2.980000000000 	
Mg	  2.044877469215 	  2.063154249018 	  0.000000000000 	
Mg	  3.044877469215 	  2.063154249018 	  2.980000000000 	
Mg	  2.044877469215 	  6.043154249018 	  0.000000000000 	
Mg	  3.044877469215 	  6.043154249018 	  2.980000000000 	
Mg	  6.024877469215 	  2.063154249018 	  0.000000000000 	
Mg	  7.024877469215 	  2.063154249018 	  2.980000000000 	
Mg	  6.024877469215 	  6.043154249018 	  0.000000000000 	
Mg	  7.024877469215 	  6.043154249018 	  2.980000000000 	
Mg	  2.191091707643 	  0.000000000000 	  2.008323909607 	
Mg	  3.191091707643 	  0.000000000000 	  4.988323909607 	
Mg	  2.191091707643 	  3.980000000000 	  2.008323909607 	
Mg	  3.191091707643 	  3.980000000000 	  4.988323909607 	
Mg	  6.171091707643 	  0.000000000000 	  2.008323909607 	
Mg	  7.171091707643 	  0.000000000000 	  4.988323909607 	
Mg	  6.171091707643 	  3.980000000000 	  2.008323909607 	
Mg	  7.171091707643 	  3.980000000000 	  4.988323909607 	
Mg	  0.091383899018 	  2.099707808625 	  2.008323909607 	
Mg	  1.091383899018 	  2.099707808625 	  4.988323909607 	
Mg	  0.091383899018 	  6.079707808625 	  2.008323909607 	
Mg	  1.091383899018 	  6.079707808625 	  4.988323909607 	
Mg	  4.071383899018 	  2.099707808625 	  2.008323909607 	
Mg	  5.071383899018 	  2.099707808625 	  4.988323909607 	
Mg	  4.071383899018 	  6.079707808625 	  2.008323909607 	
Mg	  5.071383899018 	  6.079707808625 	  4.988323909607 	
O	  2.099707808625 	  0.000000000000 	  0.000000000000 	
O	  3.099707808625 	  0.000000000000 	  2.980000000000 	
O	  2.099707808625 	  3.980000000000 	  0.000000000000 	
O	  3.099707808625 	  3.980000000000 	  2.980000000000 	
O	  6.079707808625 	  0.000000000000 	  0.000000000000 	
O	  7.079707808625 	  0.000000000000 	  2.980000000000 	
O	  6.079707808625 	  3.980000000000 	  0.000000000000 	
O	  7.079707808625 	  3.980000000000 	  2.980000000000 	
O	  0.000000000000 	  2.099707808625 	  0.000000000000 	
O	  1.000000000000 	  2.099707808625 	  2.980000000000 	
O	  0.000000000000 	  6.079707808625 	  0.000000000000 	
O	  1.000000000000 	  6.079707808625 	  2.980000000000 	
O	  3.980000000000 	  2.099707808625 	  0.000000000000 	
O	  4.980000000000 	  2.099707808625 	  2.980000000000 	
O	  3.980000000000 	  6.079707808625 	  0.000000000000 	
O	  4.980000000000 	  6.079707808625 	  2.980000000000 	
O	  0.091383899018 	  0.000000000000 	  2.008323909607 	
O	  1.091383899018 	  0.000000000000 	  4.988323909607 	
O	  0.091383899018 	  3.980000000000 	  2.008323909607 	
O	  1.091383899018 	  3.980000000000 	  4.988323909607 	
O	  4.071383899018 	  0.000000000000 	  2.008323909607 	
O	  5.071383899018 	  0.000000000000 	  4.988323909607 	
O	  4.071383899018 	  3.980000000000 	  2.008323909607 	
O	  5.071383899018 	  3.980000000000 	  4.988323909607 	
O	  2.264198826858 	  1.979629365316 	  2.008323909607 	
O	  3.264198826858 	  1.979629365316 	  4.988323909607 	
O	  2.264198826858 	  5.959629365316 	  2.008323909607 	
O	  3.264198826858 	  5.959629365316 	  4.988323909607 	
O	  6.244198826858 	  1.979629365316 	  2.008323909607 	
O	  7.244198826858 	  1.979629365316 	  4.988323909607 	
O	  6.244198826858 	  5.959629365316 	  2.008323909607 	
O	  7.244198826858 	  5.959629365316 	  4.988323909607 	
64 
Energy: 1.0247953511013213e+00 
Mg	  0.000000000000 	  0.000000000000 	  0.000000000000 	
Mg	  1.000000000000 	  0.000000000000 	  2.980000000000 	
Mg	  0.000000000000 	  3.980000000000 	  0.000000000000 	
Mg	  1.000000000000 	  3.980000000000 	  2.980000000000 	
Mg	  3.980000000000 	  0.000000000000 	  0.000000000000 	
Mg	  4.980000000000 	  0.000000000000 	  2.980000000000 	
Mg	  3.980000000000 	  3.980000000000 	  0.000000000000 	
Mg	  4.980000000000 	  3.980000000000 	  2.980000000000 	
Mg	  2.071594446189 	  2.083776860553 	  0.000000000000 	
Mg	  3.071594446189 	  2.083776860553 	  2.980000000000 	
Mg	  2.071594446189 	  6.063776860553 	  0.000000000000 	
Mg	  3.071594446189 	  6.063776860553 	  2.980000000000 	
Mg	  6.051594446189 	  2.083776860553 	  0.000000000000 	
Mg	  7.051594446189 	  2.083776860553 	  2.980000000000 	
Mg	  6.051594446189 	  6.063776860553 	  0.000000000000 	
Mg	  7.051594446189 	  6.063776860553 	  2.980000000000 	
Mg	  2.169053761101 	  0.000000000000 	  2.047229617460 	
Mg	  3.169053761101 	  0.000000000000 	  5.027229617460 	
Mg	  2.169053761101 	  3.980000000000 	  2.047229617460 	
Mg	  3.169053761101 	  3.980000000000 	  5.027229617460 	
Mg	  6.149053761101 	  0.000000000000 	  2.047229617460 	
Mg	  7.149053761101 	  0.000000000000 	  5.027229617460 	
Mg	  6.149053761101 	  3.980000000000 	  2.047229617460 	
Mg	  7.149053761101 	  3.980000000000 	  5.027229617460 	
Mg	  0.060912071820 	  2.108141689281 	  2.047229617460 	
Mg	  1.060912071820 	  2.108141689281 	  5.027229617460 	
Mg	  0.060912071820 	  6.088141689281 	  2.047229617460 	
Mg	  1.060912071820 	  6.088141689281 	  5.027229617460 	
Mg	  4.040912071820 	  2.108141689281 	  2.047229617460 	
Mg	  5.040912071820 	  2.108141689281 	  5.027229617460 	
Mg	  4.040912071820 	  6.088141689281 	  2.047229617460 	
Mg	  5.040912071820 	  6.088141689281 	  5.027229617460 	
O	  2.108141689281 	  0.000000000000 	  0.000000000000 	
O	  3.108141689281 	  0.000000000000 	  2.980000000000 	
O	  2.108141689281 	  3.980000000000 	  0.000000000000 	
O	  3.108141689281 	  3.980000000000 	  2.980000000000 	
O	  6.088141689281 	  0.000000000000 	  0.000000000000 	
O	  7.088141689281 	  0.000000000000 	  2.980000000000 	
O	  6.088141689281 	  3.980000000000 	  0.000000000000 	
O	  7.088141689281 	  3.980000000000 	  2.980000000000 	
O	  0.000000000000 	  2.108141689281 	  0.000000000000 	
O	  1.000000000000 	  2.108141689281 	  2.980000000000 	
O	  0.000000000000 	  6.088141689281 	  0.000000000000 	
O	  1.000000000000 	  6.088141689281 	  2.980000000000 	
O	  3.980000000000 	  2.108141689281 	  0.000000000000 	
O	  4.980000000000 	  2.108141689281 	  2.980000000000 	
O	  3.980000000000 	  6.088141689281 	  0.000000000000 	
O	  4.980000000000 	  6.088141689281 	  2.980000000000 	
O	  0.060912071820 	  0.000000000000 	  2.047229617460 	
O	  1.060912071820 	  0.000000000000 	  5.027229617460 	
O	  0.060912071820 	  3.980000000000 	  2.047229617460 	
O	  1.060912071820 	  3.980000000000 	  5.027229617460 	
O	  4.040912071820 	  0.000000000000 	  2.047229617460 	
O	  5.040912071820 	  0.000000000000 	  5.027229617460 	
O	  4.040912071820 	  3.980000000000 	  2.047229617460 	
O	  5.040912071820 	  3.980000000000 	  5.027229617460 	
O	  2.217783418557 	  2.028103226909 	  2.047229617460 	
O	  3.217783418557 	  2.028103226909 	  5.027229617460 	
O	  2.217783418557 	  6.008103226909 	  2.047229617460 	
O	  3.217783418557 	  6.008103226909 	  5.027229617460 	
O	  6.197783418557 	  2.028103226909 	  2.047229617460 	
O	  7.197783418557 	  2.028103226909 	  5.027229617460 	
O	  6.197783418557 	  6.008103226909 	  2.047229617460 	
O	  7.197783418557 	  6.008103226909 	  5.027229617460 	
64 
Energy: 2.9425023668931133e-01 
Mg	  0.000000000000 	  0.000000000000 	  0.000000000000 	
Mg	  1.000000000000 	  0.000000000000 	  2.980000000000 	
Mg	  0.000000000000 	  3.980000000000 	  0.000000000000 	
Mg	  1.000000000000 	  3.980000000000 	  2.980000000000 	
Mg	  3.980000000000 	  0.000000000000 	  0.000000000000 	
Mg	  4.980000000000 	  0.000000000000 	  2.980000000000 	
Mg	  3.980000000000 	  3.980000000000 	  0.000000000000 	
Mg	  4.980000000000 	  3.980000000000 	  2.980000000000 	
Mg	  2.098302255323 	  2.104392348583 	  0.000000000000 	
Mg	  3.098302255323 	  2.104392348583 	  2.980000000000 	
Mg	  2.098302255323 	  6.084392348583 	  0.000000000000 	
Mg	  3.098302255323 	  6.084392348583 	  2.980000000000 	
Mg	  6.078302255323 	  2.104392348583 	  0.000000000000 	
Mg	  7.078302255323 	  2.104392348583 	  2.980000000000 	
Mg	  6.078302255323 	  6.084392348583 	  0.000000000000 	
Mg	  7.078302255323 	  6.084392348583 	  2.980000000000 	
Mg	  2.147023001399 	  0.000000000000 	  2.086122068804 	
Mg	  3.147023001399 	  0.000000000000 	  5.066122068804 	
Mg	  2.147023001399 	  3.980000000000 	  2.086122068804 	
Mg	  3.147023001399 	  3.980000000000 	  5.066122068804 	
Mg	  6.127023001399 	  0.000000000000 	  2.086122068804 	
Mg	  7.127023001399 	  0.000000000000 	  5.066122068804 	
Mg	  6.127023001399 	  3.980000000000 	  2.086122068804 	
Mg	  7.127023001399 	  3.980000000000 	  5.066122068804 	
Mg	  0.030450466297 	  2.116572535102 	  2.086122068804 	
Mg	  1.030450466297 	  2.116572535102 	  5.066122068804 	
Mg	  0.030450466297 	  6.096572535102 	  2.086122068804 	
Mg	  1.030450466297 	  6.096572535102 	  5.066122068804 	
Mg	  4.010450466297 	  2.116572535102 	  2.086122068804 	
Mg	  5.010450466297 	  2.116572535102 	  5.066122068804 	
Mg	  4.010450466297 	  6.096572535102 	  2.086122068804 	
Mg	  5.010450466297 	  6.096572535102 	  5.066122068804 	
O	  2.116572535102 	  0.000000000000 	  0.000000000000 	
O	  3.116572535102 	  0.000000000000 	  2.980000000000 	
O	  2.116572535102 	  3.980000000000 	  0.000000000000 	
O	  3.116572535102 	  3.980000000000 	  2.980000000000 	
O	  6.096572535102 	  0.000000000000 	  0.000000000000 	
O	  7.096572535102 	  0.000000000000 	  2.980000000000 	
O	  6.096572535102 	  3.980000000000 	  0.000000000000 	
O	  7.096572535102 	  3.980000000000 	  2.980000000000 	
O	  0.000000000000 	  2.116572535102 	  0.000000000000 	
O	  1.000000000000 	  2.116572535102 	  2.980000000000 	
O	  0.000000000000 	  6.096572535102 	  0.000000000000 	
O	  1.000000000000 	  6.096572535102 	  2.980000000000 	
O	  3.980000000000 	  2.116572535102 	  0.000000000000 	
O	  4.980000000000 	  2.116572535102 	  2.980000000000 	
O	  3.980000000000 	  6.096572535102 	  0.000000000000 	
O	  4.980000000000 	  6.096572535102 	  2.980000000000 	
O	  0.030450466297 	  0.000000000000 	  2.086122068804 	
O	  1.030450466297 	  0.000000000000 	  5.066122068804 	
O	  0.030450466297 	  3.980000000000 	  2.086122068804 	
O	  1.030450466297 	  3.980000000000 	  5.066122068804 	
O	  4.010450466297 	  0.000000000000 	  2.086122068804 	
O	  5.010450466297 	  0.000000000000 	  5.066122068804 	
O	  4.010450466297 	  3.980000000000 	  2.086122068804 	
O	  5.010450466297 	  3.980000000000 	  5.066122068804 	
O	  2.171383374437 	  2.076560622387 	  2.086122068804 	
O	  3.171383374437 	  2.076560622387 	  5.066122068804 	
O	  2.171383374437 	  6.056560622387 	  2.086122068804 	
O	  3.171383374437 	  6.056560622387 	  5.066122068804 	
O	  6.151383374437 	  2.076560622387 	  2.086122068804 	
O	  7.151383374437 	  2.076560622387 	  5.066122068804 	
O	  6.151383374437 	  6.056560622387 	  2.086122068804 	
O	  7.151383374437 	  6.056560622387 	  5.066122068804 	
64 
Energy: 0.0000000000000000e+00 
Mg	  0.000000000000 	  0.000000000000 	  0.000000000000 	
Mg	  1.000000000000 	  0.000000000000 	  2.980000000000 	
Mg	  0.000000000000 	  3.980000000000 	  0.000000000000 	
Mg	  1.000000000000 	  3.980000000000 	  2.980000000000 	
Mg	  3.980000000000 	  0.000000000000 	  0.000000000000 	
Mg	  4.980000000000 	  0.000000000000 	  2.980000000000 	
Mg	  3.980000000000 	  3.980000000000 	  0.000000000000 	
Mg	  4.980000000000 	  3.980000000000 	  2.980000000000 	
Mg	  2.125000000000 	  2.125000000000 	  0.000000000000 	
Mg	  3.125000000000 	  2.125000000000 	  2.980000000000 	
Mg	  2.125000000000 	  6.105000000000 	  0.000000000000 	
Mg	  3.125000000000 	  6.105000000000 	  2.980000000000 	
Mg	  6.105000000000 	  2.125000000000 	  0.000000000000 	
Mg	  7.105000000000 	  2.125000000000 	  2.980000000000 	
Mg	  6.105000000000 	  6.105000000000 	  0.000000000000 	
Mg	  7.105000000000 	  6.105000000000 	  2.980000000000 	
Mg	  2.125000000000 	  0.000000000000 	  2.125000000000 	
Mg	  3.125000000000 	  0.000000000000 	  5.105000000000 	
Mg	  2.125000000000 	  3.980000000000 	  2.125000000000 	
Mg	  3.125000000000 	  3.980000000000 	  5.105000000000 	
Mg	  6.105000000000 	  0.000000000000 	  2.125000000000 	
Mg	  7.105000000000 	  0.000000000000 	  5.105000000000 	
Mg	  6.105000000000 	  3.980000000000 	  2.125000000000 	
Mg	  7.105000000000 	  3.980000000000 	  5.105000000000 	
Mg	  0.000000000000 	  2.125000000000 	  2.125000000000 	
Mg	  1.000000000000 	  2.125000000000 	  5.105000000000 	
Mg	  0.000000000000 	  6.105000000000 	  2.125000000000 	
Mg	  1.000000000000 	  6.105000000000 	  5.105000000000 	
Mg	  3.980000000000 	  2.125000000000 	  2.125000000000 	
Mg	  4.980000000000 	  2.125000000000 	  5.105000000000 	
Mg	  3.980000000000 	  6.105000000000 	  2.125000000000 	
Mg	  4.980000000000 	  6.105000000000 	  5.105000000000 	
O	  2.125000000000 	  0.000000000000 	  0.000000000000 	
O	  3.125000000000 	  0.000000000000 	  2.980000000000 	
O	  2.125000000000 	  3.980000000000 	  0.000000000000 	
O	  3.125000000000 	  3.980000000000 	  2.980000000000 	
O	  6.105000000000 	  0.000000000000 	  0.000000000000 	
O	  7.105000000000 	  0.000000000000 	  2.980000000000 	
O	  6.105000000000 	  3.980000000000 	  0.000000000000 	
O	  7.105000000000 	  3.980000000000 	  2.980000000000 	
O	  0.000000000000 	  2.125000000000 	  0.000000000000 	
O	  1.000000000000 	  2.125000000000 	  2.980000000000 	
O	  0.000000000000 	  6.105000000000 	  0.000000000000 	
O	  1.000000000000 	  6.105000000000 	  2.980000000000 	
O	  3.980000000000 	  2.125000000000 	  0.000000000000 	
O	  4.980000000000 	  2.125000000000 	  2.980000000000 	
O	  3.980000000000 	  6.105000000000 	  0.000000000000 	
O	  4.980000000000 	  6.105000000000 	  2.980000000000 	
O	  0.000000000000 	  0.000000000000 	  2.125000000000 	
O	  1.000000000000 	  0.000000000000 	  5.105000000000 	
O	  0.000000000000 	  3.980000000000 	  2.125000000000 	
O	  1.000000000000 	  3.980000000000 	  5.105000000000 	
O	  3.980000000000 	  0.000000000000 	  2.125000000000 	
O	  4.980000000000 	  0.000000000000 	  5.105000000000 	
O	  3.980000000000 	  3.980000000000 	  2.125000000000 	
O	  4.980000000000 	  3.980000000000 	  5.105000000000 	
O	  2.125000000000 	  2.125000000000 	  2.125000000000 	
O	  3.125000000000 	  2.125000000000 	  5.105000000000 	
O	  2.125000000000 	  6.105000000000 	  2.125000000000 	
O	  3.125000000000 	  6.105000000000 	  5.105000000000 	
O	  6.105000000000 	  2.125000000000 	  2.125000000000 	
O	  7.105000000000 	  2.125000000000 	  5.105000000000 	
O	  6.105000000000 	  6.105000000000 	  2.125000000000 	
O	  7.105000000000 	  6.105000000000 	  5.105000000000 	
