  Invoking FHI-aims ...
  | Number of atoms                   :  96
  ...scf iterations...
  | Total energy corrected        :   -9.110797937057E+01 eV
  ...
  Total atomic forces (unitary forces cleaned)
     1  -2.7218477076E-01  5.9827488548E-01  1.8100516139E-01
     2  2.2129105456E-01  5.6253068888E-01  -1.8919996388E-01
     3  2.7218475830E-01  -5.9827479079E-01  -1.8100513897E-01
     4  -2.2129093638E-01  -5.6253062622E-01  1.8920005553E-01
     5  -8.4840631624E-01  1.5438859039E+00  2.5899682696E-01
     6  8.6283039323E-01  1.5840178183E+00  -4.9947765254E-01
     7  8.4840692933E-01  -1.5438857439E+00  -2.5899624772E-01
     8  -8.6283032781E-01  -1.5840179790E+00  4.9947793564E-01
     9  -3.3528225266E-01  1.9774256931E-01  -1.6100211846E-01
    10  7.3730961378E-01  5.0955886879E-01  1.3459365371E-01
    11  3.3528165617E-01  -1.9774277666E-01  1.6100163836E-01
    12  -7.3730994379E-01  -5.0955878107E-01  -1.3459377387E-01
    13  -4.9791009308E-01  -1.0131019432E+00  -1.0126051908E+00
    14  1.1217001401E-01  -1.3424551084E+00  1.0673032502E+00
    15  4.9790941574E-01  1.0131021750E+00  1.0126049091E+00
    16  -1.1217014162E-01  1.3424552748E+00  -1.0673029576E+00
    17  4.8925962371E-01  -6.5744580734E-01  -4.6084921087E-02
    18  -3.8221081446E-01  -8.7667235772E-01  4.0741987612E-01
    19  -4.8925904276E-01  6.5744596775E-01  4.6085384943E-02
    20  3.8221075697E-01  8.7667224181E-01  -4.0742022703E-01
    21  5.3237215995E-01  -1.0720214944E+00  -2.0910728424E-01
    22  -5.3407482639E-01  -1.1137905999E+00  2.4369791913E-01
    23  -5.3237235386E-01  1.0720215841E+00  2.0910712263E-01
    24  5.3407496522E-01  1.1137907545E+00  -2.4369796362E-01
    25  8.4137889620E-01  6.4801867468E-02  6.2804687291E-01
    26  -9.4948362864E-01  2.8834792925E-01  -9.8817728820E-01
    27  -8.4137943314E-01  -6.4802357349E-02  -6.2804743596E-01
    28  9.4948421866E-01  -2.8834747670E-01  9.8817713765E-01
    29  4.7400980104E-01  4.7021793989E-01  6.7022563591E-01
    30  -4.6130472221E-01  4.9709316090E-01  -6.8091052962E-01
    31  -4.7400960227E-01  -4.7021794404E-01  -6.7022589596E-01
    32  4.6130397873E-01  -4.9709347680E-01  6.8091022824E-01
    33  1.4907208986E-01  9.6915236433E-01  8.1483066761E-01
    34  -1.3995869582E-01  9.8211316254E-01  -8.0750252049E-01
    35  -1.4907179293E-01  -9.6915238241E-01  -8.1483040050E-01
    36  1.3995884384E-01  -9.8211331636E-01  8.0750244772E-01
    37  -7.7897837875E-01  5.9266838917E-01  -1.6207986633E-01
    38  7.8456894275E-01  6.1613706569E-01  1.4709591636E-01
    39  7.7897840509E-01  -5.9266858409E-01  1.6208003994E-01
    40  -7.8456862608E-01  -6.1613744337E-01  -1.4709539204E-01
    41  -8.0576256301E-01  1.0299217125E+00  6.6237520847E-02
    42  8.0882410040E-01  1.0314622284E+00  -6.9784093215E-02
    43  8.0576251175E-01  -1.0299214943E+00  -6.6237428039E-02
    44  -8.0882385089E-01  -1.0314620105E+00  6.9784172775E-02
    45  -1.5048900596E+00  1.7043448995E-01  -9.1821350831E-01
    46  3.6338458322E-01  -1.3990727996E+00  5.5039653932E-01
    47  1.5049092352E+00  -1.7042772764E-01  9.1823628147E-01
    48  -3.6338801853E-01  1.3990680196E+00  -5.5039699042E-01
    49  -6.9705432364E+00  -1.4178565385E+00  4.5268801895E+00
    50  8.8477013437E+00  2.5708200556E+00  -8.8167218837E+00
    51  6.9704310146E+00  1.4178378243E+00  -4.5268471495E+00
    52  -8.8477045983E+00  -2.5708110151E+00  8.8167258573E+00
    53  2.2973231685E+00  2.2181153960E+00  -1.1705851395E+00
    54  -1.5515740628E+00  8.6466742732E-01  1.0038672818E+00
    55  -2.2972636607E+00  -2.2180591175E+00  1.1705566097E+00
    56  1.5515810303E+00  -8.6467582435E-01  -1.0038703978E+00
    57  1.5687585272E+00  -2.4430830133E-01  1.4060594947E+00
    58  5.1397576175E-01  1.3967281781E-01  7.0831219734E-01
    59  -1.5687478915E+00  2.4430560320E-01  -1.4060491941E+00
    60  -5.1397766160E-01  -1.3967335675E-01  -7.0831359915E-01
    61  1.8827913821E+00  -1.2002861659E+00  -1.5098627145E+00
    62  -6.6636880310E+00  -4.0891952712E+00  4.6293296011E+00
    63  -1.8827478040E+00  1.2002555616E+00  1.5098258899E+00
    64  6.6636860369E+00  4.0891946226E+00  -4.6293260825E+00
    65  4.3255198720E-01  -3.7806394393E+00  -2.6516105813E+00
    66  1.0932757962E+00  -2.7671251792E+00  2.6725132743E+00
    67  -4.3257096530E-01  3.7806062879E+00  2.6515749431E+00
    68  -1.0932769977E+00  2.7671320858E+00  -2.6725039927E+00
    69  2.8504845148E-01  9.1940560548E-01  5.0191648500E-01
    70  -2.5159327433E-01  9.4103233256E-01  -6.0244416829E-01
    71  -2.8503569406E-01  -9.1936877775E-01  -5.0191087420E-01
    72  2.5159472221E-01  -9.4103626543E-01  6.0244343213E-01
    73  8.0741281583E-02  3.8870058469E-01  1.1184632702E-01
    74  -9.2341199945E-02  6.1938176226E-01  -3.8183614256E-01
    75  -8.0748213156E-02  -3.8869733312E-01  -1.1181671310E-01
    76  9.2343974247E-02  -6.1938039285E-01  3.8182603323E-01
    77  1.3892474373E+00  -2.6242483816E-01  7.4546327489E-01
    78  -1.6808910133E+00  -3.6528226847E-01  -9.2556245857E-01
    79  -1.3892422085E+00  2.6242340045E-01  -7.4546164135E-01
    80  1.6808912209E+00  3.6528215060E-01  9.2556220566E-01
    81  -1.2190582189E+00  6.8426236533E+00  -1.6450234012E+00
    82  1.1805966470E+00  6.9741122047E+00  1.6961020398E+00
    83  1.2190057634E+00  -6.8425438335E+00  1.6450130121E+00
    84  -1.1805964103E+00  -6.9741169020E+00  -1.6961092096E+00
    85  1.7007159376E+00  1.5469027431E-01  8.8802884422E-01
    86  -1.7317135396E+00  1.9460099153E-01  -8.6674007096E-01
    87  -1.7007078160E+00  -1.5468925923E-01  -8.8802498657E-01
    88  1.7317131628E+00  -1.9460093066E-01  8.6673994333E-01
    89  -1.3043882567E-01  -9.0304371917E-01  9.8963433230E-01
    90  1.2299799329E-01  -8.6546968229E-01  -9.5574496881E-01
    91  1.3043601509E-01  9.0302795321E-01  -9.8961326270E-01
    92  -1.2299878732E-01  8.6547244306E-01  9.5575016480E-01
    93  1.2874689409E+00  -2.9011436229E+00  -5.1992959144E-01
    94  -1.2910759131E+00  -2.8336472619E+00  5.3573356165E-01
    95  -1.2874341361E+00  2.9010619084E+00  5.1991308068E-01
    96  1.2910768074E+00  2.8336503094E+00  -5.3573225709E-01
  Stress tensor (eV/A^3):
  6.2481334496E-02  -9.1554577858E-03  4.5737313722E-02
  -9.1554577858E-03  4.5274537117E-02  3.6290850865E-03
  4.5737313722E-02  3.6290850865E-03  4.7979648020E-02
