  Invoking FHI-aims ...
  | Number of atoms                   :  96
  ...scf iterations...
  | Total energy corrected        :   -9.396159460652E+01 eV
  ...
  Total atomic forces (unitary forces cleaned)
     1  -2.8258228798E-01  6.0108010337E-01  1.8690338020E-01
     2  2.2102909805E-01  5.6574208132E-01  -1.9143554572E-01
     3  2.8258229963E-01  -6.0108000882E-01  -1.8690334346E-01
     4  -2.2102895859E-01  -5.6574197742E-01  1.9143562665E-01
     5  -8.3973125702E-01  1.6026456464E+00  2.9207035243E-01
     6  8.4708263865E-01  1.3062445929E+00  -3.6732642677E-01
     7  8.3973179279E-01  -1.6026454934E+00  -2.9206982354E-01
     8  -8.4708264964E-01  -1.3062447445E+00  3.6732672952E-01
     9  -3.5538914710E-01  2.1891444615E-01  -1.7073510597E-01
    10  9.2742829224E-01  6.2693464005E-01  1.3699980725E-01
    11  3.5538859761E-01  -2.1891453312E-01  1.7073464518E-01
    12  -9.2742863379E-01  -6.2693464587E-01  -1.3699981069E-01
    13  -5.1360070362E-01  -1.0202598448E+00  -1.0449142694E+00
    14  -5.0063592021E-02  -1.4563621310E+00  1.1124477699E+00
    15  5.1360003353E-01  1.0202600530E+00  1.0449139765E+00
    16  5.0063475046E-02  1.4563623640E+00  -1.1124473834E+00
    17  4.4006563138E-01  -5.9186888868E-01  -4.1906111745E-02
    18  -3.0029014771E-01  -7.9538675231E-01  5.0337220172E-01
    19  -4.4006496280E-01  5.9186896352E-01  4.1906588381E-02
    20  3.0029000315E-01  7.9538658957E-01  -5.0337252424E-01
    21  6.0249814174E-01  -1.1600446330E+00  -2.3243025219E-01
    22  -5.9912401374E-01  -1.2343496597E+00  2.7897959702E-01
    23  -6.0249848523E-01  1.1600447901E+00  2.3243000315E-01
    24  5.9912409172E-01  1.2343498359E+00  -2.7897968970E-01
    25  8.5583095074E-01  5.9965208245E-02  6.6742563368E-01
    26  -9.5951320121E-01  2.7169864017E-01  -1.1049214461E+00
    27  -8.5583244006E-01  -5.9965599347E-02  -6.6742681330E-01
    28  9.5951404533E-01  -2.7169821624E-01  1.1049212833E+00
    29  4.7655376574E-01  3.9328361213E-01  6.2986374947E-01
    30  -4.5242291106E-01  4.3731159225E-01  -6.4253493570E-01
    31  -4.7655356215E-01  -3.9328363179E-01  -6.2986394595E-01
    32  4.5242221780E-01  -4.3731186403E-01  6.4253460697E-01
    33  1.8350128697E-01  1.0460175044E+00  9.0432100955E-01
    34  -1.8174007761E-01  1.0651698186E+00  -8.9284963895E-01
    35  -1.8350090215E-01  -1.0460176252E+00  -9.0432067269E-01
    36  1.8174032423E-01  -1.0651700411E+00  8.9284952221E-01
    37  -7.3498190053E-01  5.2175342878E-01  -1.9488311521E-01
    38  7.4765859996E-01  5.5611934500E-01  1.7470768719E-01
    39  7.3498195430E-01  -5.2175366350E-01  1.9488324504E-01
    40  -7.4765837387E-01  -5.5611972081E-01  -1.7470716442E-01
    41  -8.6905094609E-01  1.1198657651E+00  8.0829134460E-02
    42  8.7234309383E-01  1.1300033853E+00  -7.7192236392E-02
    43  8.6905086892E-01  -1.1198655361E+00  -8.0828986657E-02
    44  -8.7234281004E-01  -1.1300031099E+00  7.7192349713E-02
    45  -2.4811316726E-01  3.2084971099E-01  5.6017617532E-01
    46  -2.5539270981E+00  -2.3832795616E+00  -2.4727820755E+00
    47  2.4816218923E-01  -3.2083766537E-01  -5.6008256284E-01
    48  2.5539182155E+00  2.3832723025E+00  2.4728224909E+00
    49  -7.7235544402E+00  -3.9013018560E-01  3.4288716978E+00
    50  1.1874571418E+01  5.4235582981E+00  -7.9498644663E+00
    51  7.7234426379E+00  3.9014267820E-01  -3.4288982731E+00
    52  -1.1874320072E+01  -5.4233785876E+00  7.9496577975E+00
    53  2.8187642545E+00  1.7699515773E+00  -1.8264903571E+00
    54  -1.2314647319E+00  -5.5026036918E-01  1.2132742666E+00
    55  -2.8187048719E+00  -1.7699257191E+00  1.8264450346E+00
    56  1.2314666357E+00  5.5026090007E-01  -1.2132755096E+00
    57  1.8606010096E+00  -2.9293702430E-01  1.7453789235E+00
    58  6.6563532351E-03  1.1093098048E-01  4.7670352174E-01
    59  -1.8605826538E+00  2.9293294159E-01  -1.7453606920E+00
    60  -6.6637906775E-03  -1.1093232616E-01  -4.7671136986E-01
    61  2.0114943805E+00  -1.2006571039E+00  -1.6975246866E+00
    62  -9.8835755935E+00  -5.5014488380E+00  7.2949837793E+00
    63  -2.0114486721E+00  1.2006318083E+00  1.6974801568E+00
    64  9.8833342365E+00  5.5012709550E+00  -7.2948052782E+00
    65  -4.9177194191E-01  -3.1457629340E+00  -2.1720007252E+00
    66  4.0905586969E+00  -7.3975772593E-01  1.2987645201E+00
    67  4.9173792940E-01  3.1457455194E+00  2.1719741808E+00
    68  -4.0905586978E+00  7.3976228001E-01  -1.2987558918E+00
    69  1.7487474036E-01  7.8661726487E-01  5.4204105007E-01
    70  -3.2077026140E-01  1.1559749949E+00  -6.9316292179E-01
    71  -1.7486089835E-01  -7.8658188326E-01  -5.4203580450E-01
    72  3.2077147987E-01  -1.1559772767E+00  6.9316166930E-01
    73  2.1655584403E-01  4.6902841616E-01  -6.0773199601E-02
    74  -4.2316969776E-01  6.8617257390E-01  2.4442783873E-01
    75  -2.1656087125E-01  -4.6902048351E-01  6.0799323222E-02
    76  4.2317196356E-01  -6.8616937196E-01  -2.4443786090E-01
    77  1.4724362701E+00  -3.5117764534E-01  8.0180575534E-01
    78  -1.7389476167E+00  -4.8844756994E-01  -1.0045631463E+00
    79  -1.4724331198E+00  3.5117613376E-01  -8.0180538020E-01
    80  1.7389485528E+00  4.8844769490E-01  1.0045630189E+00
    81  -1.9848137725E+00  6.2244511617E+00  -1.9872530704E+00
    82  2.0807491024E+00  6.2548276656E+00  2.1027083834E+00
    83  1.9847273815E+00  -6.2243462898E+00  1.9872354423E+00
    84  -2.0807489463E+00  -6.2548340409E+00  -2.1027176396E+00
    85  1.8982839525E+00  1.7109997032E-01  9.5492742233E-01
    86  -1.9463966512E+00  2.2220756410E-01  -9.1249970060E-01
    87  -1.8982727799E+00  -1.7109916202E-01  -9.5492231854E-01
    88  1.9463965302E+00  -2.2220756949E-01  9.1249963164E-01
    89  -1.6313239188E-02  -8.2671924167E-01  4.8759223479E-01
    90  -6.5279024781E-03  -7.7022998147E-01  -4.1038496007E-01
    91  1.6311626467E-02  8.2670211567E-01  -4.8757595898E-01
    92  6.5267358632E-03  7.7023332587E-01  4.1039141922E-01
    93  1.0818746040E+00  -3.5674479294E+00  -1.6744223105E-02
    94  -1.0924076840E+00  -3.4499736852E+00  4.5811046981E-02
    95  -1.0818350562E+00  3.5673137938E+00  1.6740330551E-02
    96  1.0924082477E+00  3.4499774581E+00  -4.5808696288E-02
  Stress tensor (eV/A^3):
  5.3932583677E-02  -1.5266429406E-02  5.5809190862E-02
  -1.5266429406E-02  3.4602649347E-02  8.8262777291E-03
  5.5809190862E-02  8.8262777291E-03  3.7928491654E-02
