  Invoking FHI-aims ...
  | Number of atoms                   :  96
  ...scf iterations...
  | Total energy corrected        :   -8.743588500409E+01 eV
  ...
  Total atomic forces (unitary forces cleaned)
     1  -2.8735266780E-01  5.8734966718E-01  1.8853967815E-01
     2  2.2285533513E-01  5.6891891604E-01  -1.8191010753E-01
     3  2.8735258688E-01  -5.8734957221E-01  -1.8853967480E-01
     4  -2.2285525047E-01  -5.6891892566E-01  1.8191021592E-01
     5  -8.5536779866E-01  1.5977533877E+00  2.8178013546E-01
     6  8.6839517752E-01  1.3218427440E+00  -3.8069099495E-01
     7  8.5536865309E-01  -1.5977531949E+00  -2.8177938607E-01
     8  -8.6839495188E-01  -1.3218429271E+00  3.8069124339E-01
     9  -3.6824127667E-01  1.9771144876E-01  -1.6841539145E-01
    10  9.2646950189E-01  5.8049125979E-01  1.3558135402E-01
    11  3.6824052490E-01  -1.9771196359E-01  1.6841479039E-01
    12  -9.2646978087E-01  -5.8049096835E-01  -1.3558167379E-01
    13  -5.1316597297E-01  -1.0518111807E+00  -1.0028875324E+00
    14  -4.1866872411E-02  -1.4611771781E+00  1.0623908648E+00
    15  5.1316519387E-01  1.0518114962E+00  1.0028872357E+00
    16  4.1866645196E-02  1.4611772433E+00  -1.0623908320E+00
    17  4.4560853528E-01  -5.7475086399E-01  -2.7688380321E-02
    18  -2.9428234936E-01  -8.0366834627E-01  4.7585858356E-01
    19  -4.4560801190E-01  5.7475115937E-01  2.7688902318E-02
    20  2.9428243127E-01  8.0366804827E-01  -4.7585880933E-01
    21  6.1979781881E-01  -1.1359853757E+00  -1.7000990453E-01
    22  -6.3311738177E-01  -1.2252255584E+00  2.2208272621E-01
    23  -6.1979794165E-01  1.1359854292E+00  1.7000987878E-01
    24  6.3311754947E-01  1.2252258317E+00  -2.2208286461E-01
    25  9.2103310747E-01  9.6258012449E-02  6.4305691481E-01
    26  -1.0625840955E+00  3.4772619568E-01  -1.0893929182E+00
    27  -9.2103313829E-01  -9.6258659076E-02  -6.4305720280E-01
    28  1.0625844125E+00  -3.4772554604E-01  1.0893927790E+00
    29  4.6136744688E-01  3.9805913922E-01  6.0503315607E-01
    30  -4.4613008509E-01  4.3832510674E-01  -6.1817481646E-01
    31  -4.6136728717E-01  -3.9805919101E-01  -6.0503365587E-01
    32  4.4612917120E-01  -4.3832549486E-01  6.1817456148E-01
    33  1.3024375127E-01  1.0506851919E+00  8.4923062730E-01
    34  -1.2663264433E-01  1.0700805222E+00  -8.4811243759E-01
    35  -1.3024356126E-01  -1.0506849252E+00  -8.4923040104E-01
    36  1.2663264110E-01  -1.0700806261E+00  8.4811239412E-01
    37  -7.4701053966E-01  4.9777762764E-01  -1.6907745802E-01
    38  7.6081724324E-01  5.2864922576E-01  1.5254204090E-01
    39  7.4701063560E-01  -4.9777788958E-01  1.6907771694E-01
    40  -7.6081690359E-01  -5.2864981887E-01  -1.5254148818E-01
    41  -8.9327524328E-01  1.0975875300E+00  8.5084119892E-02
    42  8.9598088136E-01  1.1071032528E+00  -8.1214473104E-02
    43  8.9327513742E-01  -1.0975871447E+00  -8.5084103323E-02
    44  -8.9598056627E-01  -1.1071029988E+00  8.1214499997E-02
    45  -1.8370734811E+00  6.7051037531E-02  -1.1982400289E+00
    46  1.7852488063E+00  -3.6468311914E-01  1.3632490684E+00
    47  1.8370704075E+00  -6.7050833622E-02  1.1982374727E+00
    48  -1.7852497871E+00  3.6468265821E-01  -1.3632489870E+00
    49  -4.9781860461E-01  -8.0930113181E-01  1.7904133120E+00
    50  2.1454857721E+00  5.3397081305E-01  -6.3655494725E+00
    51  4.9780486453E-01  8.0929510547E-01  -1.7904072700E+00
    52  -2.1454854045E+00  -5.3397019825E-01  6.3655511991E+00
    53  -5.0966672791E-01  -1.1903266061E+00  -2.1405835867E-01
    54  3.2360523848E-01  -1.4265016663E+00  3.4182960203E-01
    55  5.0967060879E-01  1.1903342555E+00  2.1405785610E-01
    56  -3.2360453370E-01  1.4265003236E+00  -3.4182944167E-01
    57  9.9809374815E-01  -1.2594084116E-01  7.9391136001E-01
    58  1.1127873968E+00  2.3457027399E-01  1.0511907364E+00
    59  -9.9809104398E-01  1.2593974831E-01  -7.9390885129E-01
    60  -1.1127891477E+00  -2.3457073634E-01  -1.0511923081E+00
    61  -9.7068938697E-01  8.5538894021E-01  6.3621045337E-01
    62  -2.4809486807E+00  -5.4785176581E-01  1.6656800680E+00
    63  9.7069529261E-01  -8.5539236749E-01  -6.3621417671E-01
    64  2.4809493021E+00  5.4785211069E-01  -1.6656798033E+00
    65  1.4456751110E+00  -9.9910204162E-01  -5.2927296144E-01
    66  -1.3454112101E+00  -6.1860834433E-01  1.8692040754E+00
    67  -1.4456755004E+00  9.9909769185E-01  5.2926879817E-01
    68  1.3454104582E+00  6.1861103223E-01  -1.8692012189E+00
    69  -3.4038521247E-01  -1.5323901729E+00  -2.9028374028E-02
    70  5.3586536234E-01  -1.7947842097E+00  -7.3852822416E-02
    71  3.4038597453E-01  1.5323923020E+00  2.9028961019E-02
    72  -5.3586545903E-01  1.7947825501E+00  7.3853324786E-02
    73  3.9494636019E-01  5.7427290676E-01  -1.5588654106E+00
    74  -2.2696453913E-01  5.9893034242E-01  7.0755885961E-01
    75  -3.9494672322E-01  -5.7427270304E-01  1.5588656383E+00
    76  2.2696539702E-01  -5.9893018184E-01  -7.0756208203E-01
    77  9.9121412409E-01  -8.2902568043E-02  5.6743097417E-01
    78  -1.4974547845E+00  -1.8061242879E-01  -8.5017507043E-01
    79  -9.9121149778E-01  8.2902151161E-02  -5.6743040209E-01
    80  1.4974549523E+00  1.8061241473E-01  8.5017507537E-01
    81  7.9158529500E-01  1.7546379283E+00  4.5405736712E-01
    82  -8.2175381855E-01  1.9343770933E+00  -4.3239323755E-01
    83  -7.9159241998E-01  -1.7546261523E+00  -4.5405413067E-01
    84  8.2175435555E-01  -1.9343780205E+00  4.3239283894E-01
    85  1.1420370953E+00  6.8505061084E-02  6.3156439759E-01
    86  -1.1667013263E+00  1.1551835254E-01  -6.2564646345E-01
    87  -1.1420338505E+00  -6.8504541097E-02  -6.3156276420E-01
    88  1.1667008137E+00  -1.1551827837E-01  6.2564630272E-01
    89  2.2956138790E-01  6.4460921973E-01  -1.4500914979E+00
    90  -2.3572286037E-01  6.9533102279E-01  1.4774691362E+00
    91  -2.2956120169E-01  -6.4460946643E-01  1.4500919722E+00
    92  2.3572299010E-01  -6.9533022360E-01  -1.4774688315E+00
    93  -7.4284662667E-01  7.9496407190E-01  7.9802725315E-01
    94  7.5505744667E-01  8.5821037998E-01  -7.8819663173E-01
    95  7.4285206119E-01  -7.9497119182E-01  -7.9803160173E-01
    96  -7.5505685399E-01  -8.5821008377E-01  7.8819618315E-01
  Stress tensor (eV/A^3):
  8.7436508995E-02  -3.3341023009E-03  2.3515478789E-02
  -3.3341023009E-03  9.9950490993E-02  5.6427746716E-04
  2.3515478789E-02  5.6427746716E-04  7.6468476385E-02
