  Invoking FHI-aims ...
  | Number of atoms                   :  96
  ...scf iterations...
  | Total energy corrected        :   -1.037929506030E+02 eV
  ...
  Total atomic forces (unitary forces cleaned)
     1  -3.1333863770E-01  6.1371449437E-01  1.8871027415E-01
     2  2.4354807481E-01  5.8764770735E-01  -1.8297027385E-01
     3  3.1333861810E-01  -6.1371437113E-01  -1.8871023559E-01
     4  -2.4354792785E-01  -5.8764760721E-01  1.8297034248E-01
     5  -7.6998782419E-01  5.1580081154E-01  -3.8989146176E-01
     6  1.1535273751E+00  -1.7969460439E+00  2.6894274367E+00
     7  7.6998855529E-01  -5.1580063581E-01  3.8989215978E-01
     8  -1.1535273413E+00  1.7969458909E+00  -2.6894270767E+00
     9  -5.0019233316E-01  3.3968469840E-01  -2.0335664665E-01
    10  -1.1146856427E+00  -1.4042137492E+00  1.9547864140E-01
    11  5.0019164943E-01  -3.3968494324E-01  2.0335598583E-01
    12  1.1146859713E+00  1.4042146240E+00  -1.9547908214E-01
    13  -5.8400250293E-01  -1.1246779765E+00  -1.1693457893E+00
    14  2.1178630837E+00  4.8987040921E-01  1.2437693922E+00
    15  5.8400171537E-01  1.1246782744E+00  1.1693454636E+00
    16  -2.1178640533E+00  -4.8987095715E-01  -1.2437687078E+00
    17  5.3667377078E-01  -7.1382655873E-01  -4.6361318587E-02
    18  -1.4120571832E+00  6.3976823837E-01  -1.5369444263E+00
    19  -5.3667312675E-01  7.1382683067E-01  4.6361915553E-02
    20  1.4120577458E+00  -6.3976869371E-01  1.5369443446E+00
    21  6.3476927653E-01  -1.1868387160E+00  -2.2085920415E-01
    22  -5.0804143360E-01  -1.2154458686E+00  3.8420048184E-01
    23  -6.3476973972E-01  1.1868388815E+00  2.2085883976E-01
    24  5.0804147122E-01  1.2154458730E+00  -3.8420050391E-01
    25  9.6812942529E-01  1.2031137999E-01  7.9592043529E-01
    26  4.1832391095E-02  -1.4517990395E+00  9.9409478283E-01
    27  -9.6813519420E-01  -1.2031148062E-01  -7.9592429845E-01
    28  -4.1832016228E-02  1.4518000512E+00  -9.9409523484E-01
    29  5.7893092064E-01  4.4600008107E-01  7.4045016838E-01
    30  -4.6808114858E-01  5.9309357874E-01  -7.9032223104E-01
    31  -5.7893064621E-01  -4.4600025824E-01  -7.4045037064E-01
    32  4.6808044215E-01  -5.9309402948E-01  7.9032196485E-01
    33  2.1385769887E-01  1.0336974949E+00  9.3472970654E-01
    34  -1.9633636997E-01  1.1219099375E+00  -9.2746111313E-01
    35  -2.1385729571E-01  -1.0336977015E+00  -9.3472940638E-01
    36  1.9633658722E-01  -1.1219102140E+00  9.2746099348E-01
    37  -8.6648499982E-01  5.5103625336E-01  -2.7865577150E-01
    38  8.9098987254E-01  6.6791562575E-01  1.7817420858E-01
    39  8.6648506767E-01  -5.5103640949E-01  2.7865595455E-01
    40  -8.9098973219E-01  -6.6791609345E-01  -1.7817365396E-01
    41  -8.9277625003E-01  1.1368625387E+00  6.9363381977E-02
    42  9.2110650456E-01  1.1786438307E+00  -7.6095591898E-02
    43  8.9277616497E-01  -1.1368623065E+00  -6.9363226216E-02
    44  -9.2110622584E-01  -1.1786435931E+00  7.6095735359E-02
    45  1.2664481473E+00  9.0199712713E-02  1.1449772933E+00
    46  -3.6602550820E+00  -3.0283442692E-01  -2.5075313211E+00
    47  -1.2664151464E+00  -9.0199539624E-02  -1.1449517375E+00
    48  3.6602564705E+00  3.0283974668E-01  2.5075120320E+00
    49  -1.2702793693E+00  -2.6814198233E-02  1.0965065186E+00
    50  -5.0247203727E-01  -7.5410021146E-01  -3.6331229828E+00
    51  1.2702634328E+00  2.6815626470E-02  -1.0964930374E+00
    52  5.0243524292E-01  7.5408680305E-01  3.6331549045E+00
    53  -3.4722107424E-01  -1.6603485725E+00  -3.6750677698E-01
    54  2.0442929570E+00  3.2359146280E+00  -1.0000345693E+00
    55  3.4722040948E-01  1.6603192790E+00  3.6749872127E-01
    56  -2.0442847015E+00  -3.2359299397E+00  1.0000273844E+00
    57  5.8739911369E-01  -8.8087696007E-02  2.4443314222E-01
    58  1.7543269560E+00  5.9931348156E-01  2.7882728868E+00
    59  -5.8739979086E-01  8.8087712077E-02  -2.4444257626E-01
    60  -1.7543234898E+00  -5.9931098746E-01  -2.7882654017E+00
    61  -1.2040980762E-01  1.7184269484E+00  4.2423262466E-02
    62  -1.2102992559E+00  -4.5307429370E+00  1.1580463031E+00
    63  1.2041821365E-01  -1.7183981209E+00  -4.2428245967E-02
    64  1.2103260782E+00  4.5307616563E+00  -1.1580600598E+00
    65  1.9326537091E-01  -8.3751935895E-01  -5.1296324283E-01
    66  2.9365660175E+00  -8.9845135877E-01  5.2583367415E-02
    67  -1.9326463618E-01  8.3750706227E-01  5.1295376698E-01
    68  -2.9365680131E+00  8.9844974464E-01  -5.2580521083E-02
    69  -5.8289551601E-01  -7.2295431216E-01  6.2003071490E-01
    70  1.2577418515E+00  -1.4071797093E+00  -1.2882205911E+00
    71  5.8289682772E-01  7.2296126415E-01  -6.2002373638E-01
    72  -1.2577414676E+00  1.4071791169E+00  1.2882203050E+00
    73  5.5570324995E-01  4.2872593653E-01  -1.1032114237E+00
    74  -1.3551491684E+00  4.3629737829E-01  2.5031521122E+00
    75  -5.5570178715E-01  -4.2872062420E-01  1.1032172539E+00
    76  1.3551482771E+00  -4.3629496408E-01  -2.5031548510E+00
    77  4.4175225344E-01  -1.8055478122E-01  1.8924007153E-01
    78  -1.2351480192E+00  -3.3267699128E-01  -7.3697314700E-01
    79  -4.4176408123E-01  1.8055631119E-01  -1.8924781774E-01
    80  1.2351489847E+00  3.3267713344E-01  7.3697327066E-01
    81  1.3438725853E-01  1.2400163605E+00  -4.7408050329E-01
    82  -8.5813755741E-01  2.6872431869E+00  9.6481676712E-01
    83  -1.3438360177E-01  -1.2400011381E+00  4.7407162072E-01
    84  8.5813689608E-01  -2.6872426828E+00  -9.6481734035E-01
    85  3.9313195414E-01  -4.1677229636E-02  2.5169803779E-01
    86  -7.0668907051E-01  1.5233454278E-01  -1.9860782139E-01
    87  -3.9314682340E-01  4.1673320360E-02  -2.5170333013E-01
    88  7.0668801011E-01  -1.5233440738E-01  1.9860772635E-01
    89  4.1970646582E-01  -4.2938673730E-01  -1.3151002107E+00
    90  -5.5959738909E-01  -9.9354967866E-02  1.8826600496E+00
    91  -4.1970001113E-01  4.2937394922E-01  1.3150903484E+00
    92  5.5959777636E-01  9.9357086679E-02  -1.8826602113E+00
    93  -6.4856273639E-01  4.8934521322E-01  9.3205981844E-01
    94  7.1260192263E-01  1.2005971727E+00  -8.4120129906E-01
    95  6.4855741610E-01  -4.8934682478E-01  -9.3204485085E-01
    96  -7.1260267796E-01  -1.2005979152E+00  8.4120294216E-01
  Stress tensor (eV/A^3):
  7.4678270744E-02  -9.5908814820E-03  1.9481321104E-02
  -9.5908814820E-03  6.8078264576E-02  1.0194358291E-02
  1.9481321104E-02  1.0194358291E-02  5.9216454899E-02
