  Invoking FHI-aims ...
  | Number of atoms                   :  96
  ...scf iterations...
  | Total energy corrected        :   2.270127348097E-01 eV
  ...
  Total atomic forces (unitary forces cleaned)
     1  -2.2828284392E-01  5.8809948010E-01  1.9577777050E-01
     2  2.2827664163E-01  5.8809918348E-01  -1.9577202164E-01
     3  2.2828287903E-01  -5.8809940187E-01  -1.9577773650E-01
     4  -2.2827652774E-01  -5.8809908596E-01  1.9577211046E-01
     5  -8.5533162903E-01  1.1591757702E+00  5.7183713837E-02
     6  8.5533475606E-01  1.1591802534E+00  -5.7188190120E-02
     7  8.5533200203E-01  -1.1591756367E+00  -5.7183330431E-02
     8  -8.5533480884E-01  -1.1591803977E+00  5.7188446958E-02
     9  -1.7537448743E-01  1.5463657494E-01  -7.5147917060E-02
    10  1.7537014113E-01  1.5463655946E-01  7.5163120456E-02
    11  1.7537408829E-01  -1.5463654079E-01  7.5147650722E-02
    12  -1.7537046310E-01  -1.5463654153E-01  -7.5163202233E-02
    13  -3.6545054996E-01  -8.8339339775E-01  -8.4067716552E-01
    14  3.6544926558E-01  -8.8339954739E-01  8.4065214170E-01
    15  3.6545003511E-01  8.8339351198E-01  8.4067693089E-01
    16  -3.6544935487E-01  8.8339969628E-01  -8.4065174370E-01
    17  2.7366721700E+00  -3.8717668170E+00  -3.6156980746E-01
    18  -2.7367465690E+00  -3.8718756847E+00  3.6159073309E-01
    19  -2.7366745981E+00  3.8717712507E+00  3.6157013242E-01
    20  2.7367475857E+00  3.8718780090E+00  -3.6159163357E-01
    21  -1.8553121204E+00  2.2869668596E+00  8.8775268411E-02
    22  1.8554136059E+00  2.2870756835E+00  -8.8778907063E-02
    23  1.8553148408E+00  -2.2869711765E+00  -8.8775523817E-02
    24  -1.8554145953E+00  -2.2870779450E+00  8.8779395020E-02
    25  4.1120738476E-01  3.3515881295E-02  3.2068505871E-01
    26  -4.1121974458E-01  3.3521662000E-02  -3.2068189862E-01
    27  -4.1120791160E-01  -3.3516099449E-02  -3.2068541884E-01
    28  4.1122011372E-01  -3.3521409813E-02  3.2068177015E-01
    29  1.0433392870E+00  3.3220558105E+00  3.0998573774E+00
    30  -1.0433446767E+00  3.3220967753E+00  -3.0998473408E+00
    31  -1.0433391118E+00  -3.3220549492E+00  -3.0998562179E+00
    32  1.0433453161E+00  -3.3220986460E+00  3.0998479661E+00
    33  -5.8295600019E-01  -1.9897236727E+00  -1.8079786559E+00
    34  5.8298126759E-01  -1.9897523812E+00  1.8079887679E+00
    35  5.8295609993E-01  1.9897227226E+00  1.8079774720E+00
    36  -5.8298213930E-01  1.9897539242E+00  -1.8079896704E+00
    37  -2.9137855569E+00  3.6739687992E+00  2.8928942926E-01
    38  2.9138130144E+00  3.6740464042E+00  -2.8930263586E-01
    39  2.9137835644E+00  -3.6739659304E+00  -2.8928867110E-01
    40  -2.9138101361E+00  -3.6740431911E+00  2.8930296647E-01
    41  1.5876054608E+00  -2.1480119625E+00  -2.7643477204E-01
    42  -1.5876559342E+00  -2.1480859160E+00  2.7643675001E-01
    43  -1.5876034609E+00  2.1480090022E+00  2.7643422908E-01
    44  1.5876534935E+00  2.1480826799E+00  -2.7643662164E-01
    45  -1.6038075805E+00  9.3412346330E-02  -9.9485707826E-01
    46  1.6037887399E+00  9.3433061968E-02  9.9487075784E-01
    47  1.6038009284E+00  -9.3412691764E-02  9.9485309077E-01
    48  -1.6037887604E+00  -9.3432208784E-02  -9.9487082035E-01
    49  -9.6885738536E+01  -8.7559016604E-02  3.8642577070E+01
    50  9.6880256787E+01  -9.2365519674E-02  -3.8638809560E+01
    51  9.6884585048E+01  8.7716094884E-02  -3.8642158007E+01
    52  -9.6880303030E+01  9.2432645419E-02  3.8638826461E+01
    53  5.4132024329E+01  6.7222461696E+01  -1.0312506549E+01
    54  -5.4131025364E+01  6.7220575530E+01  1.0311664309E+01
    55  -5.4131339801E+01  -6.7221738378E+01  1.0312381059E+01
    56  5.4131069974E+01  -6.7220642081E+01  -1.0311703469E+01
    57  -6.9233129317E-01  6.4024199292E-02  -4.9312508881E-01
    58  6.9237324207E-01  6.4033950904E-02  4.9312780297E-01
    59  6.9233562802E-01  -6.4024728521E-02  4.9312905707E-01
    60  -6.9236575438E-01  -6.4033343435E-02  -4.9312193368E-01
    61  4.2340119407E+01  -6.7457608714E+01  -2.4430664798E+01
    62  -4.2335664319E+01  -6.7450923141E+01  2.4427741793E+01
    63  -4.2339657632E+01  6.7456729245E+01  2.4430377008E+01
    64  4.2335659016E+01  6.7450921133E+01  -2.4427725083E+01
    65  -1.3371287311E+01  -4.5218085234E+01  -3.7959092918E+01
    66  1.3368533706E+01  -4.5211399389E+01  3.7955991056E+01
    67  1.3371097250E+01  4.5217693023E+01  3.7958790981E+01
    68  -1.3368579846E+01  4.5211424808E+01  -3.7955900373E+01
    69  2.6750972182E+01  4.3417298494E+01  -4.6428522407E+00
    70  -2.6747344872E+01  4.3410059582E+01  4.6416961136E+00
    71  -2.6750716578E+01  -4.3416925504E+01  4.6427860483E+00
    72  2.6747358668E+01  -4.3410074651E+01  -4.6417178816E+00
    73  -1.0551328826E+01  -1.0573940460E+00  4.2320456861E+01
    74  1.0550507387E+01  -1.0568357249E+00  -4.2316203111E+01
    75  1.0551265023E+01  1.0574052447E+00  -4.2320091650E+01
    76  -1.0550477478E+01  1.0568252580E+00  4.2316133340E+01
    77  -7.4471434544E-01  -1.1683091024E-01  -6.5092784562E-01
    78  7.4468381323E-01  -1.1683239738E-01  6.5091410588E-01
    79  7.4471605265E-01  1.1682997784E-01  6.5092853779E-01
    80  -7.4468261666E-01  1.1683219865E-01  -6.5091280274E-01
    81  -2.7272747809E+01  7.4595747555E+01  -3.6124077471E+01
    82  2.7271125629E+01  7.4597447779E+01  3.6130283348E+01
    83  2.7272416543E+01  -7.4594953714E+01  3.6123681774E+01
    84  -2.7271125694E+01  -7.4597479274E+01  -3.6130390380E+01
    85  -5.7138530152E-01  8.9319794616E-02  -3.8666167587E-01
    86  5.7120857721E-01  8.9297125507E-02  3.8655362257E-01
    87  5.7138971112E-01  -8.9319475552E-02  3.8666398806E-01
    88  -5.7120596331E-01  -8.9297161455E-02  -3.8655174249E-01
    89  -9.8247625437E+00  -7.7692706501E+00  5.9558626046E+01
    90  9.8272681590E+00  -7.7696344077E+00  -5.9564504560E+01
    91  9.8246660287E+00  7.7692232512E+00  -5.9558014813E+01
    92  -9.8272800203E+00  7.7696289655E+00  5.9564592165E+01
    93  3.9641668131E+01  -6.3811294889E+01  -2.3627893836E+01
    94  -3.9642394618E+01  -6.3812643327E+01  2.3627666946E+01
    95  -3.9641238199E+01  6.3810556768E+01  2.3627672515E+01
    96  3.9642404338E+01  6.3812680686E+01  -2.3627650288E+01
  Stress tensor (eV/A^3):
  -3.3629846304E-01  -2.8657297754E-06  2.3007847355E-01
  -2.8657297754E-06  -7.6026191690E-01  -5.8289591061E-07
  2.3007847355E-01  -5.8289591061E-07  -4.3335450696E-01
