  Invoking FHI-aims ...
  | Number of atoms                   :  96
  ...scf iterations...
  | Total energy corrected        :   -7.936610399609E+01 eV
  ...
  Total atomic forces (unitary forces cleaned)
     1  -2.3322869320E-01  6.0026364543E-01  1.8840084912E-01
     2  2.0449240088E-01  5.7429103109E-01  -1.9501286279E-01
     3  2.3322885000E-01  -6.0026355486E-01  -1.8840075285E-01
     4  -2.0449228501E-01  -5.7429074704E-01  1.9501290731E-01
     5  -8.0058719225E-01  1.3939403345E+00  1.8109315271E-01
     6  8.0388677579E-01  1.4569197716E+00  -2.8260724611E-01
     7  8.0058719471E-01  -1.3939401994E+00  -1.8109304704E-01
     8  -8.0388724356E-01  -1.4569198759E+00  2.8260754349E-01
     9  -2.6156450035E-01  1.9470505554E-01  -1.5238513995E-01
    10  3.9847690169E-01  3.2929216688E-01  1.4467765712E-01
    11  2.6156432999E-01  -1.9470443090E-01  1.5238499845E-01
    12  -3.9847735943E-01  -3.2929270596E-01  -1.4467725236E-01
    13  -4.4389316706E-01  -9.0932213077E-01  -9.8749862486E-01
    14  3.1305739730E-01  -1.0495043418E+00  1.0061137112E+00
    15  4.4389267529E-01  9.0932210331E-01  9.8749833286E-01
    16  -3.1305752311E-01  1.0495049027E+00  -1.0061128691E+00
    17  6.8082272174E-01  -9.9469950337E-01  -9.5093375553E-02
    18  -6.4361286371E-01  -1.0879473196E+00  2.3428890740E-01
    19  -6.8082216152E-01  9.9470005146E-01  9.5093838979E-02
    20  6.4361258673E-01  1.0879473664E+00  -2.3428947301E-01
    21  2.8318011507E-01  -6.7713644226E-01  -1.8570959039E-01
    22  -2.8429100907E-01  -6.8264251206E-01  1.9379158715E-01
    23  -2.8317992935E-01  6.7713651758E-01  1.8570913690E-01
    24  2.8429072973E-01  6.8264264097E-01  -1.9379176806E-01
    25  6.5065211826E-01  -1.5593777478E-02  5.9550107620E-01
    26  -6.9552451405E-01  7.5143089282E-02  -7.3840261485E-01
    27  -6.5065199509E-01  1.5593373777E-02  -5.9550122228E-01
    28  6.9552555731E-01  -7.5143107829E-02  7.3840234118E-01
    29  4.9822305461E-01  7.1136996148E-01  9.1291123385E-01
    30  -4.9417211361E-01  7.1862734733E-01  -9.1505709367E-01
    31  -4.9822320994E-01  -7.1137017414E-01  -9.1291119071E-01
    32  4.9417219985E-01  -7.1862756196E-01  9.1505691059E-01
    33  3.7028616719E-02  6.1621801976E-01  4.7043752722E-01
    34  -2.4610549111E-02  6.2442634850E-01  -4.5840711752E-01
    35  -3.7028592388E-02  -6.1621828383E-01  -4.7043707915E-01
    36  2.4610766935E-02  -6.2442645093E-01  4.5840691780E-01
    37  -9.0027634441E-01  9.7672387029E-01  -1.0501578468E-01
    38  9.0208191289E-01  9.8429132185E-01  1.0044248353E-01
    39  9.0027637254E-01  -9.7672403426E-01  1.0501590041E-01
    40  -9.0208188082E-01  -9.8429116431E-01  -1.0044216476E-01
    41  -4.9098451018E-01  6.8648183877E-01  2.6452329755E-02
    42  4.9165550093E-01  6.8646089210E-01  -2.7580909865E-02
    43  4.9098454370E-01  -6.8648196531E-01  -2.6452112608E-02
    44  -4.9165545563E-01  -6.8646083469E-01  2.7581062600E-02
    45  -9.1570946961E-01  9.2815485711E-02  -6.1657872598E-01
    46  9.9336606395E-01  2.9731752216E-01  5.6667588083E-01
    47  9.1570635755E-01  -9.2814980357E-02  6.1657752193E-01
    48  -9.9336634034E-01  -2.9731774634E-01  -5.6667582321E-01
    49  -3.5025942727E-01  8.7716628378E-01  2.0657012040E+00
    50  5.9734885778E-02  5.6496917115E+00  -3.0868102486E+00
    51  3.5025964498E-01  -8.7716102103E-01  -2.0657001992E+00
    52  -5.9733423480E-02  -5.6496902847E+00  3.0868087797E+00
    53  -3.9358498479E-01  -2.5951514075E-01  7.7433804878E-02
    54  3.5213344009E-01  -2.7861653614E-01  -5.0256683136E-02
    55  3.9358510131E-01  2.5951575049E-01  -7.7433467650E-02
    56  -3.5213262521E-01  2.7861621165E-01  5.0256623091E-02
    57  3.0520577902E-01  -9.5153734966E-02  1.7158760653E-01
    58  9.3899368718E-01  1.4964141985E-01  8.9774715981E-01
    59  -3.0520578229E-01  9.5153084201E-02  -1.7158711305E-01
    60  -9.3899472233E-01  -1.4964174003E-01  -8.9774681200E-01
    61  4.1957086613E-02  4.3340555590E-01  -4.9578600765E-02
    62  -9.7394793042E-01  -4.5441269000E+00  5.2434554552E-02
    63  -4.1955970074E-02  -4.3340762645E-01  4.9577658287E-02
    64  9.7394786132E-01  4.5441258420E+00  -5.2433363337E-02
    65  6.3236512545E-01  -2.1000032329E+00  3.7546674576E-01
    66  -1.1155877091E-01  -1.6719343449E+00  -1.2572545688E+00
    67  -6.3236723262E-01  2.1000009354E+00  -3.7546502590E-01
    68  1.1155948571E-01  1.6719334683E+00  1.2572548545E+00
    69  -4.2788883532E-01  -1.0920229640E-01  2.3535180928E-01
    70  4.3504933300E-01  -1.1845107854E-01  -2.2961090714E-01
    71  4.2788850745E-01  1.0920298253E-01  -2.3535150655E-01
    72  -4.3504946905E-01  1.1845118236E-01  2.2961137341E-01
    73  2.5214883739E-01  -1.0648450164E-01  -4.1797726300E-01
    74  -5.6319632749E-01  -7.4016525041E-01  1.4631647788E+00
    75  -2.5214893609E-01  1.0648328877E-01  4.1797765383E-01
    76  5.6319532079E-01  7.4016572229E-01  -1.4631651991E+00
    77  2.3985063205E-01  -1.6908081146E-02  1.7354577865E-01
    78  -5.2123681728E-01  -5.7100915375E-02  -3.8816306527E-01
    79  -2.3984997250E-01  1.6907758334E-02  -1.7354571615E-01
    80  5.2123692464E-01  5.7100932167E-02  3.8816266372E-01
    81  1.7047140869E+00  1.1079412270E+00  -9.3435431647E-01
    82  -1.7095146893E+00  1.1133004765E+00  9.4104388321E-01
    83  -1.7047114827E+00  -1.1079422886E+00  9.3435048789E-01
    84  1.7095148085E+00  -1.1132987411E+00  -9.4104516677E-01
    85  2.0652272717E-01  -5.1513971999E-02  1.8510148498E-01
    86  -2.0814496964E-01  -5.2921710396E-02  -1.7970866125E-01
    87  -2.0652222941E-01  5.1514288453E-02  -1.8510117578E-01
    88  2.0814469109E-01  5.2921542863E-02  1.7970880675E-01
    89  5.3372290814E-03  -2.9232510657E-01  -4.0030503544E-01
    90  -5.7806884999E-03  -2.8977386071E-01  4.0356282055E-01
    91  -5.3375703406E-03  2.9232492714E-01  4.0030597513E-01
    92  5.7802700434E-03  2.8977387798E-01  -4.0356199857E-01
    93  -1.9335388532E-01  3.7150813125E-01  2.0343245385E-02
    94  1.9526259053E-01  3.8079441838E-01  -2.1975510809E-02
    95  1.9335442735E-01  -3.7150836136E-01  -2.0343725666E-02
    96  -1.9526258247E-01  -3.8079510608E-01  2.1975610517E-02
  Stress tensor (eV/A^3):
  6.2765211536E-02  -1.7742249940E-03  2.1214094519E-02
  -1.7742249940E-03  6.2642532509E-02  -1.9136675823E-03
  2.1214094519E-02  -1.9136675823E-03  6.3262132486E-02
