  Invoking FHI-aims ...
  | Number of atoms                   :  96
  ...scf iterations...
  | Total energy corrected        :   -9.573694748718E+01 eV
  ...
  Total atomic forces (unitary forces cleaned)
     1  -3.1095181109E-01  6.0034609690E-01  1.9143289998E-01
     2  2.3512138610E-01  5.7944284383E-01  -1.8138767689E-01
     3  3.1095174024E-01  -6.0034597926E-01  -1.9143288418E-01
     4  -2.3512129032E-01  -5.7944282691E-01  1.8138777304E-01
     5  -8.1153242996E-01  1.5082014857E+00  1.6311266885E-01
     6  9.9138677105E-01  -1.5931370753E+00  2.1388485020E+00
     7  8.1153332174E-01  -1.5082012904E+00  -1.6311187146E-01
     8  -9.9138655988E-01  1.5931368937E+00  -2.1388481815E+00
     9  -4.5645000169E-01  2.6582512084E-01  -1.9867712402E-01
    10  4.9934113840E-01  -6.4388559438E-02  1.6873746130E-01
    11  4.5644921487E-01  -2.6582563114E-01  1.9867640420E-01
    12  -4.9934163882E-01  6.4388731569E-02  -1.6873780254E-01
    13  -5.6642174060E-01  -1.1090674023E+00  -1.0944139506E+00
    14  4.6993514427E-01  -8.6292131844E-01  1.1623504996E+00
    15  5.6642088623E-01  1.1090677354E+00  1.0944136110E+00
    16  -4.6993520870E-01  8.6292153048E-01  -1.1623503300E+00
    17  3.5493376551E-01  -4.4868232537E-01  -1.4457899039E-02
    18  -7.0668026347E-01  3.8726467764E-01  -5.9686667942E-01
    19  -3.5493308399E-01  4.4868251303E-01  1.4458474205E-02
    20  7.0668042720E-01  -3.8726521429E-01  5.9686671344E-01
    21  7.8008179260E-01  -1.3612234326E+00  -2.0921206221E-01
    22  -7.5055776438E-01  -1.4767195023E+00  3.2347984102E-01
    23  -7.8008199742E-01  1.3612236025E+00  2.0921195553E-01
    24  7.5055797836E-01  1.4767197763E+00  -3.2347990658E-01
    25  1.0900629757E+00  1.0900486607E-01  8.0064953248E-01
    26  -7.0322758460E-01  -7.8286729077E-01  -1.2426916722E-01
    27  -1.0900635432E+00  -1.0900553250E-01  -8.0065023896E-01
    28  7.0322806582E-01  7.8286823178E-01  1.2426873044E-01
    29  4.8222317175E-01  2.5151693068E-01  5.1430373432E-01
    30  -4.3786612674E-01  3.4507466928E-01  -5.6469233557E-01
    31  -4.8222302573E-01  -2.5151705630E-01  -5.1430422346E-01
    32  4.3786520829E-01  -3.4507508357E-01  5.6469207880E-01
    33  2.1067112893E-01  1.2424338335E+00  1.0500112441E+00
    34  -1.9750987802E-01  1.2888644189E+00  -1.0484915505E+00
    35  -2.1067087703E-01  -1.2424335920E+00  -1.0500108810E+00
    36  1.9750996483E-01  -1.2888646133E+00  1.0484914952E+00
    37  -6.7644326863E-01  3.2925071593E-01  -2.4924618007E-01
    38  7.1271478361E-01  4.0969992875E-01  1.9943994499E-01
    39  6.7644344525E-01  -3.2925104098E-01  2.4924643656E-01
    40  -7.1271461313E-01  -4.0970064642E-01  -1.9943936052E-01
    41  -1.0557403961E+00  1.3152022115E+00  9.9971117206E-02
    42  1.0684001396E+00  1.3351990649E+00  -9.9931748705E-02
    43  1.0557402115E+00  -1.3152017270E+00  -9.9971032122E-02
    44  -1.0683997216E+00  -1.3351986973E+00  9.9931820456E-02
    45  -9.2005455841E-01  1.5253406760E-01  -6.5456562293E-01
    46  -2.4700576615E+00  -2.2564474380E+00  -2.3017911156E+00
    47  9.2007716840E-01  -1.5252996668E-01  6.5458506979E-01
    48  2.4700560299E+00  2.2564453746E+00  2.3017896104E+00
    49  -2.0322148171E-01  -2.4263360850E-01  5.0576215430E-01
    50  4.7809750435E-01  4.9227316280E-01  -1.8382642263E+00
    51  2.0320523670E-01  2.4263528972E-01  -5.0577560849E-01
    52  -4.7809788995E-01  -4.9227110222E-01  1.8382686173E+00
    53  -8.9512494846E-01  -1.7758296892E+00  -7.0060331354E-02
    54  3.4263891099E-01  -2.7156944869E+00  4.0742587109E-01
    55  8.9513224530E-01  1.7758381292E+00  7.0056936555E-02
    56  -3.4263790400E-01  2.7156934340E+00  -4.0742546302E-01
    57  1.2996615466E+00  -2.1775412168E-01  1.1995248037E+00
    58  1.8692781539E+00  4.1641943395E-01  1.9318435047E+00
    59  -1.2996597093E+00  2.1775293354E-01  -1.1995232976E+00
    60  -1.8692794952E+00  -4.1641984589E-01  -1.9318447153E+00
    61  -1.3107857620E+00  1.3833950172E+00  9.5684188419E-01
    62  -2.0584519762E+00  1.0482520445E+00  1.1830320839E+00
    63  1.3107953930E+00  -1.3833981594E+00  -9.5684805058E-01
    64  2.0584518556E+00  -1.0482523072E+00  -1.1830318578E+00
    65  4.3705008619E-01  -6.4272246921E-02  2.9272831205E-01
    66  3.5634217216E+00  1.8558374221E+00  -8.8992319250E-01
    67  -4.3706307473E-01  6.4278006349E-02  -2.9272685551E-01
    68  -3.5634211383E+00  -1.8558361697E+00  8.8992492007E-01
    69  -6.1718451381E-01  -2.1717330420E+00  1.8424393217E-02
    70  1.0753612589E+00  -2.3562540584E+00  -4.7470184001E-01
    71  6.1718556084E-01  2.1717375530E+00  -1.8422494947E-02
    72  -1.0753611938E+00  2.3562523369E+00  4.7470202370E-01
    73  6.8835384516E-01  5.0597553318E-01  -2.3059982887E+00
    74  -8.3700542759E-01  7.7477774264E-01  2.1083876614E+00
    75  -6.8835485126E-01  -5.0597508968E-01  2.3060004571E+00
    76  8.3700584201E-01  -7.7477598734E-01  -2.1083913230E+00
    77  1.3522060721E+00  -2.2780434219E-01  6.8812455060E-01
    78  -1.9475944756E+00  -4.8813775207E-01  -1.0776586046E+00
    79  -1.3522053094E+00  2.2780377749E-01  -6.8812538852E-01
    80  1.9475952222E+00  4.8813787488E-01  1.0776587282E+00
    81  2.1273696877E-01  2.9120700003E-01  3.6154135839E-01
    82  -9.5875625221E-02  4.6543064937E-01  -2.1154337768E-01
    83  -2.1275645731E-01  -2.9121230541E-01  -3.6154250109E-01
    84  9.5876021707E-02  -4.6543184613E-01  2.1154290864E-01
    85  1.5026342293E+00  1.8522482230E-01  7.9897052579E-01
    86  -1.5647948587E+00  3.1528713521E-01  -7.3651397270E-01
    87  -1.5026337518E+00  -1.8522467507E-01  -7.9897040511E-01
    88  1.5647941705E+00  -3.1528699084E-01  7.3651369827E-01
    89  4.1292826597E-01  8.3141450241E-01  -2.1320433951E+00
    90  -4.3189380972E-01  9.5562277354E-01  2.2089236526E+00
    91  -4.1292788135E-01  -8.3141780185E-01  2.1320457003E+00
    92  4.3189393755E-01  -9.5562151072E-01  -2.2089232871E+00
    93  -1.0167124269E+00  1.3475382877E+00  9.9691270095E-01
    94  1.0121549199E+00  1.5339778770E+00  -9.6861881841E-01
    95  1.0167186883E+00  -1.3475500506E+00  -9.9691645391E-01
    96  -1.0121545103E+00  -1.5339776280E+00  9.6861850834E-01
  Stress tensor (eV/A^3):
  8.6904296688E-02  -6.5253801236E-03  2.7992388623E-02
  -6.5253801236E-03  1.0363411378E-01  6.2220955088E-03
  2.7992388623E-02  6.2220955088E-03  6.9342986555E-02
