  Invoking FHI-aims ...
  | Number of atoms                   :  96
  ...scf iterations...
  | Total energy corrected        :   -8.651261010162E+01 eV
  ...
  Total atomic forces (unitary forces cleaned)
     1  -3.1788453312E-01  6.3818360692E-01  2.0327492732E-01
     2  2.3221070425E-01  5.9094127181E-01  -1.9626008039E-01
     3  3.1788464364E-01  -6.3818350553E-01  -2.0327483736E-01
     4  -2.3221059122E-01  -5.9094095920E-01  1.9626011133E-01
     5  -6.9233065077E-01  1.1462040102E+00  -1.3494724586E-01
     6  1.0787645052E+00  -1.6126855956E+00  2.4714328869E+00
     7  6.9233068377E-01  -1.1462038683E+00  1.3494738387E-01
     8  -1.0787651359E+00  1.6126855111E+00  -2.4714326864E+00
     9  -4.2806463019E-01  3.4516219342E-01  -2.0483879536E-01
    10  -8.9477416268E-01  -1.3151389479E+00  1.9955218302E-01
    11  4.2806441906E-01  -3.4516147562E-01  2.0483870484E-01
    12  8.9477611146E-01  1.3151407834E+00  -1.9955201359E-01
    13  -5.4174361073E-01  -1.0281011524E+00  -1.1613305811E+00
    14  1.7894614019E+00  5.1099090470E-01  1.2081160199E+00
    15  5.4174303463E-01  1.0281012012E+00  1.1613302318E+00
    16  -1.7894639746E+00  -5.1099272442E-01  -1.2081146778E+00
    17  5.8043999030E-01  -8.1161311262E-01  -6.0762214307E-02
    18  -1.2503498127E+00  2.7820099107E-01  -1.2042542445E+00
    19  -5.8043898130E-01  8.1161326667E-01  6.0762916754E-02
    20  1.2503508730E+00  -2.7820180245E-01  1.2042544241E+00
    21  5.6020136478E-01  -1.0539019954E+00  -2.1237785034E-01
    22  -4.9745906333E-01  -1.0684660468E+00  3.1352989527E-01
    23  -5.6020137167E-01  1.0539024990E+00  2.1237739564E-01
    24  4.9745861324E-01  1.0684660513E+00  -3.1353009273E-01
    25  9.9327296008E-01  1.7366594502E-02  9.0009841228E-01
    26  -4.5086337106E-01  -1.2336060268E+00  3.5665513574E-01
    27  -9.9327259219E-01  -1.7367347487E-02  -9.0009858217E-01
    28  4.5086353387E-01  1.2336070995E+00  -3.5665634893E-01
    29  5.6177785755E-01  4.6160438233E-01  8.1229339991E-01
    30  -4.9388665485E-01  5.6563857315E-01  -8.2842472375E-01
    31  -5.6177790627E-01  -4.6160427290E-01  -8.1229324359E-01
    32  4.9388653171E-01  -5.6563872486E-01  8.2842439358E-01
    33  1.2071498283E-01  9.0295813162E-01  7.9655385536E-01
    34  -1.5706786711E-02  9.9978673153E-01  -7.1361325355E-01
    35  -1.2071501042E-01  -9.0295862597E-01  -7.9655354419E-01
    36  1.5707137920E-02  -9.9978708128E-01  7.1361316600E-01
    37  -8.7152775916E-01  6.9962718421E-01  -2.6722282343E-01
    38  8.7803831939E-01  8.0711420147E-01  2.0002723738E-01
    39  8.7152778262E-01  -6.9962736072E-01  2.6722271665E-01
    40  -8.7803842082E-01  -8.0711417736E-01  -2.0002688396E-01
    41  -7.4094827845E-01  1.0340243887E+00  5.4403398948E-02
    42  7.7210181458E-01  1.0763180036E+00  -5.8367689292E-02
    43  7.4094827762E-01  -1.0340244880E+00  -5.4403073047E-02
    44  -7.7210167643E-01  -1.0763178071E+00  5.8367930703E-02
    45  -1.3285055988E+00  1.3916181203E-01  -9.2028177070E-01
    46  3.2278856978E-01  -3.2966536032E+00  -2.7932468294E-02
    47  1.3285019293E+00  -1.3916124952E-01  9.2028056278E-01
    48  -3.2278905687E-01  3.2966524835E+00  2.7933177931E-02
    49  -8.8460825659E-03  5.6751419931E-01  1.5240768946E+00
    50  -7.2902492263E-01  6.3543884193E+00  -3.4092856084E+00
    51  8.8482598721E-03  -5.6751334835E-01  -1.5240770821E+00
    52  7.2902620989E-01  -6.3543871233E+00  3.4092813297E+00
    53  -1.2275756738E+00  -5.8657829509E-01  5.6659783030E-01
    54  6.0243450133E-01  -5.8761973378E-01  -3.3769398006E-01
    55  1.2275729467E+00  5.8658017852E-01  -5.6659565506E-01
    56  -6.0243288656E-01  5.8761892486E-01  3.3769365569E-01
    57  8.0239752360E-01  -1.8543726347E-01  5.9851430358E-01
    58  1.9021379780E+00  -1.2646218342E-01  1.6028279202E+00
    59  -8.0239751180E-01  1.8543612835E-01  -5.9851358281E-01
    60  -1.9021389280E+00  1.2646164748E-01  -1.6028257392E+00
    61  -9.5196199643E-02  1.3462906169E+00  -3.2119821637E-02
    62  -1.4009767593E+00  -4.3711333278E+00  -1.9548393935E-01
    63  9.5198527003E-02  -1.3462886853E+00  3.2118108694E-02
    64  1.4009763576E+00  4.3711332775E+00  1.9548593908E-01
    65  5.4465794132E-01  -1.5485044164E+00  4.0016964408E-01
    66  2.0745986453E+00  3.3534665539E+00  -6.3737043823E-01
    67  -5.4465903697E-01  1.5485042188E+00  -4.0016760731E-01
    68  -2.0745980256E+00  -3.3534670184E+00  6.3737090882E-01
    69  -1.0525041931E+00  -5.1612939775E-01  5.4836870673E-01
    70  9.8459980526E-01  -3.6233871696E-01  -4.3699276320E-01
    71  1.0525021112E+00  5.1613006946E-01  -5.4836695688E-01
    72  -9.8459956863E-01  3.6233859029E-01  4.3699351135E-01
    73  4.4069939175E-01  -4.6196261407E-01  -1.1376111162E+00
    74  -7.0688157027E-01  -1.9223403749E+00  2.4462466439E+00
    75  -4.4069997302E-01  4.6195871386E-01  1.1376102360E+00
    76  7.0687973516E-01  1.9223408621E+00  -2.4462467303E+00
    77  7.7150855660E-01  -9.9644302288E-02  5.9214680464E-01
    78  -1.8110960000E+00  -6.8277050201E-01  -1.4261318563E+00
    79  -7.7150748352E-01  9.9643753944E-02  -5.9214681453E-01
    80  1.8110967500E+00  6.8277072330E-01  1.4261308387E+00
    81  1.3889288344E+00  6.2806522320E-01  -5.8909373656E-01
    82  -1.5225992483E+00  7.3563408338E-01  6.9051538770E-01
    83  -1.3889269327E+00  -6.2806693265E-01  5.8909332853E-01
    84  1.5225988310E+00  -7.3563353655E-01  -6.9051548860E-01
    85  7.8861335511E-01  -8.4784087878E-02  5.4287145719E-01
    86  -8.2646827420E-01  -5.6981565352E-02  -5.1500709529E-01
    87  -7.8861238593E-01  8.4784598249E-02  -5.4287086776E-01
    88  8.2646804942E-01  5.6981460207E-02  5.1500716428E-01
    89  1.6575721070E-01  -6.0849238670E-01  -1.1681654399E+00
    90  -1.8782840905E-01  -5.5826828403E-01  1.2308950131E+00
    91  -1.6575707367E-01  6.0849023055E-01  1.1681637926E+00
    92  1.8782786007E-01  5.5826888973E-01  -1.2308949246E+00
    93  -3.6320856765E-01  1.2663302710E+00  -1.4212753961E-01
    94  3.3038536505E-01  1.3538295688E+00  2.0054654749E-01
    95  3.6320964013E-01  -1.2663273727E+00  1.4212486430E-01
    96  -3.3038509170E-01  -1.3538296593E+00  -2.0054679071E-01
  Stress tensor (eV/A^3):
  8.1499905213E-02  -5.2455895416E-03  2.0709375037E-02
  -5.2455895416E-03  7.4939496283E-02  1.5541348839E-04
  2.0709375037E-02  1.5541348839E-04  8.1005900924E-02
