  Invoking FHI-aims ...
  | Number of atoms                   :  96
  ...scf iterations...
  | Total energy corrected        :   -5.677817254786E+01 eV
  ...
  Total atomic forces (unitary forces cleaned)
     1  -2.3513254013E-01  5.8582943828E-01  1.9182076445E-01
     2  2.3376274988E-01  5.8298240972E-01  -1.9335201792E-01
     3  2.3513251961E-01  -5.8582936968E-01  -1.9182075061E-01
     4  -2.3376265093E-01  -5.8298237769E-01  1.9335212363E-01
     5  -8.7557636575E-01  1.1250267654E+00  5.9143923660E-02
     6  8.6718435117E-01  1.0696456783E+00  3.7184748891E-03
     7  8.7557689542E-01  -1.1250266128E+00  -5.9143432459E-02
     8  -8.6718427382E-01  -1.0696458441E+00  -3.7182669596E-03
     9  -1.8360458242E-01  1.4475062785E-01  -7.6546956679E-02
    10  1.1715967650E-01  8.0326635940E-02  8.3286980419E-02
    11  1.8360408343E-01  -1.4475080450E-01  7.6546664320E-02
    12  -1.1715994029E-01  -8.0326445584E-02  -8.3287173834E-02
    13  -3.6600331696E-01  -9.0095414277E-01  -8.2866120903E-01
    14  4.3283364809E-01  -8.3527691032E-01  8.2107116422E-01
    15  3.6600279618E-01  9.0095433680E-01  8.2866100568E-01
    16  -4.3283376911E-01  8.3527693977E-01  -8.2107095073E-01
    17  2.6186688688E+00  -3.5909780531E+00  -3.3465637563E-01
    18  -2.6411771711E+00  -3.5324214144E+00  2.6589033253E-01
    19  -2.6186698585E+00  3.5909801822E+00  3.3465679695E-01
    20  2.6411785447E+00  3.5324240151E+00  -2.6589107633E-01
    21  -1.7269295691E+00  2.0157684136E+00  9.2295806242E-02
    22  1.7269154632E+00  2.0227004176E+00  -9.7348225813E-02
    23  1.7269307999E+00  -2.0157703637E+00  -9.2296058526E-02
    24  -1.7269166585E+00  -2.0227029440E+00  9.7348581637E-02
    25  4.6315511174E-01  5.0619120229E-02  3.2079527106E-01
    26  -4.4191450275E-01  -1.1175393896E-02  -2.5177052455E-01
    27  -4.6315556987E-01  -5.0619421289E-02  -3.2079560643E-01
    28  4.4191470791E-01  1.1175714548E-02  2.5177039986E-01
    29  9.6756093459E-01  3.1582779976E+00  2.8685781700E+00
    30  -9.6818859746E-01  3.1555484147E+00  -2.8669211229E+00
    31  -9.6756025897E-01  -3.1582754908E+00  -2.8685761640E+00
    32  9.6818861893E-01  -3.1555495052E+00  2.8669213126E+00
    33  -5.7168844923E-01  -1.8107670878E+00  -1.6055101863E+00
    34  5.7156678507E-01  -1.8109209055E+00  1.6053791318E+00
    35  5.7168807659E-01  1.8107646631E+00  1.6055079915E+00
    36  -5.7156727412E-01  1.8109216512E+00  -1.6053795212E+00
    37  -2.8035769905E+00  3.4104475778E+00  2.7869986273E-01
    38  2.8025841839E+00  3.4081474195E+00  -2.7749485719E-01
    39  2.8035747808E+00  -3.4104443439E+00  -2.7869929015E-01
    40  -2.8025812518E+00  -3.4081444170E+00  2.7749502781E-01
    41  1.4482389090E+00  -1.9054886231E+00  -2.5479681028E-01
    42  -1.4488669304E+00  -1.9058626133E+00  2.5536381287E-01
    43  -1.4482366727E+00  1.9054853429E+00  2.5479641855E-01
    44  1.4488644793E+00  1.9058594769E+00  -2.5536357783E-01
    45  -1.3178277332E+00  5.4045312799E-02  -8.2012420103E-01
    46  1.2604509206E+00  1.4918777945E-02  8.0173225910E-01
    47  1.3178223783E+00  -5.4045709543E-02  8.2012082611E-01
    48  -1.2604506649E+00  -1.4918189244E-02  -8.0173263845E-01
    49  -3.0153995741E+01  -7.2164350573E+00  1.4678144534E+01
    50  2.4705491000E+01  -1.2661657835E+01  -1.0991169682E+01
    51  3.0153827472E+01  7.2164195123E+00  -1.4678074843E+01
    52  -2.4705503803E+01  1.2661664911E+01  1.0991169114E+01
    53  1.3616134571E+01  2.3670521557E+01  3.2759032266E-01
    54  -1.3616131209E+01  2.3744537390E+01  -3.3633671097E-01
    55  -1.3616050445E+01  -2.3670408889E+01  -3.2758461188E-01
    56  1.3616135443E+01  -2.3744547617E+01  3.3632946494E-01
    57  -1.4850107049E+00  1.3528527580E-01  -1.1362359937E+00
    58  1.3233525841E+00  1.2386531158E-01  1.0382044756E+00
    59  1.4850047135E+00  -1.3528419029E-01  1.1362318841E+00
    60  -1.3233447673E+00  -1.2386478839E-01  -1.0381983973E+00
    61  1.7140206903E+01  -1.7434391334E+01  -1.1110616111E+01
    62  -1.1548561446E+01  -1.2052948434E+01  7.5995961304E+00
    63  -1.7140118417E+01  1.7434290901E+01  1.1110551362E+01
    64  1.1548562247E+01  1.2052950378E+01  -7.5995939606E+00
    65  -3.9348233155E-01  -1.7374934167E+01  -1.9416815349E+01
    66  8.8755771174E-01  -1.7281098420E+01  1.7636287789E+01
    67  3.9345633265E-01  1.7374848084E+01  1.9416714358E+01
    68  -8.8757302828E-01  1.7281116620E+01  -1.7636261150E+01
    69  8.0213183508E+00  1.9115207042E+01  1.0360830133E+00
    70  -8.0553361874E+00  1.9163485811E+01  -1.0178649210E+00
    71  -8.0212737772E+00  -1.9115108356E+01  -1.0360798695E+00
    72  8.0553421491E+00  -1.9163494759E+01  1.0178583799E+00
    73  -4.1847723530E+00  -3.7708616657E+00  1.8165427321E+01
    74  3.7949011158E+00  -3.7948000945E+00  -1.6442990135E+01
    75  4.1847603042E+00  3.7708446840E+00  -1.8165330491E+01
    76  -3.7948940950E+00  3.7947910881E+00  1.6442969308E+01
    77  -1.2972393577E+00  -5.6739711106E-02  -9.5524738262E-01
    78  1.3008947807E+00  -1.1087127530E-01  9.5381295569E-01
    79  1.2972365738E+00  5.6739445905E-02  9.5524545023E-01
    80  -1.3008934743E+00  1.1087104108E-01  -9.5381170869E-01
    81  -9.1297913839E+00  2.8547602628E+01  -9.5181290885E+00
    82  9.1315035214E+00  2.8538350490E+01  9.5159908679E+00
    83  9.1297313864E+00  -2.8547452126E+01  9.5180717997E+00
    84  -9.1315064404E+00  -2.8538360992E+01  -9.5160123755E+00
    85  -1.3572501963E+00  8.1648711729E-02  -7.7925989211E-01
    86  1.3609805553E+00  7.6071240728E-02  7.7678704971E-01
    87  1.3572468954E+00  -8.1648489549E-02  7.7925815866E-01
    88  -1.3609780507E+00  -7.6071294277E-02  -7.7678541551E-01
    89  -3.1197859581E+00  -8.0810359808E+00  2.1708476464E+01
    90  3.1204433722E+00  -8.0847243693E+00  -2.1711147589E+01
    91  3.1197726137E+00  8.0809914420E+00  -2.1708362240E+01
    92  -3.1204460551E+00  8.0847244830E+00  2.1711162721E+01
    93  1.5057282747E+01  -1.7676812962E+01  -1.1321194731E+01
    94  -1.5056653738E+01  -1.7683026860E+01  1.1318769124E+01
    95  -1.5057202437E+01  1.7676713782E+01  1.1321139504E+01
    96  1.5056657361E+01  1.7683037491E+01  -1.1318765011E+01
  Stress tensor (eV/A^3):
  -8.9632263926E-02  7.3248790995E-03  8.8620213124E-02
  7.3248790995E-03  -2.3671622217E-01  -4.2481679281E-03
  8.8620213124E-02  -4.2481679281E-03  -1.6063308111E-01
