  Invoking FHI-aims ...
  | Number of atoms                   :  96
  ...scf iterations...
  | Total energy corrected        :   -1.008352308206E+02 eV
  ...
  Total atomic forces (unitary forces cleaned)
     1  -3.0142849705E-01  6.1500361976E-01  1.8612911465E-01
     2  2.3018835403E-01  5.8166527965E-01  -1.8442125075E-01
     3  3.0142852189E-01  -6.1500351357E-01  -1.8612906472E-01
     4  -2.3018818782E-01  -5.8166513217E-01  1.8442131213E-01
     5  -8.0420283945E-01  1.3400531098E+00  1.0623673068E-01
     6  1.0050087413E+00  -1.2255361049E+00  1.9092939151E+00
     7  8.0420336725E-01  -1.3400529514E+00  -1.0623619164E-01
     8  -1.0050088373E+00  1.2255359637E+00  -1.9092935865E+00
     9  -4.5663305771E-01  3.0370570713E-01  -2.0359327875E-01
    10  1.9163608825E-01  -3.2556065289E-01  1.7921360710E-01
    11  4.5663250424E-01  -3.0370571480E-01  2.0359277674E-01
    12  -1.9163557072E-01  3.2556148463E-01  -1.7921368908E-01
    13  -5.6810690657E-01  -1.0822939809E+00  -1.1464737475E+00
    14  7.6948169480E-01  -5.4708190757E-01  1.2138336108E+00
    15  5.6810620243E-01  1.0822942098E+00  1.1464734339E+00
    16  -7.6948273932E-01  5.4708131267E-01  -1.2138329510E+00
    17  4.0045399516E-01  -5.2987492167E-01  -3.3771992537E-02
    18  -7.5243584882E-01  2.2916961251E-01  -5.2312425911E-01
    19  -4.0045320024E-01  5.2987493098E-01  3.3772553564E-02
    20  7.5243615292E-01  -2.2917019492E-01  5.2312433753E-01
    21  7.2586570278E-01  -1.3386495457E+00  -2.4981457884E-01
    22  -6.7733890145E-01  -1.4129055650E+00  3.7022848247E-01
    23  -7.2586631218E-01  1.3386498865E+00  2.4981413190E-01
    24  6.7733887178E-01  1.4129057550E+00  -3.7022866809E-01
    25  9.4409364919E-01  8.4168992356E-02  7.8577686042E-01
    26  -4.5434250199E-01  -7.6214638777E-01  -7.5806515816E-02
    27  -9.4409792906E-01  -8.4169116427E-02  -7.8577981520E-01
    28  4.5434306804E-01  7.6214729993E-01  7.5805916918E-02
    29  5.2032743890E-01  2.8644249953E-01  5.9561322622E-01
    30  -4.5525192563E-01  3.8858392868E-01  -6.3528444752E-01
    31  -5.2032720217E-01  -2.8644257984E-01  -5.9561337159E-01
    32  4.5525125666E-01  -3.8858419770E-01  6.3528409491E-01
    33  2.4231544017E-01  1.1679897706E+00  1.0484196290E+00
    34  -2.2363791753E-01  1.2362884647E+00  -1.0288163328E+00
    35  -2.4231507844E-01  -1.1679900491E+00  -1.0484192701E+00
    36  2.2363824193E-01  -1.2362888342E+00  1.0288161845E+00
    37  -7.1530610054E-01  4.0855112896E-01  -2.7762724342E-01
    38  7.4678865489E-01  4.9316629067E-01  2.1829264802E-01
    39  7.1530619345E-01  -4.0855139624E-01  2.7762731732E-01
    40  -7.4678860808E-01  -4.9316673280E-01  -2.1829213240E-01
    41  -9.8622751542E-01  1.2874023321E+00  8.7360227346E-02
    42  1.0027428763E+00  1.3126083474E+00  -8.8816740948E-02
    43  9.8622739547E-01  -1.2874020820E+00  -8.7360000197E-02
    44  -1.0027425393E+00  -1.3126079991E+00  8.8816913687E-02
    45  1.6566060175E+00  1.3777848636E-01  1.5653428832E+00
    46  -4.4474523421E+00  -6.6865767502E-01  -3.8879288992E+00
    47  -1.6565542146E+00  -1.3777507240E-01  -1.5652981659E+00
    48  4.4474573978E+00  6.6866906185E-01  3.8879060658E+00
    49  -2.1579056414E+00  1.9440623852E-01  -1.0739423184E-01
    50  7.0287128431E-01  4.1086148558E-01  -2.3112192887E+00
    51  2.1578454268E+00  -1.9439426481E-01  1.0739655080E-01
    52  -7.0288627741E-01  -4.1087223608E-01  2.3112609007E+00
    53  -1.9241946639E-01  -1.3220163038E+00  -3.5466291549E-01
    54  1.6898097240E+00  1.2794848016E+00  -6.9690972075E-01
    55  1.9243974811E-01  1.3220034394E+00  3.5464394619E-01
    56  -1.6897971085E+00  -1.2794899693E+00  6.9690053053E-01
    57  1.2248964374E+00  -2.0879760607E-01  1.0796741370E+00
    58  1.2530339835E+00  4.1614934068E-01  2.5353836920E+00
    59  -1.2248888348E+00  2.0879530544E-01  -1.0796707298E+00
    60  -1.2530419195E+00  -4.1614863034E-01  -2.5353904179E+00
    61  1.2358680649E-01  1.4497722344E+00  -1.6716121138E-01
    62  -2.0590166726E+00  -3.5374663708E+00  1.7903121930E+00
    63  -1.2355965562E-01  -1.4497688307E+00  1.6713957799E-01
    64  2.0590281917E+00  3.5374720701E+00  -1.7903165422E+00
    65  -5.7293375296E-01  4.9326379352E-02  -1.2439317892E-01
    66  3.7123040758E+00  1.1552368657E+00  -7.3492471383E-01
    67  5.7291904560E-01  -4.9333332593E-02  1.2437981553E-01
    68  -3.7123098902E+00  -1.1552434200E+00  7.3492949798E-01
    69  -8.0539733224E-01  -9.1674126853E-01  6.5287379126E-01
    70  9.8297859309E-01  -8.7002447953E-01  -1.0061310934E+00
    71  8.0540357754E-01  9.1675684908E-01  -6.5286848045E-01
    72  -9.8297797325E-01  8.7002408726E-01  1.0061305933E+00
    73  7.3615078833E-01  1.0250593593E-01  -1.5895116462E+00
    74  -1.1913897110E+00  -1.8596746919E-01  2.5216990795E+00
    75  -7.3615152383E-01  -1.0249985717E-01  1.5895231091E+00
    76  1.1913890083E+00  1.8597088443E-01  -2.5217036584E+00
    77  9.2947985949E-01  -3.1152520088E-01  4.9287692166E-01
    78  -1.1466479956E+00  -3.7345880695E-01  -7.0109072471E-01
    79  -9.2948740865E-01  3.1152603686E-01  -4.9288261004E-01
    80  1.1466493837E+00  3.7345925999E-01  7.0109104456E-01
    81  -1.0375908234E+00  8.5732653862E-01  -4.6816715910E-01
    82  5.1718575719E-01  1.7636449473E+00  9.5424076931E-01
    83  1.0375644643E+00  -8.5729688220E-01  4.6815034571E-01
    84  -5.1718604195E-01  -1.7636458664E+00  -9.5424305254E-01
    85  1.1210448714E+00  6.8300411484E-02  5.6651491745E-01
    86  -1.1986692439E+00  1.4531784185E-01  -4.4844367043E-01
    87  -1.1210515024E+00  -6.8302334133E-02  -5.6651701495E-01
    88  1.1986682403E+00  -1.4531776401E-01  4.4844348236E-01
    89  4.4700248337E-01  -4.3901992875E-01  -1.5288026097E+00
    90  -5.3027729115E-01  -3.1233143808E-01  1.8156866911E+00
    91  -4.4699934103E-01  4.3900535087E-01  1.5288026613E+00
    92  5.3027689085E-01  3.1233394717E-01  -1.8156844192E+00
    93  -4.6723512179E-01  2.9354828869E-01  7.3813822529E-01
    94  4.6553748075E-01  7.0485884566E-01  -6.5168854398E-01
    95  4.6723937640E-01  -2.9358111122E-01  -7.3812475933E-01
    96  -4.6553802257E-01  -7.0485918158E-01  6.5169013937E-01
  Stress tensor (eV/A^3):
  7.4621407114E-02  -8.8918642074E-03  2.6522776353E-02
  -8.8918642074E-03  6.6133900718E-02  9.0947967727E-03
  2.6522776353E-02  9.0947967727E-03  5.8830982658E-02
