  Invoking FHI-aims ...
  | Number of atoms                   :  96
  ...scf iterations...
  | Total energy corrected        :   -9.343392781023E+01 eV
  ...
  Total atomic forces (unitary forces cleaned)
     1  -2.9117271307E-01  6.1372042180E-01  1.9463359342E-01
     2  2.1922905560E-01  5.6946040743E-01  -1.9267862865E-01
     3  2.9117279995E-01  -6.1372033002E-01  -1.9463351747E-01
     4  -2.1922891370E-01  -5.6946017597E-01  1.9267868732E-01
     5  -7.6398264716E-01  1.6031456675E+00  2.0398806314E-01
     6  8.9648585871E-01  -4.8582123244E-01  1.1427290165E+00
     7  7.6398290040E-01  -1.6031455242E+00  -2.0398774423E-01
     8  -8.9648617298E-01  4.8582110777E-01  -1.1427287197E+00
     9  -4.1246658808E-01  2.8859765282E-01  -2.0200872516E-01
    10  8.4578367362E-01  3.9744802926E-01  1.8316291729E-01
    11  4.1246622117E-01  -2.8859729465E-01  2.0200843082E-01
    12  -8.4578326842E-01  -3.9744752244E-01  -1.8316258032E-01
    13  -5.4645218539E-01  -1.0344580118E+00  -1.1324422521E+00
    14  8.5682782681E-02  -1.2094599591E+00  1.1890204079E+00
    15  5.4645158064E-01  1.0344581391E+00  1.1324419425E+00
    16  -8.5683666945E-02  1.2094595713E+00  -1.1890196491E+00
    17  3.6530216376E-01  -4.8425943531E-01  -3.4772318663E-02
    18  -4.0369172326E-01  -2.1903985335E-01  1.1179148574E-01
    19  -3.6530114268E-01  4.8425924944E-01  3.4772931640E-02
    20  4.0369169502E-01  2.1903940633E-01  -1.1179152921E-01
    21  7.2535098798E-01  -1.3492817026E+00  -2.5364433088E-01
    22  -7.2257180088E-01  -1.4361447364E+00  3.3471729982E-01
    23  -7.2535163749E-01  1.3492823551E+00  2.5364374886E-01
    24  7.2257159383E-01  1.4361449877E+00  -3.3471761938E-01
    25  9.9300513082E-01  3.1518959835E-02  8.4741083754E-01
    26  -9.1356325976E-01  -2.5184293055E-01  -8.8077000274E-01
    27  -9.9300538582E-01  -3.1519520004E-02  -8.4741133115E-01
    28  9.1356419929E-01  2.5184354479E-01  8.8076927837E-01
    29  4.8078105647E-01  2.4134960516E-01  5.4797431308E-01
    30  -4.4798847002E-01  3.0633839745E-01  -5.8080160803E-01
    31  -4.8078091825E-01  -2.4134947497E-01  -5.4797425118E-01
    32  4.4798798433E-01  -3.0633845022E-01  5.8080119278E-01
    33  2.2127481938E-01  1.1795914201E+00  1.0429653204E+00
    34  -1.8241180546E-01  1.2405304628E+00  -9.8795763203E-01
    35  -2.2127487622E-01  -1.1795918807E+00  -1.0429651385E+00
    36  1.8241220853E-01  -1.2405309532E+00  9.8795748388E-01
    37  -6.5530569190E-01  4.0017055058E-01  -2.6951718466E-01
    38  6.8423292690E-01  4.6063562215E-01  2.3554505459E-01
    39  6.5530577773E-01  -4.0017083623E-01  2.6951713385E-01
    40  -6.8423300202E-01  -4.6063587700E-01  -2.3554465254E-01
    41  -9.7099539597E-01  1.3144416524E+00  8.9920523012E-02
    42  9.8015750293E-01  1.3302190890E+00  -8.7723783730E-02
    43  9.7099530049E-01  -1.3144415274E+00  -8.9920195998E-02
    44  -9.8015721578E-01  -1.3302187393E+00  8.7724010735E-02
    45  -1.3104696823E+00  1.2546504253E-01  -8.0386148279E-01
    46  -1.5406407887E+00  -4.6115999435E+00  6.0453775833E-03
    47  1.3104876443E+00  -1.2546226908E-01  8.0387466357E-01
    48  1.5406389881E+00  4.6115987692E+00  -6.0488007317E-03
    49  -6.9147958534E-01  3.6913612378E-01  1.0368211101E+00
    50  7.2234014843E-01  5.0147016002E+00  -4.6596000505E+00
    51  6.9146025459E-01  -3.6912654050E-01  -1.0368270813E+00
    52  -7.2233936956E-01  -5.0147027429E+00  4.6596037460E+00
    53  -1.2645904622E+00  -1.0159511786E+00  5.1505359958E-01
    54  1.3972738312E+00  -1.7242511636E+00  -7.5238409919E-01
    55  1.2646000533E+00  1.0159555995E+00  -5.1505937618E-01
    56  -1.3972712404E+00  1.7242497228E+00  7.5238383299E-01
    57  1.3416227291E+00  -2.1680011249E-01  1.2969939351E+00
    58  1.2583812585E+00  -4.8265622261E-02  1.6305580170E+00
    59  -1.3416210096E+00  2.1679857267E-01  -1.2969917312E+00
    60  -1.2583837164E+00  4.8265195605E-02  -1.6305583378E+00
    61  -3.4232470044E-01  1.6683972060E+00  1.8280542483E-01
    62  -2.5153577886E+00  -2.5299551289E+00  1.4402050640E+00
    63  3.4233522804E-01  -1.6684101506E+00  -1.8281261940E-01
    64  2.5153575306E+00  2.5299560019E+00  -1.4402038337E+00
    65  4.1335165150E-01  -6.5795124585E-01  3.0086418818E-01
    66  3.2492690615E+00  4.6814492126E+00  -1.1081155992E+00
    67  -4.1336216078E-01  6.5795700039E-01  -3.0086785136E-01
    68  -3.2492666044E+00  -4.6814477434E+00  1.1081161243E+00
    69  -1.3856062138E+00  -1.3889206220E+00  7.3214135458E-01
    70  1.2135618750E+00  -9.7132395118E-01  -6.7197708848E-01
    71  1.3856085356E+00  1.3889262680E+00  -7.3214012068E-01
    72  -1.2135620192E+00  9.7132439634E-01  6.7197764870E-01
    73  8.1488078313E-01  -6.5233564017E-01  -2.0041910273E+00
    74  -1.0486646314E+00  -1.4641904176E+00  2.9295268095E+00
    75  -8.1488208613E-01  6.5233491975E-01  2.0041947791E+00
    76  1.0486627978E+00  1.4641913239E+00  -2.9295272326E+00
    77  1.2711049918E+00  -3.7738006804E-01  8.4571333553E-01
    78  -1.6810430000E+00  -6.6158663521E-01  -1.1620222982E+00
    79  -1.2711033361E+00  3.7737864952E-01  -8.4571323545E-01
    80  1.6810435079E+00  6.6158674907E-01  1.1620214413E+00
    81  5.9186507722E-01  8.8444749235E-01  -2.4210289149E-01
    82  -4.8743754624E-01  8.6688980196E-01  2.9793234727E-01
    83  -5.9188012747E-01  -8.8444465539E-01  2.4209467353E-01
    84  4.8743882522E-01  -8.6688932606E-01  -2.9793524536E-01
    85  1.5124303919E+00  5.1978977792E-02  7.4336296734E-01
    86  -1.5436415432E+00  6.8113423298E-02  -6.6602268726E-01
    87  -1.5124285535E+00  -5.1978791859E-02  -7.4336224100E-01
    88  1.5436412818E+00  -6.8113460463E-02  6.6602255301E-01
    89  4.6374964642E-01  -4.5032187791E-01  -1.9751742158E+00
    90  -4.8396929288E-01  -4.2040421211E-01  2.0396901525E+00
    91  -4.6375135548E-01  4.5031809519E-01  1.9751824658E+00
    92  4.8396825882E-01  4.2040523328E-01  -2.0396876594E+00
    93  -4.9984725522E-01  1.5754410566E+00  1.0453139800E-01
    94  4.6982176743E-01  1.6582996144E+00  -5.9520935350E-02
    95  4.9985009155E-01  -1.5754522650E+00  -1.0453037565E-01
    96  -4.6982188042E-01  -1.6583006159E+00  5.9520830514E-02
  Stress tensor (eV/A^3):
  9.0673012901E-02  -9.5845347721E-03  2.3137191119E-02
  -9.5845347721E-03  8.6336924414E-02  3.7989782614E-03
  2.3137191119E-02  3.7989782614E-03  8.9266080239E-02
