  Invoking FHI-aims ...
  | Number of atoms                   :  96
  ...scf iterations...
  | Total energy corrected        :   -9.128515860642E+01 eV
  ...
  Total atomic forces (unitary forces cleaned)
     1  -2.7118258496E-01  6.0269467050E-01  1.7979508193E-01
     2  2.1983477548E-01  5.6615746073E-01  -1.9107899079E-01
     3  2.7118260308E-01  -6.0269457528E-01  -1.7979504940E-01
     4  -2.1983462617E-01  -5.6615735328E-01  1.9107907419E-01
     5  -8.4310730863E-01  1.5392199402E+00  2.6223012157E-01
     6  8.5164376865E-01  1.5593250020E+00  -5.0199555829E-01
     7  8.4310781928E-01  -1.5392197900E+00  -2.6222961493E-01
     8  -8.5164378555E-01  -1.5593251524E+00  5.0199585585E-01
     9  -3.3190536366E-01  2.0402089750E-01  -1.6245942708E-01
    10  7.9252084513E-01  5.6385769481E-01  1.3228880590E-01
    11  3.3190483342E-01  -2.0402096552E-01  1.6245899291E-01
    12  -7.9252120294E-01  -5.6385772272E-01  -1.3228881778E-01
    13  -4.9859767813E-01  -1.0035149421E+00  -1.0222030162E+00
    14  5.2293527926E-02  -1.3824466453E+00  1.0821118701E+00
    15  4.9859703166E-01  1.0035151376E+00  1.0222027334E+00
    16  -5.2293625159E-02  1.3824468874E+00  -1.0821114740E+00
    17  4.8716036235E-01  -6.6250862013E-01  -5.0537614985E-02
    18  -3.6696208821E-01  -8.8926673101E-01  4.5582288317E-01
    19  -4.8715974305E-01  6.6250874311E-01  5.0538069861E-02
    20  3.6696195095E-01  8.8926663292E-01  -4.5582325197E-01
    21  5.3452565124E-01  -1.0662929524E+00  -2.2430333485E-01
    22  -5.2972480372E-01  -1.1202901494E+00  2.5696791727E-01
    23  -5.3452594031E-01  1.0662930510E+00  2.2430310025E-01
    24  5.2972487520E-01  1.1202903311E+00  -2.5696805492E-01
    25  8.1660682788E-01  5.3592909270E-02  6.3346402088E-01
    26  -9.3263408559E-01  2.8443986171E-01  -1.0340604397E+00
    27  -8.1660781005E-01  -5.3593333205E-02  -6.3346490544E-01
    28  9.3263482930E-01  -2.8443946972E-01  1.0340602593E+00
    29  4.7651436791E-01  4.6397546520E-01  6.7916968204E-01
    30  -4.5563630695E-01  4.9888323904E-01  -6.8566449221E-01
    31  -4.7651417275E-01  -4.6397547110E-01  -6.7916985727E-01
    32  4.5563564751E-01  -4.9888351918E-01  6.8566417224E-01
    33  1.5893042347E-01  9.6381458993E-01  8.2755612897E-01
    34  -1.5784242956E-01  9.7951941485E-01  -8.1636907316E-01
    35  -1.5893006087E-01  -9.6381470852E-01  -8.2755581842E-01
    36  1.5784265072E-01  -9.7951960412E-01  8.1636897562E-01
    37  -7.7338881981E-01  6.0076461975E-01  -1.6987030688E-01
    38  7.8072611621E-01  6.2766355504E-01  1.5315975715E-01
    39  7.7338884543E-01  -6.0076481614E-01  1.6987044421E-01
    40  -7.8072584836E-01  -6.2766386619E-01  -1.5315924754E-01
    41  -7.9784917919E-01  1.0365894339E+00  6.4620353210E-02
    42  8.0152628113E-01  1.0384556091E+00  -6.8574241095E-02
    43  7.9784913007E-01  -1.0365892589E+00  -6.4620216715E-02
    44  -8.0152604078E-01  -1.0384553837E+00  6.8574346496E-02
    45  -8.8232876128E-01  3.0320971684E-01  -2.1891461634E-01
    46  -1.1560924039E+00  -2.3296481912E+00  -9.3912692888E-01
    47  8.8237090773E-01  -3.0319433415E-01  2.1896189846E-01
    48  1.1560906303E+00  2.3296414379E+00  9.3911537632E-01
    49  -1.1198643807E+01  -8.4763915304E-01  6.2509342666E+00
    50  1.5105050592E+01  7.1491864373E+00  -1.0961004880E+01
    51  1.1198279313E+01  8.4763492586E-01  -6.2507610963E+00
    52  -1.5105144139E+01  -7.1492490575E+00  1.0961080342E+01
    53  4.8153394502E+00  3.9123478711E+00  -2.6809239705E+00
    54  -2.3354433918E+00  8.6586847680E-01  1.6924989086E+00
    55  -4.8151385698E+00  -3.9121816297E+00  2.6808085530E+00
    56  2.3354549734E+00  -8.6588048380E-01  -1.6925053676E+00
    57  1.8894764222E+00  -2.9343452812E-01  1.7415306145E+00
    58  -3.7230243316E-01  7.2033824357E-03  -1.9128577940E-02
    59  -1.8894536200E+00  2.9342986196E-01  -1.7415095186E+00
    60  3.7230232960E-01  -7.2037483733E-03  1.9128903347E-02
    61  3.3374446390E+00  -2.9672222621E+00  -2.7384123646E+00
    62  -1.1460567682E+01  -8.3182244090E+00  8.5115349637E+00
    63  -3.3372988895E+00  2.9670700965E+00  2.7382822758E+00
    64  1.1460647909E+01  8.3182984574E+00  -8.5115903534E+00
    65  -3.3965767317E-01  -4.6430447817E+00  -3.1033088752E+00
    66  3.3041075961E+00  -2.4162163087E+00  2.1962110898E+00
    67  3.3962838148E-01  4.6430142923E+00  3.1032710772E+00
    68  -3.3041081925E+00  2.4162216417E+00  -2.1961998912E+00
    69  6.3414643137E-01  1.7366777425E+00  5.1464642522E-01
    70  -7.2456060553E-01  1.9170463268E+00  -6.0352047613E-01
    71  -6.3413047973E-01  -1.7366385725E+00  -5.1464197816E-01
    72  7.2456191786E-01  -1.9170488127E+00  6.0351907383E-01
    73  -3.3440873416E-02  5.5209544811E-01  7.9582081622E-01
    74  -1.9333596910E-01  7.2500026484E-01  -3.9531380599E-01
    75  3.3433384432E-02  -5.5208595839E-01  -7.9578495349E-01
    76  1.9333902912E-01  -7.2499726161E-01  3.9530228515E-01
    77  1.4619213997E+00  -3.3445746884E-01  8.0776667811E-01
    78  -1.8108024960E+00  -4.7865563339E-01  -1.0446448692E+00
    79  -1.4619166902E+00  3.3445573103E-01  -8.0776522909E-01
    80  1.8108028880E+00  4.7865554874E-01  1.0446445388E+00
    81  -2.2228024053E+00  8.8996584850E+00  -2.4605751659E+00
    82  2.1894117703E+00  9.0233378427E+00  2.5508813277E+00
    83  2.2227024530E+00  -8.8995050960E+00  2.4605746254E+00
    84  -2.1894114084E+00  -9.0233409369E+00  -2.5508909883E+00
    85  1.9029713712E+00  1.5611058941E-01  9.6285959888E-01
    86  -1.9410065568E+00  1.9539111292E-01  -9.3190233285E-01
    87  -1.9029581064E+00  -1.5610953690E-01  -9.6285359668E-01
    88  1.9410063635E+00  -1.9539108208E-01  9.3190225440E-01
    89  -2.1263065534E-01  -1.0464122198E+00  1.3822175846E+00
    90  1.9869802759E-01  -1.0055493045E+00  -1.3301328918E+00
    91  2.1263049577E-01  1.0463997022E+00  -1.3822110224E+00
    92  -1.9869904491E-01  1.0055520426E+00  1.3301388604E+00
    93  1.9423234802E+00  -5.4628172501E+00  -4.8137551583E-01
    94  -1.9464623126E+00  -5.3705282344E+00  5.0237680568E-01
    95  -1.9422667832E+00  5.4626381325E+00  4.8136376554E-01
    96  1.9464621335E+00  5.3705305720E+00  -5.0237348577E-01
  Stress tensor (eV/A^3):
  4.6110085644E-02  -1.7013115060E-02  6.1661114208E-02
  -1.7013115060E-02  1.3408444202E-02  9.0498011107E-03
  6.1661114208E-02  9.0498011107E-03  3.4058299561E-02
