  Invoking FHI-aims ...
  | Number of atoms                   :  96
  ...scf iterations...
  | Total energy corrected        :   -8.141206731688E+01 eV
  ...
  Total atomic forces (unitary forces cleaned)
     1  -2.7909014419E-01  5.9765489270E-01  1.7766081333E-01
     2  2.2650921840E-01  5.7015293191E-01  -1.8188737523E-01
     3  2.7909004768E-01  -5.9765482570E-01  -1.7766081020E-01
     4  -2.2650914010E-01  -5.7015296546E-01  1.8188749540E-01
     5  -8.7556766956E-01  1.4690800672E+00  2.3499363594E-01
     6  8.8884707284E-01  1.5880524592E+00  -4.8665671041E-01
     7  8.7556854265E-01  -1.4690798662E+00  -2.3499288888E-01
     8  -8.8884681392E-01  -1.5880526501E+00  4.8665690642E-01
     9  -3.2310971702E-01  1.6555190099E-01  -1.4943327297E-01
    10  6.8392617445E-01  4.4321168076E-01  1.2496862188E-01
    11  3.2310896272E-01  -1.6555246754E-01  1.4943273523E-01
    12  -6.8392634623E-01  -4.4321125137E-01  -1.2496898987E-01
    13  -4.7597996031E-01  -1.0234663372E+00  -9.4432563178E-01
    14  1.1839278618E-01  -1.3149232602E+00  9.8364554211E-01
    15  4.7597922651E-01  1.0234666605E+00  9.4432536950E-01
    16  -1.1839310431E-01  1.3149231880E+00  -9.8364560483E-01
    17  5.8267616596E-01  -7.5756072149E-01  -4.7860310279E-02
    18  -4.6147707500E-01  -9.8987833164E-01  3.8537413833E-01
    19  -5.8267574006E-01  7.5756105728E-01  4.7860804690E-02
    20  4.6147724883E-01  9.8987820602E-01  -3.8537440640E-01
    21  4.6032873369E-01  -9.0567437763E-01  -1.2619871978E-01
    22  -4.7139288103E-01  -9.5136630623E-01  1.5570755926E-01
    23  -4.6032881614E-01  9.0567437314E-01  1.2619877016E-01
    24  4.7139293102E-01  9.5136649618E-01  -1.5570774019E-01
    25  8.1482505678E-01  9.6868826565E-02  5.4037311893E-01
    26  -9.2953456281E-01  3.4769813479E-01  -8.7862426340E-01
    27  -8.1482519328E-01  -9.6869449900E-02  -5.4037344627E-01
    28  9.2953470499E-01  -3.4769757672E-01  8.7862421415E-01
    29  4.5957454420E-01  5.8295229362E-01  7.3387680427E-01
    30  -4.5564647470E-01  6.0172124732E-01  -7.4598530236E-01
    31  -4.5957435411E-01  -5.8295216556E-01  -7.3387721966E-01
    32  4.5564559706E-01  -6.0172163631E-01  7.4598508654E-01
    33  6.8127652323E-02  8.4854152864E-01  6.4086374376E-01
    34  -6.7285810216E-02  8.5037923044E-01  -6.4159322620E-01
    35  -6.8127495559E-02  -8.4854136625E-01  -6.4086369967E-01
    36  6.7285759437E-02  -8.5037928188E-01  6.4159319122E-01
    37  -8.6218161062E-01  6.9027596533E-01  -1.0484810568E-01
    38  8.7033244459E-01  7.0674183330E-01  9.6755631755E-02
    39  8.6218160041E-01  -6.9027607173E-01  1.0484837704E-01
    40  -8.7033198019E-01  -7.0674228575E-01  -9.6755153446E-02
    41  -7.1815782782E-01  8.7483220499E-01  5.5940311213E-02
    42  7.2107573910E-01  8.7598233025E-01  -5.8676429823E-02
    43  7.1815784113E-01  -8.7483198579E-01  -5.5940352607E-02
    44  -7.2107556820E-01  -8.7598224405E-01  5.8676435604E-02
    45  -1.0587261574E+00  2.2687952534E-02  -6.9045193735E-01
    46  1.2499470148E+00  1.3480319768E-01  8.7403779505E-01
    47  1.0587238737E+00  -2.2688532166E-02  6.9045017612E-01
    48  -1.2499468458E+00  -1.3480319003E-01  -8.7403803300E-01
    49  -1.3533948592E-01  -7.6884785415E-01  1.6075301591E+00
    50  8.7644165680E-01  -1.0792039454E-01  -4.8845963242E+00
    51  1.3533885287E-01  7.6884602686E-01  -1.6075289476E+00
    52  -8.7644100858E-01  1.0791980202E-01  4.8845972850E+00
    53  -3.0950905061E-01  -8.5903082676E-01  -2.7089600246E-01
    54  1.9971820432E-01  -8.3935571659E-01  3.2080620761E-01
    55  3.0950887508E-01  8.5903078095E-01  2.7089590554E-01
    56  -1.9971825729E-01  8.3935576772E-01  -3.2080612690E-01
    57  5.2255423328E-01  -1.8683601649E-02  2.9946983799E-01
    58  1.1743591212E+00  1.9316096810E-01  1.0161121471E+00
    59  -5.2255363333E-01  1.8683174685E-02  -2.9946929051E-01
    60  -1.1743600732E+00  -1.9316125589E-01  -1.0161131164E+00
    61  -7.2535000816E-01  5.6602517783E-01  4.2047531474E-01
    62  -1.4865502068E+00  -4.2740731121E-01  1.0960901276E+00
    63  7.2534982689E-01  -5.6602510532E-01  -4.2047468547E-01
    64  1.4865504048E+00  4.2740745848E-01  -1.0960898921E+00
    65  1.4690029477E+00  -8.2000560506E-01  -6.5766679325E-01
    66  -1.9416664412E+00  -5.8879660985E-01  2.1979210673E+00
    67  -1.4690020557E+00  8.2000511983E-01  6.5766604362E-01
    68  1.9416655938E+00  5.8879788420E-01  -2.1979195932E+00
    69  -1.6680741658E-01  -9.4414337715E-01  -2.6489423439E-02
    70  2.6478254277E-01  -1.0813318851E+00  -7.8135744637E-03
    71  1.6680751896E-01  9.4414263999E-01  2.6489171290E-02
    72  -2.6478277002E-01  1.0813315060E+00  7.8138687199E-03
    73  1.5862147523E-01  4.7450404746E-01  -8.5882325069E-01
    74  1.1388581500E-01  2.3327352456E-01  -3.3145254859E-01
    75  -1.5862146859E-01  -4.7450350986E-01  8.5882243321E-01
    76  -1.1388542649E-01  -2.3327388434E-01  3.3145127537E-01
    77  4.7255546658E-01  1.5305166799E-02  3.4860107903E-01
    78  -6.6172441268E-01  4.4133591615E-02  -4.5886344935E-01
    79  -4.7255477302E-01  -1.5305191401E-02  -3.4860101614E-01
    80  6.6172466845E-01  -4.4133582412E-02  4.5886357973E-01
    81  8.4992546090E-01  1.5636644083E+00  4.6553593251E-01
    82  -8.5430022338E-01  1.6128320232E+00  -4.6067966802E-01
    83  -8.4992566275E-01  -1.5636621765E+00  -4.6553378467E-01
    84  8.5430076648E-01  -1.6128318910E+00  4.6067962251E-01
    85  5.8942968277E-01  -5.4931404421E-02  3.1999512819E-01
    86  -6.0796861462E-01  -2.4272326571E-02  -3.1889570218E-01
    87  -5.8942867339E-01  5.4931445482E-02  -3.1999455554E-01
    88  6.0796818612E-01  2.4272357695E-02  3.1889557069E-01
    89  1.0843184521E-01  3.9760019785E-01  -8.9652097963E-01
    90  -1.0943142218E-01  4.1802784735E-01  9.0247470889E-01
    91  -1.0843159296E-01  -3.9759879627E-01  8.9651949050E-01
    92  1.0943162372E-01  -4.1802760669E-01  -9.0247490325E-01
    93  -5.6683747893E-01  4.5271655215E-01  6.2837100556E-01
    94  5.6974863446E-01  4.7520560723E-01  -6.2542888716E-01
    95  5.6683750439E-01  -4.5271692154E-01  -6.2837084949E-01
    96  -5.6974840220E-01  -4.7520575463E-01  6.2542875521E-01
  Stress tensor (eV/A^3):
  7.4593170796E-02  -1.7573286361E-03  2.1201616047E-02
  -1.7573286361E-03  8.3197956969E-02  -3.5173824930E-04
  2.1201616047E-02  -3.5173824930E-04  6.1726033656E-02
