  Invoking FHI-aims ...
  | Number of atoms                   :  96
  ...scf iterations...
  | Total energy corrected        :   -8.715380644856E+01 eV
  ...
  Total atomic forces (unitary forces cleaned)
     1  -2.6447784818E-01  5.9041725451E-01  1.8106109205E-01
     2  2.2443615290E-01  5.6228796924E-01  -1.8815966093E-01
     3  2.6447780920E-01  -5.9041716665E-01  -1.8106107893E-01
     4  -2.2443604952E-01  -5.6228794077E-01  1.8815976291E-01
     5  -8.6451620659E-01  1.4560901644E+00  2.2961988038E-01
     6  8.8050056061E-01  1.5574501968E+00  -4.2848649963E-01
     7  8.6451688951E-01  -1.4560899953E+00  -2.2961925739E-01
     8  -8.8050042970E-01  -1.5574503670E+00  4.2848675440E-01
     9  -3.1753424454E-01  1.7827397121E-01  -1.5228430242E-01
    10  5.8363111385E-01  3.9005141190E-01  1.3130323123E-01
    11  3.1753360633E-01  -1.7827428714E-01  1.5228381599E-01
    12  -5.8363139366E-01  -3.9005120260E-01  -1.3130344290E-01
    13  -4.8173259373E-01  -1.0061024845E+00  -9.8095065952E-01
    14  2.3198496997E-01  -1.2287864193E+00  1.0240757875E+00
    15  4.8173191509E-01  1.0061027400E+00  9.8095039141E-01
    16  -2.3198514557E-01  1.2287864897E+00  -1.0240755984E+00
    17  5.4983242495E-01  -7.3555722615E-01  -5.1683152901E-02
    18  -4.8620218068E-01  -9.1683054712E-01  3.0360794187E-01
    19  -5.4983193662E-01  7.3555747405E-01  5.1683608891E-02
    20  4.8620221423E-01  9.1683047998E-01  -3.0360829077E-01
    21  4.5705074182E-01  -9.5776845858E-01  -1.8407904077E-01
    22  -4.5484102385E-01  -9.8615989069E-01  2.0995220455E-01
    23  -4.5705085557E-01  9.5776847860E-01  1.8407893309E-01
    24  4.5484117802E-01  9.8616001178E-01  -2.0995225832E-01
    25  8.1070085295E-01  7.1750316742E-02  5.8019830280E-01
    26  -8.8865523628E-01  2.4682956136E-01  -8.3478206910E-01
    27  -8.1070104491E-01  -7.1750844636E-02  -5.8019863199E-01
    28  8.8865564754E-01  -2.4682909676E-01  8.3478195523E-01
    29  4.7450208887E-01  5.5870614204E-01  7.2027279777E-01
    30  -4.6424472218E-01  5.7803537023E-01  -7.2665997116E-01
    31  -4.7450188461E-01  -5.5870609300E-01  -7.2027309677E-01
    32  4.6424394768E-01  -5.7803571733E-01  7.2665970481E-01
    33  8.9552070633E-02  8.8007582408E-01  7.1678477812E-01
    34  -8.8103577331E-02  8.8236387055E-01  -7.1489549271E-01
    35  -8.9551864955E-02  -8.8007577481E-01  -7.1678460412E-01
    36  8.8103637334E-02  -8.8236396760E-01  7.1489543925E-01
    37  -8.3381107621E-01  6.7644605828E-01  -1.2844015859E-01
    38  8.3593740600E-01  6.9315658674E-01  1.1698863396E-01
    39  8.3381106482E-01  -6.7644619347E-01  1.2844036757E-01
    40  -8.3593700390E-01  -6.9315694499E-01  -1.1698812689E-01
    41  -7.3295356442E-01  9.2090748004E-01  5.7840644959E-02
    42  7.3445600680E-01  9.2143212583E-01  -6.0435650531E-02
    43  7.3295355617E-01  -9.2090729660E-01  -5.7840606370E-02
    44  -7.3445581132E-01  -9.2143198498E-01  6.0435702091E-02
    45  -1.9691390615E+00  9.8660209514E-02  -1.3344839406E+00
    46  1.8836719609E+00  -1.8421530259E-01  1.4086816839E+00
    47  1.9691385898E+00  -9.8659316322E-02  1.3344823142E+00
    48  -1.8836731069E+00  1.8421463118E-01  -1.4086815773E+00
    49  -4.9591372644E+00  -1.8900287043E+00  4.0260722416E+00
    50  7.1467712214E+00  -4.4708768559E-01  -8.3853051193E+00
    51  4.9590502236E+00  1.8900103160E+00  -4.0260321513E+00
    52  -7.1467759792E+00  4.4709380280E-01  8.3853078483E+00
    53  1.3386507846E+00  1.7718242639E+00  -5.0890911327E-01
    54  -1.8120300396E+00  2.3058482289E+00  6.7117759819E-01
    55  -1.3386144863E+00  -1.7717732598E+00  5.0890045262E-01
    56  1.8120350284E+00  -2.3058560725E+00  -6.7117932095E-01
    57  1.1874394224E+00  -1.6826128055E-01  9.8171961864E-01
    58  7.3848859041E-01  1.4389039610E-01  7.7476721043E-01
    59  -1.1874329354E+00  1.6825952239E-01  -9.8171387648E-01
    60  -7.3849002081E-01  -1.4389082715E-01  -7.7476824181E-01
    61  1.2969657065E+00  -8.0489974327E-01  -1.0228183012E+00
    62  -4.8784222866E+00  -3.0211335501E+00  3.3470267957E+00
    63  -1.2969234253E+00  8.0486701566E-01  1.0227855801E+00
    64  4.8784236353E+00  3.0211348153E+00  -3.3470261487E+00
    65  1.3013944127E+00  -2.9298694329E+00  -2.1639048734E+00
    66  -1.3811657619E+00  -2.8523679514E+00  3.3452577977E+00
    67  -1.3014010795E+00  2.9298445949E+00  2.1638818186E+00
    68  1.3811621455E+00  2.8523742947E+00  -3.3452487668E+00
    69  8.4090077199E-02  1.9132298885E-01  3.4782920110E-01
    70  -2.9648297790E-02  1.5363821209E-01  -4.0902748532E-01
    71  -8.4082819035E-02  -1.9129969690E-01  -3.4782516580E-01
    72  2.9649543091E-02  -1.5364278257E-01  4.0902746901E-01
    73  1.0660857015E-01  3.1508995960E-01  -2.6292412506E-01
    74  1.2371590728E-01  3.7694495489E-01  -7.5341220194E-01
    75  -1.0661211666E-01  -3.1509060407E-01  2.6293928964E-01
    76  -1.2371342577E-01  -3.7694531524E-01  7.5340346627E-01
    77  1.0633302653E+00  -1.4766297241E-01  5.8062111077E-01
    78  -1.2282571453E+00  -1.7798239903E-01  -6.8013220292E-01
    79  -1.0633259203E+00  1.4766215895E-01  -5.8061967958E-01
    80  1.2282570804E+00  1.7798225789E-01  6.8013200299E-01
    81  -5.2553743034E-01  5.4954441066E+00  -3.3722299633E-01
    82  5.0676068569E-01  5.5795708116E+00  3.5517025171E-01
    83  5.2550386962E-01  -5.4953773636E+00  3.3722100587E-01
    84  -5.0676077136E-01  -5.5795757790E+00  -3.5517490331E-01
    85  1.2931783304E+00  9.5363171763E-02  6.9709871286E-01
    86  -1.3101670842E+00  1.2003663488E-01  -6.8857768907E-01
    87  -1.2931720888E+00  -9.5362485610E-02  -6.9709554901E-01
    88  1.3101667414E+00  -1.2003657941E-01  6.8857762510E-01
    89  -1.5189937365E-02  -4.4969109880E-01  2.7397560732E-01
    90  1.3704532467E-02  -4.3171582715E-01  -2.6644584691E-01
    91  1.5187066856E-02  4.4967826853E-01  -2.7395487934E-01
    92  -1.3705110345E-02  4.3171815178E-01  2.6644991276E-01
    93  9.5497391162E-01  -1.5880737383E+00  -5.2198149622E-01
    94  -9.5947607429E-01  -1.5615530426E+00  5.2997175339E-01
    95  -9.5494253111E-01  1.5880229504E+00  5.2195913565E-01
    96  9.5947773638E-01  1.5615560137E+00  -5.2997193220E-01
  Stress tensor (eV/A^3):
  6.6639303796E-02  -3.7439511957E-03  3.5829806428E-02
  -3.7439511957E-03  5.7029894495E-02  1.2409761679E-03
  3.5829806428E-02  1.2409761679E-03  5.5057355773E-02
