  Invoking FHI-aims ...
  | Number of atoms                   :  96
  ...scf iterations...
  | Total energy corrected        :   -8.515219236532E+01 eV
  ...
  Total atomic forces (unitary forces cleaned)
     1  -2.5379753541E-01  5.9348913076E-01  1.8213727596E-01
     2  2.1891248400E-01  5.6761888896E-01  -1.9044284517E-01
     3  2.5379756209E-01  -5.9348904234E-01  -1.8213724225E-01
     4  -2.1891234998E-01  -5.6761878631E-01  1.9044293070E-01
     5  -8.5130652446E-01  1.3904230171E+00  1.9291303252E-01
     6  8.6245767514E-01  1.5019650370E+00  -3.5073538361E-01
     7  8.5130699190E-01  -1.3904228716E+00  -1.9291256411E-01
     8  -8.6245770251E-01  -1.5019651853E+00  3.5073567093E-01
     9  -2.9221517524E-01  1.7993946629E-01  -1.4781638102E-01
    10  4.8884051895E-01  3.5173257592E-01  1.3185783312E-01
    11  2.9221467882E-01  -1.7993950374E-01  1.4781599182E-01
    12  -4.8884087368E-01  -3.5173259736E-01  -1.3185787051E-01
    13  -4.7056719397E-01  -9.7385701424E-01  -9.8081721359E-01
    14  2.9044574269E-01  -1.1528416219E+00  1.0167179322E+00
    15  4.7056659097E-01  9.7385718842E-01  9.8081695049E-01
    16  -2.9044583536E-01  1.1528418360E+00  -1.0167175137E+00
    17  6.0807554086E-01  -8.4225334752E-01  -7.1833640702E-02
    18  -5.6999030244E-01  -9.8144379712E-01  2.5553085640E-01
    19  -6.0807505301E-01  8.4225360611E-01  7.1834047151E-02
    20  5.6999023428E-01  9.8144380044E-01  -2.5553127670E-01
    21  3.7325768343E-01  -8.5513580323E-01  -2.0023297475E-01
    22  -3.6508924077E-01  -8.6039609454E-01  2.1499170440E-01
    23  -3.7325784584E-01  8.5513574252E-01  2.0023275665E-01
    24  3.6508928615E-01  8.6039617128E-01  -2.1499176474E-01
    25  7.2945894033E-01  4.4744272910E-02  5.6338544388E-01
    26  -7.8865704978E-01  1.6999878009E-01  -7.5204835052E-01
    27  -7.2945942977E-01  -4.4744693734E-02  -5.6338594276E-01
    28  7.8865765619E-01  -1.6999843969E-01  7.5204819928E-01
    29  4.8503852148E-01  6.3727071321E-01  8.0665556889E-01
    30  -4.7565239815E-01  6.5366734352E-01  -8.1099390395E-01
    31  -4.8503834205E-01  -6.3727069728E-01  -8.0665569836E-01
    32  4.7565184027E-01  -6.5366765092E-01  8.1099362103E-01
    33  1.1281071679E-01  7.7003189766E-01  6.4716598639E-01
    34  -1.0342776973E-01  7.8010646026E-01  -6.3894389308E-01
    35  -1.1281041765E-01  -7.7003202885E-01  -6.4716577996E-01
    36  1.0342793460E-01  -7.8010657630E-01  6.3894377549E-01
    37  -8.7806522986E-01  7.9201554588E-01  -1.1873732840E-01
    38  8.7817268770E-01  8.0604586115E-01  1.0828317270E-01
    39  8.7806518859E-01  -7.9201564206E-01  1.1873748865E-01
    40  -8.7817232789E-01  -8.0604602414E-01  -1.0828269074E-01
    41  -6.3712044846E-01  8.2414299074E-01  4.5181681031E-02
    42  6.3777522619E-01  8.2414133046E-01  -4.7146812272E-02
    43  6.3712047172E-01  -8.2414293540E-01  -4.5181581897E-02
    44  -6.3777509095E-01  -8.2414123029E-01  4.7146902708E-02
    45  -1.7565721911E+00  1.5381727244E-01  -1.1226966085E+00
    46  1.4738764110E+00  -3.8030322845E-01  1.1063507647E+00
    47  1.7565856585E+00  -1.5381253582E-01  1.1227139096E+00
    48  -1.4738789024E+00  3.8029988804E-01  -1.1063498160E+00
    49  -1.5562053293E+01  -1.0105006122E+00  9.5428258438E+00
    50  1.9543284238E+01  6.7655608587E+00  -1.4958409638E+01
    51  1.5561789137E+01  1.0104967565E+00  -9.5426904550E+00
    52  -1.9543217950E+01  -6.7654425637E+00  1.4958359823E+01
    53  7.3041855391E+00  6.9070027920E+00  -3.3287710180E+00
    54  -5.9327660138E+00  5.5080759196E+00  2.8649062119E+00
    55  -7.3040353349E+00  -6.9068815599E+00  3.3286917954E+00
    56  5.9327906046E+00  -5.5081004190E+00  -2.8649194026E+00
    57  1.6686840487E+00  -2.5745749801E-01  1.4813139321E+00
    58  -3.5245234742E-01  -3.6378843749E-02  -1.3241395956E-01
    59  -1.6686675699E+00  2.5745383158E-01  -1.4812980887E+00
    60  3.5244863840E-01  3.6377837609E-02  1.3241071826E-01
    61  5.3089304179E+00  -5.9199361510E+00  -4.0424721247E+00
    62  -1.1968065742E+01  -1.2453209424E+01  8.6284583588E+00
    63  -5.3088330750E+00  5.9198249340E+00  4.0423850673E+00
    64  1.1967979339E+01  1.2453115938E+01  -8.6283916877E+00
    65  -4.0189622571E-01  -7.6411641257E+00  -4.9427546081E+00
    66  1.0470981627E+00  -7.4308115942E+00  4.8035705114E+00
    67  4.0186295233E-01  7.6410861821E+00  4.9426983187E+00
    68  -1.0471043199E+00  7.4308178489E+00  -4.8035538437E+00
    69  1.8485111829E+00  4.0517266990E+00  3.8962752032E-01
    70  -1.9622551737E+00  4.1244655052E+00  -3.8190436985E-01
    71  -1.8484785206E+00  -4.0516564357E+00  -3.8962581215E-01
    72  1.9622579773E+00  -4.1244703375E+00  3.8190205951E-01
    73  -5.8006708512E-01  6.5590092231E-01  2.7502829288E+00
    74  4.9999379426E-01  7.5514279051E-01  -2.6235696227E+00
    75  5.8005611175E-01  -6.5589007830E-01  -2.7502309778E+00
    76  -4.9998906692E-01  -7.5514096441E-01  2.6235550921E+00
    77  1.2879005624E+00  -2.8228456997E-01  7.2072558185E-01
    78  -1.4412599153E+00  -3.3047884249E-01  -8.2394670918E-01
    79  -1.2878940645E+00  2.8228271812E-01  -7.2072298884E-01
    80  1.4412598985E+00  3.3047866882E-01  8.2394622902E-01
    81  -2.6231664313E+00  1.3977609915E+01  -4.6624002023E+00
    82  2.5928707285E+00  1.4047209471E+01  4.6940658600E+00
    83  2.6230707080E+00  -1.3977364128E+01  4.6623619761E+00
    84  -2.5928699756E+00  -1.4047219701E+01  -4.6940845619E+00
    85  1.6983164111E+00  1.1211393972E-01  8.7795788370E-01
    86  -1.7083497532E+00  1.2687622684E-01  -8.6326519509E-01
    87  -1.6983029815E+00  -1.1211290095E-01  -8.7795138745E-01
    88  1.7083497662E+00  -1.2687623861E-01  8.6326526157E-01
    89  -8.8090615467E-01  -1.8064571839E+00  4.7132188429E+00
    90  8.7732249100E-01  -1.7891796353E+00  -4.7048788482E+00
    91  8.8089418159E-01  1.8064327428E+00  -4.7131602644E+00
    92  -8.7732502505E-01  1.7891834451E+00  4.7048931716E+00
    93  3.8373064130E+00  -8.9718891727E+00  -1.5789096996E+00
    94  -3.8478884902E+00  -8.9463359286E+00  1.5911794263E+00
    95  -3.8372200229E+00  8.9716580946E+00  1.5788805882E+00
    96  3.8478902161E+00  8.9463434021E+00  -1.5911759571E+00
  Stress tensor (eV/A^3):
  2.8963987317E-02  -1.1853010670E-02  6.6507483927E-02
  -1.1853010670E-02  -2.9770314439E-02  6.4002463977E-03
  6.6507483927E-02  6.4002463977E-03  1.5613265146E-02
