  Invoking FHI-aims ...
  | Number of atoms                   :  96
  ...scf iterations...
  | Total energy corrected        :   -7.382550804156E+01 eV
  ...
  Total atomic forces (unitary forces cleaned)
     1  -2.4942614942E-01  5.8851585615E-01  1.8812755928E-01
     2  2.4943197363E-01  5.8852595733E-01  -1.8810530653E-01
     3  2.4942605589E-01  -5.8851582419E-01  -1.8812756266E-01
     4  -2.4943191253E-01  -5.8852601030E-01  1.8810543987E-01
     5  -8.9290873466E-01  1.1342205829E+00  7.1489069489E-02
     6  8.9286123019E-01  1.1342271920E+00  -7.1495430438E-02
     7  8.9290949615E-01  -1.1342203873E+00  -7.1488433199E-02
     8  -8.9286099166E-01  -1.1342273916E+00  7.1495535474E-02
     9  -1.8792614640E-01  1.3073918757E-01  -7.2594332845E-02
    10  1.8796465870E-01  1.3081871706E-01  7.2600925886E-02
    11  1.8792551506E-01  -1.3073965489E-01  7.2594044944E-02
    12  -1.8796479294E-01  -1.3081826897E-01  -7.2601261071E-02
    13  -3.5483757266E-01  -9.2152070845E-01  -7.8399989555E-01
    14  3.5483419298E-01  -9.2158674796E-01  7.8399479305E-01
    15  3.5483704530E-01  9.2152101816E-01  7.8399974033E-01
    16  -3.5483445120E-01  9.2158660727E-01  -7.8399489994E-01
    17  2.8310630402E+00  -3.6936862010E+00  -3.3761329716E-01
    18  -2.8315650780E+00  -3.6944935179E+00  3.3759681625E-01
    19  -2.8310620603E+00  3.6936854715E+00  3.3761388912E-01
    20  2.8315675469E+00  3.6944973552E+00  -3.3759739892E-01
    21  -1.8767088138E+00  2.1704802153E+00  1.9871261962E-01
    22  1.8772397752E+00  2.1712684470E+00  -1.9875871534E-01
    23  1.8767080543E+00  -2.1704792558E+00  -1.9871274521E-01
    24  -1.8772421196E+00  -2.1712721272E+00  1.9875889859E-01
    25  5.4698280713E-01  7.8487299344E-02  3.2298469242E-01
    26  -5.4702353293E-01  7.8415998575E-02  -3.2295440762E-01
    27  -5.4698308441E-01  -7.8487750929E-02  -3.2298498234E-01
    28  5.4702348279E-01  -7.8415590873E-02  3.2295431717E-01
    29  9.8679563771E-01  3.3709580332E+00  2.9361522142E+00
    30  -9.8679453138E-01  3.3709437350E+00  -2.9360854786E+00
    31  -9.8679420349E-01  -3.3709525674E+00  -2.9361486096E+00
    32  9.8679389987E-01  -3.3709441058E+00  2.9360854332E+00
    33  -6.2005104023E-01  -2.0435348127E+00  -1.7488814299E+00
    34  6.2006738303E-01  -2.0434581997E+00  1.7488258795E+00
    35  6.2004992544E-01  2.0435296450E+00  1.7488773771E+00
    36  -6.2006744477E-01  2.0434582079E+00  -1.7488259129E+00
    37  -2.9960437926E+00  3.5035290965E+00  3.2865532732E-01
    38  2.9965351531E+00  3.5043029451E+00  -3.2867830480E-01
    39  2.9960403764E+00  -3.5035241437E+00  -3.2865487809E-01
    40  -2.9965314595E+00  -3.5042993345E+00  3.2867810451E-01
    41  1.6235678605E+00  -2.0408216794E+00  -2.7937935445E-01
    42  -1.6240962596E+00  -2.0415849607E+00  2.7944903466E-01
    43  -1.6235643501E+00  2.0408167228E+00  2.7937903245E-01
    44  1.6240930206E+00  2.0415810395E+00  -2.7944856791E-01
    45  -1.8701348267E-01  1.2210802844E-02  -1.4297009907E-01
    46  1.8702756831E-01  1.2259826131E-02  1.4294528184E-01
    47  1.8701376645E-01  -1.2211055718E-02  1.4296999005E-01
    48  -1.8702732064E-01  -1.2260089599E-02  -1.4294527543E-01
    49  -7.2215664105E-01  -1.5975978425E+00  2.4152842254E+00
    50  7.2257311409E-01  -1.5971869226E+00  -2.4154185445E+00
    51  7.2215367984E-01  1.5975941804E+00  -2.4152860927E+00
    52  -7.2258221205E-01  1.5971895105E+00  2.4154134534E+00
    53  3.0585492926E-01  1.1594915062E+00  9.0545034802E-02
    54  -3.0581424102E-01  1.1592706420E+00  -9.0495737898E-02
    55  -3.0585408600E-01  -1.1594882478E+00  -9.0543698707E-02
    56  3.0581519432E-01  -1.1592739487E+00  9.0496175876E-02
    57  -7.4695529959E-01  8.4785236853E-02  -6.3878984109E-01
    58  7.4677543411E-01  8.4780270121E-02  6.3866519659E-01
    59  7.4695672144E-01  -8.4785152768E-02  6.3879123273E-01
    60  -7.4676783329E-01  -8.4780073612E-02  -6.3866013910E-01
    61  7.6157913550E-01  -3.7746131497E-01  -6.9283950721E-01
    62  -7.6185140899E-01  -3.7763725916E-01  6.9305468241E-01
    63  -7.6157830389E-01  3.7746088469E-01  6.9283856652E-01
    64  7.6185171072E-01  3.7763752473E-01  -6.9305480299E-01
    65  2.3300221960E+00  -1.4389364780E+00  -1.5788676261E+00
    66  -2.3300953588E+00  -1.4385720426E+00  1.5788459895E+00
    67  -2.3300247173E+00  1.4389329302E+00  1.5788648988E+00
    68  2.3300921018E+00  1.4385838090E+00  -1.5788373055E+00
    69  2.3156180271E-01  1.2190484949E+00  3.2401048618E-01
    70  -2.3153024610E-01  1.2186779665E+00  -3.2393102169E-01
    71  -2.3156112754E-01  -1.2190440995E+00  -3.2400944140E-01
    72  2.3153161711E-01  -1.2186840541E+00  3.2393203554E-01
    73  -3.1356118607E-01  -4.3166543991E-01  1.0522201115E+00
    74  3.1357579904E-01  -4.3167246012E-01  -1.0522649879E+00
    75  3.1356144338E-01  4.3166506641E-01  -1.0522200182E+00
    76  -3.1357384490E-01  4.3166725357E-01  1.0522557088E+00
    77  -9.8167781729E-01  -8.4266216102E-03  -5.3442550953E-01
    78  9.8169127990E-01  -8.4408202949E-03  5.3444171346E-01
    79  9.8167917800E-01  8.4267406468E-03  5.3442680664E-01
    80  -9.8169132082E-01  8.4407731304E-03  -5.3444178535E-01
    81  8.3387254396E-01  2.8918292906E+00  7.8163249384E-01
    82  -8.3366895129E-01  2.8920722374E+00  -7.8162628175E-01
    83  -8.3388660225E-01  -2.8918256524E+00  -7.8161808492E-01
    84  8.3366465765E-01  -2.8920734099E+00  7.8162460614E-01
    85  -8.7087389793E-01  -5.4139492093E-02  -4.8479013641E-01
    86  8.7080006138E-01  -5.4148202217E-02  4.8475949625E-01
    87  8.7087743429E-01  5.4139177288E-02  4.8479236635E-01
    88  -8.7079665354E-01  5.4148287234E-02  -4.8475780740E-01
    89  -1.6123972914E-01  -7.5365437564E-01  8.5353314429E-01
    90  1.6128057343E-01  -7.5378351427E-01  -8.5369500800E-01
    91  1.6124051230E-01  7.5365811906E-01  -8.5353941005E-01
    92  -1.6128069764E-01  7.5378369278E-01  8.5369546485E-01
    93  8.0941674180E-01  -6.7556920241E-01  -7.2114442577E-01
    94  -8.0959959883E-01  -6.7571218683E-01  7.2133899708E-01
    95  -8.0940714735E-01  6.7556233484E-01  7.2113474962E-01
    96  8.0960092026E-01  6.7571331196E-01  -7.2133985910E-01
  Stress tensor (eV/A^3):
  2.8887232284E-02  -2.6229808091E-06  1.8603573287E-02
  -2.6229808091E-06  1.1673658936E-02  4.2136002871E-07
  1.8603573287E-02  4.2136002871E-07  2.0456568061E-02
