  Invoking FHI-aims ...
  | Number of atoms                   :  96
  ...scf iterations...
  | Total energy corrected        :   -6.957460748837E+01 eV
  ...
  Total atomic forces (unitary forces cleaned)
     1  -2.2126833387E-01  5.8525691902E-01  1.8896268860E-01
     2  2.1603813318E-01  5.7866807056E-01  -1.9394759199E-01
     3  2.2126842279E-01  -5.8525683480E-01  -1.8896262909E-01
     4  -2.1603800180E-01  -5.7866789654E-01  1.9394766457E-01
     5  -8.4753052336E-01  1.1769411347E+00  8.2841799303E-02
     6  8.4016878740E-01  1.1515010849E+00  -2.6778142455E-02
     7  8.4753076069E-01  -1.1769410061E+00  -8.2841510708E-02
     8  -8.4016898376E-01  -1.1515012102E+00  2.6778439589E-02
     9  -2.2212404810E-01  1.6143685047E-01  -1.1944166367E-01
    10  1.6228251182E-01  9.9491140559E-02  1.2241457318E-01
    11  2.2212371864E-01  -1.6143661155E-01  1.1944139988E-01
    12  -1.6228289061E-01  -9.9491316377E-02  -1.2241450160E-01
    13  -4.1473478242E-01  -9.0409721697E-01  -9.1783142424E-01
    14  4.8000334652E-01  -8.4039798099E-01  9.1841677368E-01
    15  4.1473427411E-01  9.0409728359E-01  9.1783117515E-01
    16  -4.8000344460E-01  8.4039826567E-01  -9.1841616480E-01
    17  1.1562482930E+00  -1.6734212623E+00  -1.5992237041E-01
    18  -1.1992705086E+00  -1.6418884197E+00  9.2195226980E-02
    19  -1.1562483901E+00  1.6734224845E+00  1.5992262552E-01
    20  1.1992704670E+00  1.6418886768E+00  -9.2195833329E-02
    21  -2.3948707611E-01  2.7134548887E-02  -1.3381780594E-01
    22  2.5182001724E-01  5.3356058458E-02  1.2565212935E-01
    23  2.3948734818E-01  -2.7135522785E-02  1.3381751372E-01
    24  -2.5182013762E-01  -5.3356254009E-02  -1.2565211640E-01
    25  5.3835616095E-01  1.4869887765E-02  4.5296553994E-01
    26  -5.1637938837E-01  -4.2225424391E-02  -3.8686933672E-01
    27  -5.3835646770E-01  -1.4870168610E-02  -4.5296581186E-01
    28  5.1637998297E-01  4.2225614118E-02  3.8686919602E-01
    29  6.1359779868E-01  1.3556532744E+00  1.4385155153E+00
    30  -6.1193884746E-01  1.3570243921E+00  -1.4377161831E+00
    31  -6.1359784458E-01  -1.3556535720E+00  -1.4385155316E+00
    32  6.1193890474E-01  -1.3570250013E+00  1.4377160686E+00
    33  -8.6758365029E-02  -1.0818703192E-02  -7.6701742249E-02
    34  8.5975715231E-02  -1.3622251999E-02  7.7061759608E-02
    35  8.6758561641E-02  1.0818744275E-02  7.6701899648E-02
    36  -8.5975835822E-02  1.3622522733E-02  -7.7062044257E-02
    37  -1.3837681977E+00  1.6246749928E+00  1.3129726627E-02
    38  1.3816706247E+00  1.6253566022E+00  -1.4869062925E-02
    39  1.3837679656E+00  -1.6246747819E+00  -1.3129419083E-02
    40  -1.3816700440E+00  -1.6253561768E+00  1.4869531992E-02
    41  4.3759368563E-03  -2.9882336867E-02  -4.4287320296E-02
    42  -5.7508382701E-03  -3.1060656314E-02  4.4587706235E-02
    43  -4.3756993036E-03  2.9881984750E-02  4.4287283249E-02
    44  5.7506070271E-03  3.1060304480E-02  -4.4587665184E-02
    45  -1.8808325528E+00  1.4945012642E-01  -1.2211483413E+00
    46  1.8164105976E+00  1.0856583733E-01  1.2163611772E+00
    47  1.8808269686E+00  -1.4945028852E-01  1.2211450742E+00
    48  -1.8164110789E+00  -1.0856531457E-01  -1.2163607927E+00
    49  -2.8149925989E+01  7.5618541357E+00  1.5471481565E+01
    50  3.0760012410E+01  -1.6912934508E+00  -1.6781575748E+01
    51  2.8149581452E+01  -7.5616487691E+00  -1.5471313118E+01
    52  -3.0760026596E+01  1.6912972046E+00  1.6781589966E+01
    53  1.7461813276E+01  1.3469548146E+01  -7.3319235857E+00
    54  -2.2511793274E+01  1.7838224480E+01  9.3982230629E+00
    55  -1.7461589555E+01  -1.3469422346E+01  7.3318270670E+00
    56  2.2511804869E+01  -1.7838236454E+01  -9.3982396818E+00
    57  5.3612491238E-01  -1.1014725960E-01  4.4668774078E-01
    58  -2.8805828179E-01  -6.0839067442E-02  -2.0825101681E-01
    59  -5.3612008633E-01  1.1014576750E-01  -4.4668316355E-01
    60  2.8805870804E-01  6.0838685925E-02  2.0825150901E-01
    61  9.1117243482E+00  -2.0400587943E+01  -4.9227400285E+00
    62  -6.9275798292E+00  -1.5608765771E+01  3.9770524557E+00
    63  -9.1116098389E+00  2.0400262481E+01  4.9226720004E+00
    64  6.9275831743E+00  1.5608773587E+01  -3.9770503819E+00
    65  -2.4976169872E+00  -1.2353850562E+01  -4.7343402740E+00
    66  2.9838315391E+00  -1.1920904707E+01  3.1817371657E+00
    67  2.4975238798E+00  1.2353687664E+01  4.7342619974E+00
    68  -2.9838380319E+00  1.1920899123E+01  -3.1817121204E+00
    69  5.6483638604E+00  7.3475308517E+00  -1.3963883229E+00
    70  -5.8803178912E+00  7.5582853714E+00  1.4235357135E+00
    71  -5.6482592040E+00  -7.3474069144E+00  1.3963521201E+00
    72  5.8803173825E+00  -7.5582836146E+00  -1.4235396115E+00
    73  -1.3354514813E+00  1.6133358641E+00  5.9174085344E+00
    74  9.7473872716E-01  1.1027522745E+00  -4.5219645351E+00
    75  1.3354287958E+00  -1.6133038487E+00  -5.9173011255E+00
    76  -9.7473132827E-01  -1.1027485789E+00  4.5219443448E+00
    77  -9.2528591070E-02  -1.1117755630E-01  -1.4434114672E-01
    78  2.5293360725E-01  -1.2388607478E-01  2.5241078119E-01
    79  9.2540231988E-02  1.1117541180E-01  1.4434889495E-01
    80  -2.5293497346E-01  1.2388579282E-01  -2.5241146386E-01
    81  -2.7037148169E+00  2.1205573135E+01  -1.2476754261E+01
    82  2.7181932843E+00  2.1185992698E+01  1.2462831868E+01
    83  2.7036915112E+00  -2.1205348353E+01  1.2476424597E+01
    84  -2.7181861829E+00  -2.1185993803E+01  -1.2462893816E+01
    85  3.7277350829E-01  3.0535607422E-03  1.8069307254E-01
    86  -3.6831088878E-01  -2.3588600798E-04  -1.8534718035E-01
    87  -3.7276134759E-01  -3.0534689617E-03  -1.8068630248E-01
    88  3.6831217385E-01  2.3573663889E-04  1.8534817245E-01
    89  -2.3613755555E+00  1.0872330432E-01  1.2537224084E+01
    90  2.3620686778E+00  1.0929870970E-01  -1.2540306311E+01
    91  2.3613155612E+00  -1.0870461042E-01  -1.2536908821E+01
    92  -2.3620774209E+00  -1.0930385721E-01  1.2540359232E+01
    93  7.1082956545E+00  -1.8560055676E+01  -1.4434012407E+00
    94  -7.1108801144E+00  -1.8573625729E+01  1.4399530472E+00
    95  -7.1082173702E+00  1.8559816854E+01  1.4434028099E+00
    96  7.1108804671E+00  1.8573632870E+01  -1.4399460284E+00
  Stress tensor (eV/A^3):
  -4.5626912579E-02  1.0870507954E-02  7.7464339230E-02
  1.0870507954E-02  -1.4995277392E-01  -5.2164767130E-03
  7.7464339230E-02  -5.2164767130E-03  -3.6749543513E-02
