64 
Energy: 3.1216490000000006e+00 
Mg	  0.000000000000 	  0.000000000000 	  0.000000000000 	
Mg	  1.000000000000 	  0.000000000000 	  2.980000000000 	
Mg	  0.000000000000 	  3.980000000000 	  0.000000000000 	
Mg	  1.000000000000 	  3.980000000000 	  2.980000000000 	
Mg	  3.980000000000 	  0.000000000000 	  0.000000000000 	
Mg	  4.980000000000 	  0.000000000000 	  2.980000000000 	
Mg	  3.980000000000 	  3.980000000000 	  0.000000000000 	
Mg	  4.980000000000 	  3.980000000000 	  2.980000000000 	
Mg	  1.692456336909 	  1.791637557940 	  0.000000000000 	
Mg	  2.692456336909 	  1.791637557940 	  2.980000000000 	
Mg	  1.692456336909 	  5.771637557940 	  0.000000000000 	
Mg	  2.692456336909 	  5.771637557940 	  2.980000000000 	
Mg	  5.672456336909 	  1.791637557940 	  0.000000000000 	
Mg	  6.672456336909 	  1.791637557940 	  2.980000000000 	
Mg	  5.672456336909 	  5.771637557940 	  0.000000000000 	
Mg	  6.672456336909 	  5.771637557940 	  2.980000000000 	
Mg	  2.485906105151 	  0.000000000000 	  1.494093894849 	
Mg	  3.485906105151 	  0.000000000000 	  4.474093894849 	
Mg	  2.485906105151 	  3.980000000000 	  1.494093894849 	
Mg	  3.485906105151 	  3.980000000000 	  4.474093894849 	
Mg	  6.465906105151 	  0.000000000000 	  1.494093894849 	
Mg	  7.465906105151 	  0.000000000000 	  4.474093894849 	
Mg	  6.465906105151 	  3.980000000000 	  1.494093894849 	
Mg	  7.465906105151 	  3.980000000000 	  4.474093894849 	
Mg	  0.495906105151 	  1.990000000000 	  1.494093894849 	
Mg	  1.495906105151 	  1.990000000000 	  4.474093894849 	
Mg	  0.495906105151 	  5.970000000000 	  1.494093894849 	
Mg	  1.495906105151 	  5.970000000000 	  4.474093894849 	
Mg	  4.475906105151 	  1.990000000000 	  1.494093894849 	
Mg	  5.475906105151 	  1.990000000000 	  4.474093894849 	
Mg	  4.475906105151 	  5.970000000000 	  1.494093894849 	
Mg	  5.475906105151 	  5.970000000000 	  4.474093894849 	
O	  1.990000000000 	  0.000000000000 	  0.000000000000 	
O	  2.990000000000 	  0.000000000000 	  2.980000000000 	
O	  1.990000000000 	  3.980000000000 	  0.000000000000 	
O	  2.990000000000 	  3.980000000000 	  2.980000000000 	
O	  5.970000000000 	  0.000000000000 	  0.000000000000 	
O	  6.970000000000 	  0.000000000000 	  2.980000000000 	
O	  5.970000000000 	  3.980000000000 	  0.000000000000 	
O	  6.970000000000 	  3.980000000000 	  2.980000000000 	
O	  0.000000000000 	  1.990000000000 	  0.000000000000 	
O	  1.000000000000 	  1.990000000000 	  2.980000000000 	
O	  0.000000000000 	  5.970000000000 	  0.000000000000 	
O	  1.000000000000 	  5.970000000000 	  2.980000000000 	
O	  3.980000000000 	  1.990000000000 	  0.000000000000 	
O	  4.980000000000 	  1.990000000000 	  2.980000000000 	
O	  3.980000000000 	  5.970000000000 	  0.000000000000 	
O	  4.980000000000 	  5.970000000000 	  2.980000000000 	
O	  0.495906105151 	  0.000000000000 	  1.494093894849 	
O	  1.495906105151 	  0.000000000000 	  4.474093894849 	
O	  0.495906105151 	  3.980000000000 	  1.494093894849 	
O	  1.495906105151 	  3.980000000000 	  4.474093894849 	
O	  4.475906105151 	  0.000000000000 	  1.494093894849 	
O	  5.475906105151 	  0.000000000000 	  4.474093894849 	
O	  4.475906105151 	  3.980000000000 	  1.494093894849 	
O	  5.475906105151 	  3.980000000000 	  4.474093894849 	
O	  2.882630989272 	  1.338379377832 	  1.494093894849 	
O	  3.882630989272 	  1.338379377832 	  4.474093894849 	
O	  2.882630989272 	  5.318379377832 	  1.494093894849 	
O	  3.882630989272 	  5.318379377832 	  4.474093894849 	
O	  6.862630989272 	  1.338379377832 	  1.494093894849 	
O	  7.862630989272 	  1.338379377832 	  4.474093894849 	
O	  6.862630989272 	  5.318379377832 	  1.494093894849 	
O	  7.862630989272 	  5.318379377832 	  4.474093894849 	
64 
Energy: 3.0182950195312559e+00 
Mg	  0.000000000000 	  0.000000000000 	  0.000000000000 	
Mg	  1.000000000000 	  0.000000000000 	  2.980000000000 	
Mg	  0.000000000000 	  3.980000000000 	  0.000000000000 	
Mg	  1.000000000000 	  3.980000000000 	  2.980000000000 	
Mg	  3.980000000000 	  0.000000000000 	  0.000000000000 	
Mg	  4.980000000000 	  0.000000000000 	  2.980000000000 	
Mg	  3.980000000000 	  3.980000000000 	  0.000000000000 	
Mg	  4.980000000000 	  3.980000000000 	  2.980000000000 	
Mg	  1.719474305049 	  1.812461390967 	  0.000000000000 	
Mg	  2.719474305049 	  1.812461390967 	  2.980000000000 	
Mg	  1.719474305049 	  5.792461390967 	  0.000000000000 	
Mg	  2.719474305049 	  5.792461390967 	  2.980000000000 	
Mg	  5.699474305049 	  1.812461390967 	  0.000000000000 	
Mg	  6.699474305049 	  1.812461390967 	  2.980000000000 	
Mg	  5.699474305049 	  5.792461390967 	  0.000000000000 	
Mg	  6.699474305049 	  5.792461390967 	  2.980000000000 	
Mg	  2.463370992397 	  0.000000000000 	  1.533500133212 	
Mg	  3.463370992397 	  0.000000000000 	  4.513500133212 	
Mg	  2.463370992397 	  3.980000000000 	  1.533500133212 	
Mg	  3.463370992397 	  3.980000000000 	  4.513500133212 	
Mg	  6.443370992397 	  0.000000000000 	  1.533500133212 	
Mg	  7.443370992397 	  0.000000000000 	  4.513500133212 	
Mg	  6.443370992397 	  3.980000000000 	  1.533500133212 	
Mg	  7.443370992397 	  3.980000000000 	  4.513500133212 	
Mg	  0.464935429592 	  1.998435562804 	  1.533500133212 	
Mg	  1.464935429592 	  1.998435562804 	  4.513500133212 	
Mg	  0.464935429592 	  5.978435562804 	  1.533500133212 	
Mg	  1.464935429592 	  5.978435562804 	  4.513500133212 	
Mg	  4.444935429592 	  1.998435562804 	  1.533500133212 	
Mg	  5.444935429592 	  1.998435562804 	  4.513500133212 	
Mg	  4.444935429592 	  5.978435562804 	  1.533500133212 	
Mg	  5.444935429592 	  5.978435562804 	  4.513500133212 	
O	  1.998435562804 	  0.000000000000 	  0.000000000000 	
O	  2.998435562804 	  0.000000000000 	  2.980000000000 	
O	  1.998435562804 	  3.980000000000 	  0.000000000000 	
O	  2.998435562804 	  3.980000000000 	  2.980000000000 	
O	  5.978435562804 	  0.000000000000 	  0.000000000000 	
O	  6.978435562804 	  0.000000000000 	  2.980000000000 	
O	  5.978435562804 	  3.980000000000 	  0.000000000000 	
O	  6.978435562804 	  3.980000000000 	  2.980000000000 	
O	  0.000000000000 	  1.998435562804 	  0.000000000000 	
O	  1.000000000000 	  1.998435562804 	  2.980000000000 	
O	  0.000000000000 	  5.978435562804 	  0.000000000000 	
O	  1.000000000000 	  5.978435562804 	  2.980000000000 	
O	  3.980000000000 	  1.998435562804 	  0.000000000000 	
O	  4.980000000000 	  1.998435562804 	  2.980000000000 	
O	  3.980000000000 	  5.978435562804 	  0.000000000000 	
O	  4.980000000000 	  5.978435562804 	  2.980000000000 	
O	  0.464935429592 	  0.000000000000 	  1.533500133212 	
O	  1.464935429592 	  0.000000000000 	  4.513500133212 	
O	  0.464935429592 	  3.980000000000 	  1.533500133212 	
O	  1.464935429592 	  3.980000000000 	  4.513500133212 	
O	  4.444935429592 	  0.000000000000 	  1.533500133212 	
O	  5.444935429592 	  0.000000000000 	  4.513500133212 	
O	  4.444935429592 	  3.980000000000 	  1.533500133212 	
O	  5.444935429592 	  3.980000000000 	  4.513500133212 	
O	  2.835319336070 	  1.387510408320 	  1.533500133212 	
O	  3.835319336070 	  1.387510408320 	  4.513500133212 	
O	  2.835319336070 	  5.367510408320 	  1.533500133212 	
O	  3.835319336070 	  5.367510408320 	  4.513500133212 	
O	  6.815319336070 	  1.387510408320 	  1.533500133212 	
O	  7.815319336070 	  1.387510408320 	  4.513500133212 	
O	  6.815319336070 	  5.367510408320 	  1.533500133212 	
O	  7.815319336070 	  5.367510408320 	  4.513500133212 	
64 
Energy: 3.3470437656249517e+00 
Mg	  0.000000000000 	  0.000000000000 	  0.000000000000 	
Mg	  1.000000000000 	  0.000000000000 	  2.980000000000 	
Mg	  0.000000000000 	  3.980000000000 	  0.000000000000 	
Mg	  1.000000000000 	  3.980000000000 	  2.980000000000 	
Mg	  3.980000000000 	  0.000000000000 	  0.000000000000 	
Mg	  4.980000000000 	  0.000000000000 	  2.980000000000 	
Mg	  3.980000000000 	  3.980000000000 	  0.000000000000 	
Mg	  4.980000000000 	  3.980000000000 	  2.980000000000 	
Mg	  1.746501437486 	  1.833291177076 	  0.000000000000 	
Mg	  2.746501437486 	  1.833291177076 	  2.980000000000 	
Mg	  1.746501437486 	  5.813291177076 	  0.000000000000 	
Mg	  2.746501437486 	  5.813291177076 	  2.980000000000 	
Mg	  5.726501437486 	  1.833291177076 	  0.000000000000 	
Mg	  6.726501437486 	  1.833291177076 	  2.980000000000 	
Mg	  5.726501437486 	  5.813291177076 	  0.000000000000 	
Mg	  6.726501437486 	  5.813291177076 	  2.980000000000 	
Mg	  2.440819354204 	  0.000000000000 	  1.572921958307 	
Mg	  3.440819354204 	  0.000000000000 	  4.552921958307 	
Mg	  2.440819354204 	  3.980000000000 	  1.572921958307 	
Mg	  3.440819354204 	  3.980000000000 	  4.552921958307 	
Mg	  6.420819354204 	  0.000000000000 	  1.572921958307 	
Mg	  7.420819354204 	  0.000000000000 	  4.552921958307 	
Mg	  6.420819354204 	  3.980000000000 	  1.572921958307 	
Mg	  7.420819354204 	  3.980000000000 	  4.552921958307 	
Mg	  0.433948697949 	  2.006870656256 	  1.572921958307 	
Mg	  1.433948697949 	  2.006870656256 	  4.552921958307 	
Mg	  0.433948697949 	  5.986870656256 	  1.572921958307 	
Mg	  1.433948697949 	  5.986870656256 	  4.552921958307 	
Mg	  4.413948697949 	  2.006870656256 	  1.572921958307 	
Mg	  5.413948697949 	  2.006870656256 	  4.552921958307 	
Mg	  4.413948697949 	  5.986870656256 	  1.572921958307 	
Mg	  5.413948697949 	  5.986870656256 	  4.552921958307 	
O	  2.006870656256 	  0.000000000000 	  0.000000000000 	
O	  3.006870656256 	  0.000000000000 	  2.980000000000 	
O	  2.006870656256 	  3.980000000000 	  0.000000000000 	
O	  3.006870656256 	  3.980000000000 	  2.980000000000 	
O	  5.986870656256 	  0.000000000000 	  0.000000000000 	
O	  6.986870656256 	  0.000000000000 	  2.980000000000 	
O	  5.986870656256 	  3.980000000000 	  0.000000000000 	
O	  6.986870656256 	  3.980000000000 	  2.980000000000 	
O	  0.000000000000 	  2.006870656256 	  0.000000000000 	
O	  1.000000000000 	  2.006870656256 	  2.980000000000 	
O	  0.000000000000 	  5.986870656256 	  0.000000000000 	
O	  1.000000000000 	  5.986870656256 	  2.980000000000 	
O	  3.980000000000 	  2.006870656256 	  0.000000000000 	
O	  4.980000000000 	  2.006870656256 	  2.980000000000 	
O	  3.980000000000 	  5.986870656256 	  0.000000000000 	
O	  4.980000000000 	  5.986870656256 	  2.980000000000 	
O	  0.433948697949 	  0.000000000000 	  1.572921958307 	
O	  1.433948697949 	  0.000000000000 	  4.552921958307 	
O	  0.433948697949 	  3.980000000000 	  1.572921958307 	
O	  1.433948697949 	  3.980000000000 	  4.552921958307 	
O	  4.413948697949 	  0.000000000000 	  1.572921958307 	
O	  5.413948697949 	  0.000000000000 	  4.552921958307 	
O	  4.413948697949 	  3.980000000000 	  1.572921958307 	
O	  5.413948697949 	  3.980000000000 	  4.552921958307 	
O	  2.787978312563 	  1.436662067151 	  1.572921958307 	
O	  3.787978312563 	  1.436662067151 	  4.552921958307 	
O	  2.787978312563 	  5.416662067151 	  1.572921958307 	
O	  3.787978312563 	  5.416662067151 	  4.552921958307 	
O	  6.767978312563 	  1.436662067151 	  1.572921958307 	
O	  7.767978312563 	  1.436662067151 	  4.552921958307 	
O	  6.767978312563 	  5.416662067151 	  1.572921958307 	
O	  7.767978312563 	  5.416662067151 	  4.552921958307 	
64 
Energy: 3.9174655507811300e+00 
Mg	  0.000000000000 	  0.000000000000 	  0.000000000000 	
Mg	  1.000000000000 	  0.000000000000 	  2.980000000000 	
Mg	  0.000000000000 	  3.980000000000 	  0.000000000000 	
Mg	  1.000000000000 	  3.980000000000 	  2.980000000000 	
Mg	  3.980000000000 	  0.000000000000 	  0.000000000000 	
Mg	  4.980000000000 	  0.000000000000 	  2.980000000000 	
Mg	  3.980000000000 	  3.980000000000 	  0.000000000000 	
Mg	  4.980000000000 	  3.980000000000 	  2.980000000000 	
Mg	  1.773533123640 	  1.854124502640 	  0.000000000000 	
Mg	  2.773533123640 	  1.854124502640 	  2.980000000000 	
Mg	  1.773533123640 	  5.834124502640 	  0.000000000000 	
Mg	  2.773533123640 	  5.834124502640 	  2.980000000000 	
Mg	  5.753533123640 	  1.854124502640 	  0.000000000000 	
Mg	  6.753533123640 	  1.854124502640 	  2.980000000000 	
Mg	  5.753533123640 	  5.834124502640 	  0.000000000000 	
Mg	  6.753533123640 	  5.834124502640 	  2.980000000000 	
Mg	  2.418264155641 	  0.000000000000 	  1.612350365640 	
Mg	  3.418264155641 	  0.000000000000 	  4.592350365640 	
Mg	  2.418264155641 	  3.980000000000 	  1.612350365640 	
Mg	  3.418264155641 	  3.980000000000 	  4.592350365640 	
Mg	  6.398264155641 	  0.000000000000 	  1.612350365640 	
Mg	  7.398264155641 	  0.000000000000 	  4.592350365640 	
Mg	  6.398264155641 	  3.980000000000 	  1.612350365640 	
Mg	  7.398264155641 	  3.980000000000 	  4.592350365640 	
Mg	  0.402956895000 	  2.015307260640 	  1.612350365640 	
Mg	  1.402956895000 	  2.015307260640 	  4.592350365640 	
Mg	  0.402956895000 	  5.995307260640 	  1.612350365640 	
Mg	  1.402956895000 	  5.995307260640 	  4.592350365640 	
Mg	  4.382956895000 	  2.015307260640 	  1.612350365640 	
Mg	  5.382956895000 	  2.015307260640 	  4.592350365640 	
Mg	  4.382956895000 	  5.995307260640 	  1.612350365640 	
Mg	  5.382956895000 	  5.995307260640 	  4.592350365640 	
O	  2.015307260640 	  0.000000000000 	  0.000000000000 	
O	  3.015307260640 	  0.000000000000 	  2.980000000000 	
O	  2.015307260640 	  3.980000000000 	  0.000000000000 	
O	  3.015307260640 	  3.980000000000 	  2.980000000000 	
O	  5.995307260640 	  0.000000000000 	  0.000000000000 	
O	  6.995307260640 	  0.000000000000 	  2.980000000000 	
O	  5.995307260640 	  3.980000000000 	  0.000000000000 	
O	  6.995307260640 	  3.980000000000 	  2.980000000000 	
O	  0.000000000000 	  2.015307260640 	  0.000000000000 	
O	  1.000000000000 	  2.015307260640 	  2.980000000000 	
O	  0.000000000000 	  5.995307260640 	  0.000000000000 	
O	  1.000000000000 	  5.995307260640 	  2.980000000000 	
O	  3.980000000000 	  2.015307260640 	  0.000000000000 	
O	  4.980000000000 	  2.015307260640 	  2.980000000000 	
O	  3.980000000000 	  5.995307260640 	  0.000000000000 	
O	  4.980000000000 	  5.995307260640 	  2.980000000000 	
O	  0.402956895000 	  0.000000000000 	  1.612350365640 	
O	  1.402956895000 	  0.000000000000 	  4.592350365640 	
O	  0.402956895000 	  3.980000000000 	  1.612350365640 	
O	  1.402956895000 	  3.980000000000 	  4.592350365640 	
O	  4.382956895000 	  0.000000000000 	  1.612350365640 	
O	  5.382956895000 	  0.000000000000 	  4.592350365640 	
O	  4.382956895000 	  3.980000000000 	  1.612350365640 	
O	  5.382956895000 	  3.980000000000 	  4.592350365640 	
O	  2.740629671641 	  1.485821900610 	  1.612350365640 	
O	  3.740629671641 	  1.485821900610 	  4.592350365640 	
O	  2.740629671641 	  5.465821900610 	  1.612350365640 	
O	  3.740629671641 	  5.465821900610 	  4.592350365640 	
O	  6.720629671641 	  1.485821900610 	  1.612350365640 	
O	  7.720629671641 	  1.485821900610 	  4.592350365640 	
O	  6.720629671641 	  5.465821900610 	  1.612350365640 	
O	  7.720629671641 	  5.465821900610 	  4.592350365640 	
64 
Energy: 4.5684275624997710e+00 
Mg	  0.000000000000 	  0.000000000000 	  0.000000000000 	
Mg	  1.000000000000 	  0.000000000000 	  2.980000000000 	
Mg	  0.000000000000 	  3.980000000000 	  0.000000000000 	
Mg	  1.000000000000 	  3.980000000000 	  2.980000000000 	
Mg	  3.980000000000 	  0.000000000000 	  0.000000000000 	
Mg	  4.980000000000 	  0.000000000000 	  2.980000000000 	
Mg	  3.980000000000 	  3.980000000000 	  0.000000000000 	
Mg	  4.980000000000 	  3.980000000000 	  2.980000000000 	
Mg	  1.800568403448 	  1.874960589582 	  0.000000000000 	
Mg	  2.800568403448 	  1.874960589582 	  2.980000000000 	
Mg	  1.800568403448 	  5.854960589582 	  0.000000000000 	
Mg	  2.800568403448 	  5.854960589582 	  2.980000000000 	
Mg	  5.780568403448 	  1.874960589582 	  0.000000000000 	
Mg	  6.780568403448 	  1.874960589582 	  2.980000000000 	
Mg	  5.780568403448 	  5.854960589582 	  0.000000000000 	
Mg	  6.780568403448 	  5.854960589582 	  2.980000000000 	
Mg	  2.395705892519 	  0.000000000000 	  1.651784031181 	
Mg	  3.395705892519 	  0.000000000000 	  4.631784031181 	
Mg	  2.395705892519 	  3.980000000000 	  1.651784031181 	
Mg	  3.395705892519 	  3.980000000000 	  4.631784031181 	
Mg	  6.375705892519 	  0.000000000000 	  1.651784031181 	
Mg	  7.375705892519 	  0.000000000000 	  4.631784031181 	
Mg	  6.375705892519 	  3.980000000000 	  1.651784031181 	
Mg	  7.375705892519 	  3.980000000000 	  4.631784031181 	
Mg	  0.371960930669 	  2.023744961850 	  1.651784031181 	
Mg	  1.371960930669 	  2.023744961850 	  4.631784031181 	
Mg	  0.371960930669 	  6.003744961850 	  1.651784031181 	
Mg	  1.371960930669 	  6.003744961850 	  4.631784031181 	
Mg	  4.351960930669 	  2.023744961850 	  1.651784031181 	
Mg	  5.351960930669 	  2.023744961850 	  4.631784031181 	
Mg	  4.351960930669 	  6.003744961850 	  1.651784031181 	
Mg	  5.351960930669 	  6.003744961850 	  4.631784031181 	
O	  2.023744961850 	  0.000000000000 	  0.000000000000 	
O	  3.023744961850 	  0.000000000000 	  2.980000000000 	
O	  2.023744961850 	  3.980000000000 	  0.000000000000 	
O	  3.023744961850 	  3.980000000000 	  2.980000000000 	
O	  6.003744961850 	  0.000000000000 	  0.000000000000 	
O	  7.003744961850 	  0.000000000000 	  2.980000000000 	
O	  6.003744961850 	  3.980000000000 	  0.000000000000 	
O	  7.003744961850 	  3.980000000000 	  2.980000000000 	
O	  0.000000000000 	  2.023744961850 	  0.000000000000 	
O	  1.000000000000 	  2.023744961850 	  2.980000000000 	
O	  0.000000000000 	  6.003744961850 	  0.000000000000 	
O	  1.000000000000 	  6.003744961850 	  2.980000000000 	
O	  3.980000000000 	  2.023744961850 	  0.000000000000 	
O	  4.980000000000 	  2.023744961850 	  2.980000000000 	
O	  3.980000000000 	  6.003744961850 	  0.000000000000 	
O	  4.980000000000 	  6.003744961850 	  2.980000000000 	
O	  0.371960930669 	  0.000000000000 	  1.651784031181 	
O	  1.371960930669 	  0.000000000000 	  4.631784031181 	
O	  0.371960930669 	  3.980000000000 	  1.651784031181 	
O	  1.371960930669 	  3.980000000000 	  4.631784031181 	
O	  4.351960930669 	  0.000000000000 	  1.651784031181 	
O	  5.351960930669 	  0.000000000000 	  4.631784031181 	
O	  4.351960930669 	  3.980000000000 	  1.651784031181 	
O	  5.351960930669 	  3.980000000000 	  4.631784031181 	
O	  2.693274637055 	  1.534988298951 	  1.651784031181 	
O	  3.693274637055 	  1.534988298951 	  4.631784031181 	
O	  2.693274637055 	  5.514988298951 	  1.651784031181 	
O	  3.693274637055 	  5.514988298951 	  4.631784031181 	
O	  6.673274637055 	  1.534988298951 	  1.651784031181 	
O	  7.673274637055 	  1.534988298951 	  4.631784031181 	
O	  6.673274637055 	  5.514988298951 	  1.651784031181 	
O	  7.673274637055 	  5.514988298951 	  4.631784031181 	
64 
Energy: 5.1680938632808768e+00 
Mg	  0.000000000000 	  0.000000000000 	  0.000000000000 	
Mg	  1.000000000000 	  0.000000000000 	  2.980000000000 	
Mg	  0.000000000000 	  3.980000000000 	  0.000000000000 	
Mg	  1.000000000000 	  3.980000000000 	  2.980000000000 	
Mg	  3.980000000000 	  0.000000000000 	  0.000000000000 	
Mg	  4.980000000000 	  0.000000000000 	  2.980000000000 	
Mg	  3.980000000000 	  3.980000000000 	  0.000000000000 	
Mg	  4.980000000000 	  3.980000000000 	  2.980000000000 	
Mg	  1.827606284369 	  1.895798682706 	  0.000000000000 	
Mg	  2.827606284369 	  1.895798682706 	  2.980000000000 	
Mg	  1.827606284369 	  5.875798682706 	  0.000000000000 	
Mg	  2.827606284369 	  5.875798682706 	  2.980000000000 	
Mg	  5.807606284369 	  1.895798682706 	  0.000000000000 	
Mg	  6.807606284369 	  1.895798682706 	  2.980000000000 	
Mg	  5.807606284369 	  5.875798682706 	  0.000000000000 	
Mg	  6.807606284369 	  5.875798682706 	  2.980000000000 	
Mg	  2.373145471069 	  0.000000000000 	  1.691221487694 	
Mg	  3.373145471069 	  0.000000000000 	  4.671221487694 	
Mg	  2.373145471069 	  3.980000000000 	  1.691221487694 	
Mg	  3.373145471069 	  3.980000000000 	  4.671221487694 	
Mg	  6.353145471069 	  0.000000000000 	  1.691221487694 	
Mg	  7.353145471069 	  0.000000000000 	  4.671221487694 	
Mg	  6.353145471069 	  3.980000000000 	  1.691221487694 	
Mg	  7.353145471069 	  3.980000000000 	  4.671221487694 	
Mg	  0.340961991687 	  2.032183479381 	  1.691221487694 	
Mg	  1.340961991687 	  2.032183479381 	  4.671221487694 	
Mg	  0.340961991687 	  6.012183479381 	  1.691221487694 	
Mg	  1.340961991687 	  6.012183479381 	  4.671221487694 	
Mg	  4.320961991687 	  2.032183479381 	  1.691221487694 	
Mg	  5.320961991687 	  2.032183479381 	  4.671221487694 	
Mg	  4.320961991687 	  6.012183479381 	  1.691221487694 	
Mg	  5.320961991687 	  6.012183479381 	  4.671221487694 	
O	  2.032183479381 	  0.000000000000 	  0.000000000000 	
O	  3.032183479381 	  0.000000000000 	  2.980000000000 	
O	  2.032183479381 	  3.980000000000 	  0.000000000000 	
O	  3.032183479381 	  3.980000000000 	  2.980000000000 	
O	  6.012183479381 	  0.000000000000 	  0.000000000000 	
O	  7.012183479381 	  0.000000000000 	  2.980000000000 	
O	  6.012183479381 	  3.980000000000 	  0.000000000000 	
O	  7.012183479381 	  3.980000000000 	  2.980000000000 	
O	  0.000000000000 	  2.032183479381 	  0.000000000000 	
O	  1.000000000000 	  2.032183479381 	  2.980000000000 	
O	  0.000000000000 	  6.012183479381 	  0.000000000000 	
O	  1.000000000000 	  6.012183479381 	  2.980000000000 	
O	  3.980000000000 	  2.032183479381 	  0.000000000000 	
O	  4.980000000000 	  2.032183479381 	  2.980000000000 	
O	  3.980000000000 	  6.012183479381 	  0.000000000000 	
O	  4.980000000000 	  6.012183479381 	  2.980000000000 	
O	  0.340961991687 	  0.000000000000 	  1.691221487694 	
O	  1.340961991687 	  0.000000000000 	  4.671221487694 	
O	  0.340961991687 	  3.980000000000 	  1.691221487694 	
O	  1.340961991687 	  3.980000000000 	  4.671221487694 	
O	  4.320961991687 	  0.000000000000 	  1.691221487694 	
O	  5.320961991687 	  0.000000000000 	  4.671221487694 	
O	  4.320961991687 	  3.980000000000 	  1.691221487694 	
O	  5.320961991687 	  3.980000000000 	  4.671221487694 	
O	  2.645915064418 	  1.584159422304 	  1.691221487694 	
O	  3.645915064418 	  1.584159422304 	  4.671221487694 	
O	  2.645915064418 	  5.564159422304 	  1.691221487694 	
O	  3.645915064418 	  5.564159422304 	  4.671221487694 	
O	  6.625915064418 	  1.584159422304 	  1.691221487694 	
O	  7.625915064418 	  1.584159422304 	  4.671221487694 	
O	  6.625915064418 	  5.564159422304 	  1.691221487694 	
O	  7.625915064418 	  5.564159422304 	  4.671221487694 	
64 
Energy: 5.6139253906246038e+00 
Mg	  0.000000000000 	  0.000000000000 	  0.000000000000 	
Mg	  1.000000000000 	  0.000000000000 	  2.980000000000 	
Mg	  0.000000000000 	  3.980000000000 	  0.000000000000 	
Mg	  1.000000000000 	  3.980000000000 	  2.980000000000 	
Mg	  3.980000000000 	  0.000000000000 	  0.000000000000 	
Mg	  4.980000000000 	  0.000000000000 	  2.980000000000 	
Mg	  3.980000000000 	  3.980000000000 	  0.000000000000 	
Mg	  4.980000000000 	  3.980000000000 	  2.980000000000 	
Mg	  1.854645908960 	  1.916638118923 	  0.000000000000 	
Mg	  2.854645908960 	  1.916638118923 	  2.980000000000 	
Mg	  1.854645908960 	  5.896638118923 	  0.000000000000 	
Mg	  2.854645908960 	  5.896638118923 	  2.980000000000 	
Mg	  5.834645908960 	  1.916638118923 	  0.000000000000 	
Mg	  6.834645908960 	  1.916638118923 	  2.980000000000 	
Mg	  5.834645908960 	  5.896638118923 	  0.000000000000 	
Mg	  6.834645908960 	  5.896638118923 	  2.980000000000 	
Mg	  2.350583588668 	  0.000000000000 	  1.730661489033 	
Mg	  3.350583588668 	  0.000000000000 	  4.710661489033 	
Mg	  2.350583588668 	  3.980000000000 	  1.730661489033 	
Mg	  3.350583588668 	  3.980000000000 	  4.710661489033 	
Mg	  6.330583588668 	  0.000000000000 	  1.730661489033 	
Mg	  7.330583588668 	  0.000000000000 	  4.710661489033 	
Mg	  6.330583588668 	  3.980000000000 	  1.730661489033 	
Mg	  7.330583588668 	  3.980000000000 	  4.710661489033 	
Mg	  0.309961049818 	  2.040622538851 	  1.730661489033 	
Mg	  1.309961049818 	  2.040622538851 	  4.710661489033 	
Mg	  0.309961049818 	  6.020622538851 	  1.730661489033 	
Mg	  1.309961049818 	  6.020622538851 	  4.710661489033 	
Mg	  4.289961049818 	  2.040622538851 	  1.730661489033 	
Mg	  5.289961049818 	  2.040622538851 	  4.710661489033 	
Mg	  4.289961049818 	  6.020622538851 	  1.730661489033 	
Mg	  5.289961049818 	  6.020622538851 	  4.710661489033 	
O	  2.040622538851 	  0.000000000000 	  0.000000000000 	
O	  3.040622538851 	  0.000000000000 	  2.980000000000 	
O	  2.040622538851 	  3.980000000000 	  0.000000000000 	
O	  3.040622538851 	  3.980000000000 	  2.980000000000 	
O	  6.020622538851 	  0.000000000000 	  0.000000000000 	
O	  7.020622538851 	  0.000000000000 	  2.980000000000 	
O	  6.020622538851 	  3.980000000000 	  0.000000000000 	
O	  7.020622538851 	  3.980000000000 	  2.980000000000 	
O	  0.000000000000 	  2.040622538851 	  0.000000000000 	
O	  1.000000000000 	  2.040622538851 	  2.980000000000 	
O	  0.000000000000 	  6.020622538851 	  0.000000000000 	
O	  1.000000000000 	  6.020622538851 	  2.980000000000 	
O	  3.980000000000 	  2.040622538851 	  0.000000000000 	
O	  4.980000000000 	  2.040622538851 	  2.980000000000 	
O	  3.980000000000 	  6.020622538851 	  0.000000000000 	
O	  4.980000000000 	  6.020622538851 	  2.980000000000 	
O	  0.309961049818 	  0.000000000000 	  1.730661489033 	
O	  1.309961049818 	  0.000000000000 	  4.710661489033 	
O	  0.309961049818 	  3.980000000000 	  1.730661489033 	
O	  1.309961049818 	  3.980000000000 	  4.710661489033 	
O	  4.289961049818 	  0.000000000000 	  1.730661489033 	
O	  5.289961049818 	  0.000000000000 	  4.710661489033 	
O	  4.289961049818 	  3.980000000000 	  1.730661489033 	
O	  5.289961049818 	  3.980000000000 	  4.710661489033 	
O	  2.598552428522 	  1.633333719390 	  1.730661489033 	
O	  3.598552428522 	  1.633333719390 	  4.710661489033 	
O	  2.598552428522 	  5.613333719390 	  1.730661489033 	
O	  3.598552428522 	  5.613333719390 	  4.710661489033 	
O	  6.578552428522 	  1.633333719390 	  1.730661489033 	
O	  7.578552428522 	  1.633333719390 	  4.710661489033 	
O	  6.578552428522 	  5.613333719390 	  1.730661489033 	
O	  7.578552428522 	  5.613333719390 	  4.710661489033 	
64 
Energy: 5.8326799570310222e+00 
Mg	  0.000000000000 	  0.000000000000 	  0.000000000000 	
Mg	  1.000000000000 	  0.000000000000 	  2.980000000000 	
Mg	  0.000000000000 	  3.980000000000 	  0.000000000000 	
Mg	  1.000000000000 	  3.980000000000 	  2.980000000000 	
Mg	  3.980000000000 	  0.000000000000 	  0.000000000000 	
Mg	  4.980000000000 	  0.000000000000 	  2.980000000000 	
Mg	  3.980000000000 	  3.980000000000 	  0.000000000000 	
Mg	  4.980000000000 	  3.980000000000 	  2.980000000000 	
Mg	  1.881686498703 	  1.937478298948 	  0.000000000000 	
Mg	  2.881686498703 	  1.937478298948 	  2.980000000000 	
Mg	  1.881686498703 	  5.917478298948 	  0.000000000000 	
Mg	  2.881686498703 	  5.917478298948 	  2.980000000000 	
Mg	  5.861686498703 	  1.937478298948 	  0.000000000000 	
Mg	  6.861686498703 	  1.937478298948 	  2.980000000000 	
Mg	  5.861686498703 	  5.917478298948 	  0.000000000000 	
Mg	  6.861686498703 	  5.917478298948 	  2.980000000000 	
Mg	  2.328020900660 	  0.000000000000 	  1.770102898214 	
Mg	  3.328020900660 	  0.000000000000 	  4.750102898214 	
Mg	  2.328020900660 	  3.980000000000 	  1.770102898214 	
Mg	  3.328020900660 	  3.980000000000 	  4.750102898214 	
Mg	  6.308020900660 	  0.000000000000 	  1.770102898214 	
Mg	  7.308020900660 	  0.000000000000 	  4.750102898214 	
Mg	  6.308020900660 	  3.980000000000 	  1.770102898214 	
Mg	  7.308020900660 	  3.980000000000 	  4.750102898214 	
Mg	  0.278959001223 	  2.049061899437 	  1.770102898214 	
Mg	  1.278959001223 	  2.049061899437 	  4.750102898214 	
Mg	  0.278959001223 	  6.029061899437 	  1.770102898214 	
Mg	  1.278959001223 	  6.029061899437 	  4.750102898214 	
Mg	  4.258959001223 	  2.049061899437 	  1.770102898214 	
Mg	  5.258959001223 	  2.049061899437 	  4.750102898214 	
Mg	  4.258959001223 	  6.029061899437 	  1.770102898214 	
Mg	  5.258959001223 	  6.029061899437 	  4.750102898214 	
O	  2.049061899437 	  0.000000000000 	  0.000000000000 	
O	  3.049061899437 	  0.000000000000 	  2.980000000000 	
O	  2.049061899437 	  3.980000000000 	  0.000000000000 	
O	  3.049061899437 	  3.980000000000 	  2.980000000000 	
O	  6.029061899437 	  0.000000000000 	  0.000000000000 	
O	  7.029061899437 	  0.000000000000 	  2.980000000000 	
O	  6.029061899437 	  3.980000000000 	  0.000000000000 	
O	  7.029061899437 	  3.980000000000 	  2.980000000000 	
O	  0.000000000000 	  2.049061899437 	  0.000000000000 	
O	  1.000000000000 	  2.049061899437 	  2.980000000000 	
O	  0.000000000000 	  6.029061899437 	  0.000000000000 	
O	  1.000000000000 	  6.029061899437 	  2.980000000000 	
O	  3.980000000000 	  2.049061899437 	  0.000000000000 	
O	  4.980000000000 	  2.049061899437 	  2.980000000000 	
O	  3.980000000000 	  6.029061899437 	  0.000000000000 	
O	  4.980000000000 	  6.029061899437 	  2.980000000000 	
O	  0.278959001223 	  0.000000000000 	  1.770102898214 	
O	  1.278959001223 	  0.000000000000 	  4.750102898214 	
O	  0.278959001223 	  3.980000000000 	  1.770102898214 	
O	  1.278959001223 	  3.980000000000 	  4.750102898214 	
O	  4.258959001223 	  0.000000000000 	  1.770102898214 	
O	  5.258959001223 	  0.000000000000 	  4.750102898214 	
O	  4.258959001223 	  3.980000000000 	  1.770102898214 	
O	  5.258959001223 	  3.980000000000 	  4.750102898214 	
O	  2.551188101638 	  1.682509771830 	  1.770102898214 	
O	  3.551188101638 	  1.682509771830 	  4.750102898214 	
O	  2.551188101638 	  5.662509771830 	  1.770102898214 	
O	  3.551188101638 	  5.662509771830 	  4.750102898214 	
O	  6.531188101638 	  1.682509771830 	  1.770102898214 	
O	  7.531188101638 	  1.682509771830 	  4.750102898214 	
O	  6.531188101638 	  5.662509771830 	  1.770102898214 	
O	  7.531188101638 	  5.662509771830 	  4.750102898214 	
64 
Energy: 5.7804122500000350e+00 
Mg	  0.000000000000 	  0.000000000000 	  0.000000000000 	
Mg	  1.000000000000 	  0.000000000000 	  2.980000000000 	
Mg	  0.000000000000 	  3.980000000000 	  0.000000000000 	
Mg	  1.000000000000 	  3.980000000000 	  2.980000000000 	
Mg	  3.980000000000 	  0.000000000000 	  0.000000000000 	
Mg	  4.980000000000 	  0.000000000000 	  2.980000000000 	
Mg	  3.980000000000 	  3.980000000000 	  0.000000000000 	
Mg	  4.980000000000 	  3.980000000000 	  2.980000000000 	
Mg	  1.908727355573 	  1.958318684775 	  0.000000000000 	
Mg	  2.908727355573 	  1.958318684775 	  2.980000000000 	
Mg	  1.908727355573 	  5.938318684775 	  0.000000000000 	
Mg	  2.908727355573 	  5.938318684775 	  2.980000000000 	
Mg	  5.888727355573 	  1.958318684775 	  0.000000000000 	
Mg	  6.888727355573 	  1.958318684775 	  2.980000000000 	
Mg	  5.888727355573 	  5.938318684775 	  0.000000000000 	
Mg	  6.888727355573 	  5.938318684775 	  2.980000000000 	
Mg	  2.305457989190 	  0.000000000000 	  1.809544697168 	
Mg	  3.305457989190 	  0.000000000000 	  4.789544697168 	
Mg	  2.305457989190 	  3.980000000000 	  1.809544697168 	
Mg	  3.305457989190 	  3.980000000000 	  4.789544697168 	
Mg	  6.285457989190 	  0.000000000000 	  1.809544697168 	
Mg	  7.285457989190 	  0.000000000000 	  4.789544697168 	
Mg	  6.285457989190 	  3.980000000000 	  1.809544697168 	
Mg	  7.285457989190 	  3.980000000000 	  4.789544697168 	
Mg	  0.247956646011 	  2.057501343179 	  1.809544697168 	
Mg	  1.247956646011 	  2.057501343179 	  4.789544697168 	
Mg	  0.247956646011 	  6.037501343179 	  1.809544697168 	
Mg	  1.247956646011 	  6.037501343179 	  4.789544697168 	
Mg	  4.227956646011 	  2.057501343179 	  1.809544697168 	
Mg	  5.227956646011 	  2.057501343179 	  4.789544697168 	
Mg	  4.227956646011 	  6.037501343179 	  1.809544697168 	
Mg	  5.227956646011 	  6.037501343179 	  4.789544697168 	
O	  2.057501343179 	  0.000000000000 	  0.000000000000 	
O	  3.057501343179 	  0.000000000000 	  2.980000000000 	
O	  2.057501343179 	  3.980000000000 	  0.000000000000 	
O	  3.057501343179 	  3.980000000000 	  2.980000000000 	
O	  6.037501343179 	  0.000000000000 	  0.000000000000 	
O	  7.037501343179 	  0.000000000000 	  2.980000000000 	
O	  6.037501343179 	  3.980000000000 	  0.000000000000 	
O	  7.037501343179 	  3.980000000000 	  2.980000000000 	
O	  0.000000000000 	  2.057501343179 	  0.000000000000 	
O	  1.000000000000 	  2.057501343179 	  2.980000000000 	
O	  0.000000000000 	  6.037501343179 	  0.000000000000 	
O	  1.000000000000 	  6.037501343179 	  2.980000000000 	
O	  3.980000000000 	  2.057501343179 	  0.000000000000 	
O	  4.980000000000 	  2.057501343179 	  2.980000000000 	
O	  3.980000000000 	  6.037501343179 	  0.000000000000 	
O	  4.980000000000 	  6.037501343179 	  2.980000000000 	
O	  0.247956646011 	  0.000000000000 	  1.809544697168 	
O	  1.247956646011 	  0.000000000000 	  4.789544697168 	
O	  0.247956646011 	  3.980000000000 	  1.809544697168 	
O	  1.247956646011 	  3.980000000000 	  4.789544697168 	
O	  4.227956646011 	  0.000000000000 	  1.809544697168 	
O	  5.227956646011 	  0.000000000000 	  4.789544697168 	
O	  4.227956646011 	  3.980000000000 	  1.809544697168 	
O	  5.227956646011 	  3.980000000000 	  4.789544697168 	
O	  2.503823305999 	  1.731686310321 	  1.809544697168 	
O	  3.503823305999 	  1.731686310321 	  4.789544697168 	
O	  2.503823305999 	  5.711686310321 	  1.809544697168 	
O	  3.503823305999 	  5.711686310321 	  4.789544697168 	
O	  6.483823305999 	  1.731686310321 	  1.809544697168 	
O	  7.483823305999 	  1.731686310321 	  4.789544697168 	
O	  6.483823305999 	  5.711686310321 	  1.809544697168 	
O	  7.483823305999 	  5.711686310321 	  4.789544697168 	
64 
Energy: 5.4424738320314887e+00 
Mg	  0.000000000000 	  0.000000000000 	  0.000000000000 	
Mg	  1.000000000000 	  0.000000000000 	  2.980000000000 	
Mg	  0.000000000000 	  3.980000000000 	  0.000000000000 	
Mg	  1.000000000000 	  3.980000000000 	  2.980000000000 	
Mg	  3.980000000000 	  0.000000000000 	  0.000000000000 	
Mg	  4.980000000000 	  0.000000000000 	  2.980000000000 	
Mg	  3.980000000000 	  3.980000000000 	  0.000000000000 	
Mg	  4.980000000000 	  3.980000000000 	  2.980000000000 	
Mg	  1.935767850808 	  1.979158791955 	  0.000000000000 	
Mg	  2.935767850808 	  1.979158791955 	  2.980000000000 	
Mg	  1.935767850808 	  5.959158791955 	  0.000000000000 	
Mg	  2.935767850808 	  5.959158791955 	  2.980000000000 	
Mg	  5.915767850808 	  1.979158791955 	  0.000000000000 	
Mg	  6.915767850808 	  1.979158791955 	  2.980000000000 	
Mg	  5.915767850808 	  5.959158791955 	  0.000000000000 	
Mg	  6.915767850808 	  5.959158791955 	  2.980000000000 	
Mg	  2.282895379984 	  0.000000000000 	  1.848985968514 	
Mg	  3.282895379984 	  0.000000000000 	  4.828985968514 	
Mg	  2.282895379984 	  3.980000000000 	  1.848985968514 	
Mg	  3.282895379984 	  3.980000000000 	  4.828985968514 	
Mg	  6.262895379984 	  0.000000000000 	  1.848985968514 	
Mg	  7.262895379984 	  0.000000000000 	  4.828985968514 	
Mg	  6.262895379984 	  3.980000000000 	  1.848985968514 	
Mg	  7.262895379984 	  3.980000000000 	  4.828985968514 	
Mg	  0.216954705735 	  2.065940674249 	  1.848985968514 	
Mg	  1.216954705735 	  2.065940674249 	  4.828985968514 	
Mg	  0.216954705735 	  6.045940674249 	  1.848985968514 	
Mg	  1.216954705735 	  6.045940674249 	  4.828985968514 	
Mg	  4.196954705735 	  2.065940674249 	  1.848985968514 	
Mg	  5.196954705735 	  2.065940674249 	  4.828985968514 	
Mg	  4.196954705735 	  6.045940674249 	  1.848985968514 	
Mg	  5.196954705735 	  6.045940674249 	  4.828985968514 	
O	  2.065940674249 	  0.000000000000 	  0.000000000000 	
O	  3.065940674249 	  0.000000000000 	  2.980000000000 	
O	  2.065940674249 	  3.980000000000 	  0.000000000000 	
O	  3.065940674249 	  3.980000000000 	  2.980000000000 	
O	  6.045940674249 	  0.000000000000 	  0.000000000000 	
O	  7.045940674249 	  0.000000000000 	  2.980000000000 	
O	  6.045940674249 	  3.980000000000 	  0.000000000000 	
O	  7.045940674249 	  3.980000000000 	  2.980000000000 	
O	  0.000000000000 	  2.065940674249 	  0.000000000000 	
O	  1.000000000000 	  2.065940674249 	  2.980000000000 	
O	  0.000000000000 	  6.045940674249 	  0.000000000000 	
O	  1.000000000000 	  6.045940674249 	  2.980000000000 	
O	  3.980000000000 	  2.065940674249 	  0.000000000000 	
O	  4.980000000000 	  2.065940674249 	  2.980000000000 	
O	  3.980000000000 	  6.045940674249 	  0.000000000000 	
O	  4.980000000000 	  6.045940674249 	  2.980000000000 	
O	  0.216954705735 	  0.000000000000 	  1.848985968514 	
O	  1.216954705735 	  0.000000000000 	  4.828985968514 	
O	  0.216954705735 	  3.980000000000 	  1.848985968514 	
O	  1.216954705735 	  3.980000000000 	  4.828985968514 	
O	  4.196954705735 	  0.000000000000 	  1.848985968514 	
O	  5.196954705735 	  0.000000000000 	  4.828985968514 	
O	  4.196954705735 	  3.980000000000 	  1.848985968514 	
O	  5.196954705735 	  3.980000000000 	  4.828985968514 	
O	  2.456459144572 	  1.780862190913 	  1.848985968514 	
O	  3.456459144572 	  1.780862190913 	  4.828985968514 	
O	  2.456459144572 	  5.760862190913 	  1.848985968514 	
O	  3.456459144572 	  5.760862190913 	  4.828985968514 	
O	  6.436459144572 	  1.780862190913 	  1.848985968514 	
O	  7.436459144572 	  1.780862190913 	  4.828985968514 	
O	  6.436459144572 	  5.760862190913 	  1.848985968514 	
O	  7.436459144572 	  5.760862190913 	  4.828985968514 	
64 
Energy: 4.8335131406252732e+00 
Mg	  0.000000000000 	  0.000000000000 	  0.000000000000 	
Mg	  1.000000000000 	  0.000000000000 	  2.980000000000 	
Mg	  0.000000000000 	  3.980000000000 	  0.000000000000 	
Mg	  1.000000000000 	  3.980000000000 	  2.980000000000 	
Mg	  3.980000000000 	  0.000000000000 	  0.000000000000 	
Mg	  4.980000000000 	  0.000000000000 	  2.980000000000 	
Mg	  3.980000000000 	  3.980000000000 	  0.000000000000 	
Mg	  4.980000000000 	  3.980000000000 	  2.980000000000 	
Mg	  1.962807418189 	  1.999998184183 	  0.000000000000 	
Mg	  2.962807418189 	  1.999998184183 	  2.980000000000 	
Mg	  1.962807418189 	  5.979998184183 	  0.000000000000 	
Mg	  2.962807418189 	  5.979998184183 	  2.980000000000 	
Mg	  5.942807418189 	  1.999998184183 	  0.000000000000 	
Mg	  6.942807418189 	  1.999998184183 	  2.980000000000 	
Mg	  5.942807418189 	  5.979998184183 	  0.000000000000 	
Mg	  6.942807418189 	  5.979998184183 	  2.980000000000 	
Mg	  2.260333546147 	  0.000000000000 	  1.888425886199 	
Mg	  3.260333546147 	  0.000000000000 	  4.868425886199 	
Mg	  2.260333546147 	  3.980000000000 	  1.888425886199 	
Mg	  3.260333546147 	  3.980000000000 	  4.868425886199 	
Mg	  6.240333546147 	  0.000000000000 	  1.888425886199 	
Mg	  7.240333546147 	  0.000000000000 	  4.868425886199 	
Mg	  6.240333546147 	  3.980000000000 	  1.888425886199 	
Mg	  7.240333546147 	  3.980000000000 	  4.868425886199 	
Mg	  0.185953829974 	  2.074379716173 	  1.888425886199 	
Mg	  1.185953829974 	  2.074379716173 	  4.868425886199 	
Mg	  0.185953829974 	  6.054379716173 	  1.888425886199 	
Mg	  1.185953829974 	  6.054379716173 	  4.868425886199 	
Mg	  4.165953829974 	  2.074379716173 	  1.888425886199 	
Mg	  5.165953829974 	  2.074379716173 	  4.868425886199 	
Mg	  4.165953829974 	  6.054379716173 	  1.888425886199 	
Mg	  5.165953829974 	  6.054379716173 	  4.868425886199 	
O	  2.074379716173 	  0.000000000000 	  0.000000000000 	
O	  3.074379716173 	  0.000000000000 	  2.980000000000 	
O	  2.074379716173 	  3.980000000000 	  0.000000000000 	
O	  3.074379716173 	  3.980000000000 	  2.980000000000 	
O	  6.054379716173 	  0.000000000000 	  0.000000000000 	
O	  7.054379716173 	  0.000000000000 	  2.980000000000 	
O	  6.054379716173 	  3.980000000000 	  0.000000000000 	
O	  7.054379716173 	  3.980000000000 	  2.980000000000 	
O	  0.000000000000 	  2.074379716173 	  0.000000000000 	
O	  1.000000000000 	  2.074379716173 	  2.980000000000 	
O	  0.000000000000 	  6.054379716173 	  0.000000000000 	
O	  1.000000000000 	  6.054379716173 	  2.980000000000 	
O	  3.980000000000 	  2.074379716173 	  0.000000000000 	
O	  4.980000000000 	  2.074379716173 	  2.980000000000 	
O	  3.980000000000 	  6.054379716173 	  0.000000000000 	
O	  4.980000000000 	  6.054379716173 	  2.980000000000 	
O	  0.185953829974 	  0.000000000000 	  1.888425886199 	
O	  1.185953829974 	  0.000000000000 	  4.868425886199 	
O	  0.185953829974 	  3.980000000000 	  1.888425886199 	
O	  1.185953829974 	  3.980000000000 	  4.868425886199 	
O	  4.165953829974 	  0.000000000000 	  1.888425886199 	
O	  5.165953829974 	  0.000000000000 	  4.868425886199 	
O	  4.165953829974 	  3.980000000000 	  1.888425886199 	
O	  5.165953829974 	  3.980000000000 	  4.868425886199 	
O	  2.409096610126 	  1.830036383587 	  1.888425886199 	
O	  3.409096610126 	  1.830036383587 	  4.868425886199 	
O	  2.409096610126 	  5.810036383587 	  1.888425886199 	
O	  3.409096610126 	  5.810036383587 	  4.868425886199 	
O	  6.389096610126 	  1.830036383587 	  1.888425886199 	
O	  7.389096610126 	  1.830036383587 	  4.868425886199 	
O	  6.389096610126 	  5.810036383587 	  1.888425886199 	
O	  7.389096610126 	  5.810036383587 	  4.868425886199 	
64 
Energy: 3.9974754882813630e+00 
Mg	  0.000000000000 	  0.000000000000 	  0.000000000000 	
Mg	  1.000000000000 	  0.000000000000 	  2.980000000000 	
Mg	  0.000000000000 	  3.980000000000 	  0.000000000000 	
Mg	  1.000000000000 	  3.980000000000 	  2.980000000000 	
Mg	  3.980000000000 	  0.000000000000 	  0.000000000000 	
Mg	  4.980000000000 	  0.000000000000 	  2.980000000000 	
Mg	  3.980000000000 	  3.980000000000 	  0.000000000000 	
Mg	  4.980000000000 	  3.980000000000 	  2.980000000000 	
Mg	  1.989845547354 	  2.020836468208 	  0.000000000000 	
Mg	  2.989845547354 	  2.020836468208 	  2.980000000000 	
Mg	  1.989845547354 	  6.000836468208 	  0.000000000000 	
Mg	  2.989845547354 	  6.000836468208 	  2.980000000000 	
Mg	  5.969845547354 	  2.020836468208 	  0.000000000000 	
Mg	  6.969845547354 	  2.020836468208 	  2.980000000000 	
Mg	  5.969845547354 	  6.000836468208 	  0.000000000000 	
Mg	  6.969845547354 	  6.000836468208 	  2.980000000000 	
Mg	  2.237772914188 	  0.000000000000 	  1.927863705645 	
Mg	  3.237772914188 	  0.000000000000 	  4.907863705645 	
Mg	  2.237772914188 	  3.980000000000 	  1.927863705645 	
Mg	  3.237772914188 	  3.980000000000 	  4.907863705645 	
Mg	  6.217772914188 	  0.000000000000 	  1.927863705645 	
Mg	  7.217772914188 	  0.000000000000 	  4.907863705645 	
Mg	  6.217772914188 	  3.980000000000 	  1.927863705645 	
Mg	  7.217772914188 	  3.980000000000 	  4.907863705645 	
Mg	  0.154954604272 	  2.082818309917 	  1.927863705645 	
Mg	  1.154954604272 	  2.082818309917 	  4.907863705645 	
Mg	  0.154954604272 	  6.062818309917 	  1.927863705645 	
Mg	  1.154954604272 	  6.062818309917 	  4.907863705645 	
Mg	  4.134954604272 	  2.082818309917 	  1.927863705645 	
Mg	  5.134954604272 	  2.082818309917 	  4.907863705645 	
Mg	  4.134954604272 	  6.062818309917 	  1.927863705645 	
Mg	  5.134954604272 	  6.062818309917 	  4.907863705645 	
O	  2.082818309917 	  0.000000000000 	  0.000000000000 	
O	  3.082818309917 	  0.000000000000 	  2.980000000000 	
O	  2.082818309917 	  3.980000000000 	  0.000000000000 	
O	  3.082818309917 	  3.980000000000 	  2.980000000000 	
O	  6.062818309917 	  0.000000000000 	  0.000000000000 	
O	  7.062818309917 	  0.000000000000 	  2.980000000000 	
O	  6.062818309917 	  3.980000000000 	  0.000000000000 	
O	  7.062818309917 	  3.980000000000 	  2.980000000000 	
O	  0.000000000000 	  2.082818309917 	  0.000000000000 	
O	  1.000000000000 	  2.082818309917 	  2.980000000000 	
O	  0.000000000000 	  6.062818309917 	  0.000000000000 	
O	  1.000000000000 	  6.062818309917 	  2.980000000000 	
O	  3.980000000000 	  2.082818309917 	  0.000000000000 	
O	  4.980000000000 	  2.082818309917 	  2.980000000000 	
O	  3.980000000000 	  6.062818309917 	  0.000000000000 	
O	  4.980000000000 	  6.062818309917 	  2.980000000000 	
O	  0.154954604272 	  0.000000000000 	  1.927863705645 	
O	  1.154954604272 	  0.000000000000 	  4.907863705645 	
O	  0.154954604272 	  3.980000000000 	  1.927863705645 	
O	  1.154954604272 	  3.980000000000 	  4.907863705645 	
O	  4.134954604272 	  0.000000000000 	  1.927863705645 	
O	  5.134954604272 	  0.000000000000 	  4.907863705645 	
O	  4.134954604272 	  3.980000000000 	  1.927863705645 	
O	  5.134954604272 	  3.980000000000 	  4.907863705645 	
O	  2.361736597606 	  1.879207959904 	  1.927863705645 	
O	  3.361736597606 	  1.879207959904 	  4.907863705645 	
O	  2.361736597606 	  5.859207959904 	  1.927863705645 	
O	  3.361736597606 	  5.859207959904 	  4.907863705645 	
O	  6.341736597606 	  1.879207959904 	  1.927863705645 	
O	  7.341736597606 	  1.879207959904 	  4.907863705645 	
O	  6.341736597606 	  5.859207959904 	  1.927863705645 	
O	  7.341736597606 	  5.859207959904 	  4.907863705645 	
64 
Energy: 3.0076030624998364e+00 
Mg	  0.000000000000 	  0.000000000000 	  0.000000000000 	
Mg	  1.000000000000 	  0.000000000000 	  2.980000000000 	
Mg	  0.000000000000 	  3.980000000000 	  0.000000000000 	
Mg	  1.000000000000 	  3.980000000000 	  2.980000000000 	
Mg	  3.980000000000 	  0.000000000000 	  0.000000000000 	
Mg	  4.980000000000 	  0.000000000000 	  2.980000000000 	
Mg	  3.980000000000 	  3.980000000000 	  0.000000000000 	
Mg	  4.980000000000 	  3.980000000000 	  2.980000000000 	
Mg	  2.016881778103 	  2.041673289425 	  0.000000000000 	
Mg	  3.016881778103 	  2.041673289425 	  2.980000000000 	
Mg	  2.016881778103 	  6.021673289425 	  0.000000000000 	
Mg	  3.016881778103 	  6.021673289425 	  2.980000000000 	
Mg	  5.996881778103 	  2.041673289425 	  0.000000000000 	
Mg	  6.996881778103 	  2.041673289425 	  2.980000000000 	
Mg	  5.996881778103 	  6.021673289425 	  0.000000000000 	
Mg	  6.996881778103 	  6.021673289425 	  2.980000000000 	
Mg	  2.215213868681 	  0.000000000000 	  1.967298755458 	
Mg	  3.215213868681 	  0.000000000000 	  4.947298755458 	
Mg	  2.215213868681 	  3.980000000000 	  1.967298755458 	
Mg	  3.215213868681 	  3.980000000000 	  4.947298755458 	
Mg	  6.195213868681 	  0.000000000000 	  1.967298755458 	
Mg	  7.195213868681 	  0.000000000000 	  4.947298755458 	
Mg	  6.195213868681 	  3.980000000000 	  1.967298755458 	
Mg	  7.195213868681 	  3.980000000000 	  4.947298755458 	
Mg	  0.123957556611 	  2.091256312070 	  1.967298755458 	
Mg	  1.123957556611 	  2.091256312070 	  4.947298755458 	
Mg	  0.123957556611 	  6.071256312070 	  1.967298755458 	
Mg	  1.123957556611 	  6.071256312070 	  4.947298755458 	
Mg	  4.103957556611 	  2.091256312070 	  1.967298755458 	
Mg	  5.103957556611 	  2.091256312070 	  4.947298755458 	
Mg	  4.103957556611 	  6.071256312070 	  1.967298755458 	
Mg	  5.103957556611 	  6.071256312070 	  4.947298755458 	
O	  2.091256312070 	  0.000000000000 	  0.000000000000 	
O	  3.091256312070 	  0.000000000000 	  2.980000000000 	
O	  2.091256312070 	  3.980000000000 	  0.000000000000 	
O	  3.091256312070 	  3.980000000000 	  2.980000000000 	
O	  6.071256312070 	  0.000000000000 	  0.000000000000 	
O	  7.071256312070 	  0.000000000000 	  2.980000000000 	
O	  6.071256312070 	  3.980000000000 	  0.000000000000 	
O	  7.071256312070 	  3.980000000000 	  2.980000000000 	
O	  0.000000000000 	  2.091256312070 	  0.000000000000 	
O	  1.000000000000 	  2.091256312070 	  2.980000000000 	
O	  0.000000000000 	  6.071256312070 	  0.000000000000 	
O	  1.000000000000 	  6.071256312070 	  2.980000000000 	
O	  3.980000000000 	  2.091256312070 	  0.000000000000 	
O	  4.980000000000 	  2.091256312070 	  2.980000000000 	
O	  3.980000000000 	  6.071256312070 	  0.000000000000 	
O	  4.980000000000 	  6.071256312070 	  2.980000000000 	
O	  0.123957556611 	  0.000000000000 	  1.967298755458 	
O	  1.123957556611 	  0.000000000000 	  4.947298755458 	
O	  0.123957556611 	  3.980000000000 	  1.967298755458 	
O	  1.123957556611 	  3.980000000000 	  4.947298755458 	
O	  4.103957556611 	  0.000000000000 	  1.967298755458 	
O	  5.103957556611 	  0.000000000000 	  4.947298755458 	
O	  4.103957556611 	  3.980000000000 	  1.967298755458 	
O	  5.103957556611 	  3.980000000000 	  4.947298755458 	
O	  2.314379913970 	  1.928376082682 	  1.967298755458 	
O	  3.314379913970 	  1.928376082682 	  4.947298755458 	
O	  2.314379913970 	  5.908376082682 	  1.967298755458 	
O	  3.314379913970 	  5.908376082682 	  4.947298755458 	
O	  6.294379913970 	  1.928376082682 	  1.967298755458 	
O	  7.294379913970 	  1.928376082682 	  4.947298755458 	
O	  6.294379913970 	  5.908376082682 	  1.967298755458 	
O	  7.294379913970 	  5.908376082682 	  4.947298755458 	
64 
Energy: 1.9664349257806868e+00 
Mg	  0.000000000000 	  0.000000000000 	  0.000000000000 	
Mg	  1.000000000000 	  0.000000000000 	  2.980000000000 	
Mg	  0.000000000000 	  3.980000000000 	  0.000000000000 	
Mg	  1.000000000000 	  3.980000000000 	  2.980000000000 	
Mg	  3.980000000000 	  0.000000000000 	  0.000000000000 	
Mg	  4.980000000000 	  0.000000000000 	  2.980000000000 	
Mg	  3.980000000000 	  3.980000000000 	  0.000000000000 	
Mg	  4.980000000000 	  3.980000000000 	  2.980000000000 	
Mg	  2.043915695320 	  2.062508327971 	  0.000000000000 	
Mg	  3.043915695320 	  2.062508327971 	  2.980000000000 	
Mg	  2.043915695320 	  6.042508327971 	  0.000000000000 	
Mg	  3.043915695320 	  6.042508327971 	  2.980000000000 	
Mg	  6.023915695320 	  2.062508327971 	  0.000000000000 	
Mg	  7.023915695320 	  2.062508327971 	  2.980000000000 	
Mg	  6.023915695320 	  6.042508327971 	  0.000000000000 	
Mg	  7.023915695320 	  6.042508327971 	  2.980000000000 	
Mg	  2.192656756527 	  0.000000000000 	  2.006730430018 	
Mg	  3.192656756527 	  0.000000000000 	  4.986730430018 	
Mg	  2.192656756527 	  3.980000000000 	  2.006730430018 	
Mg	  3.192656756527 	  3.980000000000 	  4.986730430018 	
Mg	  6.172656756527 	  0.000000000000 	  2.006730430018 	
Mg	  7.172656756527 	  0.000000000000 	  4.986730430018 	
Mg	  6.172656756527 	  3.980000000000 	  2.006730430018 	
Mg	  7.172656756527 	  3.980000000000 	  4.986730430018 	
Mg	  0.092963163254 	  2.099693593272 	  2.006730430018 	
Mg	  1.092963163254 	  2.099693593272 	  4.986730430018 	
Mg	  0.092963163254 	  6.079693593272 	  2.006730430018 	
Mg	  1.092963163254 	  6.079693593272 	  4.986730430018 	
Mg	  4.072963163254 	  2.099693593272 	  2.006730430018 	
Mg	  5.072963163254 	  2.099693593272 	  4.986730430018 	
Mg	  4.072963163254 	  6.079693593272 	  2.006730430018 	
Mg	  5.072963163254 	  6.079693593272 	  4.986730430018 	
O	  2.099693593272 	  0.000000000000 	  0.000000000000 	
O	  3.099693593272 	  0.000000000000 	  2.980000000000 	
O	  2.099693593272 	  3.980000000000 	  0.000000000000 	
O	  3.099693593272 	  3.980000000000 	  2.980000000000 	
O	  6.079693593272 	  0.000000000000 	  0.000000000000 	
O	  7.079693593272 	  0.000000000000 	  2.980000000000 	
O	  6.079693593272 	  3.980000000000 	  0.000000000000 	
O	  7.079693593272 	  3.980000000000 	  2.980000000000 	
O	  0.000000000000 	  2.099693593272 	  0.000000000000 	
O	  1.000000000000 	  2.099693593272 	  2.980000000000 	
O	  0.000000000000 	  6.079693593272 	  0.000000000000 	
O	  1.000000000000 	  6.079693593272 	  2.980000000000 	
O	  3.980000000000 	  2.099693593272 	  0.000000000000 	
O	  4.980000000000 	  2.099693593272 	  2.980000000000 	
O	  3.980000000000 	  6.079693593272 	  0.000000000000 	
O	  4.980000000000 	  6.079693593272 	  2.980000000000 	
O	  0.092963163254 	  0.000000000000 	  2.006730430018 	
O	  1.092963163254 	  0.000000000000 	  4.986730430018 	
O	  0.092963163254 	  3.980000000000 	  2.006730430018 	
O	  1.092963163254 	  3.980000000000 	  4.986730430018 	
O	  4.072963163254 	  0.000000000000 	  2.006730430018 	
O	  5.072963163254 	  0.000000000000 	  4.986730430018 	
O	  4.072963163254 	  3.980000000000 	  2.006730430018 	
O	  5.072963163254 	  3.980000000000 	  4.986730430018 	
O	  2.267027287130 	  1.977539996756 	  2.006730430018 	
O	  3.267027287130 	  1.977539996756 	  4.986730430018 	
O	  2.267027287130 	  5.957539996756 	  2.006730430018 	
O	  3.267027287130 	  5.957539996756 	  4.986730430018 	
O	  6.247027287130 	  1.977539996756 	  2.006730430018 	
O	  7.247027287130 	  1.977539996756 	  4.986730430018 	
O	  6.247027287130 	  5.957539996756 	  2.006730430018 	
O	  7.247027287130 	  5.957539996756 	  4.986730430018 	
64 
Energy: 1.0058070156242167e+00 
Mg	  0.000000000000 	  0.000000000000 	  0.000000000000 	
Mg	  1.000000000000 	  0.000000000000 	  2.980000000000 	
Mg	  0.000000000000 	  3.980000000000 	  0.000000000000 	
Mg	  1.000000000000 	  3.980000000000 	  2.980000000000 	
Mg	  3.980000000000 	  0.000000000000 	  0.000000000000 	
Mg	  4.980000000000 	  0.000000000000 	  2.980000000000 	
Mg	  3.980000000000 	  3.980000000000 	  0.000000000000 	
Mg	  4.980000000000 	  3.980000000000 	  2.980000000000 	
Mg	  2.070946924469 	  2.083341295250 	  0.000000000000 	
Mg	  3.070946924469 	  2.083341295250 	  2.980000000000 	
Mg	  2.070946924469 	  6.063341295250 	  0.000000000000 	
Mg	  3.070946924469 	  6.063341295250 	  2.980000000000 	
Mg	  6.050946924469 	  2.083341295250 	  0.000000000000 	
Mg	  7.050946924469 	  2.083341295250 	  2.980000000000 	
Mg	  6.050946924469 	  6.063341295250 	  0.000000000000 	
Mg	  7.050946924469 	  6.063341295250 	  2.980000000000 	
Mg	  2.170101890714 	  0.000000000000 	  2.046158182908 	
Mg	  3.170101890714 	  0.000000000000 	  5.026158182908 	
Mg	  2.170101890714 	  3.980000000000 	  2.046158182908 	
Mg	  3.170101890714 	  3.980000000000 	  5.026158182908 	
Mg	  6.150101890714 	  0.000000000000 	  2.046158182908 	
Mg	  7.150101890714 	  0.000000000000 	  5.026158182908 	
Mg	  6.150101890714 	  3.980000000000 	  2.046158182908 	
Mg	  7.150101890714 	  3.980000000000 	  5.026158182908 	
Mg	  0.061971853903 	  2.108130036811 	  2.046158182908 	
Mg	  1.061971853903 	  2.108130036811 	  5.026158182908 	
Mg	  0.061971853903 	  6.088130036811 	  2.046158182908 	
Mg	  1.061971853903 	  6.088130036811 	  5.026158182908 	
Mg	  4.041971853903 	  2.108130036811 	  2.046158182908 	
Mg	  5.041971853903 	  2.108130036811 	  5.026158182908 	
Mg	  4.041971853903 	  6.088130036811 	  2.046158182908 	
Mg	  5.041971853903 	  6.088130036811 	  5.026158182908 	
O	  2.108130036811 	  0.000000000000 	  0.000000000000 	
O	  3.108130036811 	  0.000000000000 	  2.980000000000 	
O	  2.108130036811 	  3.980000000000 	  0.000000000000 	
O	  3.108130036811 	  3.980000000000 	  2.980000000000 	
O	  6.088130036811 	  0.000000000000 	  0.000000000000 	
O	  7.088130036811 	  0.000000000000 	  2.980000000000 	
O	  6.088130036811 	  3.980000000000 	  0.000000000000 	
O	  7.088130036811 	  3.980000000000 	  2.980000000000 	
O	  0.000000000000 	  2.108130036811 	  0.000000000000 	
O	  1.000000000000 	  2.108130036811 	  2.980000000000 	
O	  0.000000000000 	  6.088130036811 	  0.000000000000 	
O	  1.000000000000 	  6.088130036811 	  2.980000000000 	
O	  3.980000000000 	  2.108130036811 	  0.000000000000 	
O	  4.980000000000 	  2.108130036811 	  2.980000000000 	
O	  3.980000000000 	  6.088130036811 	  0.000000000000 	
O	  4.980000000000 	  6.088130036811 	  2.980000000000 	
O	  0.061971853903 	  0.000000000000 	  2.046158182908 	
O	  1.061971853903 	  0.000000000000 	  5.026158182908 	
O	  0.061971853903 	  3.980000000000 	  2.046158182908 	
O	  1.061971853903 	  3.980000000000 	  5.026158182908 	
O	  4.041971853903 	  0.000000000000 	  2.046158182908 	
O	  5.041971853903 	  0.000000000000 	  5.026158182908 	
O	  4.041971853903 	  3.980000000000 	  2.046158182908 	
O	  5.041971853903 	  3.980000000000 	  5.026158182908 	
O	  2.219679373836 	  2.026699020783 	  2.046158182908 	
O	  3.219679373836 	  2.026699020783 	  5.026158182908 	
O	  2.219679373836 	  6.006699020783 	  2.046158182908 	
O	  3.219679373836 	  6.006699020783 	  5.026158182908 	
O	  6.199679373836 	  2.026699020783 	  2.046158182908 	
O	  7.199679373836 	  2.026699020783 	  5.026158182908 	
O	  6.199679373836 	  6.006699020783 	  2.046158182908 	
O	  7.199679373836 	  6.006699020783 	  5.026158182908 	
64 
Energy: 2.8685214453084384e-01 
Mg	  0.000000000000 	  0.000000000000 	  0.000000000000 	
Mg	  1.000000000000 	  0.000000000000 	  2.980000000000 	
Mg	  0.000000000000 	  3.980000000000 	  0.000000000000 	
Mg	  1.000000000000 	  3.980000000000 	  2.980000000000 	
Mg	  3.980000000000 	  0.000000000000 	  0.000000000000 	
Mg	  4.980000000000 	  0.000000000000 	  2.980000000000 	
Mg	  3.980000000000 	  3.980000000000 	  0.000000000000 	
Mg	  4.980000000000 	  3.980000000000 	  2.980000000000 	
Mg	  2.097975127657 	  2.104171930901 	  0.000000000000 	
Mg	  3.097975127657 	  2.104171930901 	  2.980000000000 	
Mg	  2.097975127657 	  6.084171930901 	  0.000000000000 	
Mg	  3.097975127657 	  6.084171930901 	  2.980000000000 	
Mg	  6.077975127657 	  2.104171930901 	  0.000000000000 	
Mg	  7.077975127657 	  2.104171930901 	  2.980000000000 	
Mg	  6.077975127657 	  6.084171930901 	  0.000000000000 	
Mg	  7.077975127657 	  6.084171930901 	  2.980000000000 	
Mg	  2.147549553611 	  0.000000000000 	  2.085581521168 	
Mg	  3.147549553611 	  0.000000000000 	  5.065581521168 	
Mg	  2.147549553611 	  3.980000000000 	  2.085581521168 	
Mg	  3.147549553611 	  3.980000000000 	  5.065581521168 	
Mg	  6.127549553611 	  0.000000000000 	  2.085581521168 	
Mg	  7.127549553611 	  0.000000000000 	  5.065581521168 	
Mg	  6.127549553611 	  3.980000000000 	  2.085581521168 	
Mg	  7.127549553611 	  3.980000000000 	  5.065581521168 	
Mg	  0.030984016222 	  2.116565537390 	  2.085581521168 	
Mg	  1.030984016222 	  2.116565537390 	  5.065581521168 	
Mg	  0.030984016222 	  6.096565537390 	  2.085581521168 	
Mg	  1.030984016222 	  6.096565537390 	  5.065581521168 	
Mg	  4.010984016222 	  2.116565537390 	  2.085581521168 	
Mg	  5.010984016222 	  2.116565537390 	  5.065581521168 	
Mg	  4.010984016222 	  6.096565537390 	  2.085581521168 	
Mg	  5.010984016222 	  6.096565537390 	  5.065581521168 	
O	  2.116565537390 	  0.000000000000 	  0.000000000000 	
O	  3.116565537390 	  0.000000000000 	  2.980000000000 	
O	  2.116565537390 	  3.980000000000 	  0.000000000000 	
O	  3.116565537390 	  3.980000000000 	  2.980000000000 	
O	  6.096565537390 	  0.000000000000 	  0.000000000000 	
O	  7.096565537390 	  0.000000000000 	  2.980000000000 	
O	  6.096565537390 	  3.980000000000 	  0.000000000000 	
O	  7.096565537390 	  3.980000000000 	  2.980000000000 	
O	  0.000000000000 	  2.116565537390 	  0.000000000000 	
O	  1.000000000000 	  2.116565537390 	  2.980000000000 	
O	  0.000000000000 	  6.096565537390 	  0.000000000000 	
O	  1.000000000000 	  6.096565537390 	  2.980000000000 	
O	  3.980000000000 	  2.116565537390 	  0.000000000000 	
O	  4.980000000000 	  2.116565537390 	  2.980000000000 	
O	  3.980000000000 	  6.096565537390 	  0.000000000000 	
O	  4.980000000000 	  6.096565537390 	  2.980000000000 	
O	  0.030984016222 	  0.000000000000 	  2.085581521168 	
O	  1.030984016222 	  0.000000000000 	  5.065581521168 	
O	  0.030984016222 	  3.980000000000 	  2.085581521168 	
O	  1.030984016222 	  3.980000000000 	  5.065581521168 	
O	  4.010984016222 	  0.000000000000 	  2.085581521168 	
O	  5.010984016222 	  0.000000000000 	  5.065581521168 	
O	  4.010984016222 	  3.980000000000 	  2.085581521168 	
O	  5.010984016222 	  3.980000000000 	  5.065581521168 	
O	  2.172336766589 	  2.075852540074 	  2.085581521168 	
O	  3.172336766589 	  2.075852540074 	  5.065581521168 	
O	  2.172336766589 	  6.055852540074 	  2.085581521168 	
O	  3.172336766589 	  6.055852540074 	  5.065581521168 	
O	  6.152336766589 	  2.075852540074 	  2.085581521168 	
O	  7.152336766589 	  2.075852540074 	  5.065581521168 	
O	  6.152336766589 	  6.055852540074 	  2.085581521168 	
O	  7.152336766589 	  6.055852540074 	  5.065581521168 	
64 
Energy: 0.0000000000000000e+00 
Mg	  0.000000000000 	  0.000000000000 	  0.000000000000 	
Mg	  1.000000000000 	  0.000000000000 	  2.980000000000 	
Mg	  0.000000000000 	  3.980000000000 	  0.000000000000 	
Mg	  1.000000000000 	  3.980000000000 	  2.980000000000 	
Mg	  3.980000000000 	  0.000000000000 	  0.000000000000 	
Mg	  4.980000000000 	  0.000000000000 	  2.980000000000 	
Mg	  3.980000000000 	  3.980000000000 	  0.000000000000 	
Mg	  4.980000000000 	  3.980000000000 	  2.980000000000 	
Mg	  2.125000000000 	  2.125000000000 	  0.000000000000 	
Mg	  3.125000000000 	  2.125000000000 	  2.980000000000 	
Mg	  2.125000000000 	  6.105000000000 	  0.000000000000 	
Mg	  3.125000000000 	  6.105000000000 	  2.980000000000 	
Mg	  6.105000000000 	  2.125000000000 	  0.000000000000 	
Mg	  7.105000000000 	  2.125000000000 	  2.980000000000 	
Mg	  6.105000000000 	  6.105000000000 	  0.000000000000 	
Mg	  7.105000000000 	  6.105000000000 	  2.980000000000 	
Mg	  2.125000000000 	  0.000000000000 	  2.125000000000 	
Mg	  3.125000000000 	  0.000000000000 	  5.105000000000 	
Mg	  2.125000000000 	  3.980000000000 	  2.125000000000 	
Mg	  3.125000000000 	  3.980000000000 	  5.105000000000 	
Mg	  6.105000000000 	  0.000000000000 	  2.125000000000 	
Mg	  7.105000000000 	  0.000000000000 	  5.105000000000 	
Mg	  6.105000000000 	  3.980000000000 	  2.125000000000 	
Mg	  7.105000000000 	  3.980000000000 	  5.105000000000 	
Mg	  0.000000000000 	  2.125000000000 	  2.125000000000 	
Mg	  1.000000000000 	  2.125000000000 	  5.105000000000 	
Mg	  0.000000000000 	  6.105000000000 	  2.125000000000 	
Mg	  1.000000000000 	  6.105000000000 	  5.105000000000 	
Mg	  3.980000000000 	  2.125000000000 	  2.125000000000 	
Mg	  4.980000000000 	  2.125000000000 	  5.105000000000 	
Mg	  3.980000000000 	  6.105000000000 	  2.125000000000 	
Mg	  4.980000000000 	  6.105000000000 	  5.105000000000 	
O	  2.125000000000 	  0.000000000000 	  0.000000000000 	
O	  3.125000000000 	  0.000000000000 	  2.980000000000 	
O	  2.125000000000 	  3.980000000000 	  0.000000000000 	
O	  3.125000000000 	  3.980000000000 	  2.980000000000 	
O	  6.105000000000 	  0.000000000000 	  0.000000000000 	
O	  7.105000000000 	  0.000000000000 	  2.980000000000 	
O	  6.105000000000 	  3.980000000000 	  0.000000000000 	
O	  7.105000000000 	  3.980000000000 	  2.980000000000 	
O	  0.000000000000 	  2.125000000000 	  0.000000000000 	
O	  1.000000000000 	  2.125000000000 	  2.980000000000 	
O	  0.000000000000 	  6.105000000000 	  0.000000000000 	
O	  1.000000000000 	  6.105000000000 	  2.980000000000 	
O	  3.980000000000 	  2.125000000000 	  0.000000000000 	
O	  4.980000000000 	  2.125000000000 	  2.980000000000 	
O	  3.980000000000 	  6.105000000000 	  0.000000000000 	
O	  4.980000000000 	  6.105000000000 	  2.980000000000 	
O	  0.000000000000 	  0.000000000000 	  2.125000000000 	
O	  1.000000000000 	  0.000000000000 	  5.105000000000 	
O	  0.000000000000 	  3.980000000000 	  2.125000000000 	
O	  1.000000000000 	  3.980000000000 	  5.105000000000 	
O	  3.980000000000 	  0.000000000000 	  2.125000000000 	
O	  4.980000000000 	  0.000000000000 	  5.105000000000 	
O	  3.980000000000 	  3.980000000000 	  2.125000000000 	
O	  4.980000000000 	  3.980000000000 	  5.105000000000 	
O	  2.125000000000 	  2.125000000000 	  2.125000000000 	
O	  3.125000000000 	  2.125000000000 	  5.105000000000 	
O	  2.125000000000 	  6.105000000000 	  2.125000000000 	
O	  3.125000000000 	  6.105000000000 	  5.105000000000 	
O	  6.105000000000 	  2.125000000000 	  2.125000000000 	
O	  7.105000000000 	  2.125000000000 	  5.105000000000 	
O	  6.105000000000 	  6.105000000000 	  2.125000000000 	
O	  7.105000000000 	  6.105000000000 	  5.105000000000 	
