  Invoking FHI-aims ...
  | Number of atoms                   :  96
  ...scf iterations...
  | Total energy corrected        :   -1.019518794858E+02 eV
  ...
  Total atomic forces (unitary forces cleaned)
     1  -3.0895948304E-01  6.1299304860E-01  1.8647229285E-01
     2  2.3577780204E-01  5.8225423978E-01  -1.8265266682E-01
     3  3.0895947073E-01  -6.1299293232E-01  -1.8647225525E-01
     4  -2.3577765417E-01  -5.8225414027E-01  1.8265273594E-01
     5  -7.9936596522E-01  1.1681086858E+00  -1.4558285863E-03
     6  1.0527425288E+00  -1.5778346624E+00  2.2882748500E+00
     7  7.9936664621E-01  -1.1681085153E+00  1.4564845136E-03
     8  -1.0527425054E+00  1.5778345079E+00  -2.2882745062E+00
     9  -4.7512172116E-01  3.1013753090E-01  -2.0315075412E-01
    10  -1.6868641300E-01  -6.5244430183E-01  1.8521566441E-01
    11  4.7512106952E-01  -3.1013773633E-01  2.0315014183E-01
    12  1.6868670278E-01  6.5244506347E-01  -1.8521592999E-01
    13  -5.7428273979E-01  -1.1035134026E+00  -1.1474131239E+00
    14  1.1454624407E+00  -2.4605370173E-01  1.2120148365E+00
    15  5.7428197086E-01  1.1035136806E+00  1.1474127997E+00
    16  -1.1454632902E+00  2.4605324277E-01  -1.2120142705E+00
    17  4.4822356565E-01  -5.9072252186E-01  -3.5618208649E-02
    18  -9.7109523854E-01  4.1814262244E-01  -8.8035530196E-01
    19  -4.4822285819E-01  5.9072265915E-01  3.5618781122E-02
    20  9.7109559235E-01  -4.1814314590E-01  8.8035532637E-01
    21  6.9633507993E-01  -1.2751190117E+00  -2.3228217073E-01
    22  -6.2042792064E-01  -1.3462358986E+00  3.6536767662E-01
    23  -6.9633555999E-01  1.2751192356E+00  2.3228182764E-01
    24  6.2042799546E-01  1.3462360131E+00  -3.6536774060E-01
    25  9.5807619626E-01  1.0473879522E-01  7.7726536946E-01
    26  -2.8373414779E-01  -1.0204917490E+00  3.1482792694E-01
    27  -9.5808106087E-01  -1.0473896664E-01  -7.7726865077E-01
    28  2.8373470194E-01  1.0204927205E+00  -3.1482843686E-01
    29  5.4148491370E-01  3.4783943423E-01  6.4343279211E-01
    30  -4.6666466660E-01  4.6047490932E-01  -6.8682127051E-01
    31  -5.4148466965E-01  -3.4783957323E-01  -6.4343302379E-01
    32  4.6666392453E-01  -4.6047528356E-01  6.8682096574E-01
    33  2.3169618363E-01  1.1205291906E+00  1.0077304452E+00
    34  -2.1808900336E-01  1.1925377796E+00  -9.9858000021E-01
    35  -2.3169576271E-01  -1.1205293521E+00  -1.0077300868E+00
    36  2.1808925656E-01  -1.1925380719E+00  9.9857988524E-01
    37  -7.7230267445E-01  4.5281132709E-01  -2.7297326169E-01
    38  8.0409736753E-01  5.4636952239E-01  2.0400911002E-01
    39  7.7230277341E-01  -4.5281156043E-01  2.7297341636E-01
    40  -8.0409725238E-01  -5.4637003303E-01  -2.0400855605E-01
    41  -9.6045561451E-01  1.2295206692E+00  8.2342108394E-02
    42  9.8013946003E-01  1.2589221037E+00  -8.5041523054E-02
    43  9.6045549491E-01  -1.2295203788E+00  -8.2341938151E-02
    44  -9.8013912608E-01  -1.2589217907E+00  8.5041663892E-02
    45  1.4976149438E+00  1.1162335827E-01  1.3935510972E+00
    46  -4.3963496346E+00  -6.7800522493E-01  -3.2759827014E+00
    47  -1.4975702114E+00  -1.1162171647E-01  -1.3935137037E+00
    48  4.3963451259E+00  6.7799919767E-01  3.2759960216E+00
    49  -1.8243494400E+00  -6.0213585961E-03  3.3117378401E-01
    50  5.9031812191E-01  -4.9280295849E-01  -2.9928274381E+00
    51  1.8243060404E+00  6.0251566623E-03  -3.3116775903E-01
    52  -5.9030763058E-01  4.9281267285E-01  2.9928010134E+00
    53  -1.7295026501E-01  -1.4248833333E+00  -4.3214143740E-01
    54  1.5067348821E+00  1.9624050140E+00  -6.6549188121E-01
    55  1.7296345769E-01  1.4248663187E+00  4.3212610348E-01
    56  -1.5067282032E+00  -1.9623993843E+00  6.6548604332E-01
    57  9.8896747413E-01  -1.5657673229E-01  7.6068170028E-01
    58  1.5851222300E+00  5.5574088037E-01  2.6146956369E+00
    59  -9.8896300998E-01  1.5657557380E-01  -7.6068303302E-01
    60  -1.5851198413E+00  -5.5573856454E-01  -2.6146911834E+00
    61  -6.9730750285E-02  1.5684391399E+00  7.8430100049E-03
    62  -1.9302833120E+00  -3.4644416594E+00  1.7157825916E+00
    63  6.9749755644E-02  -1.5684226729E+00  -7.8568363009E-03
    64  1.9302642769E+00  3.4644244386E+00  -1.7157665803E+00
    65  -2.7701315471E-01  -3.1022949555E-01  -2.7559863780E-01
    66  3.5647935013E+00  1.7926293670E-01  -1.9802724173E-01
    67  2.7700481905E-01  3.1022017017E-01  2.7558618031E-01
    68  -3.5647896086E+00  -1.7925941381E-01  1.9802962907E-01
    69  -6.3472274529E-01  -9.1432531442E-01  5.8121883092E-01
    70  1.0801559009E+00  -1.2355019518E+00  -1.1243499229E+00
    71  6.3472650332E-01  9.1433819808E-01  -5.8121209668E-01
    72  -1.0801549973E+00  1.2355004112E+00  1.1243494027E+00
    73  6.2930943537E-01  3.3778657268E-01  -1.4066352445E+00
    74  -1.1950538542E+00  4.2752413510E-01  2.2420225575E+00
    75  -6.2930976777E-01  -3.3778113056E-01  1.4066452657E+00
    76  1.1950532067E+00  -4.2752149214E-01  -2.2420259989E+00
    77  7.5872696170E-01  -2.4677983211E-01  3.6668509296E-01
    78  -1.1957165497E+00  -3.2840561631E-01  -6.9863923950E-01
    79  -7.5873655219E-01  2.4678092403E-01  -3.6669164133E-01
    80  1.1957170998E+00  3.2840555938E-01  6.9863907764E-01
    81  -6.2139080279E-01  9.9708406440E-01  -4.0778868937E-01
    82  4.5697459990E-02  2.1549900409E+00  8.4202608582E-01
    83  6.2137495051E-01  -9.9706000961E-01  4.0777734314E-01
    84  -4.5697426877E-02  -2.1549912330E+00  -8.4202817643E-01
    85  8.4760022092E-01  4.2312577265E-02  4.5617034812E-01
    86  -1.0027081336E+00  1.7728579269E-01  -3.6561352986E-01
    87  -8.4761021097E-01  -4.2315376676E-02  -4.5617389938E-01
    88  1.0027071635E+00  -1.7728568428E-01  3.6561332414E-01
    89  4.4326204736E-01  -3.1159959149E-01  -1.4755951202E+00
    90  -5.3991787285E-01  -8.4753177186E-02  1.8496376986E+00
    91  -4.4325692785E-01  3.1158629518E-01  1.4755898068E+00
    92  5.3991798884E-01  8.4755583737E-02  -1.8496368377E+00
    93  -5.4350233774E-01  2.9945278042E-01  8.4985522009E-01
    94  5.7570451962E-01  8.1542497633E-01  -7.7780563856E-01
    95  5.4350436848E-01  -2.9947496204E-01  -8.4984320025E-01
    96  -5.7570502471E-01  -8.1542513435E-01  7.7780720785E-01
  Stress tensor (eV/A^3):
  7.2838530290E-02  -9.2846517126E-03  2.4689878348E-02
  -9.2846517126E-03  6.8004334639E-02  1.0072028261E-02
  2.4689878348E-02  1.0072028261E-02  5.6859774654E-02
