  Invoking FHI-aims ...
  | Number of atoms                   :  96
  ...scf iterations...
  | Total energy corrected        :   -8.623578525232E+01 eV
  ...
  Total atomic forces (unitary forces cleaned)
     1  -2.6768977464E-01  6.0608141831E-01  1.9247318236E-01
     2  2.0675316648E-01  5.6669701880E-01  -1.9369700984E-01
     3  2.6768989802E-01  -6.0608133596E-01  -1.9247309049E-01
     4  -2.0675303780E-01  -5.6669676130E-01  1.9369706246E-01
     5  -7.8043076828E-01  1.6551836160E+00  2.9214321732E-01
     6  7.9490680621E-01  1.4161923848E+00  -4.2267376190E-01
     7  7.8043088249E-01  -1.6551834765E+00  -2.9214301424E-01
     8  -7.9490720457E-01  -1.4161925009E+00  4.2267405314E-01
     9  -3.4499793147E-01  2.4394277440E-01  -1.8316012181E-01
    10  8.7860994970E-01  6.7136531748E-01  1.6287226543E-01
    11  3.4499766754E-01  -2.4394226022E-01  1.8315992280E-01
    12  -8.7861031154E-01  -6.7136571905E-01  -1.6287178739E-01
    13  -5.0538025137E-01  -9.7769929978E-01  -1.0740184253E+00
    14  -2.4318782041E-02  -1.4322065867E+00  1.1231081377E+00
    15  5.0537970166E-01  9.7769935270E-01  1.0740181198E+00
    16  2.4318638469E-02  1.4322070486E+00  -1.1231073735E+00
    17  4.3530644968E-01  -5.9828554718E-01  -5.0649365639E-02
    18  -2.9270306872E-01  -7.9127458689E-01  5.0687104890E-01
    19  -4.3530549176E-01  5.9828548618E-01  5.0649957999E-02
    20  2.9270266270E-01  7.9127456959E-01  -5.0687147408E-01
    21  5.9859071487E-01  -1.1584367317E+00  -2.4238429646E-01
    22  -6.0997584911E-01  -1.2209823120E+00  2.7787784744E-01
    23  -5.9859113569E-01  1.1584373566E+00  2.4238371940E-01
    24  6.0997559888E-01  1.2209825225E+00  -2.7787818284E-01
    25  8.4769681634E-01  4.8219440133E-03  7.4292752747E-01
    26  -9.8566787957E-01  2.1744758421E-01  -1.2033684607E+00
    27  -8.4769662503E-01  -4.8224762277E-03  -7.4292767374E-01
    28  9.8566911043E-01  -2.1744749811E-01  1.2033680467E+00
    29  4.6524967716E-01  3.5593275715E-01  6.2670517608E-01
    30  -4.5204432103E-01  3.8660801521E-01  -6.4219021472E-01
    31  -4.6524961701E-01  -3.5593263757E-01  -6.2670504383E-01
    32  4.5204402859E-01  -3.8660802543E-01  6.4218984113E-01
    33  1.5838856759E-01  1.0178824526E+00  8.7815927290E-01
    34  -1.2893276433E-01  1.0548275790E+00  -8.3683049926E-01
    35  -1.5838868136E-01  -1.0178829706E+00  -8.7815905680E-01
    36  1.2893316563E-01  -1.0548279979E+00  8.3683037804E-01
    37  -6.9713803272E-01  5.5427036456E-01  -2.1187382979E-01
    38  7.1016613827E-01  5.8432612214E-01  1.9609705367E-01
    39  6.9713811254E-01  -5.5427061765E-01  2.1187379994E-01
    40  -7.1016620402E-01  -5.8432621101E-01  -1.9609671814E-01
    41  -8.2983754988E-01  1.1422678792E+00  7.6422948835E-02
    42  8.3287268040E-01  1.1517651874E+00  -7.1992962791E-02
    43  8.2983749958E-01  -1.1422678567E+00  -7.6422627747E-02
    44  -8.3287247676E-01  -1.1517649219E+00  7.1993180706E-02
    45  -1.8040646317E+00  1.7966969180E-01  -1.2096437270E+00
    46  1.4274584633E+00  -1.1567739285E+00  1.0250481823E+00
    47  1.8040601669E+00  -1.7966903688E-01  1.2096416225E+00
    48  -1.4274604309E+00  1.1567706885E+00  -1.0250477714E+00
    49  -4.6095249427E-01  6.4989206705E-01  1.8626587930E+00
    50  6.1609337338E-01  7.4002445272E+00  -4.9997864489E+00
    51  4.6094234376E-01  -6.4988112453E-01  -1.8626522413E+00
    52  -6.1609129326E-01  -7.4002429560E+00  4.9997854375E+00
    53  -1.1057014218E+00  -6.7841346855E-01  4.6609511457E-01
    54  9.0884625852E-01  -7.7901558446E-01  -3.9346283277E-01
    55  1.1057060113E+00  6.7841747619E-01  -4.6609738567E-01
    56  -9.0884392460E-01  7.7901450484E-01  3.9346223745E-01
    57  1.0231571265E+00  -1.8604114057E-01  8.8506918538E-01
    58  1.3701777761E+00  8.8263104024E-02  1.4128090108E+00
    59  -1.0231557927E+00  1.8603983149E-01  -8.8506716375E-01
    60  -1.3701802356E+00  -8.8263624856E-02  -1.4128093542E+00
    61  -1.9300774872E-01  1.3502350370E+00  6.9205554394E-02
    62  -2.1801831208E+00  -5.3592791095E+00  7.3402139759E-01
    63  1.9301285406E-01  -1.3502438585E+00  -6.9208548100E-02
    64  2.1801827641E+00  5.3592787147E+00  -7.3401950544E-01
    65  7.4850775210E-01  -1.6426017266E+00  3.8096844980E-01
    66  6.8170097700E-01  5.9168222832E-01  -9.6706681144E-01
    67  -7.4851140087E-01  1.6425969705E+00  -3.8096889316E-01
    68  -6.8169889166E-01  -5.9168017026E-01  9.6706760875E-01
    69  -1.1695016388E+00  -9.0327172516E-01  6.2896819260E-01
    70  1.2733268965E+00  -9.5087393133E-01  -6.5496709637E-01
    71  1.1695017861E+00  9.0327407618E-01  -6.2896707317E-01
    72  -1.2733269323E+00  9.5087400885E-01  6.5496795110E-01
    73  6.1003267300E-01  -5.6815878288E-01  -1.4518925056E+00
    74  -9.4647618047E-01  -1.4894884480E+00  2.6189348373E+00
    75  -6.1003351789E-01  5.6815652542E-01  1.4518937659E+00
    76  9.4647441949E-01  1.4894890612E+00  -2.6189352096E+00
    77  9.3075994654E-01  -2.2115780829E-01  6.7405908931E-01
    78  -1.6712608466E+00  -5.3921673868E-01  -1.2202918534E+00
    79  -9.3075740597E-01  2.2115655863E-01  -6.7405802946E-01
    80  1.6712611937E+00  5.3921672929E-01  1.2202908434E+00
    81  1.4397575808E+00  1.1655263711E+00  -5.9101851400E-01
    82  -1.4921727342E+00  1.2407477918E+00  6.4842052663E-01
    83  -1.4397560554E+00  -1.1655203053E+00  5.9100916984E-01
    84  1.4921734400E+00  -1.2407460766E+00  -6.4842279448E-01
    85  1.0674557557E+00  -2.9586070539E-02  5.9645433280E-01
    86  -1.0845545336E+00  -2.8894692220E-02  -5.7173628533E-01
    87  -1.0674529735E+00  2.9586380783E-02  -5.9645299469E-01
    88  1.0845543249E+00  2.8894612420E-02  5.7173623408E-01
    89  2.9569831496E-01  -5.2192991161E-01  -1.4768670091E+00
    90  -3.0286793164E-01  -5.0775809451E-01  1.5008118670E+00
    91  -2.9569920192E-01  5.2192838562E-01  1.4768709261E+00
    92  3.0286705026E-01  5.0775851127E-01  -1.5008099402E+00
    93  -3.7358416215E-01  1.2923679910E+00  -2.4843681547E-02
    94  3.6304519434E-01  1.3281062662E+00  5.4930586632E-02
    95  3.7358613595E-01  -1.2923729175E+00  2.4842821801E-02
    96  -3.6304525230E-01  -1.3281073001E+00  -5.4930837622E-02
  Stress tensor (eV/A^3):
  8.6577079752E-02  -4.8470956613E-03  2.0695803403E-02
  -4.8470956613E-03  8.5911070043E-02  -1.4267071948E-03
  2.0695803403E-02  -1.4267071948E-03  8.8035328249E-02
