  Invoking FHI-aims ...
  | Number of atoms                   :  96
  ...scf iterations...
  | Total energy corrected        :   -8.828869597886E+01 eV
  ...
  Total atomic forces (unitary forces cleaned)
     1  -2.5881145079E-01  5.9975044368E-01  1.8109089791E-01
     2  2.1650940636E-01  5.6853118288E-01  -1.9183005410E-01
     3  2.5881150414E-01  -5.9975035254E-01  -1.8109085313E-01
     4  -2.1650925535E-01  -5.6853103622E-01  1.9183013215E-01
     5  -8.3900386373E-01  1.4666663236E+00  2.2911623061E-01
     6  8.4696300625E-01  1.5960619557E+00  -4.7339236505E-01
     7  8.3900425284E-01  -1.4666661825E+00  -2.2911581642E-01
     8  -8.4696311368E-01  -1.5960620949E+00  4.7339266819E-01
     9  -3.0769187715E-01  1.9657527233E-01  -1.5669209552E-01
    10  6.5404695970E-01  4.9056237887E-01  1.3194636398E-01
    11  3.0769142995E-01  -1.9657518712E-01  1.5669173140E-01
    12  -6.5404734844E-01  -4.9056252274E-01  -1.3194628768E-01
    13  -4.8368237154E-01  -9.7802366923E-01  -1.0088715505E+00
    14  1.5265405920E-01  -1.2844253035E+00  1.0586916269E+00
    15  4.8368177374E-01  9.7802381570E-01  1.0088712739E+00
    16  -1.5265413137E-01  1.2844256129E+00  -1.0586911196E+00
    17  5.4115628808E-01  -7.5033821545E-01  -6.4050380229E-02
    18  -4.5426423941E-01  -9.4985296438E-01  3.8279036533E-01
    19  -5.4115570112E-01  7.5033840847E-01  6.4050814217E-02
    20  4.5426406795E-01  9.4985294306E-01  -3.8279078873E-01
    21  4.5255038049E-01  -9.7135038099E-01  -2.1171228105E-01
    22  -4.4738827071E-01  -9.9654513259E-01  2.3915109505E-01
    23  -4.5255069280E-01  9.7135040956E-01  2.1171195172E-01
    24  4.4738825013E-01  9.9654528685E-01  -2.3915126722E-01
    25  7.6269279135E-01  3.6364096183E-02  6.1210198692E-01
    26  -8.6148453752E-01  2.3238054531E-01  -9.3457344938E-01
    27  -7.6269339025E-01  -3.6364507871E-02  -6.1210259147E-01
    28  8.6148533189E-01  -2.3238024825E-01  9.3457324698E-01
    29  4.8989781064E-01  5.3806170463E-01  7.4776654301E-01
    30  -4.7144485555E-01  5.6690158324E-01  -7.5036237800E-01
    31  -4.8989764832E-01  -5.3806172745E-01  -7.4776664006E-01
    32  4.7144433952E-01  -5.6690184171E-01  7.5036206467E-01
    33  1.3691859093E-01  8.6768060368E-01  7.3556431982E-01
    34  -1.4010607088E-01  8.8167799550E-01  -7.2872464847E-01
    35  -1.3691830837E-01  -8.6768079511E-01  -7.3556405627E-01
    36  1.4010631263E-01  -8.8167817640E-01  7.2872451502E-01
    37  -8.1430724270E-01  7.0173523714E-01  -1.4997713704E-01
    38  8.1803332892E-01  7.2261888368E-01  1.3615663862E-01
    39  8.1430724210E-01  -7.0173539289E-01  1.4997725574E-01
    40  -8.1803307179E-01  -7.2261905757E-01  -1.3615616371E-01
    41  -7.1193158437E-01  9.3867107947E-01  5.4209188145E-02
    42  7.1413877894E-01  9.3955230912E-01  -5.7253976139E-02
    43  7.1193157107E-01  -9.3867100123E-01  -5.4209030507E-02
    44  -7.1413860018E-01  -9.3955214006E-01  5.7254096672E-02
    45  -1.4337556144E+00  2.2352745427E-01  -7.0916304208E-01
    46  2.5738672886E-01  -1.7111417901E+00  5.0046359168E-01
    47  1.4337806451E+00  -2.2351688007E-01  7.0919701819E-01
    48  -2.5738910617E-01  1.7111360083E+00  -5.0047089691E-01
    49  -1.2766738758E+01  7.7688813950E-01  7.8388010309E+00
    50  1.7932171321E+01  1.2430590570E+01  -1.4152552980E+01
    51  1.2766455397E+01  -7.7684959773E-01  -7.8386629819E+00
    52  -1.7932286478E+01  -1.2430684329E+01  1.4152634979E+01
    53  6.1038697368E+00  4.2834328467E+00  -3.4081891237E+00
    54  -3.6734337529E+00  1.9370587502E+00  2.3571602335E+00
    55  -6.1037009480E+00  -4.2833283985E+00  3.4080858907E+00
    56  3.6734605705E+00  -1.9370820470E+00  -2.3571758561E+00
    57  1.8057518248E+00  -2.8061610279E-01  1.6598822511E+00
    58  -4.9807741245E-01  -6.4562319783E-02  -1.8745050756E-01
    59  -1.8057323828E+00  2.8061185230E-01  -1.6598633218E+00
    60  4.9807761485E-01  6.4561942087E-02  1.8745103972E-01
    61  3.6627777088E+00  -4.6414556301E+00  -2.8726311732E+00
    62  -1.2603152528E+01  -1.4144869580E+01  9.1937223570E+00
    63  -3.6626798155E+00  4.6413182818E+00  2.8725419836E+00
    64  1.2603240042E+01  1.4144985277E+01  -9.1937805112E+00
    65  -8.3763450522E-01  -6.5431424673E+00  -3.4067307230E+00
    66  3.0129796814E+00  -4.6275917057E+00  2.0462079616E+00
    67  8.3759734598E-01  6.5430762197E+00  3.4066803215E+00
    68  -3.0129808870E+00  4.6275957668E+00  -2.0461946883E+00
    69  1.4321673040E+00  2.9035218662E+00  2.2504946317E-01
    70  -1.5359728312E+00  2.9826404967E+00  -2.4187598787E-01
    71  -1.4321353661E+00  -2.9034629436E+00  -2.2505195129E-01
    72  1.5359741479E+00  -2.9826420410E+00  2.4187404199E-01
    73  -2.1383888584E-01  7.5851147463E-01  1.6107462019E+00
    74  -2.1548355546E-01  5.8452022352E-01  -3.4175174767E-01
    75  2.1382796875E-01  -7.5849469064E-01  -1.6106952689E+00
    76  2.1548670071E-01  -5.8451648369E-01  3.4174011106E-01
    77  1.3807550427E+00  -3.4402891249E-01  8.0974620692E-01
    78  -1.7416649656E+00  -4.7582960045E-01  -1.0590895982E+00
    79  -1.3807480063E+00  3.4402665505E-01  -8.0974303277E-01
    80  1.7416650059E+00  4.7582942171E-01  1.0590888913E+00
    81  -1.5494507012E+00  1.1283742204E+01  -4.9998902548E+00
    82  1.4931794643E+00  1.1392056283E+01  5.0642919067E+00
    83  1.5493617999E+00  -1.1283524710E+01  4.9998619618E+00
    84  -1.4931777817E+00  -1.1392059473E+01  -5.0643072226E+00
    85  1.8436379523E+00  1.0473295963E-01  9.3427172651E-01
    86  -1.8659312401E+00  1.2471879419E-01  -9.0858695903E-01
    87  -1.8436243113E+00  -1.0473216251E-01  -9.3426551231E-01
    88  1.8659311819E+00  -1.2471880404E-01  9.0858693334E-01
    89  -6.9112329741E-01  -1.1633408545E+00  3.3875510207E+00
    90  6.8209619750E-01  -1.1372307106E+00  -3.3542603190E+00
    91  6.9111843176E-01  1.1633290591E+00  -3.3875299498E+00
    92  -6.8209821882E-01  1.1372328781E+00  3.3542709668E+00
    93  2.3655429650E+00  -7.4054895475E+00  -2.8273565281E-01
    94  -2.3726660895E+00  -7.3526767483E+00  2.9983891312E-01
    95  -2.3654809686E+00  7.4052636476E+00  2.8273694252E-01
    96  2.3726657764E+00  7.3526793163E+00  -2.9983475954E-01
  Stress tensor (eV/A^3):
  4.0006480044E-02  -1.8573573281E-02  6.3302147678E-02
  -1.8573573281E-02  -1.2828450504E-02  1.0042075720E-02
  6.3302147678E-02  1.0042075720E-02  2.9880672887E-02
