  Invoking FHI-aims ...
  | Number of atoms                   :  96
  ...scf iterations...
  | Total energy corrected        :   -7.377781734665E+01 eV
  ...
  Total atomic forces (unitary forces cleaned)
     1  -2.1367122241E-01  5.9271170798E-01  1.9693159423E-01
     2  2.1046091961E-01  5.8846355929E-01  -1.9830606185E-01
     3  2.1367137947E-01  -5.9271161687E-01  -1.9693149726E-01
     4  -2.1046080945E-01  -5.8846328231E-01  1.9830610562E-01
     5  -8.0914353047E-01  1.1902373999E+00  6.2109782925E-02
     6  8.0556567158E-01  1.1568946305E+00  -2.4768814731E-02
     7  8.0914352465E-01  -1.1902372745E+00  -6.2109688078E-02
     8  -8.0556611525E-01  -1.1568947300E+00  2.4769121638E-02
     9  -1.8081483354E-01  1.7125374322E-01  -9.7766442609E-02
    10  1.4634141124E-01  1.3291288275E-01  1.0114807206E-01
    11  1.8081468661E-01  -1.7125315340E-01  9.7766296554E-02
    12  -1.4634182166E-01  -1.3291328581E-01  -1.0114781720E-01
    13  -3.7173135601E-01  -8.5041262755E-01  -8.8401826537E-01
    14  4.0699724967E-01  -8.1163817405E-01  8.8081134983E-01
    15  3.7173086448E-01  8.5041255394E-01  8.8401796063E-01
    16  -4.0699743114E-01  8.1163861247E-01  -8.8081055938E-01
    17  2.0295444540E+00  -3.0758852772E+00  -2.7890820393E-01
    18  -2.0415563677E+00  -3.0490728651E+00  2.4151575804E-01
    19  -2.0295471800E+00  3.0758911531E+00  2.7890834449E-01
    20  2.0415561806E+00  3.0490733807E+00  -2.4151675511E-01
    21  -1.1292198546E+00  1.4854552254E+00  -8.2358625875E-03
    22  1.1302884699E+00  1.4881012156E+00  6.2436372195E-03
    23  1.1292232575E+00  -1.4854605603E+00  8.2356554878E-03
    24  -1.1302886762E+00  -1.4881016332E+00  -6.2433053577E-03
    25  4.7006991618E-01  -1.6365407565E-02  4.4486911816E-01
    26  -4.5820732244E-01  -4.5122302235E-02  -4.0639346776E-01
    27  -4.7006980617E-01  1.6365140122E-02  -4.4486918141E-01
    28  4.5820809384E-01  4.5122292004E-02  4.0639327731E-01
    29  8.7864191956E-01  2.4656710227E+00  2.5165955020E+00
    30  -8.7887867051E-01  2.4644085555E+00  -2.5156696248E+00
    31  -8.7864299956E-01  -2.4656739405E+00  -2.5165970396E+00
    32  8.7888023264E-01  -2.4644110840E+00  2.5156708568E+00
    33  -4.3540904417E-01  -1.1815613295E+00  -1.2503263103E+00
    34  4.3569748627E-01  -1.1822922122E+00  1.2506632634E+00
    35  4.3540998142E-01  1.1815637952E+00  1.2503283035E+00
    36  -4.3569872540E-01  1.1822944827E+00  -1.2506648123E+00
    37  -2.1964404279E+00  2.9573884595E+00  1.6689334840E-01
    38  2.1957035888E+00  2.9557288010E+00  -1.6631410799E-01
    39  2.1964397651E+00  -2.9573877542E+00  -1.6689249801E-01
    40  -2.1957025145E+00  -2.9557272348E+00  1.6631470809E-01
    41  9.3224468135E-01  -1.3663174043E+00  -1.8022636336E-01
    42  -9.3234912001E-01  -1.3661104574E+00  1.8046362472E-01
    43  -9.3224398953E-01  1.3663164410E+00  1.8022583068E-01
    44  9.3234818713E-01  1.3661090907E+00  -1.8046377607E-01
    45  -5.9822087495E-01  6.3080880947E-02  -3.7978860558E-01
    46  5.7917049119E-01  1.2853303583E-02  3.9267151707E-01
    47  5.9821859749E-01  -6.3080598460E-02  3.7978776207E-01
    48  -5.7917070753E-01  -1.2853527506E-02  -3.9267166872E-01
    49  -4.5194617406E+00  4.0017969921E+00  5.1262463508E+00
    50  4.1865281990E+00  2.7007880360E+00  -5.2524496496E+00
    51  4.5194495837E+00  -4.0017663323E+00  -5.1262455373E+00
    52  -4.1865325818E+00  -2.7007869341E+00  5.2524482201E+00
    53  4.3035572613E+00  1.8941163333E+00  -2.3864989748E+00
    54  -4.2439948543E+00  1.8833152654E+00  2.3622682357E+00
    55  -4.3035412898E+00  -1.8941211328E+00  2.3864901939E+00
    56  4.2439966038E+00  -1.8833163131E+00  -2.3622715971E+00
    57  -9.8783723136E-01  1.7257878349E-01  -8.4249643195E-01
    58  1.0951955664E+00  2.0859057660E-01  9.3688134772E-01
    59  9.8784117755E-01  -1.7257905406E-01  8.4249968822E-01
    60  -1.0951919012E+00  -2.0858984628E-01  -9.3687731936E-01
    61  8.5050967045E-01  -5.2348256386E+00  7.9078647089E-02
    62  -6.8049540290E-01  -3.9606098583E+00  -4.4127858908E-02
    63  -8.5051617300E-01  5.2348027734E+00  -7.9073368464E-02
    64  6.8049538856E-01  3.9606087799E+00  4.4128741674E-02
    65  -7.4870038403E-01  -6.6115472525E+00  -1.0473717418E+00
    66  5.8419833114E-01  -6.7530189359E+00  1.4980182671E+00
    67  7.4869040025E-01  6.6115328036E+00  1.0473734600E+00
    68  -5.8419819890E-01  6.7530149073E+00  -1.4980180931E+00
    69  3.2311163404E+00  2.5216499759E+00  -1.5607072557E+00
    70  -3.2640074440E+00  2.5420275120E+00  1.5733533860E+00
    71  -3.2311069194E+00  -2.5216487861E+00  1.5606991572E+00
    72  3.2640030159E+00  -2.5420240553E+00  -1.5733533762E+00
    73  -9.5024382678E-01  1.9291507989E+00  3.6629330095E+00
    74  1.0975928257E+00  2.1212563875E+00  -4.1631646742E+00
    75  9.5024506891E-01  -1.9291400800E+00  -3.6629229086E+00
    76  -1.0975894560E+00  -2.1212560212E+00  4.1631629896E+00
    77  -8.9351811416E-01  9.0188324622E-02  -7.2985185381E-01
    78  9.5645710384E-01  7.4616938024E-02  7.7820813145E-01
    79  8.9351565334E-01  -9.0188149605E-02  7.2985030211E-01
    80  -9.5645644926E-01  -7.4616905269E-02  -7.7820669264E-01
    81  2.4182868703E+00  4.3857512117E+00  -5.4021763108E+00
    82  -2.4174185260E+00  4.3842998566E+00  5.4010167429E+00
    83  -2.4182820655E+00  -4.3857528935E+00  5.4021483149E+00
    84  2.4174193876E+00  -4.3842922803E+00  -5.4010256109E+00
    85  -9.8557667177E-01  3.1917990863E-02  -5.8597821716E-01
    86  9.8640496080E-01  3.1920452976E-02  5.8550176804E-01
    87  9.8557760473E-01  -3.1917794778E-02  5.8597847995E-01
    88  -9.8640480988E-01  -3.1920704266E-02  -5.8550097209E-01
    89  -9.2417894059E-01  1.5395400454E+00  4.3238892888E+00
    90  9.2452015434E-01  1.5389981639E+00  -4.3244844590E+00
    91  9.2417647715E-01  -1.5395258577E+00  -4.3238738599E+00
    92  -9.2452047893E-01  -1.5390022035E+00  4.3244901830E+00
    93  1.0037560147E+00  -4.9434040130E+00  6.7666620931E-01
    94  -1.0033151019E+00  -4.9430238621E+00  -6.7765909608E-01
    95  -1.0037565721E+00  4.9433900039E+00  -6.7665658454E-01
    96  1.0033138651E+00  4.9430213945E+00  6.7766126746E-01
  Stress tensor (eV/A^3):
  3.4126047081E-03  1.2473992663E-04  3.5231639115E-02
  1.2473992663E-04  -2.0709785843E-02  5.3500807289E-04
  3.5231639115E-02  5.3500807289E-04  -1.8831487170E-03
