  Invoking FHI-aims ...
  | Number of atoms                   :  96
  ...scf iterations...
  | Total energy corrected        :   -8.543748307182E+01 eV
  ...
  Total atomic forces (unitary forces cleaned)
     1  -2.5558110512E-01  5.9061089714E-01  1.8231521196E-01
     2  2.2148184375E-01  5.6543668786E-01  -1.8915461285E-01
     3  2.5558110004E-01  -5.9061080975E-01  -1.8231518904E-01
     4  -2.2148172725E-01  -5.6543662451E-01  1.8915470662E-01
     5  -8.5966260820E-01  1.3909872438E+00  1.9496961125E-01
     6  8.7317641970E-01  1.4719716955E+00  -3.2424966852E-01
     7  8.5966317018E-01  -1.3909870892E+00  -1.9496907589E-01
     8  -8.7317636980E-01  -1.4719718542E+00  3.2424993819E-01
     9  -2.9523243134E-01  1.7417645045E-01  -1.4627575093E-01
    10  4.5859308169E-01  3.1236126715E-01  1.3235825487E-01
    11  2.9523187331E-01  -1.7417661705E-01  1.4627532556E-01
    12  -4.5859339983E-01  -3.1236117280E-01  -1.3235838083E-01
    13  -4.6975369908E-01  -9.8300536756E-01  -9.7162051367E-01
    14  3.2335773800E-01  -1.1278848411E+00  1.0046020743E+00
    15  4.6975307226E-01  9.8300557802E-01  9.7162025451E-01
    16  -3.2335786200E-01  1.1278849754E+00  -1.0046017613E+00
    17  6.1130720651E-01  -8.3631846130E-01  -6.7524845676E-02
    18  -5.8356703462E-01  -9.5814535026E-01  2.2101397407E-01
    19  -6.1130673965E-01  8.3631871642E-01  6.7525262400E-02
    20  5.8356703361E-01  9.5814535566E-01  -2.2101436958E-01
    21  3.7298123778E-01  -8.5463285799E-01  -1.9419699910E-01
    22  -3.6572774441E-01  -8.5811929521E-01  2.0683610311E-01
    23  -3.7298134383E-01  8.5463283008E-01  1.9419684822E-01
    24  3.6572784971E-01  8.5811935178E-01  -2.0683611765E-01
    25  7.4681778438E-01  5.5760051365E-02  5.5397763302E-01
    26  -7.9498940447E-01  1.6344430780E-01  -7.1171715457E-01
    27  -7.4681813732E-01  -5.5760506355E-02  -5.5397803135E-01
    28  7.9498989530E-01  -1.6344391465E-01  7.1171702289E-01
    29  4.8270294627E-01  6.4434851561E-01  7.9729933534E-01
    30  -4.7354655343E-01  6.5898903918E-01  -8.0046740709E-01
    31  -4.8270274602E-01  -6.4434845786E-01  -7.9729952046E-01
    32  4.7354590293E-01  -6.5898936811E-01  8.0046713538E-01
    33  9.4163237923E-02  7.7274732671E-01  6.3867391840E-01
    34  -9.2339827867E-02  7.7424332340E-01  -6.3610142736E-01
    35  -9.4162988183E-02  -7.7274739906E-01  -6.3867375099E-01
    36  9.2339936325E-02  -7.7424341789E-01  6.3610135110E-01
    37  -8.8488481465E-01  7.8325006940E-01  -1.1138328889E-01
    38  8.8438894346E-01  7.9573621458E-01  1.0178816325E-01
    39  8.8488476435E-01  -7.8325015145E-01  1.1138347320E-01
    40  -8.8438853493E-01  -7.9573643377E-01  -1.0178767550E-01
    41  -6.4329003647E-01  8.1881646442E-01  4.6302604018E-02
    42  6.4367737541E-01  8.1869633944E-01  -4.8071735501E-02
    43  6.4329006644E-01  -8.1881638391E-01  -4.6302540841E-02
    44  -6.4367723851E-01  -8.1869625133E-01  4.8071805841E-02
    45  -1.9392828680E+00  1.1940716355E-01  -1.3318818930E+00
    46  1.8327949540E+00  -1.3921766311E-01  1.3765550950E+00
    47  1.9392873459E+00  -1.1940488731E-01  1.3318856745E+00
    48  -1.8327964133E+00  1.3921639599E-01  -1.3765549926E+00
    49  -1.1707305168E+01  -2.1258732958E+00  7.4863358731E+00
    50  1.4925078117E+01  3.3420133187E+00  -1.2571571268E+01
    51  1.1707137945E+01  2.1258553089E+00  -7.4862522720E+00
    52  -1.4925079138E+01  -3.3420065458E+00  1.2571572233E+01
    53  4.7282033318E+00  5.5688494133E+00  -1.7263791181E+00
    54  -3.9744136411E+00  4.6269573845E+00  1.5200593724E+00
    55  -4.7281190974E+00  -5.5687626189E+00  1.7263456649E+00
    56  3.9744186629E+00  -4.6269638511E+00  -1.5200625677E+00
    57  1.4197924698E+00  -2.1341715418E-01  1.2139196315E+00
    58  2.4395660670E-01  6.2634599875E-02  3.6455049830E-01
    59  -1.4197828533E+00  2.1341469270E-01  -1.2139106461E+00
    60  -2.4395869664E-01  -6.2635229900E-02  -3.6455206189E-01
    61  4.3083748221E+00  -3.9568715678E+00  -3.2440084056E+00
    62  -9.9099875268E+00  -8.6940056295E+00  6.9009664997E+00
    63  -4.3083031678E+00  3.9568055635E+00  3.2439489856E+00
    64  9.9099860178E+00  8.6940050288E+00  -6.9009618935E+00
    65  5.2930650811E-01  -5.9032571171E+00  -4.3743252576E+00
    66  -4.4185732906E-01  -5.9697890848E+00  5.0071965230E+00
    67  -5.2932533705E-01  5.9031997347E+00  4.3742777529E+00
    68  4.4185096245E-01  5.9697968114E+00  -5.0071820146E+00
    69  1.1091778630E+00  2.8324665719E+00  5.4590133272E-01
    70  -1.1709680384E+00  2.9058915603E+00  -5.5573042708E-01
    71  -1.1091571338E+00  -2.8324129718E+00  -5.4589620185E-01
    72  1.1709706424E+00  -2.9058975511E+00  5.5572911683E-01
    73  -3.9237222668E-01  3.1437959438E-01  1.8419323546E+00
    74  5.2258655675E-01  4.2233091389E-01  -2.4527799647E+00
    75  3.9236373901E-01  -3.1437673716E-01  -1.8418934778E+00
    76  -5.2258248336E-01  -4.2233086747E-01  2.4527669732E+00
    77  1.1877497629E+00  -2.1594587169E-01  6.4810457479E-01
    78  -1.2557883499E+00  -2.3790054129E-01  -6.9286058259E-01
    79  -1.1877443059E+00  2.1594453950E-01  -6.4810262457E-01
    80  1.2557882767E+00  2.3790036869E-01  6.9286028232E-01
    81  -2.0899428615E+00  1.0895805077E+01  -2.6133433904E+00
    82  2.0703610867E+00  1.0950303942E+01  2.6337584868E+00
    83  2.0898913304E+00  -1.0895669319E+01  2.6133060326E+00
    84  -2.0703604139E+00  -1.0950312491E+01  -2.6337717976E+00
    85  1.4935766626E+00  1.0869178700E-01  7.8903640682E-01
    86  -1.5027909936E+00  1.2341473378E-01  -7.7921714748E-01
    87  -1.4935678342E+00  -1.0869083902E-01  -7.8903192466E-01
    88  1.5027907756E+00  -1.2341471115E-01  7.7921713587E-01
    89  -5.5191760126E-01  -1.6629986880E+00  3.2830322226E+00
    90  5.5103782425E-01  -1.6498099772E+00  -3.2818988267E+00
    91  5.5190754622E-01  1.6629702928E+00  -3.2829741931E+00
    92  -5.5103958582E-01  1.6498139321E+00  3.2819095079E+00
    93  3.0728379777E+00  -5.7813529094E+00  -1.7283942833E+00
    94  -3.0817157253E+00  -5.7608178024E+00  1.7396947974E+00
    95  -3.0727866040E+00  5.7812440984E+00  1.7283670986E+00
    96  3.0817174740E+00  5.7608230177E+00  -1.7396930844E+00
  Stress tensor (eV/A^3):
  4.0693661420E-02  -8.9827085881E-03  5.4917579498E-02
  -8.9827085881E-03  1.8902230464E-03  4.2969828119E-03
  5.4917579498E-02  4.2969828119E-03  2.6567443624E-02
