64 
Energy: 2.5662229344912437e+00 
Mg	  0.000000000000 	  0.000000000000 	  0.000000000000 	
Mg	  1.000000000000 	  0.000000000000 	  2.980000000000 	
Mg	  0.000000000000 	  3.980000000000 	  0.000000000000 	
Mg	  1.000000000000 	  3.980000000000 	  2.980000000000 	
Mg	  3.980000000000 	  0.000000000000 	  0.000000000000 	
Mg	  4.980000000000 	  0.000000000000 	  2.980000000000 	
Mg	  3.980000000000 	  3.980000000000 	  0.000000000000 	
Mg	  4.980000000000 	  3.980000000000 	  2.980000000000 	
Mg	  1.715825511710 	  1.807217007807 	  0.000000000000 	
Mg	  2.715825511710 	  1.807217007807 	  2.980000000000 	
Mg	  1.715825511710 	  5.787217007807 	  0.000000000000 	
Mg	  2.715825511710 	  5.787217007807 	  2.980000000000 	
Mg	  5.695825511710 	  1.807217007807 	  0.000000000000 	
Mg	  6.695825511710 	  1.807217007807 	  2.980000000000 	
Mg	  5.695825511710 	  5.787217007807 	  0.000000000000 	
Mg	  6.695825511710 	  5.787217007807 	  2.980000000000 	
Mg	  2.446957480483 	  0.000000000000 	  1.533042519517 	
Mg	  3.446957480483 	  0.000000000000 	  4.513042519517 	
Mg	  2.446957480483 	  3.980000000000 	  1.533042519517 	
Mg	  3.446957480483 	  3.980000000000 	  4.513042519517 	
Mg	  6.426957480483 	  0.000000000000 	  1.533042519517 	
Mg	  7.426957480483 	  0.000000000000 	  4.513042519517 	
Mg	  6.426957480483 	  3.980000000000 	  1.533042519517 	
Mg	  7.426957480483 	  3.980000000000 	  4.513042519517 	
Mg	  0.456957480483 	  1.990000000000 	  1.533042519517 	
Mg	  1.456957480483 	  1.990000000000 	  4.513042519517 	
Mg	  0.456957480483 	  5.970000000000 	  1.533042519517 	
Mg	  1.456957480483 	  5.970000000000 	  4.513042519517 	
Mg	  4.436957480483 	  1.990000000000 	  1.533042519517 	
Mg	  5.436957480483 	  1.990000000000 	  4.513042519517 	
Mg	  4.436957480483 	  5.970000000000 	  1.533042519517 	
Mg	  5.436957480483 	  5.970000000000 	  4.513042519517 	
O	  1.990000000000 	  0.000000000000 	  0.000000000000 	
O	  2.990000000000 	  0.000000000000 	  2.980000000000 	
O	  1.990000000000 	  3.980000000000 	  0.000000000000 	
O	  2.990000000000 	  3.980000000000 	  2.980000000000 	
O	  5.970000000000 	  0.000000000000 	  0.000000000000 	
O	  6.970000000000 	  0.000000000000 	  2.980000000000 	
O	  5.970000000000 	  3.980000000000 	  0.000000000000 	
O	  6.970000000000 	  3.980000000000 	  2.980000000000 	
O	  0.000000000000 	  1.990000000000 	  0.000000000000 	
O	  1.000000000000 	  1.990000000000 	  2.980000000000 	
O	  0.000000000000 	  5.970000000000 	  0.000000000000 	
O	  1.000000000000 	  5.970000000000 	  2.980000000000 	
O	  3.980000000000 	  1.990000000000 	  0.000000000000 	
O	  4.980000000000 	  1.990000000000 	  2.980000000000 	
O	  3.980000000000 	  5.970000000000 	  0.000000000000 	
O	  4.980000000000 	  5.970000000000 	  2.980000000000 	
O	  0.456957480483 	  0.000000000000 	  1.533042519517 	
O	  1.456957480483 	  0.000000000000 	  4.513042519517 	
O	  0.456957480483 	  3.980000000000 	  1.533042519517 	
O	  1.456957480483 	  3.980000000000 	  4.513042519517 	
O	  4.436957480483 	  0.000000000000 	  1.533042519517 	
O	  5.436957480483 	  0.000000000000 	  4.513042519517 	
O	  4.436957480483 	  3.980000000000 	  1.533042519517 	
O	  5.436957480483 	  3.980000000000 	  4.513042519517 	
O	  2.812523464869 	  1.389557870646 	  1.533042519517 	
O	  3.812523464869 	  1.389557870646 	  4.513042519517 	
O	  2.812523464869 	  5.369557870646 	  1.533042519517 	
O	  3.812523464869 	  5.369557870646 	  4.513042519517 	
O	  6.792523464869 	  1.389557870646 	  1.533042519517 	
O	  7.792523464869 	  1.389557870646 	  4.513042519517 	
O	  6.792523464869 	  5.369557870646 	  1.533042519517 	
O	  7.792523464869 	  5.369557870646 	  4.513042519517 	
64 
Energy: 2.6541395205220448e+00 
Mg	  0.000000000000 	  0.000000000000 	  0.000000000000 	
Mg	  1.000000000000 	  0.000000000000 	  2.980000000000 	
Mg	  0.000000000000 	  3.980000000000 	  0.000000000000 	
Mg	  1.000000000000 	  3.980000000000 	  2.980000000000 	
Mg	  3.980000000000 	  0.000000000000 	  0.000000000000 	
Mg	  4.980000000000 	  0.000000000000 	  2.980000000000 	
Mg	  3.980000000000 	  3.980000000000 	  0.000000000000 	
Mg	  4.980000000000 	  3.980000000000 	  2.980000000000 	
Mg	  1.741008004321 	  1.826869006615 	  0.000000000000 	
Mg	  2.741008004321 	  1.826869006615 	  2.980000000000 	
Mg	  1.741008004321 	  5.806869006615 	  0.000000000000 	
Mg	  2.741008004321 	  5.806869006615 	  2.980000000000 	
Mg	  5.721008004321 	  1.826869006615 	  0.000000000000 	
Mg	  6.721008004321 	  1.826869006615 	  2.980000000000 	
Mg	  5.721008004321 	  5.806869006615 	  0.000000000000 	
Mg	  6.721008004321 	  5.806869006615 	  2.980000000000 	
Mg	  2.427896022678 	  0.000000000000 	  1.569285999731 	
Mg	  3.427896022678 	  0.000000000000 	  4.549285999731 	
Mg	  2.427896022678 	  3.980000000000 	  1.569285999731 	
Mg	  3.427896022678 	  3.980000000000 	  4.549285999731 	
Mg	  6.407896022678 	  0.000000000000 	  1.569285999731 	
Mg	  7.407896022678 	  0.000000000000 	  4.549285999731 	
Mg	  6.407896022678 	  3.980000000000 	  1.569285999731 	
Mg	  7.407896022678 	  3.980000000000 	  4.549285999731 	
Mg	  0.429305011474 	  1.998591011205 	  1.569285999731 	
Mg	  1.429305011474 	  1.998591011205 	  4.549285999731 	
Mg	  0.429305011474 	  5.978591011205 	  1.569285999731 	
Mg	  1.429305011474 	  5.978591011205 	  4.549285999731 	
Mg	  4.409305011474 	  1.998591011205 	  1.569285999731 	
Mg	  5.409305011474 	  1.998591011205 	  4.549285999731 	
Mg	  4.409305011474 	  5.978591011205 	  1.569285999731 	
Mg	  5.409305011474 	  5.978591011205 	  4.549285999731 	
O	  1.998591011205 	  0.000000000000 	  0.000000000000 	
O	  2.998591011205 	  0.000000000000 	  2.980000000000 	
O	  1.998591011205 	  3.980000000000 	  0.000000000000 	
O	  2.998591011205 	  3.980000000000 	  2.980000000000 	
O	  5.978591011205 	  0.000000000000 	  0.000000000000 	
O	  6.978591011205 	  0.000000000000 	  2.980000000000 	
O	  5.978591011205 	  3.980000000000 	  0.000000000000 	
O	  6.978591011205 	  3.980000000000 	  2.980000000000 	
O	  0.000000000000 	  1.998591011205 	  0.000000000000 	
O	  1.000000000000 	  1.998591011205 	  2.980000000000 	
O	  0.000000000000 	  5.978591011205 	  0.000000000000 	
O	  1.000000000000 	  5.978591011205 	  2.980000000000 	
O	  3.980000000000 	  1.998591011205 	  0.000000000000 	
O	  4.980000000000 	  1.998591011205 	  2.980000000000 	
O	  3.980000000000 	  5.978591011205 	  0.000000000000 	
O	  4.980000000000 	  5.978591011205 	  2.980000000000 	
O	  0.429305011474 	  0.000000000000 	  1.569285999731 	
O	  1.429305011474 	  0.000000000000 	  4.549285999731 	
O	  0.429305011474 	  3.980000000000 	  1.569285999731 	
O	  1.429305011474 	  3.980000000000 	  4.549285999731 	
O	  4.409305011474 	  0.000000000000 	  1.569285999731 	
O	  5.409305011474 	  0.000000000000 	  4.549285999731 	
O	  4.409305011474 	  3.980000000000 	  1.569285999731 	
O	  5.409305011474 	  3.980000000000 	  4.549285999731 	
O	  2.771340031857 	  1.434484226128 	  1.569285999731 	
O	  3.771340031857 	  1.434484226128 	  4.549285999731 	
O	  2.771340031857 	  5.414484226128 	  1.569285999731 	
O	  3.771340031857 	  5.414484226128 	  4.549285999731 	
O	  6.751340031857 	  1.434484226128 	  1.569285999731 	
O	  7.751340031857 	  1.434484226128 	  4.549285999731 	
O	  6.751340031857 	  5.414484226128 	  1.569285999731 	
O	  7.751340031857 	  5.414484226128 	  4.549285999731 	
64 
Energy: 3.1365491050112677e+00 
Mg	  0.000000000000 	  0.000000000000 	  0.000000000000 	
Mg	  1.000000000000 	  0.000000000000 	  2.980000000000 	
Mg	  0.000000000000 	  3.980000000000 	  0.000000000000 	
Mg	  1.000000000000 	  3.980000000000 	  2.980000000000 	
Mg	  3.980000000000 	  0.000000000000 	  0.000000000000 	
Mg	  4.980000000000 	  0.000000000000 	  2.980000000000 	
Mg	  3.980000000000 	  3.980000000000 	  0.000000000000 	
Mg	  4.980000000000 	  3.980000000000 	  2.980000000000 	
Mg	  1.766531998878 	  1.846678862772 	  0.000000000000 	
Mg	  2.766531998878 	  1.846678862772 	  2.980000000000 	
Mg	  1.766531998878 	  5.826678862772 	  0.000000000000 	
Mg	  2.766531998878 	  5.826678862772 	  2.980000000000 	
Mg	  5.746531998878 	  1.846678862772 	  0.000000000000 	
Mg	  6.746531998878 	  1.846678862772 	  2.980000000000 	
Mg	  5.746531998878 	  5.826678862772 	  0.000000000000 	
Mg	  6.746531998878 	  5.826678862772 	  2.980000000000 	
Mg	  2.407706910031 	  0.000000000000 	  1.606238271090 	
Mg	  3.407706910031 	  0.000000000000 	  4.586238271090 	
Mg	  2.407706910031 	  3.980000000000 	  1.606238271090 	
Mg	  3.407706910031 	  3.980000000000 	  4.586238271090 	
Mg	  6.387706910031 	  0.000000000000 	  1.606238271090 	
Mg	  7.387706910031 	  0.000000000000 	  4.586238271090 	
Mg	  6.387706910031 	  3.980000000000 	  1.606238271090 	
Mg	  7.387706910031 	  3.980000000000 	  4.586238271090 	
Mg	  0.400734319471 	  2.006972590561 	  1.606238271090 	
Mg	  1.400734319471 	  2.006972590561 	  4.586238271090 	
Mg	  0.400734319471 	  5.986972590561 	  1.606238271090 	
Mg	  1.400734319471 	  5.986972590561 	  4.586238271090 	
Mg	  4.380734319471 	  2.006972590561 	  1.606238271090 	
Mg	  5.380734319471 	  2.006972590561 	  4.586238271090 	
Mg	  4.380734319471 	  5.986972590561 	  1.606238271090 	
Mg	  5.380734319471 	  5.986972590561 	  4.586238271090 	
O	  2.006972590561 	  0.000000000000 	  0.000000000000 	
O	  3.006972590561 	  0.000000000000 	  2.980000000000 	
O	  2.006972590561 	  3.980000000000 	  0.000000000000 	
O	  3.006972590561 	  3.980000000000 	  2.980000000000 	
O	  5.986972590561 	  0.000000000000 	  0.000000000000 	
O	  6.986972590561 	  0.000000000000 	  2.980000000000 	
O	  5.986972590561 	  3.980000000000 	  0.000000000000 	
O	  6.986972590561 	  3.980000000000 	  2.980000000000 	
O	  0.000000000000 	  2.006972590561 	  0.000000000000 	
O	  1.000000000000 	  2.006972590561 	  2.980000000000 	
O	  0.000000000000 	  5.986972590561 	  0.000000000000 	
O	  1.000000000000 	  5.986972590561 	  2.980000000000 	
O	  3.980000000000 	  2.006972590561 	  0.000000000000 	
O	  4.980000000000 	  2.006972590561 	  2.980000000000 	
O	  3.980000000000 	  5.986972590561 	  0.000000000000 	
O	  4.980000000000 	  5.986972590561 	  2.980000000000 	
O	  0.400734319471 	  0.000000000000 	  1.606238271090 	
O	  1.400734319471 	  0.000000000000 	  4.586238271090 	
O	  0.400734319471 	  3.980000000000 	  1.606238271090 	
O	  1.400734319471 	  3.980000000000 	  4.586238271090 	
O	  4.380734319471 	  0.000000000000 	  1.606238271090 	
O	  5.380734319471 	  0.000000000000 	  4.586238271090 	
O	  4.380734319471 	  3.980000000000 	  1.606238271090 	
O	  5.380734319471 	  3.980000000000 	  4.586238271090 	
O	  2.728294365608 	  1.480407694776 	  1.606238271090 	
O	  3.728294365608 	  1.480407694776 	  4.586238271090 	
O	  2.728294365608 	  5.460407694776 	  1.606238271090 	
O	  3.728294365608 	  5.460407694776 	  4.586238271090 	
O	  6.708294365608 	  1.480407694776 	  1.606238271090 	
O	  7.708294365608 	  1.480407694776 	  4.586238271090 	
O	  6.708294365608 	  5.460407694776 	  1.606238271090 	
O	  7.708294365608 	  5.460407694776 	  4.586238271090 	
64 
Energy: 3.8008429870820546e+00 
Mg	  0.000000000000 	  0.000000000000 	  0.000000000000 	
Mg	  1.000000000000 	  0.000000000000 	  2.980000000000 	
Mg	  0.000000000000 	  3.980000000000 	  0.000000000000 	
Mg	  1.000000000000 	  3.980000000000 	  2.980000000000 	
Mg	  3.980000000000 	  0.000000000000 	  0.000000000000 	
Mg	  4.980000000000 	  0.000000000000 	  2.980000000000 	
Mg	  3.980000000000 	  3.980000000000 	  0.000000000000 	
Mg	  4.980000000000 	  3.980000000000 	  2.980000000000 	
Mg	  1.792097284833 	  1.866523773695 	  0.000000000000 	
Mg	  2.792097284833 	  1.866523773695 	  2.980000000000 	
Mg	  1.792097284833 	  5.846523773695 	  0.000000000000 	
Mg	  2.792097284833 	  5.846523773695 	  2.980000000000 	
Mg	  5.772097284833 	  1.866523773695 	  0.000000000000 	
Mg	  6.772097284833 	  1.866523773695 	  2.980000000000 	
Mg	  5.772097284833 	  5.846523773695 	  0.000000000000 	
Mg	  6.772097284833 	  5.846523773695 	  2.980000000000 	
Mg	  2.387509195730 	  0.000000000000 	  1.643244307108 	
Mg	  3.387509195730 	  0.000000000000 	  4.623244307108 	
Mg	  2.387509195730 	  3.980000000000 	  1.643244307108 	
Mg	  3.387509195730 	  3.980000000000 	  4.623244307108 	
Mg	  6.367509195730 	  0.000000000000 	  1.643244307108 	
Mg	  7.367509195730 	  0.000000000000 	  4.623244307108 	
Mg	  6.367509195730 	  3.980000000000 	  1.643244307108 	
Mg	  7.367509195730 	  3.980000000000 	  4.623244307108 	
Mg	  0.372132444311 	  2.015376751419 	  1.643244307108 	
Mg	  1.372132444311 	  2.015376751419 	  4.623244307108 	
Mg	  0.372132444311 	  5.995376751419 	  1.643244307108 	
Mg	  1.372132444311 	  5.995376751419 	  4.623244307108 	
Mg	  4.352132444311 	  2.015376751419 	  1.643244307108 	
Mg	  5.352132444311 	  2.015376751419 	  4.623244307108 	
Mg	  4.352132444311 	  5.995376751419 	  1.643244307108 	
Mg	  5.352132444311 	  5.995376751419 	  4.623244307108 	
O	  2.015376751419 	  0.000000000000 	  0.000000000000 	
O	  3.015376751419 	  0.000000000000 	  2.980000000000 	
O	  2.015376751419 	  3.980000000000 	  0.000000000000 	
O	  3.015376751419 	  3.980000000000 	  2.980000000000 	
O	  5.995376751419 	  0.000000000000 	  0.000000000000 	
O	  6.995376751419 	  0.000000000000 	  2.980000000000 	
O	  5.995376751419 	  3.980000000000 	  0.000000000000 	
O	  6.995376751419 	  3.980000000000 	  2.980000000000 	
O	  0.000000000000 	  2.015376751419 	  0.000000000000 	
O	  1.000000000000 	  2.015376751419 	  2.980000000000 	
O	  0.000000000000 	  5.995376751419 	  0.000000000000 	
O	  1.000000000000 	  5.995376751419 	  2.980000000000 	
O	  3.980000000000 	  2.015376751419 	  0.000000000000 	
O	  4.980000000000 	  2.015376751419 	  2.980000000000 	
O	  3.980000000000 	  5.995376751419 	  0.000000000000 	
O	  4.980000000000 	  5.995376751419 	  2.980000000000 	
O	  0.372132444311 	  0.000000000000 	  1.643244307108 	
O	  1.372132444311 	  0.000000000000 	  4.623244307108 	
O	  0.372132444311 	  3.980000000000 	  1.643244307108 	
O	  1.372132444311 	  3.980000000000 	  4.623244307108 	
O	  4.352132444311 	  0.000000000000 	  1.643244307108 	
O	  5.352132444311 	  0.000000000000 	  4.623244307108 	
O	  4.352132444311 	  3.980000000000 	  1.643244307108 	
O	  5.352132444311 	  3.980000000000 	  4.623244307108 	
O	  2.685215151178 	  1.526394719595 	  1.643244307108 	
O	  3.685215151178 	  1.526394719595 	  4.623244307108 	
O	  2.685215151178 	  5.506394719595 	  1.643244307108 	
O	  3.685215151178 	  5.506394719595 	  4.623244307108 	
O	  6.665215151178 	  1.526394719595 	  1.643244307108 	
O	  7.665215151178 	  1.526394719595 	  4.623244307108 	
O	  6.665215151178 	  5.506394719595 	  1.643244307108 	
O	  7.665215151178 	  5.506394719595 	  4.623244307108 	
64 
Energy: 4.4765249136247061e+00 
Mg	  0.000000000000 	  0.000000000000 	  0.000000000000 	
Mg	  1.000000000000 	  0.000000000000 	  2.980000000000 	
Mg	  0.000000000000 	  3.980000000000 	  0.000000000000 	
Mg	  1.000000000000 	  3.980000000000 	  2.980000000000 	
Mg	  3.980000000000 	  0.000000000000 	  0.000000000000 	
Mg	  4.980000000000 	  0.000000000000 	  2.980000000000 	
Mg	  3.980000000000 	  3.980000000000 	  0.000000000000 	
Mg	  4.980000000000 	  3.980000000000 	  2.980000000000 	
Mg	  1.817704417919 	  1.886403978290 	  0.000000000000 	
Mg	  2.817704417919 	  1.886403978290 	  2.980000000000 	
Mg	  1.817704417919 	  5.866403978290 	  0.000000000000 	
Mg	  2.817704417919 	  5.866403978290 	  2.980000000000 	
Mg	  5.797704417919 	  1.886403978290 	  0.000000000000 	
Mg	  6.797704417919 	  1.886403978290 	  2.980000000000 	
Mg	  5.797704417919 	  5.866403978290 	  0.000000000000 	
Mg	  6.797704417919 	  5.866403978290 	  2.980000000000 	
Mg	  2.367300900893 	  0.000000000000 	  1.680305297175 	
Mg	  3.367300900893 	  0.000000000000 	  4.660305297175 	
Mg	  2.367300900893 	  3.980000000000 	  1.680305297175 	
Mg	  3.367300900893 	  3.980000000000 	  4.660305297175 	
Mg	  6.347300900893 	  0.000000000000 	  1.680305297175 	
Mg	  7.347300900893 	  0.000000000000 	  4.660305297175 	
Mg	  6.347300900893 	  3.980000000000 	  1.680305297175 	
Mg	  7.347300900893 	  3.980000000000 	  4.660305297175 	
Mg	  0.343497801859 	  2.023803099034 	  1.680305297175 	
Mg	  1.343497801859 	  2.023803099034 	  4.660305297175 	
Mg	  0.343497801859 	  6.003803099034 	  1.680305297175 	
Mg	  1.343497801859 	  6.003803099034 	  4.660305297175 	
Mg	  4.323497801859 	  2.023803099034 	  1.680305297175 	
Mg	  5.323497801859 	  2.023803099034 	  4.660305297175 	
Mg	  4.323497801859 	  6.003803099034 	  1.680305297175 	
Mg	  5.323497801859 	  6.003803099034 	  4.660305297175 	
O	  2.023803099034 	  0.000000000000 	  0.000000000000 	
O	  3.023803099034 	  0.000000000000 	  2.980000000000 	
O	  2.023803099034 	  3.980000000000 	  0.000000000000 	
O	  3.023803099034 	  3.980000000000 	  2.980000000000 	
O	  6.003803099034 	  0.000000000000 	  0.000000000000 	
O	  7.003803099034 	  0.000000000000 	  2.980000000000 	
O	  6.003803099034 	  3.980000000000 	  0.000000000000 	
O	  7.003803099034 	  3.980000000000 	  2.980000000000 	
O	  0.000000000000 	  2.023803099034 	  0.000000000000 	
O	  1.000000000000 	  2.023803099034 	  2.980000000000 	
O	  0.000000000000 	  6.003803099034 	  0.000000000000 	
O	  1.000000000000 	  6.003803099034 	  2.980000000000 	
O	  3.980000000000 	  2.023803099034 	  0.000000000000 	
O	  4.980000000000 	  2.023803099034 	  2.980000000000 	
O	  3.980000000000 	  6.003803099034 	  0.000000000000 	
O	  4.980000000000 	  6.003803099034 	  2.980000000000 	
O	  0.343497801859 	  0.000000000000 	  1.680305297175 	
O	  1.343497801859 	  0.000000000000 	  4.660305297175 	
O	  0.343497801859 	  3.980000000000 	  1.680305297175 	
O	  1.343497801859 	  3.980000000000 	  4.660305297175 	
O	  4.323497801859 	  0.000000000000 	  1.680305297175 	
O	  5.323497801859 	  0.000000000000 	  4.660305297175 	
O	  4.323497801859 	  3.980000000000 	  1.680305297175 	
O	  5.323497801859 	  3.980000000000 	  4.660305297175 	
O	  2.642099142380 	  1.572446987391 	  1.680305297175 	
O	  3.642099142380 	  1.572446987391 	  4.660305297175 	
O	  2.642099142380 	  5.552446987391 	  1.680305297175 	
O	  3.642099142380 	  5.552446987391 	  4.660305297175 	
O	  6.622099142380 	  1.572446987391 	  1.680305297175 	
O	  7.622099142380 	  1.572446987391 	  4.660305297175 	
O	  6.622099142380 	  5.552446987391 	  1.680305297175 	
O	  7.622099142380 	  5.552446987391 	  4.660305297175 	
64 
Energy: 5.0587067906033534e+00 
Mg	  0.000000000000 	  0.000000000000 	  0.000000000000 	
Mg	  1.000000000000 	  0.000000000000 	  2.980000000000 	
Mg	  0.000000000000 	  3.980000000000 	  0.000000000000 	
Mg	  1.000000000000 	  3.980000000000 	  2.980000000000 	
Mg	  3.980000000000 	  0.000000000000 	  0.000000000000 	
Mg	  4.980000000000 	  0.000000000000 	  2.980000000000 	
Mg	  3.980000000000 	  3.980000000000 	  0.000000000000 	
Mg	  4.980000000000 	  3.980000000000 	  2.980000000000 	
Mg	  1.843338369538 	  1.906307188545 	  0.000000000000 	
Mg	  2.843338369538 	  1.906307188545 	  2.980000000000 	
Mg	  1.843338369538 	  5.886307188545 	  0.000000000000 	
Mg	  2.843338369538 	  5.886307188545 	  2.980000000000 	
Mg	  5.823338369538 	  1.906307188545 	  0.000000000000 	
Mg	  6.823338369538 	  1.906307188545 	  2.980000000000 	
Mg	  5.823338369538 	  5.886307188545 	  0.000000000000 	
Mg	  6.823338369538 	  5.886307188545 	  2.980000000000 	
Mg	  2.347088921594 	  0.000000000000 	  1.717400731523 	
Mg	  3.347088921594 	  0.000000000000 	  4.697400731523 	
Mg	  2.347088921594 	  3.980000000000 	  1.717400731523 	
Mg	  3.347088921594 	  3.980000000000 	  4.697400731523 	
Mg	  6.327088921594 	  0.000000000000 	  1.717400731523 	
Mg	  7.327088921594 	  0.000000000000 	  4.697400731523 	
Mg	  6.327088921594 	  3.980000000000 	  1.717400731523 	
Mg	  7.327088921594 	  3.980000000000 	  4.697400731523 	
Mg	  0.314844095035 	  2.032244826559 	  1.717400731523 	
Mg	  1.314844095035 	  2.032244826559 	  4.697400731523 	
Mg	  0.314844095035 	  6.012244826559 	  1.717400731523 	
Mg	  1.314844095035 	  6.012244826559 	  4.697400731523 	
Mg	  4.294844095035 	  2.032244826559 	  1.717400731523 	
Mg	  5.294844095035 	  2.032244826559 	  4.697400731523 	
Mg	  4.294844095035 	  6.012244826559 	  1.717400731523 	
Mg	  5.294844095035 	  6.012244826559 	  4.697400731523 	
O	  2.032244826559 	  0.000000000000 	  0.000000000000 	
O	  3.032244826559 	  0.000000000000 	  2.980000000000 	
O	  2.032244826559 	  3.980000000000 	  0.000000000000 	
O	  3.032244826559 	  3.980000000000 	  2.980000000000 	
O	  6.012244826559 	  0.000000000000 	  0.000000000000 	
O	  7.012244826559 	  0.000000000000 	  2.980000000000 	
O	  6.012244826559 	  3.980000000000 	  0.000000000000 	
O	  7.012244826559 	  3.980000000000 	  2.980000000000 	
O	  0.000000000000 	  2.032244826559 	  0.000000000000 	
O	  1.000000000000 	  2.032244826559 	  2.980000000000 	
O	  0.000000000000 	  6.012244826559 	  0.000000000000 	
O	  1.000000000000 	  6.012244826559 	  2.980000000000 	
O	  3.980000000000 	  2.032244826559 	  0.000000000000 	
O	  4.980000000000 	  2.032244826559 	  2.980000000000 	
O	  3.980000000000 	  6.012244826559 	  0.000000000000 	
O	  4.980000000000 	  6.012244826559 	  2.980000000000 	
O	  0.314844095035 	  0.000000000000 	  1.717400731523 	
O	  1.314844095035 	  0.000000000000 	  4.697400731523 	
O	  0.314844095035 	  3.980000000000 	  1.717400731523 	
O	  1.314844095035 	  3.980000000000 	  4.697400731523 	
O	  4.294844095035 	  0.000000000000 	  1.717400731523 	
O	  5.294844095035 	  0.000000000000 	  4.697400731523 	
O	  4.294844095035 	  3.980000000000 	  1.717400731523 	
O	  5.294844095035 	  3.980000000000 	  4.697400731523 	
O	  2.598964197623 	  1.618539685682 	  1.717400731523 	
O	  3.598964197623 	  1.618539685682 	  4.697400731523 	
O	  2.598964197623 	  5.598539685682 	  1.717400731523 	
O	  3.598964197623 	  5.598539685682 	  4.697400731523 	
O	  6.578964197623 	  1.618539685682 	  1.717400731523 	
O	  7.578964197623 	  1.618539685682 	  4.697400731523 	
O	  6.578964197623 	  5.598539685682 	  1.717400731523 	
O	  7.578964197623 	  5.598539685682 	  4.697400731523 	
64 
Energy: 5.4747794888976831e+00 
Mg	  0.000000000000 	  0.000000000000 	  0.000000000000 	
Mg	  1.000000000000 	  0.000000000000 	  2.980000000000 	
Mg	  0.000000000000 	  3.980000000000 	  0.000000000000 	
Mg	  1.000000000000 	  3.980000000000 	  2.980000000000 	
Mg	  3.980000000000 	  0.000000000000 	  0.000000000000 	
Mg	  4.980000000000 	  0.000000000000 	  2.980000000000 	
Mg	  3.980000000000 	  3.980000000000 	  0.000000000000 	
Mg	  4.980000000000 	  3.980000000000 	  2.980000000000 	
Mg	  1.868991875516 	  1.926226869533 	  0.000000000000 	
Mg	  2.868991875516 	  1.926226869533 	  2.980000000000 	
Mg	  1.868991875516 	  5.906226869533 	  0.000000000000 	
Mg	  2.868991875516 	  5.906226869533 	  2.980000000000 	
Mg	  5.848991875516 	  1.926226869533 	  0.000000000000 	
Mg	  6.848991875516 	  1.926226869533 	  2.980000000000 	
Mg	  5.848991875516 	  5.906226869533 	  0.000000000000 	
Mg	  6.848991875516 	  5.906226869533 	  2.980000000000 	
Mg	  2.326871827648 	  0.000000000000 	  1.754521887483 	
Mg	  3.326871827648 	  0.000000000000 	  4.734521887483 	
Mg	  2.326871827648 	  3.980000000000 	  1.754521887483 	
Mg	  3.326871827648 	  3.980000000000 	  4.734521887483 	
Mg	  6.306871827648 	  0.000000000000 	  1.754521887483 	
Mg	  7.306871827648 	  0.000000000000 	  4.734521887483 	
Mg	  6.306871827648 	  3.980000000000 	  1.754521887483 	
Mg	  7.306871827648 	  3.980000000000 	  4.734521887483 	
Mg	  0.286174970083 	  2.040696857566 	  1.754521887483 	
Mg	  1.286174970083 	  2.040696857566 	  4.734521887483 	
Mg	  0.286174970083 	  6.020696857566 	  1.754521887483 	
Mg	  1.286174970083 	  6.020696857566 	  4.734521887483 	
Mg	  4.266174970083 	  2.040696857566 	  1.754521887483 	
Mg	  5.266174970083 	  2.040696857566 	  4.734521887483 	
Mg	  4.266174970083 	  6.020696857566 	  1.754521887483 	
Mg	  5.266174970083 	  6.020696857566 	  4.734521887483 	
O	  2.040696857566 	  0.000000000000 	  0.000000000000 	
O	  3.040696857566 	  0.000000000000 	  2.980000000000 	
O	  2.040696857566 	  3.980000000000 	  0.000000000000 	
O	  3.040696857566 	  3.980000000000 	  2.980000000000 	
O	  6.020696857566 	  0.000000000000 	  0.000000000000 	
O	  7.020696857566 	  0.000000000000 	  2.980000000000 	
O	  6.020696857566 	  3.980000000000 	  0.000000000000 	
O	  7.020696857566 	  3.980000000000 	  2.980000000000 	
O	  0.000000000000 	  2.040696857566 	  0.000000000000 	
O	  1.000000000000 	  2.040696857566 	  2.980000000000 	
O	  0.000000000000 	  6.020696857566 	  0.000000000000 	
O	  1.000000000000 	  6.020696857566 	  2.980000000000 	
O	  3.980000000000 	  2.040696857566 	  0.000000000000 	
O	  4.980000000000 	  2.040696857566 	  2.980000000000 	
O	  3.980000000000 	  6.020696857566 	  0.000000000000 	
O	  4.980000000000 	  6.020696857566 	  2.980000000000 	
O	  0.286174970083 	  0.000000000000 	  1.754521887483 	
O	  1.286174970083 	  0.000000000000 	  4.734521887483 	
O	  0.286174970083 	  3.980000000000 	  1.754521887483 	
O	  1.286174970083 	  3.980000000000 	  4.734521887483 	
O	  4.266174970083 	  0.000000000000 	  1.754521887483 	
O	  5.266174970083 	  0.000000000000 	  4.734521887483 	
O	  4.266174970083 	  3.980000000000 	  1.754521887483 	
O	  5.266174970083 	  3.980000000000 	  4.734521887483 	
O	  2.555811803715 	  1.664662946877 	  1.754521887483 	
O	  3.555811803715 	  1.664662946877 	  4.734521887483 	
O	  2.555811803715 	  5.644662946877 	  1.754521887483 	
O	  3.555811803715 	  5.644662946877 	  4.734521887483 	
O	  6.535811803715 	  1.664662946877 	  1.754521887483 	
O	  7.535811803715 	  1.664662946877 	  4.734521887483 	
O	  6.535811803715 	  5.644662946877 	  1.754521887483 	
O	  7.535811803715 	  5.644662946877 	  4.734521887483 	
64 
Energy: 5.6788932411615871e+00 
Mg	  0.000000000000 	  0.000000000000 	  0.000000000000 	
Mg	  1.000000000000 	  0.000000000000 	  2.980000000000 	
Mg	  0.000000000000 	  3.980000000000 	  0.000000000000 	
Mg	  1.000000000000 	  3.980000000000 	  2.980000000000 	
Mg	  3.980000000000 	  0.000000000000 	  0.000000000000 	
Mg	  4.980000000000 	  0.000000000000 	  2.980000000000 	
Mg	  3.980000000000 	  3.980000000000 	  0.000000000000 	
Mg	  4.980000000000 	  3.980000000000 	  2.980000000000 	
Mg	  1.894655012585 	  1.946154869595 	  0.000000000000 	
Mg	  2.894655012585 	  1.946154869595 	  2.980000000000 	
Mg	  1.894655012585 	  5.926154869595 	  0.000000000000 	
Mg	  2.894655012585 	  5.926154869595 	  2.980000000000 	
Mg	  5.874655012585 	  1.946154869595 	  0.000000000000 	
Mg	  6.874655012585 	  1.946154869595 	  2.980000000000 	
Mg	  5.874655012585 	  5.926154869595 	  0.000000000000 	
Mg	  6.874655012585 	  5.926154869595 	  2.980000000000 	
Mg	  2.306653868667 	  0.000000000000 	  1.791655298564 	
Mg	  3.306653868667 	  0.000000000000 	  4.771655298564 	
Mg	  2.306653868667 	  3.980000000000 	  1.791655298564 	
Mg	  3.306653868667 	  3.980000000000 	  4.771655298564 	
Mg	  6.286653868667 	  0.000000000000 	  1.791655298564 	
Mg	  7.286653868667 	  0.000000000000 	  4.771655298564 	
Mg	  6.286653868667 	  3.980000000000 	  1.791655298564 	
Mg	  7.286653868667 	  3.980000000000 	  4.771655298564 	
Mg	  0.257499285051 	  2.049154583615 	  1.791655298564 	
Mg	  1.257499285051 	  2.049154583615 	  4.771655298564 	
Mg	  0.257499285051 	  6.029154583615 	  1.791655298564 	
Mg	  1.257499285051 	  6.029154583615 	  4.771655298564 	
Mg	  4.237499285051 	  2.049154583615 	  1.791655298564 	
Mg	  5.237499285051 	  2.049154583615 	  4.771655298564 	
Mg	  4.237499285051 	  6.029154583615 	  1.791655298564 	
Mg	  5.237499285051 	  6.029154583615 	  4.771655298564 	
O	  2.049154583615 	  0.000000000000 	  0.000000000000 	
O	  3.049154583615 	  0.000000000000 	  2.980000000000 	
O	  2.049154583615 	  3.980000000000 	  0.000000000000 	
O	  3.049154583615 	  3.980000000000 	  2.980000000000 	
O	  6.029154583615 	  0.000000000000 	  0.000000000000 	
O	  7.029154583615 	  0.000000000000 	  2.980000000000 	
O	  6.029154583615 	  3.980000000000 	  0.000000000000 	
O	  7.029154583615 	  3.980000000000 	  2.980000000000 	
O	  0.000000000000 	  2.049154583615 	  0.000000000000 	
O	  1.000000000000 	  2.049154583615 	  2.980000000000 	
O	  0.000000000000 	  6.029154583615 	  0.000000000000 	
O	  1.000000000000 	  6.029154583615 	  2.980000000000 	
O	  3.980000000000 	  2.049154583615 	  0.000000000000 	
O	  4.980000000000 	  2.049154583615 	  2.980000000000 	
O	  3.980000000000 	  6.029154583615 	  0.000000000000 	
O	  4.980000000000 	  6.029154583615 	  2.980000000000 	
O	  0.257499285051 	  0.000000000000 	  1.791655298564 	
O	  1.257499285051 	  0.000000000000 	  4.771655298564 	
O	  0.257499285051 	  3.980000000000 	  1.791655298564 	
O	  1.257499285051 	  3.980000000000 	  4.771655298564 	
O	  4.237499285051 	  0.000000000000 	  1.791655298564 	
O	  5.237499285051 	  0.000000000000 	  4.771655298564 	
O	  4.237499285051 	  3.980000000000 	  1.791655298564 	
O	  5.237499285051 	  3.980000000000 	  4.771655298564 	
O	  2.512653296707 	  1.710800523058 	  1.791655298564 	
O	  3.512653296707 	  1.710800523058 	  4.771655298564 	
O	  2.512653296707 	  5.690800523058 	  1.791655298564 	
O	  3.512653296707 	  5.690800523058 	  4.771655298564 	
O	  6.492653296707 	  1.710800523058 	  1.791655298564 	
O	  7.492653296707 	  1.710800523058 	  4.771655298564 	
O	  6.492653296707 	  5.690800523058 	  1.791655298564 	
O	  7.492653296707 	  5.690800523058 	  4.771655298564 	
64 
Energy: 5.6429730094784052e+00 
Mg	  0.000000000000 	  0.000000000000 	  0.000000000000 	
Mg	  1.000000000000 	  0.000000000000 	  2.980000000000 	
Mg	  0.000000000000 	  3.980000000000 	  0.000000000000 	
Mg	  1.000000000000 	  3.980000000000 	  2.980000000000 	
Mg	  3.980000000000 	  0.000000000000 	  0.000000000000 	
Mg	  4.980000000000 	  0.000000000000 	  2.980000000000 	
Mg	  3.980000000000 	  3.980000000000 	  0.000000000000 	
Mg	  4.980000000000 	  3.980000000000 	  2.980000000000 	
Mg	  1.920320062798 	  1.966084325793 	  0.000000000000 	
Mg	  2.920320062797 	  1.966084325793 	  2.980000000000 	
Mg	  1.920320062798 	  5.946084325793 	  0.000000000000 	
Mg	  2.920320062797 	  5.946084325793 	  2.980000000000 	
Mg	  5.900320062798 	  1.966084325793 	  0.000000000000 	
Mg	  6.900320062798 	  1.966084325793 	  2.980000000000 	
Mg	  5.900320062798 	  5.946084325793 	  0.000000000000 	
Mg	  6.900320062798 	  5.946084325793 	  2.980000000000 	
Mg	  2.286434166765 	  0.000000000000 	  1.828791536806 	
Mg	  3.286434166765 	  0.000000000000 	  4.808791536806 	
Mg	  2.286434166765 	  3.980000000000 	  1.828791536806 	
Mg	  3.286434166765 	  3.980000000000 	  4.808791536806 	
Mg	  6.266434166765 	  0.000000000000 	  1.828791536806 	
Mg	  7.266434166765 	  0.000000000000 	  4.808791536806 	
Mg	  6.266434166765 	  3.980000000000 	  1.828791536806 	
Mg	  7.266434166765 	  3.980000000000 	  4.808791536806 	
Mg	  0.228821314980 	  2.057612851785 	  1.828791536806 	
Mg	  1.228821314980 	  2.057612851785 	  4.808791536806 	
Mg	  0.228821314980 	  6.037612851785 	  1.828791536806 	
Mg	  1.228821314980 	  6.037612851785 	  4.808791536806 	
Mg	  4.208821314980 	  2.057612851785 	  1.828791536806 	
Mg	  5.208821314980 	  2.057612851785 	  4.808791536806 	
Mg	  4.208821314980 	  6.037612851785 	  1.828791536806 	
Mg	  5.208821314980 	  6.037612851785 	  4.808791536806 	
O	  2.057612851785 	  0.000000000000 	  0.000000000000 	
O	  3.057612851785 	  0.000000000000 	  2.980000000000 	
O	  2.057612851785 	  3.980000000000 	  0.000000000000 	
O	  3.057612851785 	  3.980000000000 	  2.980000000000 	
O	  6.037612851785 	  0.000000000000 	  0.000000000000 	
O	  7.037612851785 	  0.000000000000 	  2.980000000000 	
O	  6.037612851785 	  3.980000000000 	  0.000000000000 	
O	  7.037612851785 	  3.980000000000 	  2.980000000000 	
O	  0.000000000000 	  2.057612851785 	  0.000000000000 	
O	  1.000000000000 	  2.057612851785 	  2.980000000000 	
O	  0.000000000000 	  6.037612851785 	  0.000000000000 	
O	  1.000000000000 	  6.037612851785 	  2.980000000000 	
O	  3.980000000000 	  2.057612851785 	  0.000000000000 	
O	  4.980000000000 	  2.057612851785 	  2.980000000000 	
O	  3.980000000000 	  6.037612851785 	  0.000000000000 	
O	  4.980000000000 	  6.037612851785 	  2.980000000000 	
O	  0.228821314980 	  0.000000000000 	  1.828791536806 	
O	  1.228821314980 	  0.000000000000 	  4.808791536806 	
O	  0.228821314980 	  3.980000000000 	  1.828791536806 	
O	  1.228821314980 	  3.980000000000 	  4.808791536806 	
O	  4.208821314980 	  0.000000000000 	  1.828791536806 	
O	  5.208821314980 	  0.000000000000 	  4.808791536806 	
O	  4.208821314980 	  3.980000000000 	  1.828791536806 	
O	  5.208821314980 	  3.980000000000 	  4.808791536806 	
O	  2.469491218749 	  1.756941643902 	  1.828791536806 	
O	  3.469491218749 	  1.756941643902 	  4.808791536806 	
O	  2.469491218749 	  5.736941643902 	  1.828791536806 	
O	  3.469491218749 	  5.736941643902 	  4.808791536806 	
O	  6.449491218749 	  1.756941643902 	  1.828791536806 	
O	  7.449491218749 	  1.756941643902 	  4.808791536806 	
O	  6.449491218749 	  5.736941643902 	  1.828791536806 	
O	  7.449491218749 	  5.736941643902 	  4.808791536806 	
64 
Energy: 5.3555479847389060e+00 
Mg	  0.000000000000 	  0.000000000000 	  0.000000000000 	
Mg	  1.000000000000 	  0.000000000000 	  2.980000000000 	
Mg	  0.000000000000 	  3.980000000000 	  0.000000000000 	
Mg	  1.000000000000 	  3.980000000000 	  2.980000000000 	
Mg	  3.980000000000 	  0.000000000000 	  0.000000000000 	
Mg	  4.980000000000 	  0.000000000000 	  2.980000000000 	
Mg	  3.980000000000 	  3.980000000000 	  0.000000000000 	
Mg	  4.980000000000 	  3.980000000000 	  2.980000000000 	
Mg	  1.945980469580 	  1.986010294254 	  0.000000000000 	
Mg	  2.945980469580 	  1.986010294254 	  2.980000000000 	
Mg	  1.945980469580 	  5.966010294254 	  0.000000000000 	
Mg	  2.945980469580 	  5.966010294254 	  2.980000000000 	
Mg	  5.925980469580 	  1.986010294254 	  0.000000000000 	
Mg	  6.925980469580 	  1.986010294254 	  2.980000000000 	
Mg	  5.925980469580 	  5.966010294254 	  0.000000000000 	
Mg	  6.925980469580 	  5.966010294254 	  2.980000000000 	
Mg	  2.266219066977 	  0.000000000000 	  1.865920820231 	
Mg	  3.266219066977 	  0.000000000000 	  4.845920820231 	
Mg	  2.266219066977 	  3.980000000000 	  1.865920820231 	
Mg	  3.266219066977 	  3.980000000000 	  4.845920820231 	
Mg	  6.246219066977 	  0.000000000000 	  1.865920820231 	
Mg	  7.246219066977 	  0.000000000000 	  4.845920820231 	
Mg	  6.246219066977 	  3.980000000000 	  1.865920820231 	
Mg	  7.246219066977 	  3.980000000000 	  4.845920820231 	
Mg	  0.200149123373 	  2.066069943604 	  1.865920820231 	
Mg	  1.200149123373 	  2.066069943604 	  4.845920820231 	
Mg	  0.200149123373 	  6.046069943604 	  1.865920820231 	
Mg	  1.200149123373 	  6.046069943604 	  4.845920820231 	
Mg	  4.180149123373 	  2.066069943604 	  1.865920820231 	
Mg	  5.180149123373 	  2.066069943604 	  4.845920820231 	
Mg	  4.180149123373 	  6.046069943604 	  1.865920820231 	
Mg	  5.180149123373 	  6.046069943604 	  4.845920820231 	
O	  2.066069943604 	  0.000000000000 	  0.000000000000 	
O	  3.066069943604 	  0.000000000000 	  2.980000000000 	
O	  2.066069943604 	  3.980000000000 	  0.000000000000 	
O	  3.066069943604 	  3.980000000000 	  2.980000000000 	
O	  6.046069943604 	  0.000000000000 	  0.000000000000 	
O	  7.046069943604 	  0.000000000000 	  2.980000000000 	
O	  6.046069943604 	  3.980000000000 	  0.000000000000 	
O	  7.046069943604 	  3.980000000000 	  2.980000000000 	
O	  0.000000000000 	  2.066069943604 	  0.000000000000 	
O	  1.000000000000 	  2.066069943604 	  2.980000000000 	
O	  0.000000000000 	  6.046069943604 	  0.000000000000 	
O	  1.000000000000 	  6.046069943604 	  2.980000000000 	
O	  3.980000000000 	  2.066069943604 	  0.000000000000 	
O	  4.980000000000 	  2.066069943604 	  2.980000000000 	
O	  3.980000000000 	  6.046069943604 	  0.000000000000 	
O	  4.980000000000 	  6.046069943604 	  2.980000000000 	
O	  0.200149123373 	  0.000000000000 	  1.865920820231 	
O	  1.200149123373 	  0.000000000000 	  4.845920820231 	
O	  0.200149123373 	  3.980000000000 	  1.865920820231 	
O	  1.200149123373 	  3.980000000000 	  4.845920820231 	
O	  4.180149123373 	  0.000000000000 	  1.865920820231 	
O	  5.180149123373 	  0.000000000000 	  4.845920820231 	
O	  4.180149123373 	  3.980000000000 	  1.865920820231 	
O	  5.180149123373 	  3.980000000000 	  4.845920820231 	
O	  2.426338365675 	  1.803073995491 	  1.865920820231 	
O	  3.426338365675 	  1.803073995491 	  4.845920820231 	
O	  2.426338365675 	  5.783073995491 	  1.865920820231 	
O	  3.426338365675 	  5.783073995491 	  4.845920820231 	
O	  6.406338365675 	  1.803073995491 	  1.865920820231 	
O	  7.406338365675 	  1.803073995491 	  4.845920820231 	
O	  6.406338365675 	  5.783073995491 	  1.865920820231 	
O	  7.406338365675 	  5.783073995491 	  4.845920820231 	
64 
Energy: 4.8213725662140883e+00 
Mg	  0.000000000000 	  0.000000000000 	  0.000000000000 	
Mg	  1.000000000000 	  0.000000000000 	  2.980000000000 	
Mg	  0.000000000000 	  3.980000000000 	  0.000000000000 	
Mg	  1.000000000000 	  3.980000000000 	  2.980000000000 	
Mg	  3.980000000000 	  0.000000000000 	  0.000000000000 	
Mg	  4.980000000000 	  0.000000000000 	  2.980000000000 	
Mg	  3.980000000000 	  3.980000000000 	  0.000000000000 	
Mg	  4.980000000000 	  3.980000000000 	  2.980000000000 	
Mg	  1.971629887563 	  2.005927675377 	  0.000000000000 	
Mg	  2.971629887563 	  2.005927675377 	  2.980000000000 	
Mg	  1.971629887563 	  5.985927675377 	  0.000000000000 	
Mg	  2.971629887563 	  5.985927675377 	  2.980000000000 	
Mg	  5.951629887563 	  2.005927675377 	  0.000000000000 	
Mg	  6.951629887563 	  2.005927675377 	  2.980000000000 	
Mg	  5.951629887563 	  5.985927675377 	  0.000000000000 	
Mg	  6.951629887563 	  5.985927675377 	  2.980000000000 	
Mg	  2.246012190070 	  0.000000000000 	  1.903034311936 	
Mg	  3.246012190070 	  0.000000000000 	  4.883034311936 	
Mg	  2.246012190070 	  3.980000000000 	  1.903034311936 	
Mg	  3.246012190070 	  3.980000000000 	  4.883034311936 	
Mg	  6.226012190070 	  0.000000000000 	  1.903034311936 	
Mg	  7.226012190070 	  0.000000000000 	  4.883034311936 	
Mg	  6.226012190070 	  3.980000000000 	  1.903034311936 	
Mg	  7.226012190070 	  3.980000000000 	  4.883034311936 	
Mg	  0.171488939067 	  2.074523251003 	  1.903034311936 	
Mg	  1.171488939067 	  2.074523251003 	  4.883034311936 	
Mg	  0.171488939067 	  6.054523251003 	  1.903034311936 	
Mg	  1.171488939067 	  6.054523251003 	  4.883034311936 	
Mg	  4.151488939067 	  2.074523251003 	  1.903034311936 	
Mg	  5.151488939067 	  2.074523251003 	  4.883034311936 	
Mg	  4.151488939067 	  6.054523251003 	  1.903034311936 	
Mg	  5.151488939067 	  6.054523251003 	  4.883034311936 	
O	  2.074523251003 	  0.000000000000 	  0.000000000000 	
O	  3.074523251003 	  0.000000000000 	  2.980000000000 	
O	  2.074523251003 	  3.980000000000 	  0.000000000000 	
O	  3.074523251003 	  3.980000000000 	  2.980000000000 	
O	  6.054523251003 	  0.000000000000 	  0.000000000000 	
O	  7.054523251003 	  0.000000000000 	  2.980000000000 	
O	  6.054523251003 	  3.980000000000 	  0.000000000000 	
O	  7.054523251003 	  3.980000000000 	  2.980000000000 	
O	  0.000000000000 	  2.074523251003 	  0.000000000000 	
O	  1.000000000000 	  2.074523251003 	  2.980000000000 	
O	  0.000000000000 	  6.054523251003 	  0.000000000000 	
O	  1.000000000000 	  6.054523251003 	  2.980000000000 	
O	  3.980000000000 	  2.074523251003 	  0.000000000000 	
O	  4.980000000000 	  2.074523251003 	  2.980000000000 	
O	  3.980000000000 	  6.054523251003 	  0.000000000000 	
O	  4.980000000000 	  6.054523251003 	  2.980000000000 	
O	  0.171488939067 	  0.000000000000 	  1.903034311936 	
O	  1.171488939067 	  0.000000000000 	  4.883034311936 	
O	  0.171488939067 	  3.980000000000 	  1.903034311936 	
O	  1.171488939067 	  3.980000000000 	  4.883034311936 	
O	  4.151488939067 	  0.000000000000 	  1.903034311936 	
O	  5.151488939067 	  0.000000000000 	  4.883034311936 	
O	  4.151488939067 	  3.980000000000 	  1.903034311936 	
O	  5.151488939067 	  3.980000000000 	  4.883034311936 	
O	  2.383203341324 	  1.849186785069 	  1.903034311936 	
O	  3.383203341324 	  1.849186785069 	  4.883034311936 	
O	  2.383203341324 	  5.829186785069 	  1.903034311936 	
O	  3.383203341324 	  5.829186785069 	  4.883034311936 	
O	  6.363203341324 	  1.849186785069 	  1.903034311936 	
O	  7.363203341324 	  1.849186785069 	  4.883034311936 	
O	  6.363203341324 	  5.829186785069 	  1.903034311936 	
O	  7.363203341324 	  5.829186785069 	  4.883034311936 	
64 
Energy: 4.0643679089416027e+00 
Mg	  0.000000000000 	  0.000000000000 	  0.000000000000 	
Mg	  1.000000000000 	  0.000000000000 	  2.980000000000 	
Mg	  0.000000000000 	  3.980000000000 	  0.000000000000 	
Mg	  1.000000000000 	  3.980000000000 	  2.980000000000 	
Mg	  3.980000000000 	  0.000000000000 	  0.000000000000 	
Mg	  4.980000000000 	  0.000000000000 	  2.980000000000 	
Mg	  3.980000000000 	  3.980000000000 	  0.000000000000 	
Mg	  4.980000000000 	  3.980000000000 	  2.980000000000 	
Mg	  1.997262206604 	  2.025831434032 	  0.000000000000 	
Mg	  2.997262206604 	  2.025831434032 	  2.980000000000 	
Mg	  1.997262206604 	  6.005831434032 	  0.000000000000 	
Mg	  2.997262206604 	  6.005831434032 	  2.980000000000 	
Mg	  5.977262206604 	  2.025831434032 	  0.000000000000 	
Mg	  6.977262206604 	  2.025831434032 	  2.980000000000 	
Mg	  5.977262206604 	  6.005831434032 	  0.000000000000 	
Mg	  6.977262206604 	  6.005831434032 	  2.980000000000 	
Mg	  2.225816026025 	  0.000000000000 	  1.940123751749 	
Mg	  3.225816026025 	  0.000000000000 	  4.920123751749 	
Mg	  2.225816026025 	  3.980000000000 	  1.940123751749 	
Mg	  3.225816026025 	  3.980000000000 	  4.920123751749 	
Mg	  6.205816026025 	  0.000000000000 	  1.940123751749 	
Mg	  7.205816026025 	  0.000000000000 	  4.920123751749 	
Mg	  6.205816026025 	  3.980000000000 	  1.940123751749 	
Mg	  7.205816026025 	  3.980000000000 	  4.920123751749 	
Mg	  0.142846137138 	  2.082969888887 	  1.940123751749 	
Mg	  1.142846137138 	  2.082969888887 	  4.920123751749 	
Mg	  0.142846137138 	  6.062969888887 	  1.940123751749 	
Mg	  1.142846137138 	  6.062969888887 	  4.920123751749 	
Mg	  4.122846137138 	  2.082969888887 	  1.940123751749 	
Mg	  5.122846137138 	  2.082969888887 	  4.920123751749 	
Mg	  4.122846137138 	  6.062969888887 	  1.940123751749 	
Mg	  5.122846137138 	  6.062969888887 	  4.920123751749 	
O	  2.082969888887 	  0.000000000000 	  0.000000000000 	
O	  3.082969888887 	  0.000000000000 	  2.980000000000 	
O	  2.082969888887 	  3.980000000000 	  0.000000000000 	
O	  3.082969888887 	  3.980000000000 	  2.980000000000 	
O	  6.062969888887 	  0.000000000000 	  0.000000000000 	
O	  7.062969888887 	  0.000000000000 	  2.980000000000 	
O	  6.062969888887 	  3.980000000000 	  0.000000000000 	
O	  7.062969888887 	  3.980000000000 	  2.980000000000 	
O	  0.000000000000 	  2.082969888887 	  0.000000000000 	
O	  1.000000000000 	  2.082969888887 	  2.980000000000 	
O	  0.000000000000 	  6.062969888887 	  0.000000000000 	
O	  1.000000000000 	  6.062969888887 	  2.980000000000 	
O	  3.980000000000 	  2.082969888887 	  0.000000000000 	
O	  4.980000000000 	  2.082969888887 	  2.980000000000 	
O	  3.980000000000 	  6.062969888887 	  0.000000000000 	
O	  4.980000000000 	  6.062969888887 	  2.980000000000 	
O	  0.142846137138 	  0.000000000000 	  1.940123751749 	
O	  1.142846137138 	  0.000000000000 	  4.920123751749 	
O	  0.142846137138 	  3.980000000000 	  1.940123751749 	
O	  1.142846137138 	  3.980000000000 	  4.920123751749 	
O	  4.122846137138 	  0.000000000000 	  1.940123751749 	
O	  5.122846137138 	  0.000000000000 	  4.920123751749 	
O	  4.122846137138 	  3.980000000000 	  1.940123751749 	
O	  5.122846137138 	  3.980000000000 	  4.920123751749 	
O	  2.340092935735 	  1.895270064688 	  1.940123751749 	
O	  3.340092935735 	  1.895270064688 	  4.920123751749 	
O	  2.340092935735 	  5.875270064688 	  1.940123751749 	
O	  3.340092935735 	  5.875270064688 	  4.920123751749 	
O	  6.320092935735 	  1.895270064688 	  1.940123751749 	
O	  7.320092935735 	  1.895270064688 	  4.920123751749 	
O	  6.320092935735 	  5.875270064688 	  1.940123751749 	
O	  7.320092935735 	  5.875270064688 	  4.920123751749 	
64 
Energy: 3.1331199477439688e+00 
Mg	  0.000000000000 	  0.000000000000 	  0.000000000000 	
Mg	  1.000000000000 	  0.000000000000 	  2.980000000000 	
Mg	  0.000000000000 	  3.980000000000 	  0.000000000000 	
Mg	  1.000000000000 	  3.980000000000 	  2.980000000000 	
Mg	  3.980000000000 	  0.000000000000 	  0.000000000000 	
Mg	  4.980000000000 	  0.000000000000 	  2.980000000000 	
Mg	  3.980000000000 	  3.980000000000 	  0.000000000000 	
Mg	  4.980000000000 	  3.980000000000 	  2.980000000000 	
Mg	  2.022871948143 	  2.045716939285 	  0.000000000000 	
Mg	  3.022871948143 	  2.045716939285 	  2.980000000000 	
Mg	  2.022871948143 	  6.025716939285 	  0.000000000000 	
Mg	  3.022871948143 	  6.025716939285 	  2.980000000000 	
Mg	  6.002871948143 	  2.045716939285 	  0.000000000000 	
Mg	  7.002871948143 	  2.045716939285 	  2.980000000000 	
Mg	  6.002871948143 	  6.025716939285 	  0.000000000000 	
Mg	  7.002871948143 	  6.025716939285 	  2.980000000000 	
Mg	  2.205631877283 	  0.000000000000 	  1.977181965858 	
Mg	  3.205631877283 	  0.000000000000 	  4.957181965858 	
Mg	  2.205631877283 	  3.980000000000 	  1.977181965858 	
Mg	  3.205631877283 	  3.980000000000 	  4.957181965858 	
Mg	  6.185631877283 	  0.000000000000 	  1.977181965858 	
Mg	  7.185631877283 	  0.000000000000 	  4.957181965858 	
Mg	  6.185631877283 	  3.980000000000 	  1.977181965858 	
Mg	  7.185631877283 	  3.980000000000 	  4.957181965858 	
Mg	  0.114224955713 	  2.091406921570 	  1.977181965858 	
Mg	  1.114224955713 	  2.091406921570 	  4.957181965858 	
Mg	  0.114224955713 	  6.071406921570 	  1.977181965858 	
Mg	  1.114224955713 	  6.071406921570 	  4.957181965858 	
Mg	  4.094224955713 	  2.091406921570 	  1.977181965858 	
Mg	  5.094224955713 	  2.091406921570 	  4.957181965858 	
Mg	  4.094224955713 	  6.071406921570 	  1.977181965858 	
Mg	  5.094224955713 	  6.071406921570 	  4.957181965858 	
O	  2.091406921570 	  0.000000000000 	  0.000000000000 	
O	  3.091406921570 	  0.000000000000 	  2.980000000000 	
O	  2.091406921570 	  3.980000000000 	  0.000000000000 	
O	  3.091406921570 	  3.980000000000 	  2.980000000000 	
O	  6.071406921570 	  0.000000000000 	  0.000000000000 	
O	  7.071406921570 	  0.000000000000 	  2.980000000000 	
O	  6.071406921570 	  3.980000000000 	  0.000000000000 	
O	  7.071406921570 	  3.980000000000 	  2.980000000000 	
O	  0.000000000000 	  2.091406921570 	  0.000000000000 	
O	  1.000000000000 	  2.091406921570 	  2.980000000000 	
O	  0.000000000000 	  6.071406921570 	  0.000000000000 	
O	  1.000000000000 	  6.071406921570 	  2.980000000000 	
O	  3.980000000000 	  2.091406921570 	  0.000000000000 	
O	  4.980000000000 	  2.091406921570 	  2.980000000000 	
O	  3.980000000000 	  6.071406921570 	  0.000000000000 	
O	  4.980000000000 	  6.071406921570 	  2.980000000000 	
O	  0.114224955713 	  0.000000000000 	  1.977181965858 	
O	  1.114224955713 	  0.000000000000 	  4.957181965858 	
O	  0.114224955713 	  3.980000000000 	  1.977181965858 	
O	  1.114224955713 	  3.980000000000 	  4.957181965858 	
O	  4.094224955713 	  0.000000000000 	  1.977181965858 	
O	  5.094224955713 	  0.000000000000 	  4.957181965858 	
O	  4.094224955713 	  3.980000000000 	  1.977181965858 	
O	  5.094224955713 	  3.980000000000 	  4.957181965858 	
O	  2.297011841853 	  1.941315329764 	  1.977181965858 	
O	  3.297011841853 	  1.941315329764 	  4.957181965858 	
O	  2.297011841853 	  5.921315329764 	  1.977181965858 	
O	  3.297011841853 	  5.921315329764 	  4.957181965858 	
O	  6.277011841853 	  1.941315329764 	  1.977181965858 	
O	  7.277011841853 	  1.941315329764 	  4.957181965858 	
O	  6.277011841853 	  5.921315329764 	  1.977181965858 	
O	  7.277011841853 	  5.921315329764 	  4.957181965858 	
64 
Energy: 2.1086805800164270e+00 
Mg	  0.000000000000 	  0.000000000000 	  0.000000000000 	
Mg	  1.000000000000 	  0.000000000000 	  2.980000000000 	
Mg	  0.000000000000 	  3.980000000000 	  0.000000000000 	
Mg	  1.000000000000 	  3.980000000000 	  2.980000000000 	
Mg	  3.980000000000 	  0.000000000000 	  0.000000000000 	
Mg	  4.980000000000 	  0.000000000000 	  2.980000000000 	
Mg	  3.980000000000 	  3.980000000000 	  0.000000000000 	
Mg	  4.980000000000 	  3.980000000000 	  2.980000000000 	
Mg	  2.048454256712 	  2.065579979278 	  0.000000000000 	
Mg	  3.048454256712 	  2.065579979278 	  2.980000000000 	
Mg	  2.048454256712 	  6.045579979278 	  0.000000000000 	
Mg	  3.048454256712 	  6.045579979278 	  2.980000000000 	
Mg	  6.028454256712 	  2.065579979278 	  0.000000000000 	
Mg	  7.028454256712 	  2.065579979278 	  2.980000000000 	
Mg	  6.028454256712 	  6.045579979278 	  0.000000000000 	
Mg	  7.028454256712 	  6.045579979278 	  2.980000000000 	
Mg	  2.185460037244 	  0.000000000000 	  2.014202811578 	
Mg	  3.185460037244 	  0.000000000000 	  4.994202811578 	
Mg	  2.185460037244 	  3.980000000000 	  2.014202811578 	
Mg	  3.185460037244 	  3.980000000000 	  4.994202811578 	
Mg	  6.165460037244 	  0.000000000000 	  2.014202811578 	
Mg	  7.165460037244 	  0.000000000000 	  4.994202811578 	
Mg	  6.165460037244 	  3.980000000000 	  2.014202811578 	
Mg	  7.165460037244 	  3.980000000000 	  4.994202811578 	
Mg	  0.085628612833 	  2.099831424411 	  2.014202811578 	
Mg	  1.085628612833 	  2.099831424411 	  4.994202811578 	
Mg	  0.085628612833 	  6.079831424411 	  2.014202811578 	
Mg	  1.085628612833 	  6.079831424411 	  4.994202811578 	
Mg	  4.065628612833 	  2.099831424411 	  2.014202811578 	
Mg	  5.065628612833 	  2.099831424411 	  4.994202811578 	
Mg	  4.065628612833 	  6.079831424411 	  2.014202811578 	
Mg	  5.065628612833 	  6.079831424411 	  4.994202811578 	
O	  2.099831424411 	  0.000000000000 	  0.000000000000 	
O	  3.099831424411 	  0.000000000000 	  2.980000000000 	
O	  2.099831424411 	  3.980000000000 	  0.000000000000 	
O	  3.099831424411 	  3.980000000000 	  2.980000000000 	
O	  6.079831424411 	  0.000000000000 	  0.000000000000 	
O	  7.079831424411 	  0.000000000000 	  2.980000000000 	
O	  6.079831424411 	  3.980000000000 	  0.000000000000 	
O	  7.079831424411 	  3.980000000000 	  2.980000000000 	
O	  0.000000000000 	  2.099831424411 	  0.000000000000 	
O	  1.000000000000 	  2.099831424411 	  2.980000000000 	
O	  0.000000000000 	  6.079831424411 	  0.000000000000 	
O	  1.000000000000 	  6.079831424411 	  2.980000000000 	
O	  3.980000000000 	  2.099831424411 	  0.000000000000 	
O	  4.980000000000 	  2.099831424411 	  2.980000000000 	
O	  3.980000000000 	  6.079831424411 	  0.000000000000 	
O	  4.980000000000 	  6.079831424411 	  2.980000000000 	
O	  0.085628612833 	  0.000000000000 	  2.014202811578 	
O	  1.085628612833 	  0.000000000000 	  4.994202811578 	
O	  0.085628612833 	  3.980000000000 	  2.014202811578 	
O	  1.085628612833 	  3.980000000000 	  4.994202811578 	
O	  4.065628612833 	  0.000000000000 	  2.014202811578 	
O	  5.065628612833 	  0.000000000000 	  4.994202811578 	
O	  4.065628612833 	  3.980000000000 	  2.014202811578 	
O	  5.065628612833 	  3.980000000000 	  4.994202811578 	
O	  2.253962927511 	  1.987315427149 	  2.014202811578 	
O	  3.253962927511 	  1.987315427149 	  4.994202811578 	
O	  2.253962927511 	  5.967315427149 	  2.014202811578 	
O	  3.253962927511 	  5.967315427149 	  4.994202811578 	
O	  6.233962927511 	  1.987315427149 	  2.014202811578 	
O	  7.233962927511 	  1.987315427149 	  4.994202811578 	
O	  6.233962927511 	  5.967315427149 	  2.014202811578 	
O	  7.233962927511 	  5.967315427149 	  4.994202811578 	
64 
Energy: 1.1147015178633175e+00 
Mg	  0.000000000000 	  0.000000000000 	  0.000000000000 	
Mg	  1.000000000000 	  0.000000000000 	  2.980000000000 	
Mg	  0.000000000000 	  3.980000000000 	  0.000000000000 	
Mg	  1.000000000000 	  3.980000000000 	  2.980000000000 	
Mg	  3.980000000000 	  0.000000000000 	  0.000000000000 	
Mg	  4.980000000000 	  0.000000000000 	  2.980000000000 	
Mg	  3.980000000000 	  3.980000000000 	  0.000000000000 	
Mg	  4.980000000000 	  3.980000000000 	  2.980000000000 	
Mg	  2.074004995022 	  2.085416808171 	  0.000000000000 	
Mg	  3.074004995022 	  2.085416808171 	  2.980000000000 	
Mg	  2.074004995022 	  6.065416808171 	  0.000000000000 	
Mg	  3.074004995022 	  6.065416808171 	  2.980000000000 	
Mg	  6.054004995022 	  2.085416808171 	  0.000000000000 	
Mg	  7.054004995022 	  2.085416808171 	  2.980000000000 	
Mg	  6.054004995022 	  6.065416808171 	  0.000000000000 	
Mg	  7.054004995022 	  6.065416808171 	  2.980000000000 	
Mg	  2.165299500217 	  0.000000000000 	  2.051181368723 	
Mg	  3.165299500217 	  0.000000000000 	  5.031181368723 	
Mg	  2.165299500217 	  3.980000000000 	  2.051181368723 	
Mg	  3.165299500217 	  3.980000000000 	  5.031181368723 	
Mg	  6.145299500217 	  0.000000000000 	  2.051181368723 	
Mg	  7.145299500217 	  0.000000000000 	  5.031181368723 	
Mg	  6.145299500217 	  3.980000000000 	  2.051181368723 	
Mg	  7.145299500217 	  3.980000000000 	  5.031181368723 	
Mg	  0.057059065747 	  2.108240434470 	  2.051181368723 	
Mg	  1.057059065747 	  2.108240434470 	  5.031181368723 	
Mg	  0.057059065747 	  6.088240434470 	  2.051181368723 	
Mg	  1.057059065747 	  6.088240434470 	  5.031181368723 	
Mg	  4.037059065747 	  2.108240434470 	  2.051181368723 	
Mg	  5.037059065747 	  2.108240434470 	  5.031181368723 	
Mg	  4.037059065747 	  6.088240434470 	  2.051181368723 	
Mg	  5.037059065747 	  6.088240434470 	  5.031181368723 	
O	  2.108240434470 	  0.000000000000 	  0.000000000000 	
O	  3.108240434470 	  0.000000000000 	  2.980000000000 	
O	  2.108240434470 	  3.980000000000 	  0.000000000000 	
O	  3.108240434470 	  3.980000000000 	  2.980000000000 	
O	  6.088240434470 	  0.000000000000 	  0.000000000000 	
O	  7.088240434470 	  0.000000000000 	  2.980000000000 	
O	  6.088240434470 	  3.980000000000 	  0.000000000000 	
O	  7.088240434470 	  3.980000000000 	  2.980000000000 	
O	  0.000000000000 	  2.108240434470 	  0.000000000000 	
O	  1.000000000000 	  2.108240434470 	  2.980000000000 	
O	  0.000000000000 	  6.088240434470 	  0.000000000000 	
O	  1.000000000000 	  6.088240434470 	  2.980000000000 	
O	  3.980000000000 	  2.108240434470 	  0.000000000000 	
O	  4.980000000000 	  2.108240434470 	  2.980000000000 	
O	  3.980000000000 	  6.088240434470 	  0.000000000000 	
O	  4.980000000000 	  6.088240434470 	  2.980000000000 	
O	  0.057059065747 	  0.000000000000 	  2.051181368723 	
O	  1.057059065747 	  0.000000000000 	  5.031181368723 	
O	  0.057059065747 	  3.980000000000 	  2.051181368723 	
O	  1.057059065747 	  3.980000000000 	  5.031181368723 	
O	  4.037059065747 	  0.000000000000 	  2.051181368723 	
O	  5.037059065747 	  0.000000000000 	  5.031181368723 	
O	  4.037059065747 	  3.980000000000 	  2.051181368723 	
O	  5.037059065747 	  3.980000000000 	  5.031181368723 	
O	  2.210946752814 	  2.033264822079 	  2.051181368723 	
O	  3.210946752814 	  2.033264822079 	  5.031181368723 	
O	  2.210946752814 	  6.013264822079 	  2.051181368723 	
O	  3.210946752814 	  6.013264822079 	  5.031181368723 	
O	  6.190946752814 	  2.033264822079 	  2.051181368723 	
O	  7.190946752814 	  2.033264822079 	  5.031181368723 	
O	  6.190946752814 	  6.013264822079 	  2.051181368723 	
O	  7.190946752814 	  6.013264822079 	  5.031181368723 	
64 
Energy: 3.2961588662940128e-01 
Mg	  0.000000000000 	  0.000000000000 	  0.000000000000 	
Mg	  1.000000000000 	  0.000000000000 	  2.980000000000 	
Mg	  0.000000000000 	  3.980000000000 	  0.000000000000 	
Mg	  1.000000000000 	  3.980000000000 	  2.980000000000 	
Mg	  3.980000000000 	  0.000000000000 	  0.000000000000 	
Mg	  4.980000000000 	  0.000000000000 	  2.980000000000 	
Mg	  3.980000000000 	  3.980000000000 	  0.000000000000 	
Mg	  4.980000000000 	  3.980000000000 	  2.980000000000 	
Mg	  2.099520934735 	  2.105224275361 	  0.000000000000 	
Mg	  3.099520934735 	  2.105224275361 	  2.980000000000 	
Mg	  2.099520934735 	  6.085224275361 	  0.000000000000 	
Mg	  3.099520934735 	  6.085224275361 	  2.980000000000 	
Mg	  6.079520934735 	  2.105224275361 	  0.000000000000 	
Mg	  7.079520934735 	  2.105224275361 	  2.980000000000 	
Mg	  6.079520934735 	  6.085224275361 	  0.000000000000 	
Mg	  7.079520934735 	  6.085224275361 	  2.980000000000 	
Mg	  2.145147659741 	  0.000000000000 	  2.088114253483 	
Mg	  3.145147659741 	  0.000000000000 	  5.068114253483 	
Mg	  2.145147659741 	  3.980000000000 	  2.088114253483 	
Mg	  3.145147659741 	  3.980000000000 	  5.068114253483 	
Mg	  6.125147659741 	  0.000000000000 	  2.088114253483 	
Mg	  7.125147659741 	  0.000000000000 	  5.068114253483 	
Mg	  6.125147659741 	  3.980000000000 	  2.088114253483 	
Mg	  7.125147659741 	  3.980000000000 	  5.068114253483 	
Mg	  0.028516703129 	  2.116630956612 	  2.088114253483 	
Mg	  1.028516703129 	  2.116630956612 	  5.068114253483 	
Mg	  0.028516703129 	  6.096630956612 	  2.088114253483 	
Mg	  1.028516703129 	  6.096630956612 	  5.068114253483 	
Mg	  4.008516703129 	  2.116630956612 	  2.088114253483 	
Mg	  5.008516703129 	  2.116630956612 	  5.068114253483 	
Mg	  4.008516703129 	  6.096630956612 	  2.088114253483 	
Mg	  5.008516703129 	  6.096630956612 	  5.068114253483 	
O	  2.116630956612 	  0.000000000000 	  0.000000000000 	
O	  3.116630956612 	  0.000000000000 	  2.980000000000 	
O	  2.116630956612 	  3.980000000000 	  0.000000000000 	
O	  3.116630956612 	  3.980000000000 	  2.980000000000 	
O	  6.096630956612 	  0.000000000000 	  0.000000000000 	
O	  7.096630956612 	  0.000000000000 	  2.980000000000 	
O	  6.096630956612 	  3.980000000000 	  0.000000000000 	
O	  7.096630956612 	  3.980000000000 	  2.980000000000 	
O	  0.000000000000 	  2.116630956612 	  0.000000000000 	
O	  1.000000000000 	  2.116630956612 	  2.980000000000 	
O	  0.000000000000 	  6.096630956612 	  0.000000000000 	
O	  1.000000000000 	  6.096630956612 	  2.980000000000 	
O	  3.980000000000 	  2.116630956612 	  0.000000000000 	
O	  4.980000000000 	  2.116630956612 	  2.980000000000 	
O	  3.980000000000 	  6.096630956612 	  0.000000000000 	
O	  4.980000000000 	  6.096630956612 	  2.980000000000 	
O	  0.028516703129 	  0.000000000000 	  2.088114253483 	
O	  1.028516703129 	  0.000000000000 	  5.068114253483 	
O	  0.028516703129 	  3.980000000000 	  2.088114253483 	
O	  1.028516703129 	  3.980000000000 	  5.068114253483 	
O	  4.008516703129 	  0.000000000000 	  2.088114253483 	
O	  5.008516703129 	  0.000000000000 	  5.068114253483 	
O	  4.008516703129 	  3.980000000000 	  2.088114253483 	
O	  5.008516703129 	  3.980000000000 	  5.068114253483 	
O	  2.167961022245 	  2.079160008701 	  2.088114253483 	
O	  3.167961022245 	  2.079160008701 	  5.068114253483 	
O	  2.167961022245 	  6.059160008701 	  2.088114253483 	
O	  3.167961022245 	  6.059160008701 	  5.068114253483 	
O	  6.147961022245 	  2.079160008701 	  2.088114253483 	
O	  7.147961022245 	  2.079160008701 	  5.068114253483 	
O	  6.147961022245 	  6.059160008701 	  2.088114253483 	
O	  7.147961022245 	  6.059160008701 	  5.068114253483 	
64 
Energy: 0.0000000000000000e+00 
Mg	  0.000000000000 	  0.000000000000 	  0.000000000000 	
Mg	  1.000000000000 	  0.000000000000 	  2.980000000000 	
Mg	  0.000000000000 	  3.980000000000 	  0.000000000000 	
Mg	  1.000000000000 	  3.980000000000 	  2.980000000000 	
Mg	  3.980000000000 	  0.000000000000 	  0.000000000000 	
Mg	  4.980000000000 	  0.000000000000 	  2.980000000000 	
Mg	  3.980000000000 	  3.980000000000 	  0.000000000000 	
Mg	  4.980000000000 	  3.980000000000 	  2.980000000000 	
Mg	  2.125000000000 	  2.125000000000 	  0.000000000000 	
Mg	  3.125000000000 	  2.125000000000 	  2.980000000000 	
Mg	  2.125000000000 	  6.105000000000 	  0.000000000000 	
Mg	  3.125000000000 	  6.105000000000 	  2.980000000000 	
Mg	  6.105000000000 	  2.125000000000 	  0.000000000000 	
Mg	  7.105000000000 	  2.125000000000 	  2.980000000000 	
Mg	  6.105000000000 	  6.105000000000 	  0.000000000000 	
Mg	  7.105000000000 	  6.105000000000 	  2.980000000000 	
Mg	  2.125000000000 	  0.000000000000 	  2.125000000000 	
Mg	  3.125000000000 	  0.000000000000 	  5.105000000000 	
Mg	  2.125000000000 	  3.980000000000 	  2.125000000000 	
Mg	  3.125000000000 	  3.980000000000 	  5.105000000000 	
Mg	  6.105000000000 	  0.000000000000 	  2.125000000000 	
Mg	  7.105000000000 	  0.000000000000 	  5.105000000000 	
Mg	  6.105000000000 	  3.980000000000 	  2.125000000000 	
Mg	  7.105000000000 	  3.980000000000 	  5.105000000000 	
Mg	  0.000000000000 	  2.125000000000 	  2.125000000000 	
Mg	  1.000000000000 	  2.125000000000 	  5.105000000000 	
Mg	  0.000000000000 	  6.105000000000 	  2.125000000000 	
Mg	  1.000000000000 	  6.105000000000 	  5.105000000000 	
Mg	  3.980000000000 	  2.125000000000 	  2.125000000000 	
Mg	  4.980000000000 	  2.125000000000 	  5.105000000000 	
Mg	  3.980000000000 	  6.105000000000 	  2.125000000000 	
Mg	  4.980000000000 	  6.105000000000 	  5.105000000000 	
O	  2.125000000000 	  0.000000000000 	  0.000000000000 	
O	  3.125000000000 	  0.000000000000 	  2.980000000000 	
O	  2.125000000000 	  3.980000000000 	  0.000000000000 	
O	  3.125000000000 	  3.980000000000 	  2.980000000000 	
O	  6.105000000000 	  0.000000000000 	  0.000000000000 	
O	  7.105000000000 	  0.000000000000 	  2.980000000000 	
O	  6.105000000000 	  3.980000000000 	  0.000000000000 	
O	  7.105000000000 	  3.980000000000 	  2.980000000000 	
O	  0.000000000000 	  2.125000000000 	  0.000000000000 	
O	  1.000000000000 	  2.125000000000 	  2.980000000000 	
O	  0.000000000000 	  6.105000000000 	  0.000000000000 	
O	  1.000000000000 	  6.105000000000 	  2.980000000000 	
O	  3.980000000000 	  2.125000000000 	  0.000000000000 	
O	  4.980000000000 	  2.125000000000 	  2.980000000000 	
O	  3.980000000000 	  6.105000000000 	  0.000000000000 	
O	  4.980000000000 	  6.105000000000 	  2.980000000000 	
O	  0.000000000000 	  0.000000000000 	  2.125000000000 	
O	  1.000000000000 	  0.000000000000 	  5.105000000000 	
O	  0.000000000000 	  3.980000000000 	  2.125000000000 	
O	  1.000000000000 	  3.980000000000 	  5.105000000000 	
O	  3.980000000000 	  0.000000000000 	  2.125000000000 	
O	  4.980000000000 	  0.000000000000 	  5.105000000000 	
O	  3.980000000000 	  3.980000000000 	  2.125000000000 	
O	  4.980000000000 	  3.980000000000 	  5.105000000000 	
O	  2.125000000000 	  2.125000000000 	  2.125000000000 	
O	  3.125000000000 	  2.125000000000 	  5.105000000000 	
O	  2.125000000000 	  6.105000000000 	  2.125000000000 	
O	  3.125000000000 	  6.105000000000 	  5.105000000000 	
O	  6.105000000000 	  2.125000000000 	  2.125000000000 	
O	  7.105000000000 	  2.125000000000 	  5.105000000000 	
O	  6.105000000000 	  6.105000000000 	  2.125000000000 	
O	  7.105000000000 	  6.105000000000 	  5.105000000000 	
