  Invoking FHI-aims ...
  | Number of atoms                   :  96
  ...scf iterations...
  | Total energy corrected        :   -5.876197178641E+01 eV
  ...
  Total atomic forces (unitary forces cleaned)
     1  -2.0708972367E-01  5.9169297951E-01  2.0593318765E-01
     2  2.0707837288E-01  5.9168498063E-01  -2.0594138034E-01
     3  2.0708985655E-01  -5.9169289022E-01  -2.0593310476E-01
     4  -2.0707826274E-01  -5.9168473888E-01  2.0594143429E-01
     5  -8.1693532949E-01  1.1806966588E+00  5.3018519519E-02
     6  8.1697669216E-01  1.1807010661E+00  -5.3020730303E-02
     7  8.1693539746E-01  -1.1806965375E+00  -5.3018365352E-02
     8  -8.1697705005E-01  -1.1807011724E+00  5.3021036490E-02
     9  -1.6906409993E-01  1.6919390465E-01  -8.3060949814E-02
    10  1.6903527729E-01  1.6914038760E-01  8.3079283804E-02
    11  1.6906390413E-01  -1.6919343119E-01  8.3060773932E-02
    12  -1.6903567641E-01  -1.6914070414E-01  -8.3079110088E-02
    13  -3.6172795101E-01  -8.5032784691E-01  -8.6342917854E-01
    14  3.6172870131E-01  -8.5029477028E-01  8.6339585782E-01
    15  3.6172744331E-01  8.5032780209E-01  8.6342887480E-01
    16  -3.6172884426E-01  8.5029515246E-01  -8.6339515039E-01
    17  2.6031285283E+00  -3.8997114210E+00  -3.5383753897E-01
    18  -2.6030097469E+00  -3.8993709699E+00  3.5389584546E-01
    19  -2.6031329525E+00  3.8997197690E+00  3.5383771179E-01
    20  2.6030097904E+00  3.8993720871E+00  -3.5389696937E-01
    21  -1.7123057162E+00  2.3130726913E+00  5.8245546655E-02
    22  1.7121812928E+00  2.3127535847E+00  -5.8232999350E-02
    23  1.7123105802E+00  -2.3130806049E+00  -5.8245861345E-02
    24  -1.7121816457E+00  -2.3127546270E+00  5.8233470077E-02
    25  4.2521153604E-01  -4.3921077679E-03  3.9511990349E-01
    26  -4.2520789918E-01  -4.3454533065E-03  -3.9513571020E-01
    27  -4.2521156993E-01  4.3918936844E-03  -3.9512000923E-01
    28  4.2520858315E-01  4.3454856631E-03  3.9513554423E-01
    29  1.0350767075E+00  3.1817092130E+00  3.1444119348E+00
    30  -1.0350906955E+00  3.1818263587E+00  -3.1444839719E+00
    31  -1.0350778815E+00  -3.1817125961E+00  -3.1444137181E+00
    32  1.0350926196E+00  -3.1818298429E+00  3.1444858134E+00
    33  -5.9997761137E-01  -1.8872759422E+00  -1.8851581416E+00
    34  6.0002295306E-01  -1.8874138918E+00  1.8852534047E+00
    35  5.9997869724E-01  1.8872789552E+00  1.8851602293E+00
    36  -6.0002466577E-01  1.8874171000E+00  -1.8852555815E+00
    37  -2.7563947089E+00  3.7135148041E+00  2.6060457333E-01
    38  2.7561793528E+00  3.7131239845E+00  -2.6062159127E-01
    39  2.7563934842E+00  -3.7135132676E+00  -2.6060350780E-01
    40  -2.7561774060E+00  -3.7131213669E+00  2.6062221939E-01
    41  1.4938943229E+00  -2.1450824770E+00  -2.6341142608E-01
    42  -1.4936798329E+00  -2.1446954539E+00  2.6337639189E-01
    43  -1.4938930915E+00  2.1450807294E+00  2.6341065053E-01
    44  1.4936781169E+00  2.1446929993E+00  -2.6337655070E-01
    45  -8.9358403280E-01  9.7034923114E-02  -5.5046731109E-01
    46  8.9359717201E-01  9.6997406327E-02  5.5045720796E-01
    47  8.9358030766E-01  -9.7034624911E-02  5.5046578656E-01
    48  -8.9359743759E-01  -9.6997380255E-02  -5.5045714358E-01
    49  -2.3742439842E+01  1.2690885670E+01  1.2831178788E+01
    50  2.3744351587E+01  1.2684795581E+01  -1.2832088788E+01
    51  2.3742288813E+01  -1.2690716804E+01  -1.2831125935E+01
    52  -2.3744368315E+01  -1.2684780803E+01  1.2832096525E+01
    53  1.9033655187E+01  1.1009054768E+01  -9.0923887689E+00
    54  -1.9036389171E+01  1.1010709520E+01  9.0934847501E+00
    55  -1.9033510422E+01  -1.1009020616E+01  9.0923177004E+00
    56  1.9036402476E+01  -1.1010719127E+01  -9.0935025688E+00
    57  -7.9199780108E-01  1.2412982629E-01  -6.3428423603E-01
    58  7.9222285035E-01  1.2419042151E-01  6.3443991936E-01
    59  7.9200461584E-01  -1.2413080282E-01  6.3428980868E-01
    60  -7.9221686374E-01  -1.2418942715E-01  -6.3443462057E-01
    61  4.9603970009E+00  -2.3014558986E+01  -6.8591694490E-01
    62  -4.9597955253E+00  -2.3010196681E+01  6.8558271283E-01
    63  -4.9603969254E+00  2.3014360672E+01  6.8593239256E-01
    64  4.9597940290E+00  2.3010190118E+01  -6.8557778765E-01
    65  -6.6290889083E+00  -1.8154160505E+01  -7.5409169836E+00
    66  6.6290037087E+00  -1.8152590785E+01  7.5394938115E+00
    67  6.6290261020E+00  1.8154070602E+01  7.5408869767E+00
    68  -6.6290045871E+00  1.8152577527E+01  -7.5394820587E+00
    69  1.2096930658E+01  1.0274915460E+01  -5.3712101345E+00
    70  -1.2096143477E+01  1.0274139164E+01  5.3705193555E+00
    71  -1.2096859728E+01  -1.0274878508E+01  5.3711660297E+00
    72  1.2096131536E+01  -1.0274128209E+01  -5.3705222784E+00
    73  -3.7842208907E+00  5.3715679768E+00  1.3759995978E+01
    74  3.7836743046E+00  5.3708011398E+00  -1.3757792556E+01
    75  3.7842125212E+00  -5.3715195577E+00  -1.3759919172E+01
    76  -3.7836628486E+00  -5.3707991514E+00  1.3757782298E+01
    77  -7.8643156707E-01  8.6223889583E-03  -6.4658912536E-01
    78  7.8628803124E-01  8.6305419546E-03  6.4648537159E-01
    79  7.8643073363E-01  -8.6226664529E-03  6.4658875220E-01
    80  -7.8628713531E-01  -8.6305536878E-03  -6.4648399612E-01
    81  -2.4946924053E-01  1.7727236823E+01  -1.9234614155E+01
    82  2.4868280313E-01  1.7725171565E+01  1.9235087469E+01
    83  2.4946692292E-01  -1.7727164623E+01  1.9234447021E+01
    84  -2.4867624114E-01  -1.7725146591E+01  -1.9235129013E+01
    85  -7.2264353171E-01  2.3893480067E-02  -4.5242434003E-01
    86  7.2236928133E-01  2.3877901557E-02  4.5225950112E-01
    87  7.2264732800E-01  -2.3893519853E-02  4.5242642049E-01
    88  -7.2236810848E-01  -2.3878067866E-02  -4.5225818789E-01
    89  -3.4093743948E+00  5.1376955811E+00  1.7712283971E+01
    90  3.4099913497E+00  5.1380609677E+00  -1.7712335870E+01
    91  3.4093529333E+00  -5.1376294904E+00  -1.7712158974E+01
    92  -3.4099940639E+00  -5.1380771727E+00  1.7712366851E+01
    93  6.1725408706E+00  -2.1436197950E+01  8.5358818341E-01
    94  -6.1721343236E+00  -2.1434473368E+01  -8.5383831389E-01
    95  -6.1725164759E+00  2.1436059899E+01  -8.5355209014E-01
    96  6.1721288866E+00  2.1434465573E+01  8.5384711164E-01
  Stress tensor (eV/A^3):
  -8.8117046926E-02  4.4197314046E-06  9.2402161360E-02
  4.4197314046E-06  -2.1965635252E-01  -2.5560060184E-06
  9.2402161360E-02  -2.5560060184E-06  -1.1081700512E-01
