  Invoking FHI-aims ...
  | Number of atoms                   :  96
  ...scf iterations...
  | Total energy corrected        :   -9.742330020854E+01 eV
  ...
  Total atomic forces (unitary forces cleaned)
     1  -2.9017103739E-01  6.0955738134E-01  1.8556204757E-01
     2  2.1898301710E-01  5.7726562671E-01  -1.8708542097E-01
     3  2.9017107088E-01  -6.0955728371E-01  -1.8556199781E-01
     4  -2.1898285096E-01  -5.7726548245E-01  1.8708548587E-01
     5  -8.2637551755E-01  1.6481072965E+00  3.1191247306E-01
     6  8.7808337851E-01  -1.2795848129E-02  6.8146556813E-01
     7  8.2637598599E-01  -1.6481071454E+00  -3.1191198673E-01
     8  -8.7808347644E-01  1.2795704917E-02  -6.8146525226E-01
     9  -3.9830421998E-01  2.5645820451E-01  -1.8854414979E-01
    10  9.4887656269E-01  5.0228482241E-01  1.5383940457E-01
    11  3.9830370927E-01  -2.5645817025E-01  1.8854370548E-01
    12  -9.4887663691E-01  -5.0228461874E-01  -1.5383931010E-01
    13  -5.3994751092E-01  -1.0417273583E+00  -1.0965105708E+00
    14  -3.0018185164E-02  -1.3406841016E+00  1.1687415487E+00
    15  5.3994684123E-01  1.0417275536E+00  1.0965102653E+00
    16  3.0017792796E-02  1.3406841056E+00  -1.1687410342E+00
    17  3.7974989664E-01  -5.0468587604E-01  -3.3982625172E-02
    18  -3.3664890900E-01  -4.0676974903E-01  3.0434458749E-01
    19  -3.7974911051E-01  5.0468584181E-01  3.3983143235E-02
    20  3.3664882100E-01  4.0676941437E-01  -3.0434474693E-01
    21  6.9678323368E-01  -1.3014095196E+00  -2.4911048781E-01
    22  -6.8310883439E-01  -1.3946865649E+00  3.2770475302E-01
    23  -6.9678378828E-01  1.3014098321E+00  2.4911010065E-01
    24  6.8310883396E-01  1.3946868254E+00  -3.2770498453E-01
    25  9.0159947149E-01  6.1316205910E-02  7.3651482146E-01
    26  -8.4399338761E-01  -4.2494692700E-02  -9.2990046115E-01
    27  -9.0160218736E-01  -6.1316457459E-02  -7.3651675428E-01
    28  8.4399436765E-01  4.2495272448E-02  9.2990011494E-01
    29  4.9192017427E-01  2.8785320891E-01  5.7394928154E-01
    30  -4.5636963127E-01  3.5522533995E-01  -6.0101804385E-01
    31  -4.9191996776E-01  -2.8785323221E-01  -5.7394942034E-01
    32  4.5636897274E-01  -3.5522555527E-01  6.0101767678E-01
    33  2.2671894210E-01  1.1424886488E+00  1.0154553204E+00
    34  -2.1802209822E-01  1.1827954416E+00  -1.0047701509E+00
    35  -2.2671858661E-01  -1.1424888920E+00  -1.0154549520E+00
    36  2.1802242679E-01  -1.1827957747E+00  1.0047699964E+00
    37  -6.8331826396E-01  4.2013457740E-01  -2.4294043083E-01
    38  7.0864023992E-01  4.7470844668E-01  2.1155683996E-01
    39  6.8331834926E-01  -4.2013485306E-01  2.4294050090E-01
    40  -7.0864014252E-01  -4.7470883850E-01  -2.1155633421E-01
    41  -9.5850834981E-01  1.2560100101E+00  8.9467513877E-02
    42  9.6649034616E-01  1.2704009196E+00  -8.7322588342E-02
    43  9.5850824194E-01  -1.2560097740E+00  -8.9467294583E-02
    44  -9.6649002373E-01  -1.2704005794E+00  8.7322747310E-02
    45  1.0603458858E+00  2.8011372095E-01  1.3042448644E+00
    46  -4.8849544035E+00  -2.3528000593E+00  -3.3568109869E+00
    47  -1.0602761410E+00  -2.8010311470E-01  -1.3041897459E+00
    48  4.8849467175E+00  2.3527855908E+00  3.3568463991E+00
    49  -4.7734230003E+00  3.3590035575E-01  9.6457275481E-01
    50  7.7875278168E+00  4.5761494036E+00  -5.4345864333E+00
    51  4.7732699138E+00  -3.3587895832E-01  -9.6453658137E-01
    52  -7.7873948975E+00  -4.5760507297E+00  5.4344634987E+00
    53  1.2372128707E+00  -1.3781396841E-01  -1.1368421846E+00
    54  4.8221723501E-01  -7.7747256568E-01  1.6103772931E-01
    55  -1.2371321761E+00  1.3784348634E-01  1.1367856650E+00
    56  -4.8221343048E-01  7.7748389839E-01  -1.6104039219E-01
    57  1.7226260862E+00  -2.6982608698E-01  1.6395545495E+00
    58  3.5789702628E-01  1.9513854894E-01  1.2066361490E+00
    59  -1.7226105849E+00  2.6982248827E-01  -1.6395410693E+00
    60  -3.5790119841E-01  -1.9513848891E-01  -1.2066398944E+00
    61  8.9615625872E-01  1.8513930282E-01  -8.0016440155E-01
    62  -7.6158965376E+00  -5.0165780119E+00  5.7437164911E+00
    63  -8.9609687979E-01  -1.8518695878E-01  8.0011261800E-01
    64  7.6157665917E+00  5.0164737564E+00  -5.7436209177E+00
    65  -9.2388481817E-01  -9.0660871003E-01  -7.4341242480E-01
    66  5.2566547221E+00  2.2804803902E+00  -5.3636559856E-01
    67  9.2385146278E-01  9.0660834794E-01  7.4339330976E-01
    68  -5.2566504124E+00  -2.2804751272E+00  5.3637046605E-01
    69  -4.6250374313E-01  -3.2955746680E-01  5.8784918467E-01
    70  3.4944675778E-01  1.1454563889E-02  -7.7205335838E-01
    71  4.6251539137E-01  3.2958325416E-01  -5.8784528923E-01
    72  -3.4944587865E-01  -1.1455505153E-02  7.7205248657E-01
    73  6.0061607727E-01  1.8622907926E-01  -1.1567355871E+00
    74  -9.8437548803E-01  -1.2652951384E-02  1.9748275320E+00
    75  -6.0061922635E-01  -1.8622076324E-01  1.1567552856E+00
    76  9.8437555473E-01  1.2656315614E-02  -1.9748332416E+00
    77  1.3517347670E+00  -3.9157103402E-01  7.5947514862E-01
    78  -1.5321684105E+00  -5.2187153518E-01  -9.4860010030E-01
    79  -1.3517356797E+00  3.9157033517E-01  -7.5947689235E-01
    80  1.5321691111E+00  5.2187163378E-01  9.4859972832E-01
    81  -1.7258265444E+00  2.7043556694E+00  -1.3348611820E+00
    82  1.7493016302E+00  3.0019429597E+00  1.6104488704E+00
    83  1.7257608667E+00  -2.7043006313E+00  1.3348417836E+00
    84  -1.7493012096E+00  -3.0019443312E+00  -1.6104548780E+00
    85  1.7341943018E+00  1.3872537147E-01  8.4956685472E-01
    86  -1.7435244963E+00  1.8538909202E-01  -7.5085177211E-01
    87  -1.7341904240E+00  -1.3872579114E-01  -8.4956490658E-01
    88  1.7435240854E+00  -1.8538909662E-01  7.5085160428E-01
    89  2.6160180468E-01  -5.6031416865E-01  -7.7358132751E-01
    90  -2.9612404278E-01  -4.9676556469E-01  8.6513399740E-01
    91  -2.6160089828E-01  5.6029987712E-01  7.7358808690E-01
    92  2.9612312206E-01  4.9676819062E-01  -8.6512959441E-01
    93  4.4010152630E-02  -1.2732830541E+00  5.8813273839E-01
    94  -7.9925667024E-02  -1.1249802679E+00  -5.3582860911E-01
    95  -4.3993055792E-02  1.2731990174E+00  -5.8812002650E-01
    96  7.9925074969E-02  1.1249799782E+00  5.3583070077E-01
  Stress tensor (eV/A^3):
  6.2191423857E-02  -1.5151708806E-02  4.4863044798E-02
  -1.5151708806E-02  4.9733001641E-02  1.0655710247E-02
  4.4863044798E-02  1.0655710247E-02  5.0548382846E-02
