  Invoking FHI-aims ...
  | Number of atoms                   :  96
  ...scf iterations...
  | Total energy corrected        :   -1.001645315705E+02 eV
  ...
  Total atomic forces (unitary forces cleaned)
     1  -3.2434012088E-01  6.0384382449E-01  1.9809572580E-01
     2  2.5845274077E-01  6.0173671251E-01  -1.8538937617E-01
     3  3.2434003400E-01  -6.0384368906E-01  -1.9809570572E-01
     4  -2.5845264741E-01  -6.0173669883E-01  1.8538947657E-01
     5  -7.6126125625E-01  4.3210273974E-01  -4.6093455176E-01
     6  1.2849564165E+00  -2.7963083418E+00  3.9468977017E+00
     7  7.6126227757E-01  -4.3210252813E-01  4.6093545380E-01
     8  -1.2849561378E+00  2.7963081477E+00  -3.9468973205E+00
     9  -5.0722591456E-01  3.2325582407E-01  -2.0004404771E-01
    10  -2.3230420052E+00  -2.1566274841E+00  2.0178098489E-01
    11  5.0722504799E-01  -3.2325645267E-01  2.0004319367E-01
    12  2.3230416494E+00  2.1566281546E+00  -2.0178171003E-01
    13  -5.8623171951E-01  -1.1499046010E+00  -1.1357585078E+00
    14  3.3230703090E+00  1.1750422564E+00  1.2151434643E+00
    15  5.8623078658E-01  1.1499049747E+00  1.1357581407E+00
    16  -3.3230706657E+00  -1.1750424674E+00  -1.2151430538E+00
    17  5.4585213767E-01  -7.0330234503E-01  -3.6650698034E-02
    18  -2.0379145083E+00  1.3695726985E+00  -2.8213329493E+00
    19  -5.4585148039E-01  7.0330264043E-01  3.6651314964E-02
    20  2.0379147866E+00  -1.3695728233E+00  2.8213326371E+00
    21  6.5114733281E-01  -1.1712484572E+00  -1.7910142652E-01
    22  -4.8980226011E-01  -1.1877354931E+00  3.6419089902E-01
    23  -6.5114750300E-01  1.1712485577E+00  1.7910129330E-01
    24  4.8980237948E-01  1.1877355121E+00  -3.6419088327E-01
    25  1.1738944039E+00  1.3417766634E-01  8.7571804591E-01
    26  1.9897873795E-01  -2.2592565656E+00  2.0762293546E+00
    27  -1.1738953880E+00  -1.3417836947E-01  -8.7571906162E-01
    28  -1.9897808204E-01  2.2592574215E+00  -2.0762295056E+00
    29  5.6049229134E-01  4.6499615388E-01  7.1593919468E-01
    30  -4.2201644512E-01  6.4844905840E-01  -7.8036758154E-01
    31  -5.6049214321E-01  -4.6499615728E-01  -7.1593957407E-01
    32  4.2201555348E-01  -6.4844959951E-01  7.8036738316E-01
    33  1.7579213908E-01  1.0565855978E+00  8.9742607446E-01
    34  -1.5681642689E-01  1.1463887685E+00  -9.1633038869E-01
    35  -1.7579193599E-01  -1.0565854873E+00  -8.9742584843E-01
    36  1.5681647691E-01  -1.1463889546E+00  9.1633033384E-01
    37  -8.7883183772E-01  5.3379490053E-01  -2.5913835523E-01
    38  9.0871820555E-01  6.8175210357E-01  1.3261870702E-01
    39  8.7883196363E-01  -5.3379503432E-01  2.5913867746E-01
    40  -9.0871796347E-01  -6.8175274542E-01  -1.3261811162E-01
    41  -9.0813079911E-01  1.1199753991E+00  7.2268563356E-02
    42  9.4536652521E-01  1.1767719191E+00  -8.5372153057E-02
    43  9.0813068522E-01  -1.1199750426E+00  -7.2268489805E-02
    44  -9.4536622670E-01  -1.1767717093E+00  8.5372237953E-02
    45  -7.1002699752E-01  1.2703766939E-01  -4.0180556676E-01
    46  -2.7402935878E+00  -7.6556717725E-01  -3.3129650726E+00
    47  7.1004639773E-01  -1.2703573806E-01  4.0182392667E-01
    48  2.7402937401E+00  7.6556616588E-01  3.3129632074E+00
    49  -5.0264111258E-01  -3.5267648257E-01  9.9710863576E-01
    50  3.2940376208E-01  -1.5337514496E+00  -2.0929823632E+00
    51  5.0263376393E-01  3.5267808264E-01  -9.9711590693E-01
    52  -3.2940449783E-01  1.5337512809E+00  2.0929836149E+00
    53  -6.2121804213E-01  -1.4179354833E+00  -1.8964217616E-01
    54  2.1989427636E-01  -1.1960036312E+00  1.5362238001E-01
    55  6.2122383508E-01  1.4179404861E+00  1.8963881004E-01
    56  -2.1989518683E-01  1.1960014975E+00  -1.5362133040E-01
    57  9.8221525020E-01  -1.5100828643E-01  8.2632142211E-01
    58  2.7097369556E+00  5.3062425052E-01  2.5521709803E+00
    59  -9.8221886926E-01  1.5100836191E-01  -8.2632604724E-01
    60  -2.7097361391E+00  -5.3062433026E-01  -2.5521702287E+00
    61  -9.3591446951E-01  1.1509924480E+00  6.3377329129E-01
    62  -2.2398635426E+00  5.0340045531E-01  1.3060033265E+00
    63  9.3592232361E-01  -1.1509935358E+00  -6.3377836399E-01
    64  2.2398636781E+00  -5.0339804086E-01  -1.3060033251E+00
    65  6.4203939956E-01  -5.6693040897E-01  -3.0211812071E-01
    66  3.7384960947E+00  -2.4998931205E-01  1.8715310191E-01
    67  -6.4204689199E-01  5.6693295100E-01  3.0211811320E-01
    68  -3.7384972645E+00  2.4998873929E-01  -1.8715057947E-01
    69  -4.9046442291E-01  -1.5436020918E+00  1.3482739969E-01
    70  1.2413304099E+00  -1.8168096551E+00  -9.6661027747E-01
    71  4.9046572677E-01  1.5436077953E+00  -1.3482492328E-01
    72  -1.2413305135E+00  1.8168086373E+00  9.6661023828E-01
    73  4.8946056870E-01  5.1826482262E-01  -1.6447757450E+00
    74  -1.0865766585E+00  1.1792326769E+00  2.2257824645E+00
    75  -4.8946195877E-01  -5.1826408568E-01  1.6447804556E+00
    76  1.0865767493E+00  -1.1792306442E+00  -2.2257855830E+00
    77  1.0432991943E+00  -1.7461180202E-01  5.4679060161E-01
    78  -2.1843793656E+00  -6.2381723053E-01  -1.3056684873E+00
    79  -1.0433024421E+00  1.7461184168E-01  -5.4679330703E-01
    80  2.1843804097E+00  6.2381749008E-01  1.3056687110E+00
    81  3.5960178124E-01  9.6645798198E-01  1.3836228152E-01
    82  -3.8650563459E-01  1.6941690864E+00  8.3677848285E-02
    83  -3.5961040258E-01  -9.6645940250E-01  -1.3836402338E-01
    84  3.8650591081E-01  -1.6941698783E+00  -8.3678682528E-02
    85  1.1141592126E+00  9.7229851146E-02  6.0984911856E-01
    86  -1.1922639582E+00  3.3552025831E-01  -4.7625129702E-01
    87  -1.1141649680E+00  -9.7230881845E-02  -6.0985198843E-01
    88  1.1922634666E+00  -3.3552017645E-01  4.7625118503E-01
    89  3.0863682671E-01  4.4226525325E-01  -1.5910889936E+00
    90  -3.4996291312E-01  7.1950029298E-01  1.7696647783E+00
    91  -3.0863680079E-01  -4.4227041908E-01  1.5910933315E+00
    92  3.4996310026E-01  -7.1949919509E-01  -1.7696646203E+00
    93  -8.1824547359E-01  8.9985678143E-01  8.5737175087E-01
    94  8.1746335202E-01  1.2867943953E+00  -8.0205331193E-01
    95  8.1824963206E-01  -8.9986590063E-01  -8.5737352153E-01
    96  -8.1746311724E-01  -1.2867942981E+00  8.0205331037E-01
  Stress tensor (eV/A^3):
  7.7088325106E-02  -7.4902770438E-03  2.5978759790E-02
  -7.4902770438E-03  8.8273614163E-02  1.1657826675E-02
  2.5978759790E-02  1.1657826675E-02  5.6990794212E-02
