768 
Energy: -7.3825508041559999e+01 
S	  8.778583098100 	  1.541356859400 	  0.034410210600 	
S	  8.210038968100 	  1.541359669400 	 10.164966930600 	
S	  8.778551998100 	  7.724918619400 	  0.034407380600 	
S	  8.210007868100 	  7.724921429400 	 10.164964100600 	
S	 23.459410398100 	  1.541366089400 	  0.062540140600 	
S	 22.890866268100 	  1.541368899400 	 10.193096860600 	
S	 23.459379298100 	  7.724927849400 	  0.062537310600 	
S	 22.890835168100 	  7.724930659400 	 10.193094030600 	
S	  5.617972169000 	  4.633116300900 	  5.058959345800 	
S	  5.049428039000 	  4.633119110900 	 15.189516065800 	
S	  5.617941069000 	 10.816678060900 	  5.058956515800 	
S	  5.049396939000 	 10.816680870900 	 15.189513235800 	
S	 20.298799469000 	  4.633125530900 	  5.087089275800 	
S	 19.730255339000 	  4.633128340900 	 15.217645995800 	
S	 20.298768369000 	 10.816687290900 	  5.087086445800 	
S	 19.730224239000 	 10.816690100900 	 15.217643165800 	
S	  5.333668977500 	  4.642216569600 	 10.124273508100 	
S	  4.765124847500 	  4.642219379600 	 20.254830228100 	
S	  5.333637877500 	 10.825778329600 	 10.124270678100 	
S	  4.765093747500 	 10.825781139600 	 20.254827398100 	
S	 20.014496277500 	  4.642225799600 	 10.152403438100 	
S	 19.445952147500 	  4.642228609600 	 20.282960158100 	
S	 20.014465177500 	 10.825787559600 	 10.152400608100 	
S	 19.445921047500 	 10.825790369600 	 20.282957328100 	
S	  8.494280183300 	  1.550457870200 	  5.099724677400 	
S	  7.925736053300 	  1.550460680200 	 15.230281397400 	
S	  8.494249083300 	  7.734019630200 	  5.099721847400 	
S	  7.925704953300 	  7.734022440200 	 15.230278567400 	
S	 23.175107483300 	  1.550467100200 	  5.127854607400 	
S	 22.606563353300 	  1.550469910200 	 15.258411327400 	
S	 23.175076383300 	  7.734028860200 	  5.127851777400 	
S	 22.606532253300 	  7.734031670200 	 15.258408497400 	
C	  6.798118307500 	  2.504334010600 	  9.780797448900 	
C	  6.229574177500 	  2.504336820600 	 19.911354168900 	
C	  6.798087207500 	  8.687895770600 	  9.780794618900 	
C	  6.229543077500 	  8.687898580600 	 19.911351338900 	
C	 21.478945607500 	  2.504343240600 	  9.808927378900 	
C	 20.910401477500 	  2.504346050600 	 19.939484098900 	
C	 21.478914507500 	  8.687905000600 	  9.808924548900 	
C	 20.910370377500 	  8.687907810600 	 19.939481268900 	
C	  7.029858902800 	  5.596110217300 	  5.443156977400 	
C	  6.461314772800 	  5.596113027300 	 15.573713697400 	
C	  7.029827802800 	 11.779671977300 	  5.443154147400 	
C	  6.461283672800 	 11.779674787300 	 15.573710867400 	
C	 21.710686202800 	  5.596119447300 	  5.471286907400 	
C	 21.142142072800 	  5.596122257300 	 15.601843627400 	
C	 21.710655102800 	 11.779681207300 	  5.471284077400 	
C	 21.142110972800 	 11.779684017300 	 15.601840797400 	
C	  7.314133768200 	  3.679239356500 	  0.377886269800 	
C	  6.745589638200 	  3.679242166500 	 10.508442989800 	
C	  7.314102668200 	  9.862801116500 	  0.377883439800 	
C	  6.745558538200 	  9.862803926500 	 10.508440159800 	
C	 21.994961068200 	  3.679248586500 	  0.406016199800 	
C	 21.426416938200 	  3.679251396500 	 10.536572919800 	
C	 21.994929968200 	  9.862810346500 	  0.406013369800 	
C	 21.426385838200 	  9.862813156500 	 10.536570089800 	
C	  7.082393302600 	  0.587464077300 	  4.715527045500 	
C	  6.513849172600 	  0.587466887300 	 14.846083765500 	
C	  7.082362202600 	  6.771025837300 	  4.715524215500 	
C	  6.513818072600 	  6.771028647300 	 14.846080935500 	
C	 21.763220602600 	  0.587473307300 	  4.743656975500 	
C	 21.194676472600 	  0.587476117300 	 14.874213695500 	
C	 21.763189502600 	  6.771035067300 	  4.743654145500 	
C	 21.194645372600 	  6.771037877300 	 14.874210865500 	
C	  5.707537281800 	  2.321126042300 	  8.876603728600 	
C	  5.138993151800 	  2.321128852300 	 19.007160448600 	
C	  5.707506181800 	  8.504687802300 	  8.876600898600 	
C	  5.138962051800 	  8.504690612300 	 19.007157618600 	
C	 20.388364581800 	  2.321135272300 	  8.904733658600 	
C	 19.819820451800 	  2.321138082300 	 19.035290378600 	
C	 20.388333481800 	  8.504697032300 	  8.904730828600 	
C	 19.819789351800 	  8.504699842300 	 19.035287548600 	
C	  8.120442166400 	  5.412901958300 	  6.347351676700 	
C	  7.551898036400 	  5.412904768300 	 16.477908396700 	
C	  8.120411066400 	 11.596463718300 	  6.347348846700 	
C	  7.551866936400 	 11.596466528300 	 16.477905566700 	
C	 22.801269466400 	  5.412911188300 	  6.375481606700 	
C	 22.232725336400 	  5.412913998300 	 16.506038326700 	
C	 22.801238366400 	 11.596472948300 	  6.375478776700 	
C	 22.232694236400 	 11.596475758300 	 16.506035496700 	
C	  8.404714652800 	  3.862447386700 	  1.282079888500 	
C	  7.836170522800 	  3.862450196700 	 11.412636608500 	
C	  8.404683552800 	 10.046009146700 	  1.282077058500 	
C	  7.836139422800 	 10.046011956700 	 11.412633778500 	
C	 23.085541952800 	  3.862456616700 	  1.310209818500 	
C	 22.516997822800 	  3.862459426700 	 11.440766538500 	
C	 23.085510852800 	 10.046018376700 	  1.310206988500 	
C	 22.516966722800 	 10.046021186700 	 11.440763708500 	
C	  5.991810044800 	  0.770672274600 	  3.811332244900 	
C	  5.423265914800 	  0.770675084600 	 13.941888964900 	
C	  5.991778944800 	  6.954234034600 	  3.811329414900 	
C	  5.423234814800 	  6.954236844600 	 13.941886134900 	
C	 20.672637344800 	  0.770681504600 	  3.839462174900 	
C	 20.104093214800 	  0.770684314600 	 13.970018894900 	
C	 20.672606244800 	  6.954243264600 	  3.839459344900 	
C	 20.104062114800 	  6.954246074600 	 13.970016064900 	
C	  4.807288713200 	  3.418578044500 	  8.955234686400 	
C	  4.238744583200 	  3.418580854500 	 19.085791406400 	
C	  4.807257613200 	  9.602139804500 	  8.955231856400 	
C	  4.238713483200 	  9.602142614500 	 19.085788576400 	
C	 19.488116013200 	  3.418587274500 	  8.983364616400 	
C	 18.919571883200 	  3.418590084500 	 19.113921336400 	
C	 19.488084913200 	  9.602149034500 	  8.983361786400 	
C	 18.919540783200 	  9.602151844500 	 19.113918506400 	
C	  9.020685667900 	  0.326811214600 	  6.268754309600 	
C	  8.452141537900 	  0.326814024600 	 16.399311029600 	
C	  9.020654567900 	  6.510372974600 	  6.268751479600 	
C	  8.452110437900 	  6.510375784600 	 16.399308199600 	
C	 23.701512967900 	  0.326820444600 	  6.296884239600 	
C	 23.132968837900 	  0.326823254600 	 16.427440959600 	
C	 23.701481867900 	  6.510382204600 	  6.296881409600 	
C	 23.132937737900 	  6.510385014600 	 16.427438129600 	
C	  9.304963215700 	  2.764995446300 	  1.203449032000 	
C	  8.736419085700 	  2.764998256300 	 11.334005752000 	
C	  9.304932115700 	  8.948557206300 	  1.203446202000 	
C	  8.736387985700 	  8.948560016300 	 11.334002922000 	
C	 23.985790515700 	  2.765004676300 	  1.231578962000 	
C	 23.417246385700 	  2.765007486300 	 11.362135682000 	
C	 23.985759415700 	  8.948566436300 	  1.231576132000 	
C	 23.417215285700 	  8.948569246300 	 11.362132852000 	
C	  5.091566543200 	  5.856762956400 	  3.889929612000 	
C	  4.523022413200 	  5.856765766400 	 14.020486332000 	
C	  5.091535443200 	 12.040324716400 	  3.889926782000 	
C	  4.522991313200 	 12.040327526400 	 14.020483502000 	
C	 19.772393843200 	  5.856772186400 	  3.918059542000 	
C	 19.203849713200 	  5.856774996400 	 14.048616262000 	
C	 19.772362743200 	 12.040333946400 	  3.918056712000 	
C	 19.203818613200 	 12.040336756400 	 14.048613432000 	
C	  3.638231112900 	  3.456968704600 	  8.193277916700 	
C	  3.069686982900 	  3.456971514600 	 18.323834636700 	
C	  3.638200012900 	  9.640530464600 	  8.193275086700 	
C	  3.069655882900 	  9.640533274600 	 18.323831806700 	
C	 18.319058412900 	  3.456977934600 	  8.221407846700 	
C	 17.750514282900 	  3.456980744600 	 18.351964566700 	
C	 18.319027312900 	  9.640539694600 	  8.221405016700 	
C	 17.750483182900 	  9.640542504600 	 18.351961736700 	
C	 10.189735933600 	  0.365211363600 	  7.030719744100 	
C	  9.621191803600 	  0.365214173600 	 17.161276464100 	
C	 10.189704833600 	  6.548773123600 	  7.030716914100 	
C	  9.621160703600 	  6.548775933600 	 17.161273634100 	
C	 24.870563233600 	  0.365220593600 	  7.058849674100 	
C	 24.302019103600 	  0.365223403600 	 17.189406394100 	
C	 24.870532133600 	  6.548782353600 	  7.058846844100 	
C	 24.301988003600 	  6.548785163600 	 17.189403564100 	
C	 10.474020810300 	  2.726604848100 	  1.965405903000 	
C	  9.905476680300 	  2.726607658100 	 12.095962623000 	
C	 10.473989710300 	  8.910166608100 	  1.965403073000 	
C	  9.905445580300 	  8.910169418100 	 12.095959793000 	
C	 25.154848110300 	  2.726614078100 	  1.993535833000 	
C	 24.586303980300 	  2.726616888100 	 12.124092553000 	
C	 25.154817010300 	  8.910175838100 	  1.993533003000 	
C	 24.586272880300 	  8.910178648100 	 12.124089723000 	
C	  3.922516277600 	  5.818362745600 	  3.127964177500 	
C	  3.353972147600 	  5.818365555600 	 13.258520897500 	
C	  3.922485177600 	 12.001924505600 	  3.127961347500 	
C	  3.353941047600 	 12.001927315600 	 13.258518067500 	
C	 18.603343577600 	  5.818371975600 	  3.156094107500 	
C	 18.034799447600 	  5.818374785600 	 13.286650827500 	
C	 18.603312477600 	 12.001933735600 	  3.156091277500 	
C	 18.034768347600 	 12.001936545600 	 13.286647997500 	
H	  2.977023765500 	  4.314908014000 	  8.276816523600 	
H	  2.408479635500 	  4.314910824000 	 18.407373243600 	
H	  2.976992665500 	 10.498469774000 	  8.276813693600 	
H	  2.408448535500 	 10.498472584000 	 18.407370413600 	
H	 17.657851065500 	  4.314917244000 	  8.304946453600 	
H	 17.089306935500 	  4.314920054000 	 18.435503173600 	
H	 17.657819965500 	 10.498479004000 	  8.304943623600 	
H	 17.089275835500 	 10.498481814000 	 18.435500343600 	
H	 10.850920197100 	  1.223158377000 	  6.947191975500 	
H	 10.282376067100 	  1.223161187000 	 17.077748695500 	
H	 10.850889097100 	  7.406720137000 	  6.947189145500 	
H	 10.282344967100 	  7.406722947000 	 17.077745865500 	
H	 25.531747497100 	  1.223167607000 	  6.975321905500 	
H	 24.963203367100 	  1.223170417000 	 17.105878625500 	
H	 25.531716397100 	  7.406729367000 	  6.975319075500 	
H	 24.963172267100 	  7.406732177000 	 17.105875795500 	
H	 11.135228163400 	  1.868665538700 	  1.881867194800 	
H	 10.566684033400 	  1.868668348700 	 12.012423914800 	
H	 11.135197063400 	  8.052227298700 	  1.881864364800 	
H	 10.566652933400 	  8.052230108700 	 12.012421084800 	
H	 25.816055463400 	  1.868674768700 	  1.909997124800 	
H	 25.247511333400 	  1.868677578700 	 12.040553844800 	
H	 25.816024363400 	  8.052236528700 	  1.909994294800 	
H	 25.247480233400 	  8.052239338700 	 12.040551014800 	
H	  3.261332160800 	  4.960415670400 	  3.211491946300 	
H	  2.692788030800 	  4.960418480400 	 13.342048666300 	
H	  3.261301060800 	 11.143977430400 	  3.211489116300 	
H	  2.692756930800 	 11.143980240400 	 13.342045836300 	
H	 17.942159460800 	  4.960424900400 	  3.239621876300 	
H	 17.373615330800 	  4.960427710400 	 13.370178596300 	
H	 17.942128360800 	 11.143986660400 	  3.239619046300 	
H	 17.373584230800 	 11.143989470400 	 13.370175766300 	
C	  3.326383536000 	  2.393111112500 	  7.336713806700 	
C	  2.757839406000 	  2.393113922500 	 17.467270526700 	
C	  3.326352436000 	  8.576672872500 	  7.336710976700 	
C	  2.757808306000 	  8.576675682500 	 17.467267696700 	
C	 18.007210836000 	  2.393120342500 	  7.364843736700 	
C	 17.438666706000 	  2.393123152500 	 17.495400456700 	
C	 18.007179736000 	  8.576682102500 	  7.364840906700 	
C	 17.438635606000 	  8.576684912500 	 17.495397626700 	
C	 10.501585199000 	  5.484900443400 	  7.887257318900 	
C	  9.933041069000 	  5.484903253400 	 18.017814038900 	
C	 10.501554099000 	 11.668462203400 	  7.887254488900 	
C	  9.933009969000 	 11.668465013400 	 18.017811208900 	
C	 25.182412499000 	  5.484909673400 	  7.915387248900 	
C	 24.613868369000 	  5.484912483400 	 18.045943968900 	
C	 25.182381399000 	 11.668471433400 	  7.915384418900 	
C	 24.613837269000 	 11.668474243400 	 18.045941138900 	
C	 10.785868240400 	  3.790462378300 	  2.821970012800 	
C	 10.217324110400 	  3.790465188300 	 12.952526732800 	
C	 10.785837140400 	  9.974024138300 	  2.821967182800 	
C	 10.217293010400 	  9.974026948300 	 12.952523902800 	
C	 25.466695540400 	  3.790471608300 	  2.850099942800 	
C	 24.898151410400 	  3.790474418300 	 12.980656662800 	
C	 25.466664440400 	  9.974033368300 	  2.850097112800 	
C	 24.898120310400 	  9.974036178300 	 12.980653832800 	
C	  3.610667164600 	  0.698673603900 	  2.271426501600 	
C	  3.042123034600 	  0.698676413900 	 12.401983221600 	
C	  3.610636064600 	  6.882235363900 	  2.271423671600 	
C	  3.042091934600 	  6.882238173900 	 12.401980391600 	
C	 18.291494464600 	  0.698682833900 	  2.299556431600 	
C	 17.722950334600 	  0.698685643900 	 12.430113151600 	
C	 18.291463364600 	  6.882244593900 	  2.299553601600 	
C	 17.722919234600 	  6.882247403900 	 12.430110321600 	
C	  4.246239376200 	  1.326745920100 	  7.232392811600 	
C	  3.677695246200 	  1.326748730100 	 17.362949531600 	
C	  4.246208276200 	  7.510307680100 	  7.232389981600 	
C	  3.677664146200 	  7.510310490100 	 17.362946701600 	
C	 18.927066676200 	  1.326755150100 	  7.260522741600 	
C	 18.358522546200 	  1.326757960100 	 17.391079461600 	
C	 18.927035576200 	  7.510316910100 	  7.260519911600 	
C	 18.358491446200 	  7.510319720100 	 17.391076631600 	
C	  9.581760883400 	  4.418519382000 	  7.991559269300 	
C	  9.013216753400 	  4.418522192000 	 18.122115989300 	
C	  9.581729783400 	 10.602081142000 	  7.991556439300 	
C	  9.013185653400 	 10.602083952000 	 18.122113159300 	
C	 24.262588183400 	  4.418528612000 	  8.019689199300 	
C	 23.694044053400 	  4.418531422000 	 18.150245919300 	
C	 24.262557083400 	 10.602090372000 	  8.019686369300 	
C	 23.694012953400 	 10.602093182000 	 18.150243089300 	
C	  9.866012247700 	  4.856827447100 	  2.926291108900 	
C	  9.297468117700 	  4.856830257100 	 13.056847828900 	
C	  9.865981147700 	 11.040389207100 	  2.926288278900 	
C	  9.297437017700 	 11.040392017100 	 13.056844998900 	
C	 24.546839547700 	  4.856836677100 	  2.954421038900 	
C	 23.978295417700 	  4.856839487100 	 13.084977758900 	
C	 24.546808447700 	 11.040398437100 	  2.954418208900 	
C	 23.978264317700 	 11.040401247100 	 13.084974928900 	
C	  4.530491333400 	  1.765054665300 	  2.167124550900 	
C	  3.961947203400 	  1.765057475300 	 12.297681270900 	
C	  4.530460233400 	  7.948616425300 	  2.167121720900 	
C	  3.961916103400 	  7.948619235300 	 12.297678440900 	
C	 19.211318633400 	  1.765063895300 	  2.195254480900 	
C	 18.642774503400 	  1.765066705300 	 12.325811200900 	
C	 19.211287533400 	  7.948625655300 	  2.195251650900 	
C	 18.642743403400 	  7.948628465300 	 12.325808370900 	
H	  4.049839811700 	  0.502303909100 	  6.552247741900 	
H	  3.481295681700 	  0.502306719100 	 16.682804461900 	
H	  4.049808711700 	  6.685865669100 	  6.552244911900 	
H	  3.481264581700 	  6.685868479100 	 16.682801631900 	
H	 18.730667111700 	  0.502313139100 	  6.580377671900 	
H	 18.162122981700 	  0.502315949100 	 16.710934391900 	
H	 18.730636011700 	  6.685874899100 	  6.580374841900 	
H	 18.162091881700 	  6.685877709100 	 16.710931561900 	
H	  9.778172631800 	  3.594078723200 	  8.671703784000 	
H	  9.209628501800 	  3.594081533200 	 18.802260504000 	
H	  9.778141531800 	  9.777640483200 	  8.671700954000 	
H	  9.209597401800 	  9.777643293200 	 18.802257674000 	
H	 24.458999931800 	  3.594087953200 	  8.699833714000 	
H	 23.890455801800 	  3.594090763200 	 18.830390434000 	
H	 24.458968831800 	  9.777649713200 	  8.699830884000 	
H	 23.890424701800 	  9.777652523200 	 18.830387604000 	
H	 10.062411806500 	  5.681269458100 	  3.606436279800 	
H	  9.493867676500 	  5.681272268100 	 13.736992999800 	
H	 10.062380706500 	 11.864831218100 	  3.606433449800 	
H	  9.493836576500 	 11.864834028100 	 13.736990169800 	
H	 24.743239106500 	  5.681278688100 	  3.634566209800 	
H	 24.174694976500 	  5.681281498100 	 13.765122929800 	
H	 24.743208006500 	 11.864840448100 	  3.634563379800 	
H	 24.174663876500 	 11.864843258100 	 13.765120099800 	
H	  4.334079585100 	  2.589495324100 	  1.486980036300 	
H	  3.765535455100 	  2.589498134100 	 11.617536756300 	
H	  4.334048485100 	  8.773057084100 	  1.486977206300 	
H	  3.765504355100 	  8.773059894100 	 11.617533926300 	
H	 19.014906885100 	  2.589504554100 	  1.515109966300 	
H	 18.446362755100 	  2.589507364100 	 11.645666686300 	
H	 19.014875785100 	  8.773066314100 	  1.515107136300 	
H	 18.446331655100 	  8.773069124100 	 11.645663856300 	
C	  5.415710393500 	  1.283137318900 	  7.979564150100 	
C	  4.847166263500 	  1.283140128900 	 18.110120870100 	
C	  5.415679293500 	  7.466699078900 	  7.979561320100 	
C	  4.847135163500 	  7.466701888900 	 18.110118040100 	
C	 20.096537693500 	  1.283146548900 	  8.007694080100 	
C	 19.527993563500 	  1.283149358900 	 18.138250800100 	
C	 20.096506593500 	  7.466708308900 	  8.007691250100 	
C	 19.527962463500 	  7.466711118900 	 18.138247970100 	
C	  8.412295413000 	  4.374903959500 	  7.244378051500 	
C	  7.843751283000 	  4.374906769500 	 17.374934771500 	
C	  8.412264313000 	 10.558465719500 	  7.244375221500 	
C	  7.843720183000 	 10.558468529500 	 17.374931941500 	
C	 23.093122713000 	  4.374913189500 	  7.272507981500 	
C	 22.524578583000 	  4.374915999500 	 17.403064701500 	
C	 23.093091613000 	 10.558474949500 	  7.272505151500 	
C	 22.524547483000 	 10.558477759500 	 17.403061871500 	
C	  8.696541388600 	  4.900436048200 	  2.179119568000 	
C	  8.127997258600 	  4.900438858200 	 12.309676288000 	
C	  8.696510288600 	 11.083997808200 	  2.179116738000 	
C	  8.127966158600 	 11.084000618200 	 12.309673458000 	
C	 23.377368688600 	  4.900445278200 	  2.207249498000 	
C	 22.808824558600 	  4.900448088200 	 12.337806218000 	
C	 23.377337588600 	 11.084007038200 	  2.207246668000 	
C	 22.808793458600 	 11.084009848200 	 12.337803388000 	
C	  5.699956798100 	  1.808670211500 	  2.914305870100 	
C	  5.131412668100 	  1.808673021500 	 13.044862590100 	
C	  5.699925698100 	  7.992231971500 	  2.914303040100 	
C	  5.131381568100 	  7.992234781500 	 13.044859760100 	
C	 20.380784098100 	  1.808679441500 	  2.942435800100 	
C	 19.812239968100 	  1.808682251500 	 13.072992520100 	
C	 20.380752998100 	  7.992241201500 	  2.942432970100 	
C	 19.812208868100 	  7.992244011500 	 13.072989690100 	
H	  6.095413680900 	  0.440179673500 	  7.880948511900 	
H	  5.526869550900 	  0.440182483500 	 18.011505231900 	
H	  6.095382580900 	  6.623741433500 	  7.880945681900 	
H	  5.526838450900 	  6.623744243500 	 18.011502401900 	
H	 20.776240980900 	  0.440188903500 	  7.909078441900 	
H	 20.207696850900 	  0.440191713500 	 18.039635161900 	
H	 20.776209880900 	  6.623750663500 	  7.909075611900 	
H	 20.207665750900 	  6.623753473500 	 18.039632331900 	
H	  7.732618281700 	  3.531935504600 	  7.342985579400 	
H	  7.164074151700 	  3.531938314600 	 17.473542299400 	
H	  7.732587181700 	  9.715497264600 	  7.342982749400 	
H	  7.164043051700 	  9.715500074600 	 17.473539469400 	
H	 22.413445581700 	  3.531944734600 	  7.371115509400 	
H	 21.844901451700 	  3.531947544600 	 17.501672229400 	
H	 22.413414481700 	  9.715506494600 	  7.371112679400 	
H	 21.844870351700 	  9.715509304600 	 17.501669399400 	
H	  8.016837948600 	  5.743393631800 	  2.277735307300 	
H	  7.448293818600 	  5.743396441800 	 12.408292027300 	
H	  8.016806848600 	 11.926955391800 	  2.277732477300 	
H	  7.448262718600 	 11.926958201800 	 12.408289197300 	
H	 22.697665248600 	  5.743402861800 	  2.305865237300 	
H	 22.129121118600 	  5.743405671800 	 12.436421957300 	
H	 22.697634148600 	 11.926964621800 	  2.305862407300 	
H	 22.129090018600 	 11.926967431800 	 12.436419127300 	
H	  6.379633929400 	  2.651638728300 	  2.815698342200 	
H	  5.811089799400 	  2.651641538300 	 12.946255062200 	
H	  6.379602829400 	  8.835200488300 	  2.815695512200 	
H	  5.811058699400 	  8.835203298300 	 12.946252232200 	
H	 21.060461229400 	  2.651647958300 	  2.843828272200 	
H	 20.491917099400 	  2.651650768300 	 12.974384992200 	
H	 21.060430129400 	  8.835209718300 	  2.843825442200 	
H	 20.491885999400 	  8.835212528300 	 12.974382162200 	
C	  2.038932514800 	  2.415402770700 	  6.496426445200 	
C	  1.470388384800 	  2.415405580700 	 16.626983165200 	
C	  2.038901414800 	  8.598964530700 	  6.496423615200 	
C	  1.470357284800 	  8.598967340700 	 16.626980335200 	
C	 16.719759814800 	  2.415412000700 	  6.524556375200 	
C	 16.151215684800 	  2.415414810700 	 16.655113095200 	
C	 16.719728714800 	  8.598973760700 	  6.524553545200 	
C	 16.151184584800 	  8.598976570700 	 16.655110265200 	
C	 11.789036815200 	  5.507193873300 	  8.727543141800 	
C	 11.220492685200 	  5.507196683300 	 18.858099861800 	
C	 11.789005715200 	 11.690755633300 	  8.727540311800 	
C	 11.220461585200 	 11.690758443300 	 18.858097031800 	
C	 26.469864115200 	  5.507203103300 	  8.755673071800 	
C	 25.901319985200 	  5.507205913300 	 18.886229791800 	
C	 26.469833015200 	 11.690764863300 	  8.755670241800 	
C	 25.901288885200 	 11.690767673300 	 18.886226961800 	
C	 12.073319255900 	  3.768170843800 	  3.662257475500 	
C	 11.504775125900 	  3.768173653800 	 13.792814195500 	
C	 12.073288155900 	  9.951732603800 	  3.662254645500 	
C	 11.504744025900 	  9.951735413800 	 13.792811365500 	
C	 26.754146555900 	  3.768180073800 	  3.690387405500 	
C	 26.185602425900 	  3.768182883800 	 13.820944125500 	
C	 26.754115455900 	  9.951741833800 	  3.690384575500 	
C	 26.185571325900 	  9.951744643800 	 13.820941295500 	
C	  2.323215700900 	  0.676380050400 	  1.431140577700 	
C	  1.754671570900 	  0.676382860400 	 11.561697297700 	
C	  2.323184600900 	  6.859941810400 	  1.431137747700 	
C	  1.754640470900 	  6.859944620400 	 11.561694467700 	
C	 17.004043000900 	  0.676389280400 	  1.459270507700 	
C	 16.435498870900 	  0.676392090400 	 11.589827227700 	
C	 17.004011900900 	  6.859951040400 	  1.459267677700 	
C	 16.435467770900 	  6.859953850400 	 11.589824397700 	
C	  2.316129708800 	  3.196526817000 	  5.195239794800 	
C	  1.747585578800 	  3.196529627000 	 15.325796514800 	
C	  2.316098608800 	  9.380088577000 	  5.195236964800 	
C	  1.747554478800 	  9.380091387000 	 15.325793684800 	
C	 16.996957008800 	  3.196536047000 	  5.223369724800 	
C	 16.428412878800 	  3.196538857000 	 15.353926444800 	
C	 16.996925908800 	  9.380097807000 	  5.223366894800 	
C	 16.428381778800 	  9.380100617000 	 15.353923614800 	
C	 11.511861565400 	  0.104754769900 	 10.028731499500 	
C	 10.943317435400 	  0.104757579900 	 20.159288219500 	
C	 11.511830465400 	  6.288316529900 	 10.028728669500 	
C	 10.943286335400 	  6.288319339900 	 20.159285389500 	
C	 26.192688865400 	  0.104763999900 	 10.056861429500 	
C	 25.624144735400 	  0.104766809900 	 20.187418149500 	
C	 26.192657765400 	  6.288325759900 	 10.056858599500 	
C	 25.624113635400 	  6.288328569900 	 20.187415319500 	
C	 11.796121898000 	  2.987047354100 	  4.963444429600 	
C	 11.227577768000 	  2.987050164100 	 15.094001149600 	
C	 11.796090798000 	  9.170609114100 	  4.963441599600 	
C	 11.227546668000 	  9.170611924100 	 15.093998319600 	
C	 26.476949198000 	  2.987056584100 	  4.991574359600 	
C	 25.908405068000 	  2.987059394100 	 15.122131079600 	
C	 26.476918098000 	  9.170618344100 	  4.991571529600 	
C	 25.908373968000 	  9.170621154100 	 15.122128249600 	
C	  2.600391103200 	  6.078819463000 	  0.129952119000 	
C	  2.031846973200 	  6.078822273000 	 10.260508839000 	
C	  2.600360003200 	 12.262381223000 	  0.129949289000 	
C	  2.031815873200 	 12.262384033000 	 10.260506009000 	
C	 17.281218403200 	  6.078828693000 	  0.158082049000 	
C	 16.712674273200 	  6.078831503000 	 10.288638769000 	
C	 17.281187303200 	 12.262390453000 	  0.158079219000 	
C	 16.712643173200 	 12.262393263000 	 10.288635939000 	
H	  2.612757015800 	  4.227841415400 	  5.421537736000 	
H	  2.044212885800 	  4.227844225400 	 15.552094456000 	
H	  2.612725915800 	 10.411403175400 	  5.421534906000 	
H	  2.044181785800 	 10.411405985400 	 15.552091626000 	
H	 17.293584315800 	  4.227850645400 	  5.449667666000 	
H	 16.725040185800 	  4.227853455400 	 15.580224386000 	
H	 17.293553215800 	 10.411412405400 	  5.449664836000 	
H	 16.725009085800 	 10.411415215400 	 15.580221556000 	
H	 11.215218029300 	  1.136067184600 	  9.802432299100 	
H	 10.646673899300 	  1.136069994600 	 19.932989019100 	
H	 11.215186929300 	  7.319628944600 	  9.802429469100 	
H	 10.646642799300 	  7.319631754600 	 19.932986189100 	
H	 25.896045329300 	  1.136076414600 	  9.830562229100 	
H	 25.327501199300 	  1.136079224600 	 19.961118949100 	
H	 25.896014229300 	  7.319638174600 	  9.830559399100 	
H	 25.327470099300 	  7.319640984600 	 19.961116119100 	
H	 11.499494568300 	  1.955732631900 	  4.737146893600 	
H	 10.930950438300 	  1.955735441900 	 14.867703613600 	
H	 11.499463468300 	  8.139294391900 	  4.737144063600 	
H	 10.930919338300 	  8.139297201900 	 14.867700783600 	
H	 26.180321868300 	  1.955741861900 	  4.765276823600 	
H	 25.611777738300 	  1.955744671900 	 14.895833543600 	
H	 26.180290768300 	  8.139303621900 	  4.765273993600 	
H	 25.611746638300 	  8.139306431900 	 14.895830713600 	
H	  2.897034650700 	  5.047507048200 	  0.356251116800 	
H	  2.328490520700 	  5.047509858200 	 10.486807836800 	
H	  2.897003550700 	 11.231068808200 	  0.356248286800 	
H	  2.328459420700 	 11.231071618200 	 10.486805006800 	
H	 17.577861950700 	  5.047516278200 	  0.384381046800 	
H	 17.009317820700 	  5.047519088200 	 10.514937766800 	
H	 17.577830850700 	 11.231078038200 	  0.384378216800 	
H	 17.009286720700 	 11.231080848200 	 10.514934936800 	
H	  1.412048820700 	  3.230173843200 	  4.570178105800 	
H	  0.843504690700 	  3.230176653200 	 14.700734825800 	
H	  1.412017720700 	  9.413735603200 	  4.570175275800 	
H	  0.843473590700 	  9.413738413200 	 14.700731995800 	
H	 16.092876120700 	  3.230183073200 	  4.598308035800 	
H	 15.524331990700 	  3.230185883200 	 14.728864755800 	
H	 16.092845020700 	  9.413744833200 	  4.598305205800 	
H	 15.524300890700 	  9.413747643200 	 14.728861925800 	
H	 12.984491248900 	  0.138409911600 	  0.523233610500 	
H	 12.415947118900 	  0.138412721600 	 10.653790330500 	
H	 12.984460148900 	  6.321971671600 	  0.523230780500 	
H	 12.415916018900 	  6.321974481600 	 10.653787500500 	
H	 27.665318548900 	  0.138419141600 	  0.551363540500 	
H	 27.096774418900 	  0.138421951600 	 10.681920260500 	
H	 27.665287448900 	  6.321980901600 	  0.551360710500 	
H	 27.096743318900 	  6.321983711600 	 10.681917430500 	
H	 12.700202627900 	  2.953400575200 	  5.588506320900 	
H	 12.131658497900 	  2.953403385200 	 15.719063040900 	
H	 12.700171527900 	  9.136962335200 	  5.588503490900 	
H	 12.131627397900 	  9.136965145200 	 15.719060210900 	
H	 27.381029927900 	  2.953409805200 	  5.616636250900 	
H	 26.812485797900 	  2.953412615200 	 15.747192970900 	
H	 27.380998827900 	  9.136971565200 	  5.616633420900 	
H	 26.812454697900 	  9.136974375200 	 15.747190140900 	
H	  1.127761431100 	  6.045164321200 	  9.635449805400 	
H	  0.559217301100 	  6.045167131200 	 19.766006525400 	
H	  1.127730331100 	 12.228726081200 	  9.635446975400 	
H	  0.559186201100 	 12.228728891200 	 19.766003695400 	
H	 15.808588731100 	  6.045173551200 	  9.663579735400 	
H	 15.240044601100 	  6.045176361200 	 19.794136455400 	
H	 15.808557631100 	 12.228735311200 	  9.663576905400 	
H	 15.240013501100 	 12.228738121200 	 19.794133625400 	
H	  3.117974382100 	  2.721514149100 	  4.615664106800 	
H	  2.549430252100 	  2.721516959100 	 14.746220826800 	
H	  3.117943282100 	  8.905075909100 	  4.615661276800 	
H	  2.549399152100 	  8.905078719100 	 14.746217996800 	
H	 17.798801682100 	  2.721523379100 	  4.643794036800 	
H	 17.230257552100 	  2.721526189100 	 14.774350756800 	
H	 17.798770582100 	  8.905085139100 	  4.643791206800 	
H	 17.230226452100 	  8.905087949100 	 14.774347926800 	
H	 11.278543592100 	  5.813293234200 	  0.477751838000 	
H	 10.709999462100 	  5.813296044200 	 10.608308558000 	
H	 11.278512492100 	 11.996854994200 	  0.477749008000 	
H	 10.709968362100 	 11.996857804200 	 10.608305728000 	
H	 25.959370892100 	  5.813302464200 	  0.505881768000 	
H	 25.390826762100 	  5.813305274200 	 10.636438488000 	
H	 25.959339792100 	 11.996864224200 	  0.505878938000 	
H	 25.390795662100 	 11.996867034200 	 10.636435658000 	
H	 10.994277095000 	  3.462060207400 	  5.543019813300 	
H	 10.425732965000 	  3.462063017400 	 15.673576533300 	
H	 10.994245995000 	  9.645621967400 	  5.543016983300 	
H	 10.425701865000 	  9.645624777400 	 15.673573703300 	
H	 25.675104395000 	  3.462069437400 	  5.571149743300 	
H	 25.106560265000 	  3.462072247400 	 15.701706463300 	
H	 25.675073295000 	  9.645631197400 	  5.571146913300 	
H	 25.106529165000 	  9.645634007400 	 15.701703633300 	
H	  2.833709070800 	  0.370281122300 	  9.680931881800 	
H	  2.265164940800 	  0.370283932300 	 19.811488601800 	
H	  2.833677970800 	  6.553842882300 	  9.680929051800 	
H	  2.265133840800 	  6.553845692300 	 19.811485771800 	
H	 17.514536370800 	  0.370290352300 	  9.709061811800 	
H	 16.945992240800 	  0.370293162300 	 19.839618531800 	
H	 17.514505270800 	  6.553852112300 	  9.709058981800 	
H	 16.945961140800 	  6.553854922300 	 19.839615701800 	
C	  0.887164533100 	  3.099405811500 	  7.256915573700 	
C	  0.318620403100 	  3.099408621500 	 17.387472293700 	
C	  0.887133433100 	  9.282967571500 	  7.256912743700 	
C	  0.318589303100 	  9.282970381500 	 17.387469463700 	
C	 15.567991833100 	  3.099415041500 	  7.285045503700 	
C	 14.999447703100 	  3.099417851500 	 17.415602223700 	
C	 15.567960733100 	  9.282976801500 	  7.285042673700 	
C	 14.999416603100 	  9.282979611500 	 17.415599393700 	
C	 12.940820695000 	  0.007641134200 	  7.967052756600 	
C	 12.372276565000 	  0.007643944200 	 18.097609476600 	
C	 12.940789595000 	  6.191202894200 	  7.967049926600 	
C	 12.372245465000 	  6.191205704200 	 18.097606646600 	
C	 27.621647995000 	  0.007650364200 	  7.995182686600 	
C	 27.053103865000 	  0.007653174200 	 18.125739406600 	
C	 27.621616895000 	  6.191212124200 	  7.995179856600 	
C	 27.053072765000 	  6.191214934200 	 18.125736576600 	
C	 13.225087214900 	  3.084167431900 	  2.901768752300 	
C	 12.656543084900 	  3.084170241900 	 13.032325472300 	
C	 13.225056114900 	  9.267729191900 	  2.901765922300 	
C	 12.656511984900 	  9.267732001900 	 13.032322642300 	
C	 27.905914514900 	  3.084176661900 	  2.929898682300 	
C	 27.337370384900 	  3.084179471900 	 13.060455402300 	
C	 27.905883414900 	  9.267738421900 	  2.929895852300 	
C	 27.337339284900 	  9.267741231900 	 13.060452572300 	
C	  1.171431838100 	  6.175932418400 	  2.191630659100 	
C	  0.602887708100 	  6.175935228400 	 12.322187379100 	
C	  1.171400738100 	 12.359494178400 	  2.191627829100 	
C	  0.602856608100 	 12.359496988400 	 12.322184549100 	
C	 15.852259138100 	  6.175941648400 	  2.219760589100 	
C	 15.283715008100 	  6.175944458400 	 12.350317309100 	
C	 15.852228038100 	 12.359503408400 	  2.219757759100 	
C	 15.283683908100 	 12.359506218400 	 12.350314479100 	
H	  1.090122822200 	  4.156575733700 	  7.463856135200 	
H	  0.521578692200 	  4.156578543700 	 17.594412855200 	
H	  1.090091722200 	 10.340137493700 	  7.463853305200 	
H	  0.521547592200 	 10.340140303700 	 17.594410025200 	
H	 15.770950122200 	  4.156584963700 	  7.491986065200 	
H	 15.202405992200 	  4.156587773700 	 17.622542785200 	
H	 15.770919022200 	 10.340146723700 	  7.491983235200 	
H	 15.202374892200 	 10.340149533700 	 17.622539955200 	
H	 12.737839640600 	  1.064812279800 	  7.760118093700 	
H	 12.169295510600 	  1.064815089800 	 17.890674813700 	
H	 12.737808540600 	  7.248374039800 	  7.760115263700 	
H	 12.169264410600 	  7.248376849800 	 17.890671983700 	
H	 27.418666940600 	  1.064821509800 	  7.788248023700 	
H	 26.850122810600 	  1.064824319800 	 17.918804743700 	
H	 27.418635840600 	  7.248383269800 	  7.788245193700 	
H	 26.850091710600 	  7.248386079800 	 17.918801913700 	
H	 13.022128767600 	  2.026997447900 	  2.694828393100 	
H	 12.453584637600 	  2.027000257900 	 12.825385113100 	
H	 13.022097667600 	  8.210559207900 	  2.694825563100 	
H	 12.453553537600 	  8.210562017900 	 12.825382283100 	
H	 27.702956067600 	  2.027006677900 	  2.722958323100 	
H	 27.134411937600 	  2.027009487900 	 12.853515043100 	
H	 27.702924967600 	  8.210568437900 	  2.722955493100 	
H	 27.134380837600 	  8.210571247900 	 12.853512213100 	
H	  1.374413050700 	  5.118761334700 	  2.398565119600 	
H	  0.805868920700 	  5.118764144700 	 12.529121839600 	
H	  1.374381950700 	 11.302323094700 	  2.398562289600 	
H	  0.805837820700 	 11.302325904700 	 12.529119009600 	
H	 16.055240350700 	  5.118770564700 	  2.426695049600 	
H	 15.486696220700 	  5.118773374700 	 12.557251769600 	
H	 16.055209250700 	 11.302332324700 	  2.426692219600 	
H	 15.486665120700 	 11.302335134700 	 12.557248939600 	
H	  0.683561485800 	  2.596531593500 	  8.210188040200 	
H	  0.115017355800 	  2.596534403500 	 18.340744760200 	
H	  0.683530385800 	  8.780093353500 	  8.210185210200 	
H	  0.114986255800 	  8.780096163500 	 18.340741930200 	
H	 15.364388785800 	  2.596540823500 	  8.238317970200 	
H	 14.795844655800 	  2.596543633500 	 18.368874690200 	
H	 15.364357685800 	  8.780102583500 	  8.238315140200 	
H	 14.795813555800 	  8.780105393500 	 18.368871860200 	
H	 13.144397725400 	  5.688341754300 	  7.013772246600 	
H	 12.575853595400 	  5.688344564300 	 17.144328966600 	
H	 13.144366625400 	 11.871903514300 	  7.013769416600 	
H	 12.575822495400 	 11.871906324300 	 17.144326136600 	
H	 27.825225025400 	  5.688350984300 	  7.041902176600 	
H	 27.256680895400 	  5.688353794300 	 17.172458896600 	
H	 27.825193925400 	 11.871912744300 	  7.041899346600 	
H	 27.256649795400 	 11.871915554300 	 17.172456066600 	
H	 13.428690561400 	  3.587041340800 	  1.948496185000 	
H	 12.860146431400 	  3.587044150800 	 12.079052905000 	
H	 13.428659461400 	  9.770603100800 	  1.948493355000 	
H	 12.860115331400 	  9.770605910800 	 12.079050075000 	
H	 28.109517861400 	  3.587050570800 	  1.976626115000 	
H	 27.540973731400 	  3.587053380800 	 12.107182835000 	
H	 28.109486761400 	  9.770612330800 	  1.976623285000 	
H	 27.540942631400 	  9.770615140800 	 12.107180005000 	
H	  0.967854649600 	  0.495231612900 	  3.144911371300 	
H	  0.399310519600 	  0.495234422900 	 13.275468091300 	
H	  0.967823549600 	  6.678793372900 	  3.144908541300 	
H	  0.399279419600 	  6.678796182900 	 13.275465261300 	
H	 15.648681949600 	  0.495240842900 	  3.173041301300 	
H	 15.080137819600 	  0.495243652900 	 13.303598021300 	
H	 15.648650849600 	  6.678802602900 	  3.173038471300 	
H	 15.080106719600 	  6.678805412900 	 13.303595191300 	
H	 -0.027515277800 	  3.062154096700 	  6.650929329100 	
H	 -0.596059407800 	  3.062156906700 	 16.781486049100 	
H	 -0.027546377800 	  9.245715856700 	  6.650926499100 	
H	 -0.596090507800 	  9.245718666700 	 16.781483219100 	
H	 14.653312022200 	  3.062163326700 	  6.679059259100 	
H	 14.084767892200 	  3.062166136700 	 16.809615979100 	
H	 14.653280922200 	  9.245725086700 	  6.679056429100 	
H	 14.084736792200 	  9.245727896700 	 16.809613149100 	
H	 13.855469667900 	  6.153952088900 	  8.573035597100 	
H	 13.286925537900 	  6.153954898900 	 18.703592317100 	
H	 13.855438567900 	 12.337513848900 	  8.573032767100 	
H	 13.286894437900 	 12.337516658900 	 18.703589487100 	
H	 28.536296967900 	  6.153961318900 	  8.601165527100 	
H	 27.967752837900 	  6.153964128900 	 18.731722247100 	
H	 28.536265867900 	 12.337523078900 	  8.601162697100 	
H	 27.967721737900 	 12.337525888900 	 18.731719417100 	
H	 14.139766867500 	  3.121419146800 	  3.507755199200 	
H	 13.571222737500 	  3.121421956800 	 13.638311919200 	
H	 14.139735767500 	  9.304980906800 	  3.507752369200 	
H	 13.571191637500 	  9.304983716800 	 13.638309089200 	
H	 28.820594167500 	  3.121428376800 	  3.535885129200 	
H	 28.252050037500 	  3.121431186800 	 13.666441849200 	
H	 28.820563067500 	  9.304990136800 	  3.535882299200 	
H	 28.252018937500 	  9.304992946800 	 13.666439019200 	
H	  0.256782865300 	  0.029621463700 	  1.585647818500 	
H	 -0.311761264700 	  0.029624273700 	 11.716204538500 	
H	  0.256751765300 	  6.213183223700 	  1.585644988500 	
H	 -0.311792364700 	  6.213186033700 	 11.716201708500 	
H	 14.937610165300 	  0.029630693700 	  1.613777748500 	
H	 14.369066035300 	  0.029633503700 	 11.744334468500 	
H	 14.937579065300 	  6.213192453700 	  1.613774918500 	
H	 14.369034935300 	  6.213195263700 	 11.744331638500 	
C	  1.581473236200 	  0.991044022700 	  6.130188493600 	
C	  1.012929106200 	  0.991046832700 	 16.260745213600 	
C	  1.581442136200 	  7.174605782700 	  6.130185663600 	
C	  1.012898006200 	  7.174608592700 	 16.260742383600 	
C	 16.262300536200 	  0.991053252700 	  6.158318423600 	
C	 15.693756406200 	  0.991056062700 	 16.288875143600 	
C	 16.262269436200 	  7.174615012700 	  6.158315593600 	
C	 15.693725306200 	  7.174617822700 	 16.288872313600 	
C	 12.246521765400 	  4.082837103900 	  9.093781709700 	
C	 11.677977635400 	  4.082839913900 	 19.224338429700 	
C	 12.246490665400 	 10.266398863900 	  9.093778879700 	
C	 11.677946535400 	 10.266401673900 	 19.224335599700 	
C	 26.927349065400 	  4.082846333900 	  9.121911639700 	
C	 26.358804935400 	  4.082849143900 	 19.252468359700 	
C	 26.927317965400 	 10.266408093900 	  9.121908809700 	
C	 26.358773835400 	 10.266410903900 	 19.252465529700 	
C	 12.530778715400 	  5.192529777300 	  4.028494819600 	
C	 11.962234585400 	  5.192532587300 	 14.159051539600 	
C	 12.530747615400 	 11.376091537300 	  4.028491989600 	
C	 11.962203485400 	 11.376094347300 	 14.159048709600 	
C	 27.211606015400 	  5.192539007300 	  4.056624749600 	
C	 26.643061885400 	  5.192541817300 	 14.187181469600 	
C	 27.211574915400 	 11.376100767300 	  4.056621919600 	
C	 26.643030785400 	 11.376103577300 	 14.187178639600 	
C	  1.865730445700 	  2.100736819800 	  1.064902211900 	
C	  1.297186315700 	  2.100739629800 	 11.195458931900 	
C	  1.865699345700 	  8.284298579800 	  1.064899381900 	
C	  1.297155215700 	  8.284301389800 	 11.195456101900 	
C	 16.546557745700 	  2.100746049800 	  1.093032141900 	
C	 15.978013615700 	  2.100748859800 	 11.223588861900 	
C	 16.546526645700 	  8.284307809800 	  1.093029311900 	
C	 15.977982515700 	  8.284310619800 	 11.223586031900 	
H	  0.610675950600 	  1.034865784000 	  5.618136422600 	
H	  0.042131820600 	  1.034868594000 	 15.748693142600 	
H	  0.610644850600 	  7.218427544000 	  5.618133592600 	
H	  0.042100720600 	  7.218430354000 	 15.748690312600 	
H	 15.291503250600 	  1.034875014000 	  5.646266352600 	
H	 14.722959120600 	  1.034877824000 	 15.776823072600 	
H	 15.291472150600 	  7.218436774000 	  5.646263522600 	
H	 14.722928020600 	  7.218439584000 	 15.776820242600 	
H	 13.217317326700 	  4.126663991400 	  9.605838297400 	
H	 12.648773196700 	  4.126666801400 	 19.736395017400 	
H	 13.217286226700 	 10.310225751400 	  9.605835467400 	
H	 12.648742096700 	 10.310228561400 	 19.736392187400 	
H	 27.898144626700 	  4.126673221400 	  9.633968227400 	
H	 27.329600496700 	  4.126676031400 	 19.764524947400 	
H	 27.898113526700 	 10.310234981400 	  9.633965397400 	
H	 27.329569396700 	 10.310237791400 	 19.764522117400 	
H	 13.501575842900 	  5.148708016000 	  4.540547092900 	
H	 12.933031712900 	  5.148710826000 	 14.671103812900 	
H	 13.501544742900 	 11.332269776000 	  4.540544262900 	
H	 12.933000612900 	 11.332272586000 	 14.671100982900 	
H	 28.182403142900 	  5.148717246000 	  4.568677022900 	
H	 27.613859012900 	  5.148720056000 	 14.699233742900 	
H	 28.182372042900 	 11.332279006000 	  4.568674192900 	
H	 27.613827912900 	 11.332281816000 	 14.699230912900 	
H	  0.894934890100 	  2.056909870500 	  0.552845522900 	
H	  0.326390760100 	  2.056912680500 	 10.683402242900 	
H	  0.894903790100 	  8.240471630500 	  0.552842692900 	
H	  0.326359660100 	  8.240474440500 	 10.683399412900 	
H	 15.575762190100 	  2.056919100500 	  0.580975452900 	
H	 15.007218060100 	  2.056921910500 	 10.711532172900 	
H	 15.575731090100 	  8.240480860500 	  0.580972622900 	
H	 15.007186960100 	  8.240483670500 	 10.711529342900 	
H	  1.459783142400 	  0.369871747300 	  7.026704052400 	
H	  0.891239012400 	  0.369874557300 	 17.157260772400 	
H	  1.459752042400 	  6.553433507300 	  7.026701222400 	
H	  0.891207912400 	  6.553436317300 	 17.157257942400 	
H	 16.140610442400 	  0.369880977300 	  7.054833982400 	
H	 15.572066312400 	  0.369883787300 	 17.185390702400 	
H	 16.140579342400 	  6.553442737300 	  7.054831152400 	
H	 15.572035212400 	  6.553445547300 	 17.185387872400 	
H	 12.368224107600 	  3.461662627600 	  8.197272303400 	
H	 11.799679977600 	  3.461665437600 	 18.327829023400 	
H	 12.368193007600 	  9.645224387600 	  8.197269473400 	
H	 11.799648877600 	  9.645227197600 	 18.327826193400 	
H	 27.049051407600 	  3.461671857600 	  8.225402233400 	
H	 26.480507277600 	  3.461674667600 	 18.355958953400 	
H	 27.049020307600 	  9.645233617600 	  8.225399403400 	
H	 26.480476177600 	  9.645236427600 	 18.355956123400 	
H	 12.652468820600 	  5.813701619900 	  3.131979058100 	
H	 12.083924690600 	  5.813704429900 	 13.262535778100 	
H	 12.652437720600 	 11.997263379900 	  3.131976228100 	
H	 12.083893590600 	 11.997266189900 	 13.262532948100 	
H	 27.333296120600 	  5.813710849900 	  3.160108988100 	
H	 26.764751990600 	  5.813713659900 	 13.290665708100 	
H	 27.333265020600 	 11.997272609900 	  3.160106158100 	
H	 26.764720890600 	 11.997275419900 	 13.290662878100 	
H	  1.744027951100 	  2.721911110600 	  1.961411719200 	
H	  1.175483821100 	  2.721913920600 	 12.091968439200 	
H	  1.743996851100 	  8.905472870600 	  1.961408889200 	
H	  1.175452721100 	  8.905475680600 	 12.091965609200 	
H	 16.424855251100 	  2.721920340600 	  1.989541649200 	
H	 15.856311121100 	  2.721923150600 	 12.120098369200 	
H	 16.424824151100 	  8.905482100600 	  1.989538819200 	
H	 15.856280021100 	  8.905484910600 	 12.120095539200 	
H	  2.286177287500 	  0.494504553500 	  5.453213134500 	
H	  1.717633157500 	  0.494507363500 	 15.583769854500 	
H	  2.286146187500 	  6.678066313500 	  5.453210304500 	
H	  1.717602057500 	  6.678069123500 	 15.583767024500 	
H	 16.967004587500 	  0.494513783500 	  5.481343064500 	
H	 16.398460457500 	  0.494516593500 	 15.611899784500 	
H	 16.966973487500 	  6.678075543500 	  5.481340234500 	
H	 16.398429357500 	  6.678078353500 	 15.611896954500 	
H	 11.541823906000 	  3.586296368900 	  9.770757120400 	
H	 10.973279776000 	  3.586299178900 	 19.901313840400 	
H	 11.541792806000 	  9.769858128900 	  9.770754290400 	
H	 10.973248676000 	  9.769860938900 	 19.901311010400 	
H	 26.222651206000 	  3.586305598900 	  9.798887050400 	
H	 25.654107076000 	  3.586308408900 	 19.929443770400 	
H	 26.222620106000 	  9.769867358900 	  9.798884220400 	
H	 25.654075976000 	  9.769870168900 	 19.929440940400 	
H	 11.826074523000 	  5.689069555700 	  4.705470077100 	
H	 11.257530393000 	  5.689072365700 	 14.836026797100 	
H	 11.826043423000 	 11.872631315700 	  4.705467247100 	
H	 11.257499293000 	 11.872634125700 	 14.836023967100 	
H	 26.506901823000 	  5.689078785700 	  4.733600007100 	
H	 25.938357693000 	  5.689081595700 	 14.864156727100 	
H	 26.506870723000 	 11.872640545700 	  4.733597177100 	
H	 25.938326593000 	 11.872643355700 	 14.864153897100 	
H	  2.570428293700 	  2.597277802200 	  0.387927003800 	
H	  2.001884163700 	  2.597280612200 	 10.518483723800 	
H	  2.570397193700 	  8.780839562200 	  0.387924173800 	
H	  2.001853063700 	  8.780842372200 	 10.518480893800 	
H	 17.251255593700 	  2.597287032200 	  0.416056933800 	
H	 16.682711463700 	  2.597289842200 	 10.546613653800 	
H	 17.251224493700 	  8.780848792200 	  0.416054103800 	
H	 16.682680363700 	  8.780851602200 	 10.546610823800 	
768 
Energy: -8.4761217863349998e+01 
S	  8.729273756290 	  1.548186492164 	  0.048696062999 	
S	  8.160729626290 	  1.548189302164 	 10.179252782999 	
S	  8.729242656290 	  7.731748252164 	  0.048693232999 	
S	  8.160698526290 	  7.731751062164 	 10.179249952999 	
S	 23.410101056290 	  1.548195722164 	  0.076825992999 	
S	 22.841556926290 	  1.548198532164 	 10.207382712999 	
S	 23.410069956290 	  7.731757482164 	  0.076823162999 	
S	 22.841525826290 	  7.731760292164 	 10.207379882999 	
S	  5.614007498559 	  4.635717296908 	  5.076434075509 	
S	  5.045463368559 	  4.635720106908 	 15.206990795509 	
S	  5.613976398559 	 10.819279056908 	  5.076431245509 	
S	  5.045432268559 	 10.819281866908 	 15.206987965509 	
S	 20.294834798559 	  4.635726526908 	  5.104564005509 	
S	 19.726290668559 	  4.635729336908 	 15.235120725509 	
S	 20.294803698559 	 10.819288286908 	  5.104561175509 	
S	 19.726259568559 	 10.819291096908 	 15.235117895509 	
S	  5.336361757497 	  4.627956515558 	 10.164911856129 	
S	  4.767817627497 	  4.627959325558 	 20.295468576129 	
S	  5.336330657497 	 10.811518275558 	 10.164909026129 	
S	  4.767786527497 	 10.811521085558 	 20.295465746129 	
S	 20.017189057497 	  4.627965745558 	 10.193041786129 	
S	 19.448644927497 	  4.627968555558 	 20.323598506129 	
S	 20.017157957497 	 10.811527505558 	 10.193038956129 	
S	 19.448613827497 	 10.811530315558 	 20.323595676129 	
S	  8.451628399261 	  1.540426380995 	  5.137174086605 	
S	  7.883084269261 	  1.540429190995 	 15.267730806605 	
S	  8.451597299261 	  7.723988140995 	  5.137171256605 	
S	  7.883053169261 	  7.723990950995 	 15.267727976605 	
S	 23.132455699261 	  1.540435610995 	  5.165304016605 	
S	 22.563911569261 	  1.540438420995 	 15.295860736605 	
S	 23.132424599261 	  7.723997370995 	  5.165301186605 	
S	 22.563880469261 	  7.724000180995 	 15.295857906605 	
C	  6.748650158682 	  2.546391558825 	  9.835416148948 	
C	  6.180106028682 	  2.546394368825 	 19.965972868948 	
C	  6.748619058682 	  8.729953318825 	  9.835413318948 	
C	  6.180074928682 	  8.729956128825 	 19.965970038948 	
C	 21.429477458682 	  2.546400788825 	  9.863546078948 	
C	 20.860933328682 	  2.546403598825 	 19.994102798948 	
C	 21.429446358682 	  8.729962548825 	  9.863543248948 	
C	 20.860902228682 	  8.729965358825 	 19.994099968948 	
C	  7.038230715382 	  5.628293565534 	  5.467648966072 	
C	  6.469686585382 	  5.628296375534 	 15.598205686072 	
C	  7.038199615382 	 11.811855325534 	  5.467646136072 	
C	  6.469655485382 	 11.811858135534 	 15.598202856072 	
C	 21.719058015382 	  5.628302795534 	  5.495778896072 	
C	 21.150513885382 	  5.628305605534 	 15.626335616072 	
C	 21.719026915382 	 11.811864555534 	  5.495776066072 	
C	 21.150482785382 	 11.811867365534 	 15.626332786072 	
C	  7.316985385959 	  3.629751396348 	  0.378191776519 	
C	  6.748441255959 	  3.629754206348 	 10.508748496519 	
C	  7.316954285959 	  9.813313156348 	  0.378188946519 	
C	  6.748410155959 	  9.813315966348 	 10.508745666519 	
C	 21.997812685959 	  3.629760626348 	  0.406321706519 	
C	 21.429268555959 	  3.629763436348 	 10.536878426519 	
C	 21.997781585959 	  9.813322386348 	  0.406318876519 	
C	 21.429237455959 	  9.813325196348 	 10.536875596519 	
C	  7.027405042123 	  0.547850225534 	  4.745959180488 	
C	  6.458860912123 	  0.547853035534 	 14.876515900488 	
C	  7.027373942123 	  6.731411985534 	  4.745956350488 	
C	  6.458829812123 	  6.731414795534 	 14.876513070488 	
C	 21.708232342123 	  0.547859455534 	  4.774089110488 	
C	 21.139688212123 	  0.547862265534 	 14.904645830488 	
C	 21.708201242123 	  6.731421215534 	  4.774086280488 	
C	 21.139657112123 	  6.731424025534 	 14.904643000488 	
C	  5.682876565625 	  2.333092102366 	  8.915126811760 	
C	  5.114332435625 	  2.333094912366 	 19.045683531760 	
C	  5.682845465625 	  8.516653862366 	  8.915123981760 	
C	  5.114301335625 	  8.516656672366 	 19.045680701760 	
C	 20.363703865625 	  2.333101332366 	  8.943256741760 	
C	 19.795159735625 	  2.333104142366 	 19.073813461760 	
C	 20.363672765625 	  8.516663092366 	  8.943253911760 	
C	 19.795128635625 	  8.516665902366 	 19.073810631760 	
C	  8.110517614493 	  5.425344907154 	  6.386563834638 	
C	  7.541973484493 	  5.425347717154 	 16.517120554638 	
C	  8.110486514493 	 11.608906667154 	  6.386561004638 	
C	  7.541942384493 	 11.608909477154 	 16.517117724638 	
C	 22.791344914493 	  5.425354137154 	  6.414693764638 	
C	 22.222800784493 	  5.425356947154 	 16.545250484638 	
C	 22.791313814493 	 11.608915897154 	  6.414690934638 	
C	 22.222769684493 	 11.608918707154 	 16.545247654638 	
C	  8.382758798316 	  3.843050891088 	  1.298480981464 	
C	  7.814214668316 	  3.843053701088 	 11.429037701464 	
C	  8.382727698316 	 10.026612651088 	  1.298478151464 	
C	  7.814183568316 	 10.026615461088 	 11.429034871464 	
C	 23.063586098316 	  3.843060121088 	  1.326610911464 	
C	 22.495041968316 	  3.843062931088 	 11.457167631464 	
C	 23.063554998316 	 10.026621881088 	  1.326608081464 	
C	 22.495010868316 	 10.026624691088 	 11.457164801464 	
C	  5.955118110035 	  0.750798850709 	  3.827044226776 	
C	  5.386573980035 	  0.750801660709 	 13.957600946776 	
C	  5.955087010035 	  6.934360610709 	  3.827041396776 	
C	  5.386542880035 	  6.934363420709 	 13.957598116776 	
C	 20.635945410035 	  0.750808080709 	  3.855174156776 	
C	 20.067401280035 	  0.750810890709 	 13.985730876776 	
C	 20.635914310035 	  6.934369840709 	  3.855171326776 	
C	 20.067370180035 	  6.934372650709 	 13.985728046776 	
C	  4.784687125063 	  3.397747748901 	  8.966373363986 	
C	  4.216142995063 	  3.397750558901 	 19.096930083986 	
C	  4.784656025063 	  9.581309508901 	  8.966370533986 	
C	  4.216111895063 	  9.581312318901 	 19.096927253986 	
C	 19.465514425063 	  3.397756978901 	  8.994503293986 	
C	 18.896970295063 	  3.397759788901 	 19.125060013986 	
C	 19.465483325063 	  9.581318738901 	  8.994500463986 	
C	 18.896939195063 	  9.581321548901 	 19.125057183986 	
C	  8.995438634567 	  0.305140328849 	  6.336314002283 	
C	  8.426894504567 	  0.305143138849 	 16.466870722283 	
C	  8.995407534567 	  6.488702088849 	  6.336311172283 	
C	  8.426863404567 	  6.488704898849 	 16.466867892283 	
C	 23.676265934567 	  0.305149558849 	  6.364443932283 	
C	 23.107721804567 	  0.305152368849 	 16.495000652283 	
C	 23.676234834567 	  6.488711318849 	  6.364441102283 	
C	 23.107690704567 	  6.488714128849 	 16.494997822283 	
C	  9.280948234951 	  2.778395323891 	  1.247234530105 	
C	  8.712404104951 	  2.778398133891 	 11.377791250105 	
C	  9.280917134951 	  8.961957083891 	  1.247231700105 	
C	  8.712373004951 	  8.961959893891 	 11.377788420105 	
C	 23.961775534951 	  2.778404553891 	  1.275364460105 	
C	 23.393231404951 	  2.778407363891 	 11.405921180105 	
C	 23.961744434951 	  8.961966313891 	  1.275361630105 	
C	 23.393200304951 	  8.961969123891 	 11.405918350105 	
C	  5.070197099295 	  5.871003358423 	  3.877294086019 	
C	  4.501652969295 	  5.871006168423 	 14.007850806019 	
C	  5.070165999295 	 12.054565118423 	  3.877291256019 	
C	  4.501621869295 	 12.054567928423 	 14.007847976019 	
C	 19.751024399295 	  5.871012588423 	  3.905424016019 	
C	 19.182480269295 	  5.871015398423 	 14.035980736019 	
C	 19.750993299295 	 12.054574348423 	  3.905421186019 	
C	 19.182449169295 	 12.054577158423 	 14.035977906019 	
C	  3.676192367693 	  3.428471765931 	  8.223196972822 	
C	  3.107648237693 	  3.428474575931 	 18.353753692823 	
C	  3.676161267693 	  9.612033525931 	  8.223194142822 	
C	  3.107617137693 	  9.612036335931 	 18.353750862823 	
C	 18.357019667693 	  3.428480995931 	  8.251326902823 	
C	 17.788475537693 	  3.428483805931 	 18.381883622822 	
C	 18.356988567693 	  9.612042755931 	  8.251324072823 	
C	 17.788444437693 	  9.612045565931 	 18.381880792822 	
C	 10.112387369545 	  0.338350609066 	  7.083642914264 	
C	  9.543843239545 	  0.338353419066 	 17.214199634264 	
C	 10.112356269545 	  6.521912369066 	  7.083640084264 	
C	  9.543812139545 	  6.521915179066 	 17.214196804264 	
C	 24.793214669545 	  0.338359839066 	  7.111772844264 	
C	 24.224670539545 	  0.338362649066 	 17.242329564264 	
C	 24.793183569545 	  6.521921599066 	  7.111770014264 	
C	 24.224639439545 	  6.521924409066 	 17.242326734264 	
C	 10.389443021063 	  2.747671373765 	  1.990411055925 	
C	  9.820898891063 	  2.747674183765 	 12.120967775925 	
C	 10.389411921063 	  8.931233133765 	  1.990408225925 	
C	  9.820867791063 	  8.931235943765 	 12.120964945925 	
C	 25.070270321063 	  2.747680603765 	  2.018540985925 	
C	 24.501726191063 	  2.747683413765 	 12.149097705925 	
C	 25.070239221063 	  8.931242363765 	  2.018538155925 	
C	 24.501695091063 	  8.931245173765 	 12.149094875925 	
C	  3.953248343357 	  5.837793052344 	  3.129965215574 	
C	  3.384704213357 	  5.837795862344 	 13.260521935574 	
C	  3.953217243357 	 12.021354812344 	  3.129962385574 	
C	  3.384673113357 	 12.021357622344 	 13.260519105574 	
C	 18.634075643357 	  5.837802282344 	  3.158095145574 	
C	 18.065531513357 	  5.837805092344 	 13.288651865574 	
C	 18.634044543357 	 12.021364042344 	  3.158092315574 	
C	 18.065500413357 	 12.021366852344 	 13.288649035574 	
H	  2.975408047487 	  4.340726988514 	  8.308663039051 	
H	  2.406863917487 	  4.340729798514 	 18.439219759051 	
H	  2.975376947487 	 10.524288748514 	  8.308660209051 	
H	  2.406832817487 	 10.524291558514 	 18.439216929051 	
H	 17.656235347487 	  4.340736218514 	  8.336792969051 	
H	 17.087691217487 	  4.340739028514 	 18.467349689051 	
H	 17.656204247487 	 10.524297978514 	  8.336790139051 	
H	 17.087660117487 	 10.524300788514 	 18.467346859051 	
H	 10.811130513338 	  1.251578396881 	  6.993990121955 	
H	 10.242586383338 	  1.251581206881 	 17.124546841955 	
H	 10.811099413338 	  7.435140156881 	  6.993987291955 	
H	 10.242555283338 	  7.435142966881 	 17.124544011955 	
H	 25.491957813338 	  1.251587626881 	  7.022120051955 	
H	 24.923413683338 	  1.251590436881 	 17.152676771955 	
H	 25.491926713338 	  7.435149386881 	  7.022117221955 	
H	 24.923382583338 	  7.435152196881 	 17.152673941955 	
H	 11.090227319423 	  1.835416139797 	  1.904944904788 	
H	 10.521683189423 	  1.835418949797 	 12.035501624788 	
H	 11.090196219423 	  8.018977899797 	  1.904942074788 	
H	 10.521652089423 	  8.018980709797 	 12.035498794788 	
H	 25.771054619423 	  1.835425369797 	  1.933074834788 	
H	 25.202510489423 	  1.835428179797 	 12.063631554788 	
H	 25.771023519423 	  8.018987129797 	  1.933072004788 	
H	 25.202479389423 	  8.018989939797 	 12.063628724788 	
H	  3.254505317228 	  4.924565164986 	  3.219618032672 	
H	  2.685961187228 	  4.924567974986 	 13.350174752672 	
H	  3.254474217228 	 11.108126924986 	  3.219615202672 	
H	  2.685930087228 	 11.108129734986 	 13.350171922672 	
H	 17.935332617228 	  4.924574394986 	  3.247747962672 	
H	 17.366788487228 	  4.924577204986 	 13.378304682672 	
H	 17.935301517228 	 11.108136154986 	  3.247745132672 	
H	 17.366757387228 	 11.108138964986 	 13.378301852672 	
C	  3.348132874410 	  2.426434639877 	  7.379536470863 	
C	  2.779588744410 	  2.426437449877 	 17.510093190863 	
C	  3.348101774410 	  8.609996399877 	  7.379533640863 	
C	  2.779557644410 	  8.609999209877 	 17.510090360863 	
C	 18.028960174410 	  2.426443869877 	  7.407666400863 	
C	 17.460416044410 	  2.426446679877 	 17.538223120863 	
C	 18.028929074410 	  8.610005629877 	  7.407663570863 	
C	 17.460384944410 	  8.610008439877 	 17.538220290863 	
C	 10.437113426430 	  5.516903953340 	  7.917789170568 	
C	  9.868569296430 	  5.516906763340 	 18.048345890568 	
C	 10.437082326430 	 11.700465713340 	  7.917786340568 	
C	  9.868538196430 	 11.700468523340 	 18.048343060568 	
C	 25.117940726430 	  5.516913183340 	  7.945919100568 	
C	 24.549396596430 	  5.516915993340 	 18.076475820568 	
C	 25.117909626430 	 11.700474943340 	  7.945916270568 	
C	 24.549365496430 	 11.700477753340 	 18.076472990568 	
C	 10.717502349973 	  3.749708433181 	  2.834071504724 	
C	 10.148958219973 	  3.749711243181 	 12.964628224724 	
C	 10.717471249973 	  9.933270193181 	  2.834068674724 	
C	 10.148927119973 	  9.933273003181 	 12.964625394724 	
C	 25.398329649973 	  3.749717663181 	  2.862201434724 	
C	 24.829785519973 	  3.749720473181 	 12.992758154724 	
C	 25.398298549973 	  9.933279423181 	  2.862198604724 	
C	 24.829754419973 	  9.933282233181 	 12.992755324724 	
C	  3.628522367541 	  0.659239657986 	  2.295818898869 	
C	  3.059978237541 	  0.659242467986 	 12.426375618869 	
C	  3.628491267541 	  6.842801417986 	  2.295816068869 	
C	  3.059947137541 	  6.842804227986 	 12.426372788869 	
C	 18.309349667541 	  0.659248887986 	  2.323948828869 	
C	 17.740805537541 	  0.659251697986 	 12.454505548869 	
C	 18.309318567541 	  6.842810647986 	  2.323945998869 	
C	 17.740774437541 	  6.842813457986 	 12.454502718869 	
C	  4.255983360480 	  1.395428526286 	  7.306839237572 	
C	  3.687439230480 	  1.395431336286 	 17.437395957572 	
C	  4.255952260480 	  7.578990286286 	  7.306836407572 	
C	  3.687408130480 	  7.578993096286 	 17.437393127572 	
C	 18.936810660480 	  1.395437756286 	  7.334969167572 	
C	 18.368266530480 	  1.395440566286 	 17.465525887572 	
C	 18.936779560480 	  7.578999516286 	  7.334966337572 	
C	 18.368235430480 	  7.579002326286 	 17.465523057572 	
C	  9.530930847489 	  4.483872409776 	  7.994866564588 	
C	  8.962386717489 	  4.483875219776 	 18.125423284588 	
C	  9.530899747489 	 10.667434169776 	  7.994863734588 	
C	  8.962355617489 	 10.667436979776 	 18.125420454588 	
C	 24.211758147489 	  4.483881639776 	  8.022996494588 	
C	 23.643214017489 	  4.483884449776 	 18.153553214588 	
C	 24.211727047489 	 10.667443399776 	  8.022993664588 	
C	 23.643182917489 	 10.667446209776 	 18.153550384588 	
C	  9.809651755374 	  4.780714495107 	  2.906768833938 	
C	  9.241107625374 	  4.780717305107 	 13.037325553938 	
C	  9.809620655374 	 10.964276255107 	  2.906766003938 	
C	  9.241076525374 	 10.964279065107 	 13.037322723938 	
C	 24.490479055374 	  4.780723725107 	  2.934898763938 	
C	 23.921934925374 	  4.780726535107 	 13.065455483938 	
C	 24.490447955374 	 10.964285485107 	  2.934895933938 	
C	 23.921903825374 	 10.964288295107 	 13.065452653938 	
C	  4.534704784222 	  1.692271165357 	  2.218741468413 	
C	  3.966160654222 	  1.692273975357 	 12.349298188413 	
C	  4.534673684222 	  7.875832925357 	  2.218738638413 	
C	  3.966129554222 	  7.875835735357 	 12.349295358413 	
C	 19.215532084222 	  1.692280395357 	  2.246871398413 	
C	 18.646987954222 	  1.692283205357 	 12.377428118413 	
C	 19.215500984222 	  7.875842155357 	  2.246868568413 	
C	 18.646956854222 	  7.875844965357 	 12.377425288413 	
H	  4.034500363143 	  0.532926583838 	  6.576626191566 	
H	  3.465956233143 	  0.532929393838 	 16.707182911566 	
H	  4.034469263143 	  6.716488343838 	  6.576623361566 	
H	  3.465925133143 	  6.716491153838 	 16.707180081566 	
H	 18.715327663143 	  0.532935813838 	  6.604756121566 	
H	 18.146783533143 	  0.532938623838 	 16.735312841566 	
H	 18.715296563143 	  6.716497573838 	  6.604753291566 	
H	 18.146752433143 	  6.716500383838 	 16.735310011566 	
H	  9.752315836134 	  3.621182700530 	  8.725375512419 	
H	  9.183771706134 	  3.621185510530 	 18.855932232419 	
H	  9.752284736134 	  9.804744460530 	  8.725372682419 	
H	  9.183740606134 	  9.804747270530 	 18.855929402419 	
H	 24.433143136134 	  3.621191930530 	  8.753505442419 	
H	 23.864599006134 	  3.621194740530 	 18.884062162419 	
H	 24.433112036134 	  9.804753690530 	  8.753502612419 	
H	 23.864567906134 	  9.804756500530 	 18.884059332419 	
H	 10.031134744437 	  5.643216393460 	  3.636981916528 	
H	  9.462590614437 	  5.643219203460 	 13.767538636528 	
H	 10.031103644437 	 11.826778153460 	  3.636979086528 	
H	  9.462559514437 	 11.826780963460 	 13.767535806528 	
H	 24.711962044437 	  5.643225623460 	  3.665111846528 	
H	 24.143417914437 	  5.643228433460 	 13.795668566528 	
H	 24.711930944437 	 11.826787383460 	  3.665109016528 	
H	 24.143386814437 	 11.826790193460 	 13.795665736528 	
H	  4.313319783097 	  2.554960898642 	  1.488232549784 	
H	  3.744775653097 	  2.554963708642 	 11.618789269784 	
H	  4.313288683097 	  8.738522658642 	  1.488229719784 	
H	  3.744744553097 	  8.738525468642 	 11.618786439784 	
H	 18.994147083097 	  2.554970128642 	  1.516362479784 	
H	 18.425602953097 	  2.554972938642 	 11.646919199784 	
H	 18.994115983097 	  8.738531888642 	  1.516359649784 	
H	 18.425571853097 	  8.738534698642 	 11.646916369784 	
C	  5.350743183561 	  1.344511900918 	  8.017463156281 	
C	  4.782199053561 	  1.344514710918 	 18.148019876281 	
C	  5.350712083561 	  7.528073660918 	  8.017460326281 	
C	  4.782167953561 	  7.528076470918 	 18.148017046281 	
C	 20.031570483561 	  1.344521130918 	  8.045593086281 	
C	 19.463026353561 	  1.344523940918 	 18.176149806281 	
C	 20.031539383561 	  7.528082890918 	  8.045590256281 	
C	 19.462995253561 	  7.528085700918 	 18.176146976281 	
C	  8.436304122272 	  4.432928250603 	  7.284401291954 	
C	  7.867759992272 	  4.432931060603 	 17.414958011954 	
C	  8.436273022272 	 10.616490010603 	  7.284398461954 	
C	  7.867728892272 	 10.616492820603 	 17.414955181954 	
C	 23.117131422272 	  4.432937480603 	  7.312531221954 	
C	 22.548587292272 	  4.432940290603 	 17.443087941954 	
C	 23.117100322272 	 10.616499240603 	  7.312528391954 	
C	 22.548556192272 	 10.616502050603 	 17.443085111954 	
C	  8.714892044940 	  4.831631099219 	  2.196144729506 	
C	  8.146347914940 	  4.831633909219 	 12.326701449506 	
C	  8.714860944940 	 11.015192859219 	  2.196141899506 	
C	  8.146316814940 	 11.015195669219 	 12.326698619506 	
C	 23.395719344940 	  4.831640329219 	  2.224274659506 	
C	 22.827175214940 	  4.831643139219 	 12.354831379506 	
C	 23.395688244940 	 11.015202089219 	  2.224271829506 	
C	 22.827144114940 	 11.015204899219 	 12.354828549506 	
C	  5.629331599723 	  1.743215454433 	  2.929206808991 	
C	  5.060787469723 	  1.743218264433 	 13.059763528991 	
C	  5.629300499723 	  7.926777214433 	  2.929203978991 	
C	  5.060756369723 	  7.926780024433 	 13.059760698991 	
C	 20.310158899723 	  1.743224684433 	  2.957336738991 	
C	 19.741614769723 	  1.743227494433 	 13.087893458991 	
C	 20.310127799723 	  7.926786444433 	  2.957333908991 	
C	 19.741583669723 	  7.926789254433 	 13.087890628991 	
H	  6.070365105559 	  0.450510756976 	  7.917831955316 	
H	  5.501820975559 	  0.450513566976 	 18.048388675316 	
H	  6.070334005559 	  6.634072516976 	  7.917829125316 	
H	  5.501789875559 	  6.634075326976 	 18.048385845316 	
H	 20.751192405559 	  0.450519986976 	  7.945961885316 	
H	 20.182648275559 	  0.450522796976 	 18.076518605316 	
H	 20.751161305559 	  6.634081746976 	  7.945959055316 	
H	 20.182617175559 	  6.634084556976 	 18.076515775316 	
H	  7.716531505608 	  3.538638813562 	  7.384202123007 	
H	  7.147987375608 	  3.538641623562 	 17.514758843007 	
H	  7.716500405608 	  9.722200573562 	  7.384199293007 	
H	  7.147956275608 	  9.722203383562 	 17.514756013007 	
H	 22.397358805608 	  3.538648043562 	  7.412332053007 	
H	 21.828814675608 	  3.538650853562 	 17.542888773007 	
H	 22.397327705608 	  9.722209803562 	  7.412329223007 	
H	 21.828783575608 	  9.722212613562 	 17.542885943007 	
H	  7.995270023615 	  5.725632138990 	  2.295775985190 	
H	  7.426725893615 	  5.725634948990 	 12.426332705190 	
H	  7.995238923615 	 11.909193898990 	  2.295773155190 	
H	  7.426694793615 	 11.909196708990 	 12.426329875190 	
H	 22.676097323615 	  5.725641368990 	  2.323905915190 	
H	 22.107553193615 	  5.725644178990 	 12.454462635190 	
H	 22.676066223615 	 11.909203128990 	  2.323903085190 	
H	 22.107522093615 	 11.909205938990 	 12.454459805190 	
H	  6.349104165439 	  2.637504914213 	  2.829405951881 	
H	  5.780560035439 	  2.637507724213 	 12.959962671881 	
H	  6.349073065439 	  8.821066674213 	  2.829403121881 	
H	  5.780528935439 	  8.821069484213 	 12.959959841881 	
H	 21.029931465439 	  2.637514144213 	  2.857535881881 	
H	 20.461387335439 	  2.637516954213 	 12.988092601881 	
H	 21.029900365439 	  8.821075904213 	  2.857533051881 	
H	 20.461356235439 	  8.821078714213 	 12.988089771881 	
C	  2.011059984748 	  2.456565329695 	  6.499549319282 	
C	  1.442515854748 	  2.456568139695 	 16.630106039282 	
C	  2.011028884748 	  8.640127089695 	  6.499546489282 	
C	  1.442484754748 	  8.640129899695 	 16.630103209282 	
C	 16.691887284748 	  2.456574559695 	  6.527679249282 	
C	 16.123343154748 	  2.456577369695 	 16.658235969282 	
C	 16.691856184748 	  8.640136319695 	  6.527676419282 	
C	 16.123312054748 	  8.640139129695 	 16.658233139282 	
C	 11.779197689069 	  5.545548474068 	  8.806192677660 	
C	 11.210653559069 	  5.545551284068 	 18.936749397660 	
C	 11.779166589069 	 11.729110234068 	  8.806189847660 	
C	 11.210622459069 	 11.729113044068 	 18.936746567660 	
C	 26.460024989069 	  5.545557704068 	  8.834322607660 	
C	 25.891480859069 	  5.545560514068 	 18.964879327660 	
C	 26.459993889069 	 11.729119464068 	  8.834319777660 	
C	 25.891449759069 	 11.729122274068 	 18.964876497660 	
C	 12.054575164572 	  3.719577887510 	  3.714058726700 	
C	 11.486031034572 	  3.719580697510 	 13.844615446700 	
C	 12.054544064572 	  9.903139647510 	  3.714055896700 	
C	 11.485999934572 	  9.903142457510 	 13.844612616700 	
C	 26.735402464572 	  3.719587117510 	  3.742188656700 	
C	 26.166858334572 	  3.719589927510 	 13.872745376700 	
C	 26.735371364572 	  9.903148877510 	  3.742185826700 	
C	 26.166827234572 	  9.903151687510 	 13.872742546700 	
C	  2.286438201505 	  0.630595005631 	  1.407415345308 	
C	  1.717894071505 	  0.630597815631 	 11.537972065308 	
C	  2.286407101505 	  6.814156765631 	  1.407412515308 	
C	  1.717862971505 	  6.814159575631 	 11.537969235308 	
C	 16.967265501505 	  0.630604235631 	  1.435545275308 	
C	 16.398721371505 	  0.630607045631 	 11.566101995308 	
C	 16.967234401505 	  6.814165995631 	  1.435542445308 	
C	 16.398690271505 	  6.814168805631 	 11.566099165308 	
C	  2.261782424893 	  3.064393806708 	  5.305146457945 	
C	  1.693238294893 	  3.064396616708 	 15.435703177945 	
C	  2.261751324893 	  9.247955566708 	  5.305143627945 	
C	  1.693207194893 	  9.247958376708 	 15.435700347945 	
C	 16.942609724893 	  3.064403036708 	  5.333276387945 	
C	 16.374065594893 	  3.064405846708 	 15.463833107945 	
C	 16.942578624893 	  9.247964796708 	  5.333273557945 	
C	 16.374034494893 	  9.247967606708 	 15.463830277945 	
C	 11.522595448426 	 -0.020512722874 	  9.947951614563 	
C	 10.954051318426 	 -0.020509912874 	 20.078508334563 	
C	 11.522564348426 	  6.163049037126 	  9.947948784563 	
C	 10.954020218426 	  6.163051847126 	 20.078505504563 	
C	 26.203422748426 	 -0.020503492874 	  9.976081544563 	
C	 25.634878618426 	 -0.020500682874 	 20.106638264563 	
C	 26.203391648426 	  6.163058267126 	  9.976078714563 	
C	 25.634847518426 	  6.163061077126 	 20.106635434563 	
C	 11.803852397080 	  3.111749676603 	  4.908462080035 	
C	 11.235308267080 	  3.111752486603 	 15.039018800035 	
C	 11.803821297080 	  9.295311436603 	  4.908459250035 	
C	 11.235277167080 	  9.295314246603 	 15.039015970035 	
C	 26.484679697080 	  3.111758906603 	  4.936592010035 	
C	 25.916135567080 	  3.111761716603 	 15.067148730035 	
C	 26.484648597080 	  9.295320666603 	  4.936589180035 	
C	 25.916104467080 	  9.295323476603 	 15.067145900035 	
C	  2.543040467221 	  6.196656490977 	  0.265656295582 	
C	  1.974496337221 	  6.196659300977 	 10.396213015582 	
C	  2.543009367221 	 12.380218250977 	  0.265653465582 	
C	  1.974465237221 	 12.380221060977 	 10.396210185582 	
C	 17.223867767221 	  6.196665720977 	  0.293786225582 	
C	 16.655323637221 	  6.196668530977 	 10.424342945582 	
C	 17.223836667221 	 12.380227480977 	  0.293783395582 	
C	 16.655292537221 	 12.380230290977 	 10.424340115582 	
H	  2.670172823151 	  4.127988249547 	  5.380775979631 	
H	  2.101628693151 	  4.127991059547 	 15.511332699631 	
H	  2.670141723151 	 10.311550009547 	  5.380773149631 	
H	  2.101597593151 	 10.311552819547 	 15.511329869631 	
H	 17.351000123151 	  4.127997479547 	  5.408905909631 	
H	 16.782455993151 	  4.128000289547 	 15.539462629631 	
H	 17.350969023151 	 10.311559239547 	  5.408903079631 	
H	 16.782424893151 	 10.311562049547 	 15.539459799631 	
H	 11.115505264488 	  1.037359774104 	  9.922522956208 	
H	 10.546961134488 	  1.037362584104 	 20.053079676208 	
H	 11.115474164488 	  7.220921534104 	  9.922520126208 	
H	 10.546930034488 	  7.220924344104 	 20.053076846208 	
H	 25.796332564488 	  1.037369004104 	  9.950652886208 	
H	 25.227788434488 	  1.037371814104 	 20.081209606208 	
H	 25.796301464488 	  7.220930764104 	  9.950650056208 	
H	 25.227757334488 	  7.220933574104 	 20.081206776208 	
H	 11.395462219916 	  2.048155193794 	  4.832832811436 	
H	 10.826918089916 	  2.048158003794 	 14.963389531436 	
H	 11.395431119916 	  8.231716953794 	  4.832829981436 	
H	 10.826886989916 	  8.231719763794 	 14.963386701436 	
H	 26.076289519916 	  2.048164423794 	  4.860962741436 	
H	 25.507745389916 	  2.048167233794 	 14.991519461436 	
H	 26.076258419916 	  8.231726183794 	  4.860959911436 	
H	 25.507714289916 	  8.231728993794 	 14.991516631436 	
H	  2.950130707122 	  5.138784004986 	  0.291084751635 	
H	  2.381586577122 	  5.138786814986 	 10.421641471635 	
H	  2.950099607122 	 11.322345764986 	  0.291081921635 	
H	  2.381555477122 	 11.322348574986 	 10.421638641635 	
H	 17.630958007122 	  5.138793234986 	  0.319214681635 	
H	 17.062413877122 	  5.138796044986 	 10.449771401635 	
H	 17.630926907122 	 11.322354994986 	  0.319211851635 	
H	 17.062382777122 	 11.322357804986 	 10.449768571635 	
H	  1.405274291788 	  3.167420421355 	  4.578577384587 	
H	  0.836730161788 	  3.167423231355 	 14.709134104587 	
H	  1.405243191788 	  9.350982181355 	  4.578574554587 	
H	  0.836699061788 	  9.350984991355 	 14.709131274587 	
H	 16.086101591788 	  3.167429651355 	  4.606707314587 	
H	 15.517557461788 	  3.167432461355 	 14.737264034587 	
H	 16.086070491788 	  9.350991411355 	  4.606704484587 	
H	 15.517526361788 	  9.350994221355 	 14.737261204587 	
H	 12.969593550883 	  0.083400696702 	  0.570222413468 	
H	 12.401049420883 	  0.083403506702 	 10.700779133468 	
H	 12.969562450883 	  6.266962456702 	  0.570219583468 	
H	 12.401018320883 	  6.266965266702 	 10.700776303468 	
H	 27.650420850883 	  0.083409926702 	  0.598352343468 	
H	 27.081876720883 	  0.083412736702 	 10.728909063468 	
H	 27.650389750883 	  6.266971686702 	  0.598349513468 	
H	 27.081845620883 	  6.266974496702 	 10.728906233468 	
H	 12.660360514033 	  3.008723488759 	  5.635031211357 	
H	 12.091816384033 	  3.008726298759 	 15.765587931357 	
H	 12.660329414033 	  9.192285248759 	  5.635028381357 	
H	 12.091785284033 	  9.192288058759 	 15.765585101357 	
H	 27.341187814033 	  3.008732718759 	  5.663161141357 	
H	 26.772643684033 	  3.008735528759 	 15.793717861357 	
H	 27.341156714033 	  9.192294478759 	  5.663158311357 	
H	 26.772612584033 	  9.192297288759 	 15.793715031357 	
H	  1.096042462216 	  6.092743084952 	  9.643385405651 	
H	  0.527498332216 	  6.092745894952 	 19.773942125651 	
H	  1.096011362216 	 12.276304844952 	  9.643382575651 	
H	  0.527467232216 	 12.276307654952 	 19.773939295651 	
H	 15.776869762216 	  6.092752314952 	  9.671515335651 	
H	 15.208325632216 	  6.092755124952 	 19.802072055651 	
H	 15.776838662216 	 12.276314074952 	  9.671512505651 	
H	 15.208294532216 	 12.276316884952 	 19.802069225651 	
H	  3.078326740112 	  2.582204988758 	  4.668471665391 	
H	  2.509782610112 	  2.582207798758 	 14.799028385391 	
H	  3.078295640112 	  8.765766748758 	  4.668468835391 	
H	  2.509751510112 	  8.765769558758 	 14.799025555391 	
H	 17.759154040112 	  2.582214218758 	  4.696601595391 	
H	 17.190609910112 	  2.582217028758 	 14.827158315391 	
H	 17.759122940112 	  8.765775978758 	  4.696598765391 	
H	 17.190578810112 	  8.765778788758 	 14.827155485391 	
H	 11.241998439707 	  5.663942760060 	  0.472943439365 	
H	 10.673454309707 	  5.663945570060 	 10.603500159365 	
H	 11.241967339707 	 11.847504520060 	  0.472940609365 	
H	 10.673423209707 	 11.847507330060 	 10.603497329365 	
H	 25.922825739707 	  5.663951990060 	  0.501073369365 	
H	 25.354281609707 	  5.663954800060 	 10.631630089365 	
H	 25.922794639707 	 11.847513750060 	  0.501070539365 	
H	 25.354250509707 	 11.847516560060 	 10.631627259365 	
H	 10.987308024286 	  3.593938734047 	  5.545136502070 	
H	 10.418763894286 	  3.593941544047 	 15.675693222070 	
H	 10.987276924286 	  9.777500494047 	  5.545133672070 	
H	 10.418732794286 	  9.777503304047 	 15.675690392070 	
H	 25.668135324286 	  3.593947964047 	  5.573266432070 	
H	 25.099591194286 	  3.593950774047 	 15.703823152070 	
H	 25.668104224286 	  9.777509724047 	  5.573263602070 	
H	 25.099560094286 	  9.777512534047 	 15.703820322070 	
H	  2.823637534270 	  0.512201133210 	  9.740664620089 	
H	  2.255093404270 	  0.512203943210 	 19.871221340089 	
H	  2.823606434270 	  6.695762893210 	  9.740661790089 	
H	  2.255062304270 	  6.695765703210 	 19.871218510089 	
H	 17.504464834270 	  0.512210363210 	  9.768794550089 	
H	 16.935920704270 	  0.512213173210 	 19.899351270089 	
H	 17.504433734270 	  6.695772123210 	  9.768791720089 	
H	 16.935889604270 	  6.695774933210 	 19.899348440089 	
C	  1.022119219643 	  3.142208954852 	  7.130233034385 	
C	  0.453575089643 	  3.142211764852 	 17.260789754385 	
C	  1.022088119643 	  9.325770714852 	  7.130230204385 	
C	  0.453543989643 	  9.325773524852 	 17.260786924385 	
C	 15.702946519643 	  3.142218184852 	  7.158362964385 	
C	 15.134402389643 	  3.142220994852 	 17.288919684385 	
C	 15.702915419643 	  9.325779944852 	  7.158360134385 	
C	 15.134371289643 	  9.325782754852 	 17.288916854385 	
C	 12.761080544519 	  0.057664637170 	  8.191042741303 	
C	 12.192536414519 	  0.057667447170 	 18.321599461303 	
C	 12.761049444519 	  6.241226397170 	  8.191039911303 	
C	 12.192505314519 	  6.241229207170 	 18.321596631303 	
C	 27.441907844519 	  0.057673867170 	  8.219172671303 	
C	 26.873363714519 	  0.057676677170 	 18.349729391303 	
C	 27.441876744519 	  6.241235627170 	  8.219169841303 	
C	 26.873332614519 	  6.241238437170 	 18.349726561303 	
C	 13.043516123000 	  3.033933854633 	  3.083375155016 	
C	 12.474971993000 	  3.033936664633 	 13.213931875016 	
C	 13.043485023000 	  9.217495614633 	  3.083372325016 	
C	 12.474940893000 	  9.217498424633 	 13.213929045016 	
C	 27.724343423000 	  3.033943084633 	  3.111505085016 	
C	 27.155799293000 	  3.033945894633 	 13.242061805016 	
C	 27.724312323000 	  9.217504844633 	  3.111502255016 	
C	 27.155768193000 	  9.217507654633 	 13.242058975016 	
C	  1.304555305646 	  6.118478583804 	  2.022565092528 	
C	  0.736011175646 	  6.118481393804 	 12.153121812528 	
C	  1.304524205646 	 12.302040343804 	  2.022562262528 	
C	  0.735980075646 	 12.302043153804 	 12.153118982528 	
C	 15.985382605646 	  6.118487813804 	  2.050695022528 	
C	 15.416838475646 	  6.118490623804 	 12.181251742528 	
C	 15.985351505646 	 12.302049573804 	  2.050692192528 	
C	 15.416807375646 	 12.302052383804 	 12.181248912528 	
H	  1.217914059961 	  4.243226360707 	  7.360101603125 	
H	  0.649369929961 	  4.243229170707 	 17.490658323125 	
H	  1.217882959961 	 10.426788120707 	  7.360098773125 	
H	  0.649338829961 	 10.426790930707 	 17.490655493125 	
H	 15.898741359961 	  4.243235590707 	  7.388231533125 	
H	 15.330197229961 	  4.243238400707 	 17.518788253125 	
H	 15.898710259961 	 10.426797350707 	  7.388228703125 	
H	 15.330166129961 	 10.426800160707 	 17.518785423125 	
H	 12.571148003451 	  1.151569240571 	  7.941379439515 	
H	 12.002603873451 	  1.151572050571 	 18.071936159515 	
H	 12.571116903451 	  7.335131000571 	  7.941376609515 	
H	 12.002572773451 	  7.335133810571 	 18.071933329515 	
H	 27.251975303451 	  1.151578470571 	  7.969509369515 	
H	 26.683431173451 	  1.151581280571 	 18.100066089515 	
H	 27.251944203451 	  7.335140230571 	  7.969506539515 	
H	 26.683400073451 	  7.335143040571 	 18.100063259515 	
H	 12.847721159776 	  1.932916470463 	  2.853506863896 	
H	 12.279177029776 	  1.932919280463 	 12.984063583896 	
H	 12.847690059776 	  8.116478230463 	  2.853504033896 	
H	 12.279145929776 	  8.116481040463 	 12.984060753896 	
H	 27.528548459776 	  1.932925700463 	  2.881636793896 	
H	 26.960004329776 	  1.932928510463 	 13.012193513896 	
H	 27.528517359776 	  8.116487460463 	  2.881633963896 	
H	 26.959973229776 	  8.116490270463 	 13.012190683896 	
H	  1.494488038542 	  5.024573936221 	  2.272228079607 	
H	  0.925943908542 	  5.024576746221 	 12.402784799607 	
H	  1.494456938542 	 11.208135696221 	  2.272225249607 	
H	  0.925912808542 	 11.208138506221 	 12.402781969607 	
H	 16.175315338542 	  5.024583166221 	  2.300358009607 	
H	 15.606771208542 	  5.024585976221 	 12.430914729607 	
H	 16.175284238542 	 11.208144926221 	  2.300355179607 	
H	 15.606740108542 	 11.208147736221 	 12.430911899607 	
H	  0.737970346988 	  2.777667251090 	  8.171666890314 	
H	  0.169426216988 	  2.777670061090 	 18.302223610314 	
H	  0.737939246988 	  8.961229011090 	  8.171664060314 	
H	  0.169395116988 	  8.961231821090 	 18.302220780314 	
H	 15.418797646988 	  2.777676481090 	  8.199796820314 	
H	 14.850253516988 	  2.777679291090 	 18.330353540314 	
H	 15.418766546988 	  8.961238241090 	  8.199793990314 	
H	 14.850222416988 	  8.961241051090 	 18.330350710314 	
H	 13.051181707170 	  5.864744180651 	  7.119484890394 	
H	 12.482637577170 	  5.864746990651 	 17.250041610394 	
H	 13.051150607170 	 12.048305940651 	  7.119482060394 	
H	 12.482606477170 	 12.048308750651 	 17.250038780394 	
H	 27.732009007170 	  5.864753410651 	  7.147614820394 	
H	 27.163464877170 	  5.864756220651 	 17.278171540394 	
H	 27.731977907170 	 12.048315170651 	  7.147611990394 	
H	 27.163433777170 	 12.048317980651 	 17.278168710394 	
H	 13.327665323573 	  3.398475444835 	  2.041941402220 	
H	 12.759121193573 	  3.398478254835 	 12.172498122220 	
H	 13.327634223573 	  9.582037204835 	  2.041938572220 	
H	 12.759090093573 	  9.582040014835 	 12.172495292220 	
H	 28.008492623573 	  3.398484674835 	  2.070071332220 	
H	 27.439948493573 	  3.398487484835 	 12.200628052220 	
H	 28.008461523573 	  9.582046434835 	  2.070068502220 	
H	 27.439917393573 	  9.582049244835 	 12.200625222220 	
H	  1.014454120456 	  0.311398737322 	  3.094122985040 	
H	  0.445909990456 	  0.311401547322 	 13.224679705040 	
H	  1.014423020456 	  6.494960497322 	  3.094120155040 	
H	  0.445878890456 	  6.494963307322 	 13.224676875040 	
H	 15.695281420456 	  0.311407967322 	  3.122252915040 	
H	 15.126737290456 	  0.311410777322 	 13.252809635040 	
H	 15.695250320456 	  6.494969727322 	  3.122250085040 	
H	 15.126706190456 	  6.494972537322 	 13.252806805040 	
H	  0.037161012794 	  3.175015986372 	  6.581424757567 	
H	 -0.531383117206 	  3.175018796372 	 16.711981477567 	
H	  0.037129912794 	  9.358577746372 	  6.581421927567 	
H	 -0.531414217206 	  9.358580556372 	 16.711978647567 	
H	 14.717988312794 	  3.175025216372 	  6.609554687567 	
H	 14.149444182794 	  3.175028026372 	 16.740111407567 	
H	 14.717957212794 	  9.358586976372 	  6.609551857567 	
H	 14.149413082794 	  9.358589786372 	 16.740108577567 	
H	 13.743055323683 	  6.262543715123 	  8.716950598442 	
H	 13.174511193683 	  6.262546525123 	 18.847507318442 	
H	 13.743024223683 	 12.446105475123 	  8.716947768442 	
H	 13.174480093683 	 12.446108285123 	 18.847504488442 	
H	 28.423882623683 	  6.262552945123 	  8.745080528442 	
H	 27.855338493683 	  6.262555755123 	 18.875637248442 	
H	 28.423851523683 	 12.446114705123 	  8.745077698442 	
H	 27.855307393683 	 12.446117515123 	 18.875634418442 	
H	 14.028474118658 	  3.001126921726 	  3.632183797147 	
H	 13.459929988658 	  3.001129731726 	 13.762740517147 	
H	 14.028443018658 	  9.184688681726 	  3.632180967147 	
H	 13.459898888658 	  9.184691491726 	 13.762737687147 	
H	 28.709301418658 	  3.001136151726 	  3.660313727147 	
H	 28.140757288658 	  3.001138961726 	 13.790870447147 	
H	 28.709270318658 	  9.184697911726 	  3.660310897147 	
H	 28.140726188658 	  9.184700721726 	 13.790867617147 	
H	  0.322580554656 	 -0.086400582575 	  1.496657203192 	
H	 -0.245963575344 	 -0.086397772575 	 11.627213923192 	
H	  0.322549454656 	  6.097161177425 	  1.496654373192 	
H	 -0.245994675344 	  6.097163987425 	 11.627211093192 	
H	 15.003407854656 	 -0.086391352575 	  1.524787133192 	
H	 14.434863724656 	 -0.086388542575 	 11.655343853192 	
H	 15.003376754656 	  6.097170407425 	  1.524784303192 	
H	 14.434832624656 	  6.097173217425 	 11.655341023192 	
C	  1.543087462338 	  1.208622507618 	  6.250142403078 	
C	  0.974543332338 	  1.208625317618 	 16.380699123078 	
C	  1.543056362338 	  7.392184267618 	  6.250139573078 	
C	  0.974512232338 	  7.392187077618 	 16.380696293078 	
C	 16.223914762338 	  1.208631737618 	  6.278272333078 	
C	 15.655370632338 	  1.208634547618 	 16.408829053078 	
C	 16.223883662338 	  7.392193497618 	  6.278269503078 	
C	 15.655339532338 	  7.392196307618 	 16.408826223078 	
C	 12.243613286340 	  4.297930260202 	  9.052027135615 	
C	 11.675069156341 	  4.297933070202 	 19.182583855615 	
C	 12.243582186341 	 10.481492020202 	  9.052024305615 	
C	 11.675038056341 	 10.481494830202 	 19.182581025615 	
C	 26.924440586341 	  4.297939490202 	  9.080157065615 	
C	 26.355896456341 	  4.297942300202 	 19.210713785615 	
C	 26.924409486341 	 10.481501250202 	  9.080154235615 	
C	 26.355865356341 	 10.481504060202 	 19.210710955615 	
C	 12.522547784499 	  4.967521308256 	  3.963465273455 	
C	 11.954003654499 	  4.967524118256 	 14.094021993455 	
C	 12.522516684499 	 11.151083068256 	  3.963462443455 	
C	 11.953972554499 	 11.151085878256 	 14.094019163455 	
C	 27.203375084499 	  4.967530538256 	  3.991595203455 	
C	 26.634830954499 	  4.967533348256 	 14.122151923455 	
C	 27.203343984499 	 11.151092298256 	  3.991592373455 	
C	 26.634799854499 	 11.151095108256 	 14.122149093455 	
C	  1.822022304077 	  1.878213176878 	  1.161581083170 	
C	  1.253478174077 	  1.878215986878 	 11.292137803170 	
C	  1.821991204077 	  8.061774936878 	  1.161578253170 	
C	  1.253447074077 	  8.061777746878 	 11.292134973170 	
C	 16.502849604077 	  1.878222406878 	  1.189711013170 	
C	 15.934305474077 	  1.878225216878 	 11.320267733170 	
C	 16.502818504077 	  8.061784166878 	  1.189708183170 	
C	 15.934274374077 	  8.061786976878 	 11.320264903170 	
H	  0.552997169966 	  1.138554841138 	  5.715914525297 	
H	 -0.015546960034 	  1.138557651138 	 15.846471245297 	
H	  0.552966069966 	  7.322116601138 	  5.715911695297 	
H	 -0.015578060034 	  7.322119411138 	 15.846468415297 	
H	 15.233824469966 	  1.138564071138 	  5.744044455297 	
H	 14.665280339966 	  1.138566881138 	 15.874601175297 	
H	 15.233793369966 	  7.322125831138 	  5.744041625297 	
H	 14.665249239966 	  7.322128641138 	 15.874598345297 	
H	 13.233531924689 	  4.227161917528 	  9.586257177849 	
H	 12.664987794689 	  4.227164727528 	 19.716813897849 	
H	 13.233500824689 	 10.410723677528 	  9.586254347849 	
H	 12.664956694689 	 10.410726487528 	 19.716811067849 	
H	 27.914359224689 	  4.227171147528 	  9.614387107849 	
H	 27.345815094689 	  4.227173957528 	 19.744943827849 	
H	 27.914328124689 	 10.410732907528 	  9.614384277849 	
H	 27.345783994689 	 10.410735717528 	 19.744940997849 	
H	 13.512638028102 	  5.037588736773 	  4.497693241913 	
H	 12.944093898102 	  5.037591546773 	 14.628249961913 	
H	 13.512606928102 	 11.221150496773 	  4.497690411913 	
H	 12.944062798102 	 11.221153306773 	 14.628247131913 	
H	 28.193465328102 	  5.037597966773 	  4.525823171913 	
H	 27.624921198102 	  5.037600776773 	 14.656379891913 	
H	 28.193434228102 	 11.221159726773 	  4.525820341913 	
H	 27.624890098102 	 11.221162536773 	 14.656377061913 	
H	  0.832103686784 	  1.948981467065 	  0.627351015595 	
H	  0.263559556784 	  1.948984277065 	 10.757907735595 	
H	  0.832072586784 	  8.132543227065 	  0.627348185595 	
H	  0.263528456784 	  8.132546037065 	 10.757904905595 	
H	 15.512930986784 	  1.948990697065 	  0.655480945595 	
H	 14.944386856784 	  1.948993507065 	 10.786037665595 	
H	 15.512899886784 	  8.132552457065 	  0.655478115595 	
H	 14.944355756784 	  8.132555267065 	 10.786034835595 	
H	  1.392647593100 	  0.540834417114 	  7.164522560142 	
H	  0.824103463100 	  0.540837227114 	 17.295079280142 	
H	  1.392616493100 	  6.724396177114 	  7.164519730142 	
H	  0.824072363100 	  6.724398987114 	 17.295076450142 	
H	 16.073474893100 	  0.540843647114 	  7.192652490142 	
H	 15.504930763100 	  0.540846457114 	 17.323209210142 	
H	 16.073443793100 	  6.724405407114 	  7.192649660142 	
H	 15.504899663100 	  6.724408217114 	 17.323206380142 	
H	 12.394155622719 	  3.629495963059 	  8.137727147397 	
H	 11.825611492719 	  3.629498773059 	 18.268283867397 	
H	 12.394124522719 	  9.813057723059 	  8.137724317397 	
H	 11.825580392719 	  9.813060533059 	 18.268281037397 	
H	 27.074982922719 	  3.629505193059 	  8.165857077397 	
H	 26.506438792719 	  3.629508003059 	 18.296413797397 	
H	 27.074951822719 	  9.813066953059 	  8.165854247397 	
H	 26.506407692719 	  9.813069763059 	 18.296410967397 	
H	 12.672987765815 	  5.635308865396 	  3.049084819544 	
H	 12.104443635815 	  5.635311675396 	 13.179641539544 	
H	 12.672956665815 	 11.818870625396 	  3.049081989544 	
H	 12.104412535815 	 11.818873435396 	 13.179638709544 	
H	 27.353815065815 	  5.635318095396 	  3.077214749544 	
H	 26.785270935815 	  5.635320905396 	 13.207771469544 	
H	 27.353783965815 	 11.818879855396 	  3.077211919544 	
H	 26.785239835815 	 11.818882665396 	 13.207768639544 	
H	  1.671479861360 	  2.546647286052 	  2.075881195964 	
H	  1.102935731360 	  2.546650096052 	 12.206437915964 	
H	  1.671448761360 	  8.730209046052 	  2.075878365964 	
H	  1.102904631360 	  8.730211856052 	 12.206435085964 	
H	 16.352307161360 	  2.546656516052 	  2.104011125964 	
H	 15.783763031360 	  2.546659326052 	 12.234567845964 	
H	 16.352276061360 	  8.730218276052 	  2.104008295964 	
H	 15.783731931360 	  8.730221086052 	 12.234565015964 	
H	  2.208709141111 	  0.531455326875 	  5.615822334818 	
H	  1.640165011111 	  0.531458136875 	 15.746379054818 	
H	  2.208678041111 	  6.715017086875 	  5.615819504818 	
H	  1.640133911111 	  6.715019896875 	 15.746376224818 	
H	 16.889536441111 	  0.531464556875 	  5.643952264818 	
H	 16.320992311111 	  0.531467366875 	 15.774508984818 	
H	 16.889505341111 	  6.715026316875 	  5.643949434818 	
H	 16.320961211111 	  6.715029126875 	 15.774506154818 	
H	 11.578201125874 	  3.620046388053 	  9.686273825534 	
H	 11.009656995874 	  3.620049198053 	 19.816830545534 	
H	 11.578170025874 	  9.803608148053 	  9.686270995534 	
H	 11.009625895874 	  9.803610958053 	 19.816827715534 	
H	 26.259028425874 	  3.620055618053 	  9.714403755534 	
H	 25.690484295874 	  3.620058428053 	 19.844960475534 	
H	 26.258997325874 	  9.803617378053 	  9.714400925534 	
H	 25.690453195874 	  9.803620188053 	 19.844957645534 	
H	 11.856926077082 	  5.644688458857 	  4.597785217907 	
H	 11.288381947082 	  5.644691268857 	 14.728341937907 	
H	 11.856894977082 	 11.828250218857 	  4.597782387907 	
H	 11.288350847082 	 11.828253028857 	 14.728339107907 	
H	 26.537753377082 	  5.644697688857 	  4.625915147907 	
H	 25.969209247082 	  5.644700498857 	 14.756471867907 	
H	 26.537722277082 	 11.828259448857 	  4.625912317907 	
H	 25.969178147082 	 11.828262258857 	 14.756469037907 	
H	  2.487434465574 	  2.556097300353 	  0.527334659536 	
H	  1.918890335574 	  2.556100110353 	 10.657891379536 	
H	  2.487403365574 	  8.739659060353 	  0.527331829536 	
H	  1.918859235574 	  8.739661870353 	 10.657888549536 	
H	 17.168261765574 	  2.556106530353 	  0.555464589536 	
H	 16.599717635574 	  2.556109340353 	 10.686021309536 	
H	 17.168230665574 	  8.739668290353 	  0.555461759536 	
H	 16.599686535574 	  8.739671100353 	 10.686018479536 	
768 
Energy: -8.8882262541670002e+01 
S	  8.682387548638 	  1.534089701318 	  0.058370392708 	
S	  8.113843418638 	  1.534092511318 	 10.188927112708 	
S	  8.682356448638 	  7.717651461318 	  0.058367562708 	
S	  8.113812318638 	  7.717654271318 	 10.188924282708 	
S	 23.363214848638 	  1.534098931318 	  0.086500322708 	
S	 22.794670718638 	  1.534101741318 	 10.217057042708 	
S	 23.363183748638 	  7.717660691318 	  0.086497492708 	
S	 22.794639618638 	  7.717663501318 	 10.217054212708 	
S	  5.600394606144 	  4.617316248268 	  5.103747412404 	
S	  5.031850476144 	  4.617319058268 	 15.234304132404 	
S	  5.600363506144 	 10.800878008268 	  5.103744582404 	
S	  5.031819376144 	 10.800880818268 	 15.234301302404 	
S	 20.281221906144 	  4.617325478268 	  5.131877342404 	
S	 19.712677776144 	  4.617328288268 	 15.262434062404 	
S	 20.281190806144 	 10.800887238268 	  5.131874512404 	
S	 19.712646676144 	 10.800890048268 	 15.262431232404 	
S	  5.328902436774 	  4.633390928243 	 10.219268094187 	
S	  4.760358306774 	  4.633393738243 	 20.349824814187 	
S	  5.328871336774 	 10.816952688243 	 10.219265264187 	
S	  4.760327206774 	 10.816955498243 	 20.349821984187 	
S	 20.009729736774 	  4.633400158243 	 10.247398024187 	
S	 19.441185606774 	  4.633402968243 	 20.377954744187 	
S	 20.009698636774 	 10.816961918243 	 10.247395194187 	
S	 19.441154506774 	 10.816964728243 	 20.377951914187 	
S	  8.410895882098 	  1.550164971679 	  5.173891240687 	
S	  7.842351752098 	  1.550167781679 	 15.304447960687 	
S	  8.410864782098 	  7.733726731679 	  5.173888410687 	
S	  7.842320652098 	  7.733729541679 	 15.304445130687 	
S	 23.091723182098 	  1.550174201679 	  5.202021170687 	
S	 22.523179052098 	  1.550177011679 	 15.332577890687 	
S	 23.091692082098 	  7.733735961679 	  5.202018340687 	
S	 22.523147952098 	  7.733738771679 	 15.332575060687 	
C	  6.723814657956 	  2.544904196011 	  9.892670765130 	
C	  6.155270527956 	  2.544907006011 	 20.023227485130 	
C	  6.723783557956 	  8.728465956011 	  9.892667935130 	
C	  6.155239427956 	  8.728468766011 	 20.023224655130 	
C	 21.404641957956 	  2.544913426011 	  9.920800695130 	
C	 20.836097827956 	  2.544916236011 	 20.051357415130 	
C	 21.404610857956 	  8.728475186011 	  9.920797865130 	
C	 20.836066727956 	  8.728477996011 	 20.051354585130 	
C	  7.014952671943 	  5.622479706297 	  5.502281139524 	
C	  6.446408541943 	  5.622482516297 	 15.632837859524 	
C	  7.014921571943 	 11.806041466297 	  5.502278309524 	
C	  6.446377441943 	 11.806044276297 	 15.632835029524 	
C	 21.695779971943 	  5.622488936297 	  5.530411069524 	
C	 21.127235841943 	  5.622491746297 	 15.660967789524 	
C	 21.695748871943 	 11.806050696297 	  5.530408239524 	
C	 21.127204741943 	 11.806053506297 	 15.660964959524 	
C	  7.287475357153 	  3.622576385998 	  0.384967707578 	
C	  6.718931227153 	  3.622579195998 	 10.515524427578 	
C	  7.287444257153 	  9.806138145998 	  0.384964877578 	
C	  6.718900127153 	  9.806140955998 	 10.515521597578 	
C	 21.968302657153 	  3.622585615998 	  0.413097637578 	
C	 21.399758527153 	  3.622588425998 	 10.543654357578 	
C	 21.968271557153 	  9.806147375998 	  0.413094807578 	
C	 21.399727427153 	  9.806150185998 	 10.543651527578 	
C	  6.996337675318 	  0.545001620039 	  4.775357479594 	
C	  6.427793545318 	  0.545004430039 	 14.905914199594 	
C	  6.996306575318 	  6.728563380039 	  4.775354649594 	
C	  6.427762445318 	  6.728566190039 	 14.905911369594 	
C	 21.677164975318 	  0.545010850039 	  4.803487409594 	
C	 21.108620845318 	  0.545013660039 	 14.934044129594 	
C	 21.677133875318 	  6.728572610039 	  4.803484579594 	
C	 21.108589745318 	  6.728575420039 	 14.934041299594 	
C	  5.664480253138 	  2.341505863157 	  8.964621327505 	
C	  5.095936123138 	  2.341508673157 	 19.095178047505 	
C	  5.664449153138 	  8.525067623157 	  8.964618497505 	
C	  5.095905023138 	  8.525070433157 	 19.095175217505 	
C	 20.345307553138 	  2.341515093157 	  8.992751257505 	
C	 19.776763423138 	  2.341517903157 	 19.123307977505 	
C	 20.345276453138 	  8.525076853157 	  8.992748427505 	
C	 19.776732323138 	  8.525079663157 	 19.123305147505 	
C	  8.078859627671 	  5.427726839682 	  6.428256115976 	
C	  7.510315497671 	  5.427729649682 	 16.558812835976 	
C	  8.078828527671 	 11.611288599682 	  6.428253285976 	
C	  7.510284397671 	 11.611291409682 	 16.558810005976 	
C	 22.759686927671 	  5.427736069682 	  6.456386045976 	
C	 22.191142797671 	  5.427738879682 	 16.586942765976 	
C	 22.759655827671 	 11.611297829682 	  6.456383215976 	
C	 22.191111697671 	 11.611300639682 	 16.586939935976 	
C	  8.346809596042 	  3.825974760093 	  1.313017022378 	
C	  7.778265466042 	  3.825977570093 	 11.443573742378 	
C	  8.346778496042 	 10.009536520093 	  1.313014192378 	
C	  7.778234366042 	 10.009539330093 	 11.443570912378 	
C	 23.027636896042 	  3.825983990093 	  1.341146952378 	
C	 22.459092766042 	  3.825986800093 	 11.471703672378 	
C	 23.027605796042 	 10.009545750093 	  1.341144122378 	
C	 22.459061666042 	 10.009548560093 	 11.471700842378 	
C	  5.932430658778 	  0.739754462858 	  3.849382456923 	
C	  5.363886528778 	  0.739757272858 	 13.979939176923 	
C	  5.932399558778 	  6.923316222858 	  3.849379626923 	
C	  5.363855428778 	  6.923319032858 	 13.979936346923 	
C	 20.613257958778 	  0.739763692858 	  3.877512386923 	
C	 20.044713828778 	  0.739766502858 	 14.008069106923 	
C	 20.613226858778 	  6.923325452858 	  3.877509556923 	
C	 20.044682728778 	  6.923328262858 	 14.008066276923 	
C	  4.774456065809 	  3.410444233558 	  9.011909443302 	
C	  4.205911935809 	  3.410447043558 	 19.142466163302 	
C	  4.774424965809 	  9.594005993558 	  9.011906613302 	
C	  4.205880835809 	  9.594008803558 	 19.142463333302 	
C	 19.455283365809 	  3.410453463558 	  9.040039373302 	
C	 18.886739235809 	  3.410456273558 	 19.170596093302 	
C	 19.455252265809 	  9.594015223558 	  9.040036543302 	
C	 18.886708135809 	  9.594018033558 	 19.170593263302 	
C	  8.959918866036 	  0.323929515661 	  6.381743458580 	
C	  8.391374736036 	  0.323932325661 	 16.512300178580 	
C	  8.959887766036 	  6.507491275661 	  6.381740628580 	
C	  8.391343636036 	  6.507494085661 	 16.512297348580 	
C	 23.640746166036 	  0.323938745661 	  6.409873388580 	
C	 23.072202036036 	  0.323941555661 	 16.540430108580 	
C	 23.640715066036 	  6.507500505661 	  6.409870558580 	
C	 23.072170936036 	  6.507503315661 	 16.540427278580 	
C	  9.236833778924 	  2.757036454195 	  1.265728997779 	
C	  8.668289648924 	  2.757039264195 	 11.396285717779 	
C	  9.236802678924 	  8.940598214195 	  1.265726167779 	
C	  8.668258548924 	  8.940601024195 	 11.396282887779 	
C	 23.917661078924 	  2.757045684195 	  1.293858927779 	
C	 23.349116948924 	  2.757048494195 	 11.424415647779 	
C	 23.917629978924 	  8.940607444195 	  1.293856097779 	
C	 23.349085848924 	  8.940610254195 	 11.424412817779 	
C	  5.051371444887 	  5.843551725529 	  3.895895163911 	
C	  4.482827314887 	  5.843554535529 	 14.026451883911 	
C	  5.051340344887 	 12.027113485529 	  3.895892333911 	
C	  4.482796214887 	 12.027116295529 	 14.026449053911 	
C	 19.732198744887 	  5.843560955529 	  3.924025093911 	
C	 19.163654614887 	  5.843563765529 	 14.054581813911 	
C	 19.732167644887 	 12.027122715529 	  3.924022263911 	
C	 19.163623514887 	 12.027125525529 	 14.054578983911 	
C	  3.676098287829 	  3.452687176333 	  8.262819925393 	
C	  3.107554157829 	  3.452689986333 	 18.393376645393 	
C	  3.676067187829 	  9.636248936333 	  8.262817095393 	
C	  3.107523057829 	  9.636251746333 	 18.393373815393 	
C	 18.356925587829 	  3.452696406333 	  8.290949855393 	
C	 17.788381457829 	  3.452699216333 	 18.421506575393 	
C	 18.356894487829 	  9.636258166333 	  8.290947025393 	
C	 17.788350357829 	  9.636260976333 	 18.421503745393 	
C	 10.063422650683 	  0.368177718699 	  7.133184902133 	
C	  9.494878520683 	  0.368180528699 	 17.263741622133 	
C	 10.063391550683 	  6.551739478699 	  7.133182072133 	
C	  9.494847420683 	  6.551742288699 	 17.263738792133 	
C	 24.744249950683 	  0.368186948699 	  7.161314832133 	
C	 24.175705820683 	  0.368189758699 	 17.291871552133 	
C	 24.744218850683 	  6.551748708699 	  7.161312002133 	
C	 24.175674720683 	  6.551751518699 	 17.291868722133 	
C	 10.335191582760 	  2.714793591164 	  2.014818661400 	
C	  9.766647452760 	  2.714796401164 	 12.145375381400 	
C	 10.335160482760 	  8.898355351164 	  2.014815831400 	
C	  9.766616352760 	  8.898358161164 	 12.145372551400 	
C	 25.016018882760 	  2.714802821164 	  2.042948591400 	
C	 24.447474752760 	  2.714805631164 	 12.173505311400 	
C	 25.015987782760 	  8.898364581164 	  2.042945761400 	
C	 24.447443652760 	  8.898367391164 	 12.173502481400 	
C	  3.947867581176 	  5.799303512428 	  3.144453814163 	
C	  3.379323451176 	  5.799306322428 	 13.275010534163 	
C	  3.947836481176 	 11.982865272428 	  3.144450984163 	
C	  3.379292351176 	 11.982868082428 	 13.275007704163 	
C	 18.628694881176 	  5.799312742428 	  3.172583744163 	
C	 18.060150751176 	  5.799315552428 	 13.303140464163 	
C	 18.628663781176 	 11.982874502428 	  3.172580914163 	
C	 18.060119651176 	 11.982877312428 	 13.303137634163 	
H	  2.979683359737 	  4.372920134124 	  8.346918697689 	
H	  2.411139229737 	  4.372922944124 	 18.477475417689 	
H	  2.979652259737 	 10.556481894124 	  8.346915867689 	
H	  2.411108129737 	 10.556484704124 	 18.477472587689 	
H	 17.660510659737 	  4.372929364124 	  8.375048627689 	
H	 17.091966529737 	  4.372932174124 	 18.505605347689 	
H	 17.660479559737 	 10.556491124124 	  8.375045797689 	
H	 17.091935429737 	 10.556493934124 	 18.505602517689 	
H	 10.759096803697 	  1.288609248228 	  7.046628276707 	
H	 10.190552673697 	  1.288612058228 	 17.177184996707 	
H	 10.759065703697 	  7.472171008228 	  7.046625446707 	
H	 10.190521573697 	  7.472173818228 	 17.177182166707 	
H	 25.439924103697 	  1.288618478228 	  7.074758206707 	
H	 24.871379973697 	  1.288621288228 	 17.205314926707 	
H	 25.439893003697 	  7.472180238228 	  7.074755376707 	
H	 24.871348873697 	  7.472183048228 	 17.205312096707 	
H	 11.031606481492 	  1.794560608544 	  1.930719840888 	
H	 10.463062351492 	  1.794563418544 	 12.061276560888 	
H	 11.031575381492 	  7.978122368544 	  1.930717010888 	
H	 10.463031251492 	  7.978125178544 	 12.061273730888 	
H	 25.712433781492 	  1.794569838544 	  1.958849770888 	
H	 25.143889651492 	  1.794572648544 	 12.089406490888 	
H	 25.712402681492 	  7.978131598544 	  1.958846940888 	
H	 25.143858551492 	  7.978134408544 	 12.089403660888 	
H	  3.252193550472 	  4.878871882960 	  3.231010488944 	
H	  2.683649420472 	  4.878874692960 	 13.361567208944 	
H	  3.252162450472 	 11.062433642960 	  3.231007658944 	
H	  2.683618320472 	 11.062436452960 	 13.361564378944 	
H	 17.933020850472 	  4.878881112960 	  3.259140418944 	
H	 17.364476720472 	  4.878883922960 	 13.389697138944 	
H	 17.932989750472 	 11.062442872960 	  3.259137588944 	
H	 17.364445620472 	 11.062445682960 	 13.389694308944 	
C	  3.346646070549 	  2.461639927492 	  7.412662521200 	
C	  2.778101940549 	  2.461642737492 	 17.543219241200 	
C	  3.346614970549 	  8.645201687492 	  7.412659691200 	
C	  2.778070840549 	  8.645204497492 	 17.543216411200 	
C	 18.027473370549 	  2.461649157492 	  7.440792451200 	
C	 17.458929240549 	  2.461651967492 	 17.571349171200 	
C	 18.027442270549 	  8.645210917492 	  7.440789621200 	
C	 17.458898140549 	  8.645213727492 	 17.571346341200 	
C	 10.391277274787 	  5.546106488769 	  7.977538325692 	
C	  9.822733144787 	  5.546109298769 	 18.108095045692 	
C	 10.391246174787 	 11.729668248769 	  7.977535495692 	
C	  9.822702044787 	 11.729671058769 	 18.108092215692 	
C	 25.072104574787 	  5.546115718769 	  8.005668255692 	
C	 24.503560444787 	  5.546118528769 	 18.136224975692 	
C	 25.072073474787 	 11.729677478769 	  8.005665425692 	
C	 24.503529344787 	 11.729680288769 	 18.136222145692 	
C	 10.664643640006 	  3.705840795562 	  2.864975982554 	
C	 10.096099510006 	  3.705843605562 	 12.995532702554 	
C	 10.664612540006 	  9.889402555562 	  2.864973152554 	
C	 10.096068410006 	  9.889405365562 	 12.995529872554 	
C	 25.345470940006 	  3.705850025562 	  2.893105912554 	
C	 24.776926810006 	  3.705852835562 	 13.023662632554 	
C	 25.345439840006 	  9.889411785562 	  2.893103082554 	
C	 24.776895710006 	  9.889414595562 	 13.023659802554 	
C	  3.620012977908 	  0.621374708522 	  2.300100370702 	
C	  3.051468847908 	  0.621377518522 	 12.430657090702 	
C	  3.619981877908 	  6.804936468522 	  2.300097540702 	
C	  3.051437747908 	  6.804939278522 	 12.430654260702 	
C	 18.300840277908 	  0.621383938522 	  2.328230300702 	
C	 17.732296147908 	  0.621386748522 	 12.458787020702 	
C	 18.300809177908 	  6.804945698522 	  2.328227470702 	
C	 17.732265047908 	  6.804948508522 	 12.458784190702 	
C	  4.245411045829 	  1.425595335034 	  7.344775740359 	
C	  3.676866915829 	  1.425598145034 	 17.475332460359 	
C	  4.245379945829 	  7.609157095034 	  7.344772910359 	
C	  3.676835815829 	  7.609159905034 	 17.475329630359 	
C	 18.926238345829 	  1.425604565034 	  7.372905670359 	
C	 18.357694215829 	  1.425607375034 	 17.503462390359 	
C	 18.926207245829 	  7.609166325034 	  7.372902840359 	
C	 18.357663115829 	  7.609169135034 	 17.503459560359 	
C	  9.493629184017 	  4.509796548583 	  8.048218557107 	
C	  8.925085054017 	  4.509799358583 	 18.178775277107 	
C	  9.493598084017 	 10.693358308583 	  8.048215727107 	
C	  8.925053954017 	 10.693361118583 	 18.178772447107 	
C	 24.174456484017 	  4.509805778583 	  8.076348487107 	
C	 23.605912354017 	  4.509808588583 	 18.206905207107 	
C	 24.174425384017 	 10.693367538583 	  8.076345657107 	
C	 23.605881254017 	 10.693370348583 	 18.206902377107 	
C	  9.765878584232 	  4.741885353443 	  2.932862829720 	
C	  9.197334454232 	  4.741888163443 	 13.063419549720 	
C	  9.765847484232 	 10.925447113443 	  2.932859999720 	
C	  9.197303354232 	 10.925449923443 	 13.063416719720 	
C	 24.446705884232 	  4.741894583443 	  2.960992759720 	
C	 23.878161754232 	  4.741897393443 	 13.091549479720 	
C	 24.446674784232 	 10.925456343443 	  2.960989929720 	
C	 23.878130654232 	 10.925459153443 	 13.091546649720 	
C	  4.517660919090 	  1.657684605077 	  2.229420063410 	
C	  3.949116789090 	  1.657687415077 	 12.359976783410 	
C	  4.517629819090 	  7.841246365077 	  2.229417233410 	
C	  3.949085689090 	  7.841249175077 	 12.359973953410 	
C	 19.198488219090 	  1.657693835077 	  2.257549993410 	
C	 18.629944089090 	  1.657696645077 	 12.388106713410 	
C	 19.198457119090 	  7.841255595077 	  2.257547163410 	
C	 18.629912989090 	  7.841258405077 	 12.388103883410 	
H	  4.021485308672 	  0.566457239368 	  6.606187574135 	
H	  3.452941178672 	  0.566460049368 	 16.736744294135 	
H	  4.021454208672 	  6.750018999368 	  6.606184744135 	
H	  3.452910078672 	  6.750021809368 	 16.736741464135 	
H	 18.702312608672 	  0.566466469368 	  6.634317504135 	
H	 18.133768478672 	  0.566469279368 	 16.764874224135 	
H	 18.702281508672 	  6.750028229368 	  6.634314674135 	
H	 18.133737378672 	  6.750031039368 	 16.764871394135 	
H	  9.717408883373 	  3.650375093546 	  8.786867000080 	
H	  9.148864753373 	  3.650377903546 	 18.917423720080 	
H	  9.717377783373 	  9.833936853546 	  8.786864170080 	
H	  9.148833653373 	  9.833939663546 	 18.917420890080 	
H	 24.398236183373 	  3.650384323546 	  8.814996930080 	
H	 23.829692053373 	  3.650387133546 	 18.945553650080 	
H	 24.398205083373 	  9.833946083546 	  8.814994100080 	
H	 23.829660953373 	  9.833948893546 	 18.945550820080 	
H	  9.989804329915 	  5.601023429960 	  3.671450997280 	
H	  9.421260199915 	  5.601026239960 	 13.802007717280 	
H	  9.989773229915 	 11.784585189960 	  3.671448167280 	
H	  9.421229099915 	 11.784587999960 	 13.802004887280 	
H	 24.670631629915 	  5.601032659960 	  3.699580927280 	
H	 24.102087499915 	  5.601035469960 	 13.830137647280 	
H	 24.670600529915 	 11.784594419960 	  3.699578097280 	
H	 24.102056399915 	 11.784597229960 	 13.830134817280 	
H	  4.293881164971 	  2.517106099279 	  1.490771678628 	
H	  3.725337034971 	  2.517108909279 	 11.621328398628 	
H	  4.293850064971 	  8.700667859279 	  1.490768848628 	
H	  3.725305934971 	  8.700670669279 	 11.621325568628 	
H	 18.974708464971 	  2.517115329279 	  1.518901608628 	
H	 18.406164334971 	  2.517118139279 	 11.649458328628 	
H	 18.974677364971 	  8.700677089279 	  1.518898778628 	
H	 18.406133234971 	  8.700679899279 	 11.649455498628 	
C	  5.328413678444 	  1.361985235399 	  8.060626850541 	
C	  4.759869548444 	  1.361988045399 	 18.191183570541 	
C	  5.328382578444 	  7.545546995399 	  8.060624020541 	
C	  4.759838448444 	  7.545549805399 	 18.191180740541 	
C	 20.009240978444 	  1.361994465399 	  8.088756780541 	
C	 19.440696848444 	  1.361997275399 	 18.219313500541 	
C	 20.009209878444 	  7.545556225399 	  8.088753950541 	
C	 19.440665748444 	  7.545559035399 	 18.219310670541 	
C	  8.410523928124 	  4.446052988755 	  7.332235884498 	
C	  7.841979798124 	  4.446055798755 	 17.462792604498 	
C	  8.410492828124 	 10.629614748755 	  7.332233054498 	
C	  7.841948698124 	 10.629617558755 	 17.462789774498 	
C	 23.091351228124 	  4.446062218755 	  7.360365814498 	
C	 22.522807098124 	  4.446065028755 	 17.490922534498 	
C	 23.091320128124 	 10.629623978755 	  7.360362984498 	
C	 22.522775998124 	 10.629626788755 	 17.490919704498 	
C	  8.682876050919 	  4.805495418418 	  2.217011553762 	
C	  8.114331920919 	  4.805498228418 	 12.347568273762 	
C	  8.682844950919 	 10.989057178418 	  2.217008723762 	
C	  8.114300820919 	 10.989059988418 	 12.347565443762 	
C	 23.363703350919 	  4.805504648418 	  2.245141483762 	
C	 22.795159220919 	  4.805507458418 	 12.375698203762 	
C	 23.363672250919 	 10.989066408418 	  2.245138653762 	
C	 22.795128120919 	 10.989069218418 	 12.375695373762 	
C	  5.600766305615 	  1.721428276040 	  2.945402748033 	
C	  5.032222175615 	  1.721431086040 	 13.075959468033 	
C	  5.600735205615 	  7.904990036040 	  2.945399918033 	
C	  5.032191075615 	  7.904992846040 	 13.075956638033 	
C	 20.281593605615 	  1.721437506040 	  2.973532678033 	
C	 19.713049475615 	  1.721440316040 	 13.104089398033 	
C	 20.281562505615 	  7.904999266040 	  2.973529848033 	
C	 19.713018375615 	  7.905002076040 	 13.104086568033 	
H	  6.044038748544 	  0.460115646908 	  7.962078628647 	
H	  5.475494618544 	  0.460118456908 	 18.092635348647 	
H	  6.044007648544 	  6.643677406908 	  7.962075798647 	
H	  5.475463518544 	  6.643680216908 	 18.092632518647 	
H	 20.724866048544 	  0.460124876908 	  7.990208558647 	
H	 20.156321918544 	  0.460127686908 	 18.120765278647 	
H	 20.724834948544 	  6.643686636908 	  7.990205728647 	
H	 20.156290818544 	  6.643689446908 	 18.120762448647 	
H	  7.694812053038 	  3.543901147314 	  7.431001805870 	
H	  7.126267923038 	  3.543903957314 	 17.561558525870 	
H	  7.694780953038 	  9.727462907314 	  7.430998975870 	
H	  7.126236823038 	  9.727465717314 	 17.561555695870 	
H	 22.375639353038 	  3.543910377314 	  7.459131735870 	
H	 21.807095223038 	  3.543913187314 	 17.589688455870 	
H	 22.375608253038 	  9.727472137314 	  7.459128905870 	
H	 21.807064123038 	  9.727474947314 	 17.589685625870 	
H	  7.967250895166 	  5.707364916516 	  2.315559790891 	
H	  7.398706765166 	  5.707367726516 	 12.446116510891 	
H	  7.967219795166 	 11.890926676516 	  2.315556960891 	
H	  7.398675665166 	 11.890929486516 	 12.446113680891 	
H	 22.648078195166 	  5.707374146516 	  2.343689720891 	
H	 22.079534065166 	  5.707376956516 	 12.474246440891 	
H	 22.648047095166 	 11.890935906516 	  2.343686890891 	
H	 22.079502965166 	 11.890938716516 	 12.474243610891 	
H	  6.316478130173 	  2.623580132776 	  2.846636778711 	
H	  5.747934000173 	  2.623582942776 	 12.977193498711 	
H	  6.316447030173 	  8.807141892776 	  2.846633948711 	
H	  5.747902900173 	  8.807144702776 	 12.977190668711 	
H	 20.997305430173 	  2.623589362776 	  2.874766708711 	
H	 20.428761300173 	  2.623592172776 	 13.005323428711 	
H	 20.997274330173 	  8.807151122776 	  2.874763878711 	
H	 20.428730200173 	  8.807153932776 	 13.005320598711 	
C	  1.991771024130 	  2.504784546721 	  6.512315354658 	
C	  1.423226894130 	  2.504787356721 	 16.642872074658 	
C	  1.991739924130 	  8.688346306721 	  6.512312524658 	
C	  1.423195794130 	  8.688349116721 	 16.642869244658 	
C	 16.672598324130 	  2.504793776721 	  6.540445284658 	
C	 16.104054194130 	  2.504796586721 	 16.671002004658 	
C	 16.672567224130 	  8.688355536721 	  6.540442454658 	
C	 16.104023094130 	  8.688358346721 	 16.670999174658 	
C	 11.744133748589 	  5.581140329614 	  8.880946414183 	
C	 11.175589618589 	  5.581143139614 	 19.011503134183 	
C	 11.744102648589 	 11.764702089614 	  8.880943584183 	
C	 11.175558518589 	 11.764704899614 	 19.011500304183 	
C	 26.424961048589 	  5.581149559614 	  8.909076344183 	
C	 25.856416918589 	  5.581152369614 	 19.039633064183 	
C	 26.424929948589 	 11.764711319614 	  8.909073514183 	
C	 25.856385818589 	 11.764714129614 	 19.039630234183 	
C	 12.019518535366 	  3.662696352302 	  3.765323188362 	
C	 11.450974405366 	  3.662699162302 	 13.895879908362 	
C	 12.019487435366 	  9.846258112302 	  3.765320358362 	
C	 11.450943305366 	  9.846260922302 	 13.895877078362 	
C	 26.700345835366 	  3.662705582302 	  3.793453118362 	
C	 26.131801705366 	  3.662708392302 	 13.924009838362 	
C	 26.700314735366 	  9.846267342302 	  3.793450288362 	
C	 26.131770605366 	  9.846270152302 	 13.924007008362 	
C	  2.267156516999 	  0.586340749832 	  1.396692304425 	
C	  1.698612386999 	  0.586343559832 	 11.527249024425 	
C	  2.267125416999 	  6.769902509832 	  1.396689474425 	
C	  1.698581286999 	  6.769905319832 	 11.527246194425 	
C	 16.947983816999 	  0.586349979832 	  1.424822234425 	
C	 16.379439686999 	  0.586352789832 	 11.555378954425 	
C	 16.947952716999 	  6.769911739832 	  1.424819404425 	
C	 16.379408586999 	  6.769914549832 	 11.555376124425 	
C	  2.223089574845 	  2.964628576924 	  5.368416474600 	
C	  1.654545444845 	  2.964631386924 	 15.498973194600 	
C	  2.223058474845 	  9.148190336924 	  5.368413644600 	
C	  1.654514344845 	  9.148193146924 	 15.498970364600 	
C	 16.903916874845 	  2.964637806924 	  5.396546404600 	
C	 16.335372744845 	  2.964640616924 	 15.527103124600 	
C	 16.903885774845 	  9.148199566924 	  5.396543574600 	
C	 16.335341644845 	  9.148202376924 	 15.527100294600 	
C	 11.511359903265 	 -0.114609019446 	  9.983332710105 	
C	 10.942815773265 	 -0.114606209446 	 20.113889430105 	
C	 11.511328803265 	  6.068952740554 	  9.983329880105 	
C	 10.942784673265 	  6.068955550554 	 20.113886600105 	
C	 26.192187203265 	 -0.114599789446 	 10.011462640105 	
C	 25.623643073265 	 -0.114596979446 	 20.142019360105 	
C	 26.192156103265 	  6.068961970554 	 10.011459810105 	
C	 25.623611973265 	  6.068964780554 	 20.142016530105 	
C	 11.788199564082 	  3.202852360649 	  4.909222752585 	
C	 11.219655434082 	  3.202855170649 	 15.039779472585 	
C	 11.788168464082 	  9.386414120649 	  4.909219922585 	
C	 11.219624334082 	  9.386416930649 	 15.039776642585 	
C	 26.469026864082 	  3.202861590649 	  4.937352682585 	
C	 25.900482734082 	  3.202864400649 	 15.067909402585 	
C	 26.468995764082 	  9.386423350649 	  4.937349852585 	
C	 25.900451634082 	  9.386426160649 	 15.067906572585 	
C	  2.499930337221 	  6.282090354041 	  0.294305907626 	
C	  1.931386207221 	  6.282093164041 	 10.424862627626 	
C	  2.499899237221 	 12.465652114041 	  0.294303077626 	
C	  1.931355107221 	 12.465654924041 	 10.424859797626 	
C	 17.180757637221 	  6.282099584041 	  0.322435837626 	
C	 16.612213507221 	  6.282102394041 	 10.452992557626 	
C	 17.180726537221 	 12.465661344041 	  0.322433007626 	
C	 16.612182407221 	 12.465664154041 	 10.452989727626 	
H	  2.736577706060 	  3.987740244200 	  5.329723427099 	
H	  2.168033576060 	  3.987743054200 	 15.460280147099 	
H	  2.736546606060 	 10.171302004200 	  5.329720597099 	
H	  2.168002476060 	 10.171304814200 	 15.460277317099 	
H	 17.417405006060 	  3.987749474200 	  5.357853357099 	
H	 16.848860876060 	  3.987752284200 	 15.488410077099 	
H	 17.417373906060 	 10.171311234200 	  5.357850527099 	
H	 16.848829776060 	 10.171314044200 	 15.488407247099 	
H	 11.003075876784 	  0.898530970496 	 10.064568648603 	
H	 10.434531746784 	  0.898533780496 	 20.195125368603 	
H	 11.003044776784 	  7.082092730496 	 10.064565818603 	
H	 10.434500646784 	  7.082095540496 	 20.195122538603 	
H	 25.683903176784 	  0.898540200496 	 10.092698578603 	
H	 25.115359046784 	  0.898543010496 	 20.223255298603 	
H	 25.683872076784 	  7.082101960496 	 10.092695748603 	
H	 25.115327946784 	  7.082104770496 	 20.223252468603 	
H	 11.274711804938 	  2.179740351891 	  4.947915771895 	
H	 10.706167674938 	  2.179743161891 	 15.078472491895 	
H	 11.274680704938 	  8.363302111891 	  4.947912941895 	
H	 10.706136574938 	  8.363304921891 	 15.078469661895 	
H	 25.955539104938 	  2.179749581891 	  4.976045701895 	
H	 25.386994974938 	  2.179752391891 	 15.106602421895 	
H	 25.955508004938 	  8.363311341891 	  4.976042871895 	
H	 25.386963874938 	  8.363314151891 	 15.106599591895 	
H	  3.008214384768 	  5.268950420481 	  0.213069731923 	
H	  2.439670254768 	  5.268953230481 	 10.343626451923 	
H	  3.008183284768 	 11.452512180481 	  0.213066901923 	
H	  2.439639154768 	 11.452514990481 	 10.343623621923 	
H	 17.689041684768 	  5.268959650481 	  0.241199661923 	
H	 17.120497554768 	  5.268962460481 	 10.371756381923 	
H	 17.689010584768 	 11.452521410481 	  0.241196831923 	
H	 17.120466454768 	 11.452524220481 	 10.371753551923 	
H	  1.399943688988 	  3.092296323456 	  4.595290183712 	
H	  0.831399558988 	  3.092299133456 	 14.725846903712 	
H	  1.399912588988 	  9.275858083456 	  4.595287353712 	
H	  0.831368458988 	  9.275860893456 	 14.725844073712 	
H	 16.080770988988 	  3.092305553456 	  4.623420113712 	
H	 15.512226858988 	  3.092308363456 	 14.753976833712 	
H	 16.080739888988 	  9.275867313456 	  4.623417283712 	
H	 15.512195758988 	  9.275870123456 	 14.753974003712 	
H	 12.910284487799 	  0.013543358481 	  0.590678195586 	
H	 12.341740357799 	  0.013546168481 	 10.721234915586 	
H	 12.910253387799 	  6.197105118481 	  0.590675365586 	
H	 12.341709257799 	  6.197107928481 	 10.721232085586 	
H	 27.591111787799 	  0.013552588481 	  0.618808125586 	
H	 27.022567657799 	  0.013555398481 	 10.749364845586 	
H	 27.591080687799 	  6.197114348481 	  0.618805295586 	
H	 27.022536557799 	  6.197117158481 	 10.749362015586 	
H	 12.611345527679 	  3.075185107361 	  5.682348969432 	
H	 12.042801397679 	  3.075187917361 	 15.812905689432 	
H	 12.611314427679 	  9.258746867361 	  5.682346139432 	
H	 12.042770297679 	  9.258749677361 	 15.812902859432 	
H	 27.292172827679 	  3.075194337361 	  5.710478899432 	
H	 26.723628697679 	  3.075197147361 	 15.841035619432 	
H	 27.292141727679 	  9.258756097361 	  5.710476069432 	
H	 26.723597597679 	  9.258758907361 	 15.841032789432 	
H	  1.101005803577 	  6.153938015038 	  9.686960394110 	
H	  0.532461673577 	  6.153940825038 	 19.817517114110 	
H	  1.100974703577 	 12.337499775038 	  9.686957564110 	
H	  0.532430573577 	 12.337502585038 	 19.817514284110 	
H	 15.781833103577 	  6.153947245038 	  9.715090324110 	
H	 15.213288973577 	  6.153950055038 	 19.845647044110 	
H	 15.781802003577 	 12.337509005038 	  9.715087494110 	
H	 15.213257873577 	 12.337511815038 	 19.845644214110 	
H	  3.020086633240 	  2.425265673246 	  4.744633472291 	
H	  2.451542503240 	  2.425268483246 	 14.875190192291 	
H	  3.020055533240 	  8.608827433246 	  4.744630642291 	
H	  2.451511403240 	  8.608830243246 	 14.875187362291 	
H	 17.700913933240 	  2.425274903246 	  4.772763402291 	
H	 17.132369803240 	  2.425277713246 	 14.903320122291 	
H	 17.700882833240 	  8.608836663246 	  4.772760572291 	
H	 17.132338703240 	  8.608839473246 	 14.903317292291 	
H	 11.241609376565 	  5.506749257897 	  0.433853830442 	
H	 10.673065246565 	  5.506752067897 	 10.564410550442 	
H	 11.241578276565 	 11.690311017897 	  0.433851000442 	
H	 10.673034146565 	 11.690313827897 	 10.564407720442 	
H	 25.922436676565 	  5.506758487897 	  0.461983760442 	
H	 25.353892546565 	  5.506761297897 	 10.592540480442 	
H	 25.922405576565 	 11.690320247897 	  0.461980930442 	
H	 25.353861446565 	 11.690323057897 	 10.592537650442 	
H	 10.991202286996 	  3.742215595551 	  5.533005420770 	
H	 10.422658156996 	  3.742218405551 	 15.663562140770 	
H	 10.991171186996 	  9.925777355551 	  5.533002590770 	
H	 10.422627056996 	  9.925780165551 	 15.663559310770 	
H	 25.672029586996 	  3.742224825551 	  5.561135350770 	
H	 25.103485456996 	  3.742227635551 	 15.691692070770 	
H	 25.671998486996 	  9.925786585551 	  5.561132520770 	
H	 25.103454356996 	  9.925789395551 	 15.691689240770 	
H	  2.769680921010 	  0.660732205478 	  9.843784951855 	
H	  2.201136791010 	  0.660735015478 	 19.974341671855 	
H	  2.769649821010 	  6.844293965478 	  9.843782121855 	
H	  2.201105691010 	  6.844296775478 	 19.974338841855 	
H	 17.450508221010 	  0.660741435478 	  9.871914881855 	
H	 16.881964091010 	  0.660744245478 	 20.002471601855 	
H	 17.450477121010 	  6.844303195478 	  9.871912051855 	
H	 16.881932991010 	  6.844306005478 	 20.002468771855 	
C	  1.116526837485 	  3.225008538035 	  7.032550281893 	
C	  0.547982707485 	  3.225011348035 	 17.163107001893 	
C	  1.116495737485 	  9.408570298035 	  7.032547451893 	
C	  0.547951607485 	  9.408573108035 	 17.163104171893 	
C	 15.797354137485 	  3.225017768035 	  7.060680211893 	
C	 15.228810007485 	  3.225020578035 	 17.191236931893 	
C	 15.797323037485 	  9.408579528035 	  7.060677381893 	
C	 15.228778907485 	  9.408582338035 	 17.191234101893 	
C	 12.630349123638 	  0.149302161264 	  8.365554379103 	
C	 12.061804993638 	  0.149304971264 	 18.496111099103 	
C	 12.630318023638 	  6.332863921264 	  8.365551549103 	
C	 12.061773893638 	  6.332866731264 	 18.496108269103 	
C	 27.311176423638 	  0.149311391264 	  8.393684309103 	
C	 26.742632293638 	  0.149314201264 	 18.524241029103 	
C	 27.311145323638 	  6.332873151264 	  8.393681479103 	
C	 26.742601193638 	  6.332875961264 	 18.524238199103 	
C	 12.894763155739 	  2.942471909408 	  3.245088186834 	
C	 12.326219025739 	  2.942474719408 	 13.375644906834 	
C	 12.894732055739 	  9.126033669408 	  3.245085356834 	
C	 12.326187925739 	  9.126036479408 	 13.375642076834 	
C	 27.575590455739 	  2.942481139408 	  3.273218116834 	
C	 27.007046325739 	  2.942483949408 	 13.403774836834 	
C	 27.575559355739 	  9.126042899408 	  3.273215286834 	
C	 27.007015225739 	  9.126045709408 	 13.403772006834 	
C	  1.380941109791 	  6.018178667439 	  1.912084166956 	
C	  0.812396979791 	  6.018181477439 	 12.042640886956 	
C	  1.380910009791 	 12.201740427439 	  1.912081336956 	
C	  0.812365879791 	 12.201743237439 	 12.042638056956 	
C	 16.061768409791 	  6.018187897439 	  1.940214096956 	
C	 15.493224279791 	  6.018190707439 	 12.070770816956 	
C	 16.061737309791 	 12.201749657439 	  1.940211266956 	
C	 15.493193179791 	 12.201752467439 	 12.070767986956 	
H	  1.365217112604 	  4.330659276809 	  7.233397843629 	
H	  0.796672982604 	  4.330662086809 	 17.363954563629 	
H	  1.365186012604 	 10.514221036809 	  7.233395013629 	
H	  0.796641882604 	 10.514223846809 	 17.363951733629 	
H	 16.046044412604 	  4.330668506809 	  7.261527773629 	
H	 15.477500282604 	  4.330671316809 	 17.392084493629 	
H	 16.046013312604 	 10.514230266809 	  7.261524943629 	
H	 15.477469182604 	 10.514233076809 	 17.392081663629 	
H	 12.375176238191 	  1.244838200212 	  8.158964349216 	
H	 11.806632108191 	  1.244841010212 	 18.289521069216 	
H	 12.375145138191 	  7.428399960212 	  8.158961519216 	
H	 11.806601008191 	  7.428402770212 	 18.289518239216 	
H	 27.056003538191 	  1.244847430212 	  8.187094279216 	
H	 26.487459408191 	  1.244850240212 	 18.317650999216 	
H	 27.055972438191 	  7.428409190212 	  8.187091449216 	
H	 26.487428308191 	  7.428412000212 	 18.317648169216 	
H	 12.646072757802 	  1.836821119156 	  3.044240885950 	
H	 12.077528627802 	  1.836823929156 	 13.174797605950 	
H	 12.646041657802 	  8.020382879156 	  3.044238055950 	
H	 12.077497527802 	  8.020385689156 	 13.174794775950 	
H	 27.326900057802 	  1.836830349156 	  3.072370815950 	
H	 26.758355927802 	  1.836833159156 	 13.202927535950 	
H	 27.326868957802 	  8.020392109156 	  3.072367985950 	
H	 26.758324827802 	  8.020394919156 	 13.202924705950 	
H	  1.636114157690 	  4.922642623163 	  2.118673849752 	
H	  1.067570027690 	  4.922645433163 	 12.249230569752 	
H	  1.636083057690 	 11.106204383163 	  2.118671019752 	
H	  1.067538927690 	 11.106207193163 	 12.249227739752 	
H	 16.316941457690 	  4.922651853163 	  2.146803779752 	
H	 15.748397327690 	  4.922654663163 	 12.277360499752 	
H	 16.316910357690 	 11.106213613163 	  2.146800949752 	
H	 15.748366227690 	 11.106216423163 	 12.277357669752 	
H	  0.807200171836 	  2.994772491973 	  8.116529859232 	
H	  0.238656041836 	  2.994775301973 	 18.247086579232 	
H	  0.807169071836 	  9.178334251973 	  8.116527029232 	
H	  0.238624941836 	  9.178337061973 	 18.247083749232 	
H	 15.488027471836 	  2.994781721973 	  8.144659789232 	
H	 14.919483341836 	  2.994784531973 	 18.275216509232 	
H	 15.487996371836 	  9.178343481973 	  8.144656959232 	
H	 14.919452241836 	  9.178346291973 	 18.275213679232 	
H	 12.931900438082 	  6.077641542229 	  7.276270597371 	
H	 12.363356308082 	  6.077644352229 	 17.406827317371 	
H	 12.931869338082 	 12.261203302229 	  7.276267767371 	
H	 12.363325208082 	 12.261206112229 	 17.406824487371 	
H	 27.612727738082 	  6.077650772229 	  7.304400527371 	
H	 27.044183608082 	  6.077653582229 	 17.434957247371 	
H	 27.612696638082 	 12.261212532229 	  7.304397697371 	
H	 27.044152508082 	 12.261215342229 	 17.434954417371 	
H	 13.204090205210 	  3.172708117728 	  2.161108765956 	
H	 12.635546075210 	  3.172710927728 	 12.291665485956 	
H	 13.204059105210 	  9.356269877728 	  2.161105935956 	
H	 12.635514975210 	  9.356272687728 	 12.291662655956 	
H	 27.884917505210 	  3.172717347728 	  2.189238695956 	
H	 27.316373375210 	  3.172720157728 	 12.319795415956 	
H	 27.884886405210 	  9.356279107728 	  2.189235865956 	
H	 27.316342275210 	  9.356281917728 	 12.319792585956 	
H	  1.079389853648 	  0.089839029036 	  3.001368013692 	
H	  0.510845723648 	  0.089841839036 	 13.131924733692 	
H	  1.079358753648 	  6.273400789036 	  3.001365183692 	
H	  0.510814623648 	  6.273403599036 	 13.131921903692 	
H	 15.760217153648 	  0.089848259036 	  3.029497943692 	
H	 15.191673023648 	  0.089851069036 	 13.160054663692 	
H	 15.760186053648 	  6.273410019036 	  3.029495113692 	
H	 15.191641923648 	  6.273412829036 	 13.160051833692 	
H	  0.118291372285 	  3.304936545249 	  6.499046921344 	
H	 -0.450252757715 	  3.304939355249 	 16.629603641344 	
H	  0.118260272285 	  9.488498305249 	  6.499044091344 	
H	 -0.450283857715 	  9.488501115249 	 16.629600811344 	
H	 14.799118672285 	  3.304945775249 	  6.527176851344 	
H	 14.230574542285 	  3.304948585249 	 16.657733571344 	
H	 14.799087572285 	  9.488507535249 	  6.527174021344 	
H	 14.230543442285 	  9.488510345249 	 16.657730741344 	
H	 13.612792482644 	  6.386039938705 	  8.889499905448 	
H	 13.044248352644 	  6.386042748705 	 19.020056625448 	
H	 13.612761382644 	 12.569601698705 	  8.889497075448 	
H	 13.044217252644 	 12.569604508705 	 19.020053795448 	
H	 28.293619782644 	  6.386049168705 	  8.917629835448 	
H	 27.725075652644 	  6.386051978705 	 19.048186555448 	
H	 28.293588682644 	 12.569610928705 	  8.917627005448 	
H	 27.725044552644 	 12.569613738705 	 19.048183725448 	
H	 13.892998357885 	  2.862544078696 	  3.778591997252 	
H	 13.324454227885 	  2.862546888696 	 13.909148717252 	
H	 13.892967257885 	  9.046105838696 	  3.778589167252 	
H	 13.324423127885 	  9.046108648696 	 13.909145887252 	
H	 28.573825657885 	  2.862553308696 	  3.806721927252 	
H	 28.005281527885 	  2.862556118696 	 13.937278647252 	
H	 28.573794557885 	  9.046115068696 	  3.806719097252 	
H	 28.005250427885 	  9.046117878696 	 13.937275817252 	
H	  0.398497741114 	 -0.218559182201 	  1.388138673098 	
H	 -0.170046388886 	 -0.218556372201 	 11.518695393098 	
H	  0.398466641114 	  5.965002577799 	  1.388135843098 	
H	 -0.170077488886 	  5.965005387799 	 11.518692563098 	
H	 15.079325041114 	 -0.218549952201 	  1.416268603098 	
H	 14.510780911114 	 -0.218547142201 	 11.546825323098 	
H	 15.079293941114 	  5.965011807799 	  1.416265773098 	
H	 14.510749811114 	  5.965014617799 	 11.546822493098 	
C	  1.484182494679 	  1.378130490833 	  6.362459568634 	
C	  0.915638364679 	  1.378133300833 	 16.493016288634 	
C	  1.484151394679 	  7.561692250833 	  6.362456738634 	
C	  0.915607264679 	  7.561695060833 	 16.493013458634 	
C	 16.165009794679 	  1.378139720833 	  6.390589498634 	
C	 15.596465664679 	  1.378142530833 	 16.521146218634 	
C	 16.164978694679 	  7.561701480833 	  6.390586668634 	
C	 15.596434564679 	  7.561704290833 	 16.521143388634 	
C	 12.254309796245 	  4.463800071078 	  9.030843073099 	
C	 11.685765666245 	  4.463802881078 	 19.161399793099 	
C	 12.254278696245 	 10.647361831078 	  9.030840243099 	
C	 11.685734566245 	 10.647364641078 	 19.161396963099 	
C	 26.935137096245 	  4.463809301078 	  9.058973003099 	
C	 26.366592966245 	  4.463812111078 	 19.189529723099 	
C	 26.935105996245 	 10.647371061078 	  9.058970173099 	
C	 26.366561866245 	 10.647373871078 	 19.189526893099 	
C	 12.527107224015 	  4.789351290487 	  3.915178676505 	
C	 11.958563094015 	  4.789354100487 	 14.045735396505 	
C	 12.527076124015 	 10.972913050487 	  3.915175846505 	
C	 11.958531994015 	 10.972915860487 	 14.045732566505 	
C	 27.207934524015 	  4.789360520487 	  3.943308606505 	
C	 26.639390394015 	  4.789363330487 	 14.073865326505 	
C	 27.207903424015 	 10.972922280487 	  3.943305776505 	
C	 26.639359294015 	 10.972925090487 	 14.073862496505 	
C	  1.756980218295 	  1.703680926102 	  1.246795853314 	
C	  1.188436088295 	  1.703683736102 	 11.377352573314 	
C	  1.756949118295 	  7.887242686102 	  1.246793023314 	
C	  1.188404988295 	  7.887245496102 	 11.377349743314 	
C	 16.437807518295 	  1.703690156102 	  1.274925783314 	
C	 15.869263388295 	  1.703692966102 	 11.405482503314 	
C	 16.437776418295 	  7.887251916102 	  1.274922953314 	
C	 15.869232288295 	  7.887254726102 	 11.405479673314 	
H	  0.488199730807 	  1.263566148887 	  5.830970772695 	
H	 -0.080344399193 	  1.263568958887 	 15.961527492695 	
H	  0.488168630807 	  7.447127908887 	  5.830967942695 	
H	 -0.080375499193 	  7.447130718887 	 15.961524662695 	
H	 15.169027030807 	  1.263575378887 	  5.859100702695 	
H	 14.600482900807 	  1.263578188887 	 15.989657422695 	
H	 15.168995930807 	  7.447137138887 	  5.859097872695 	
H	 14.600451800807 	  7.447139948887 	 15.989654592695 	
H	 13.250379851167 	  4.347729828657 	  9.562140116219 	
H	 12.681835721167 	  4.347732638657 	 19.692696836219 	
H	 13.250348751167 	 10.531291588657 	  9.562137286219 	
H	 12.681804621167 	 10.531294398657 	 19.692694006219 	
H	 27.931207151167 	  4.347739058657 	  9.590270046219 	
H	 27.362663021167 	  4.347741868657 	 19.720826766219 	
H	 27.931176051167 	 10.531300818657 	  9.590267216219 	
H	 27.362631921167 	 10.531303628657 	 19.720823936219 	
H	 13.523089901817 	  4.903915296381 	  4.446667617246 	
H	 12.954545771817 	  4.903918106381 	 14.577224337246 	
H	 13.523058801817 	 11.087477056381 	  4.446664787246 	
H	 12.954514671817 	 11.087479866381 	 14.577221507246 	
H	 28.203917201817 	  4.903924526381 	  4.474797547246 	
H	 27.635373071817 	  4.903927336381 	 14.605354267246 	
H	 28.203886101817 	 11.087486286381 	  4.474794717246 	
H	 27.635341971817 	 11.087489096381 	 14.605351437246 	
H	  0.760910157533 	  1.819751113385 	  0.715498835476 	
H	  0.192366027533 	  1.819753923385 	 10.846055555476 	
H	  0.760879057533 	  8.003312873385 	  0.715496005476 	
H	  0.192334927533 	  8.003315683385 	 10.846052725476 	
H	 15.441737457533 	  1.819760343385 	  0.743628765476 	
H	 14.873193327533 	  1.819763153385 	 10.874185485476 	
H	 15.441706357533 	  8.003322103385 	  0.743625935476 	
H	 14.873162227533 	  8.003324913385 	 10.874182655476 	
H	  1.318484436930 	  0.754168524385 	  7.315703242047 	
H	  0.749940306930 	  0.754171334385 	 17.446259962047 	
H	  1.318453336930 	  6.937730284385 	  7.315700412047 	
H	  0.749909206930 	  6.937733094385 	 17.446257132047 	
H	 15.999311736930 	  0.754177754385 	  7.343833172047 	
H	 15.430767606930 	  0.754180564385 	 17.474389892047 	
H	 15.999280636930 	  6.937739514385 	  7.343830342047 	
H	 15.430736506930 	  6.937742324385 	 17.474387062047 	
H	 12.420270101105 	  3.838400905243 	  8.077605702455 	
H	 11.851725971105 	  3.838403715243 	 18.208162422455 	
H	 12.420239001105 	 10.021962665243 	  8.077602872455 	
H	 11.851694871105 	 10.021965475243 	 18.208159592455 	
H	 27.101097401105 	  3.838410135243 	  8.105735632455 	
H	 26.532553271105 	  3.838412945243 	 18.236292352455 	
H	 27.101066301105 	 10.021971895243 	  8.105732802455 	
H	 26.532522171105 	 10.021974705243 	 18.236289522455 	
H	 12.692805371115 	  5.413312795969 	  2.961934700257 	
H	 12.124261241115 	  5.413315605969 	 13.092491420257 	
H	 12.692774271115 	 11.596874555969 	  2.961931870257 	
H	 12.124230141115 	 11.596877365969 	 13.092488590257 	
H	 27.373632671115 	  5.413322025969 	  2.990064630257 	
H	 26.805088541115 	  5.413324835969 	 13.120621350257 	
H	 27.373601571115 	 11.596883785969 	  2.990061800257 	
H	 26.805057441115 	 11.596886595969 	 13.120618520257 	
H	  1.591019839342 	  2.329079882752 	  2.200033331115 	
H	  1.022475709342 	  2.329082692752 	 12.330590051115 	
H	  1.590988739342 	  8.512641642752 	  2.200030501115 	
H	  1.022444609342 	  8.512644452752 	 12.330587221115 	
H	 16.271847139342 	  2.329089112752 	  2.228163261115 	
H	 15.703303009342 	  2.329091922752 	 12.358719981115 	
H	 16.271816039342 	  8.512650872752 	  2.228160431115 	
H	 15.703271909342 	  8.512653682752 	 12.358717151115 	
H	  2.104444161464 	  0.581696031786 	  5.819470580226 	
H	  1.535900031464 	  0.581698841786 	 15.950027300226 	
H	  2.104413061464 	  6.765257791786 	  5.819467750226 	
H	  1.535868931464 	  6.765260601786 	 15.950024470226 	
H	 16.785271461464 	  0.581705261786 	  5.847600510226 	
H	 16.216727331464 	  0.581708071786 	 15.978157230226 	
H	 16.785240361464 	  6.765267021786 	  5.847597680226 	
H	 16.216696231464 	  6.765269831786 	 15.978154400226 	
H	 11.634481192950 	  3.666012017458 	  9.573713167344 	
H	 11.065937062950 	  3.666014827458 	 19.704269887344 	
H	 11.634450092950 	  9.849573777458 	  9.573710337344 	
H	 11.065905962950 	  9.849576587458 	 19.704267057344 	
H	 26.315308492950 	  3.666021247458 	  9.601843097344 	
H	 25.746764362950 	  3.666024057458 	 19.732399817344 	
H	 26.315277392950 	  9.849583007458 	  9.601840267344 	
H	 25.746733262950 	  9.849585817458 	 19.732396987344 	
H	 11.906845285731 	  5.585785595958 	  4.458167927368 	
H	 11.338301155731 	  5.585788405958 	 14.588724647368 	
H	 11.906814185731 	 11.769347355958 	  4.458165097368 	
H	 11.338270055731 	 11.769350165958 	 14.588721817368 	
H	 26.587672585731 	  5.585794825958 	  4.486297857368 	
H	 26.019128455731 	  5.585797635958 	 14.616854577368 	
H	 26.587641485731 	 11.769356585958 	  4.486295027368 	
H	 26.019097355731 	 11.769359395958 	 14.616851747368 	
H	  2.376808788358 	  2.501469208927 	  0.703926086460 	
H	  1.808264658358 	  2.501472018927 	 10.834482806460 	
H	  2.376777688358 	  8.685030968927 	  0.703923256460 	
H	  1.808233558358 	  8.685033778927 	 10.834479976460 	
H	 17.057636088358 	  2.501478438927 	  0.732056016460 	
H	 16.489091958358 	  2.501481248927 	 10.862612736460 	
H	 17.057604988358 	  8.685040198927 	  0.732053186460 	
H	 16.489060858358 	  8.685043008927 	 10.862609906460 	
768 
Energy: -9.2578479407239996e+01 
S	  8.635374508355 	  1.518750126730 	  0.067752200055 	
S	  8.066830378355 	  1.518752936730 	 10.198308920055 	
S	  8.635343408355 	  7.702311886730 	  0.067749370055 	
S	  8.066799278355 	  7.702314696730 	 10.198306090055 	
S	 23.316201808355 	  1.518759356730 	  0.095882130055 	
S	 22.747657678355 	  1.518762166730 	 10.226438850055 	
S	 23.316170708355 	  7.702321116730 	  0.095879300055 	
S	 22.747626578355 	  7.702323926730 	 10.226436020055 	
S	  5.586221004765 	  4.597561473569 	  5.131698844514 	
S	  5.017676874765 	  4.597564283569 	 15.262255564514 	
S	  5.586189904765 	 10.781123233569 	  5.131696014514 	
S	  5.017645774765 	 10.781126043569 	 15.262252734514 	
S	 20.267048304765 	  4.597570703569 	  5.159828774514 	
S	 19.698504174765 	  4.597573513569 	 15.290385494514 	
S	 20.267017204765 	 10.781132463569 	  5.159825944514 	
S	 19.698473074765 	 10.781135273569 	 15.290382664514 	
S	  5.321085699318 	  4.639990937498 	 10.274487403844 	
S	  4.752541569318 	  4.639993747498 	 20.405044123844 	
S	  5.321054599318 	 10.823552697498 	 10.274484573844 	
S	  4.752510469318 	 10.823555507498 	 20.405041293844 	
S	 20.001912999318 	  4.640000167498 	 10.302617333844 	
S	 19.433368869318 	  4.640002977498 	 20.433174053844 	
S	 20.001881899318 	 10.823561927498 	 10.302614503844 	
S	 19.433337769318 	 10.823564737498 	 20.433171223844 	
S	  8.370239824860 	  1.561180101124 	  5.210540847687 	
S	  7.801695694860 	  1.561182911124 	 15.341097567687 	
S	  8.370208724860 	  7.744741861124 	  5.210538017687 	
S	  7.801664594860 	  7.744744671124 	 15.341094737687 	
S	 23.051067124860 	  1.561189331124 	  5.238670777687 	
S	 22.482522994860 	  1.561192141124 	 15.369227497687 	
S	 23.051036024860 	  7.744751091124 	  5.238667947687 	
S	 22.482491894860 	  7.744753901124 	 15.369224667687 	
C	  6.700805180159 	  2.541230874489 	  9.950162709613 	
C	  6.132261050159 	  2.541233684489 	 20.080719429613 	
C	  6.700774080159 	  8.724792634489 	  9.950159879613 	
C	  6.132229950159 	  8.724795444489 	 20.080716599613 	
C	 21.381632480159 	  2.541240104489 	  9.978292639613 	
C	 20.813088350159 	  2.541242914489 	 20.108849359613 	
C	 21.381601380159 	  8.724801864489 	  9.978289809613 	
C	 20.813057250159 	  8.724804674489 	 20.108846529613 	
C	  6.989492662258 	  5.614770124152 	  5.536690506408 	
C	  6.420948532258 	  5.614772934152 	 15.667247226408 	
C	  6.989461562258 	 11.798331884152 	  5.536687676408 	
C	  6.420917432258 	 11.798334694152 	 15.667244396408 	
C	 21.670319962258 	  5.614779354152 	  5.564820436408 	
C	 21.101775832258 	  5.614782164152 	 15.695377156408 	
C	 21.670288862258 	 11.798341114152 	  5.564817606408 	
C	 21.101744732258 	 11.798343924152 	 15.695374326408 	
C	  7.255655053550 	  3.617510147281 	  0.392076857484 	
C	  6.687110923550 	  3.617512957281 	 10.522633577484 	
C	  7.255623953550 	  9.801071907281 	  0.392074027484 	
C	  6.687079823550 	  9.801074717281 	 10.522630747484 	
C	 21.936482353550 	  3.617519377281 	  0.420206787484 	
C	 21.367938223550 	  3.617522187281 	 10.550763507484 	
C	 21.936451253550 	  9.801081137281 	  0.420203957484 	
C	 21.367907123550 	  9.801083947281 	 10.550760677484 	
C	  6.966968025121 	  0.543971550361 	  4.805549133027 	
C	  6.398423895121 	  0.543974360361 	 14.936105853027 	
C	  6.966936925121 	  6.727533310361 	  4.805546303027 	
C	  6.398392795121 	  6.727536120361 	 14.936103023027 	
C	 21.647795325121 	  0.543980780361 	  4.833679063027 	
C	 21.079251195121 	  0.543983590361 	 14.964235783027 	
C	 21.647764225121 	  6.727542540361 	  4.833676233027 	
C	 21.079220095121 	  6.727545350361 	 14.964232953027 	
C	  5.646578088873 	  2.349674661499 	  9.014856697103 	
C	  5.078033958873 	  2.349677471499 	 19.145413417103 	
C	  5.646546988873 	  8.533236421499 	  9.014853867103 	
C	  5.078002858873 	  8.533239231499 	 19.145410587103 	
C	 20.327405388873 	  2.349683891499 	  9.042986627103 	
C	 19.758861258873 	  2.349686701499 	 19.173543347103 	
C	 20.327374288873 	  8.533245651499 	  9.042983797103 	
C	 19.758830158873 	  8.533248461499 	 19.173540517103 	
C	  8.047285446082 	  5.430643187180 	  6.469937549272 	
C	  7.478741316082 	  5.430645997180 	 16.600494269272 	
C	  8.047254346082 	 11.614204947180 	  6.469934719272 	
C	  7.478710216082 	 11.614207757180 	 16.600491439272 	
C	 22.728112746082 	  5.430652417180 	  6.498067479272 	
C	 22.159568616082 	  5.430655227180 	 16.628624199272 	
C	 22.728081646082 	 11.614214177180 	  6.498064649272 	
C	 22.159537516082 	 11.614216987180 	 16.628621369272 	
C	  8.309881997580 	  3.809066406323 	  1.327382759732 	
C	  7.741337867580 	  3.809069216323 	 11.457939479732 	
C	  8.309850897580 	  9.992628166323 	  1.327379929732 	
C	  7.741306767580 	  9.992630976323 	 11.457936649732 	
C	 22.990709297580 	  3.809075636323 	  1.355512689732 	
C	 22.422165167580 	  3.809078446323 	 11.486069409732 	
C	 22.990678197580 	  9.992637396323 	  1.355509859732 	
C	 22.422134067580 	  9.992640206323 	 11.486066579732 	
C	  5.909175153695 	  0.728098471259 	  3.872302084724 	
C	  5.340631023695 	  0.728101281259 	 14.002858804724 	
C	  5.909144053695 	  6.911660231259 	  3.872299254724 	
C	  5.340599923695 	  6.911663041259 	 14.002855974724 	
C	 20.590002453695 	  0.728107701259 	  3.900432014724 	
C	 20.021458323695 	  0.728110511259 	 14.030988734724 	
C	 20.589971353695 	  6.911669461259 	  3.900429184724 	
C	 20.021427223695 	  6.911672271259 	 14.030985904724 	
C	  4.765114139368 	  3.425442692502 	  9.060026341128 	
C	  4.196570009368 	  3.425445502502 	 19.190583061128 	
C	  4.765083039368 	  9.609004452502 	  9.060023511128 	
C	  4.196538909368 	  9.609007262502 	 19.190580231128 	
C	 19.445941439368 	  3.425451922502 	  9.088156271128 	
C	 18.877397309368 	  3.425454732502 	 19.218712991128 	
C	 19.445910339368 	  9.609013682502 	  9.088153441128 	
C	 18.877366209368 	  9.609016492502 	 19.218710161128 	
C	  8.921964340289 	  0.344217897676 	  6.425470824690 	
C	  8.353420210289 	  0.344220707676 	 16.556027544690 	
C	  8.921933240289 	  6.527779657676 	  6.425467994690 	
C	  8.353389110289 	  6.527782467676 	 16.556024714690 	
C	 23.602791640289 	  0.344227127676 	  6.453600754690 	
C	 23.034247510289 	  0.344229937676 	 16.584157474690 	
C	 23.602760540289 	  6.527788887676 	  6.453597924690 	
C	 23.034216410289 	  6.527791697676 	 16.584154644690 	
C	  9.191345941860 	  2.733298422629 	  1.282213196418 	
C	  8.622801811860 	  2.733301232629 	 11.412769916418 	
C	  9.191314841860 	  8.916860182629 	  1.282210366418 	
C	  8.622770711860 	  8.916862992629 	 11.412767086418 	
C	 23.872173241860 	  2.733307652629 	  1.310343126418 	
C	 23.303629111860 	  2.733310462629 	 11.440899846418 	
C	 23.872142141860 	  8.916869412629 	  1.310340296418 	
C	 23.303598011860 	  8.916872222629 	 11.440897016418 	
C	  5.034496299101 	  5.814523710571 	  3.916768880957 	
C	  4.465952169101 	  5.814526520571 	 14.047325600957 	
C	  5.034465199101 	 11.998085470571 	  3.916766050957 	
C	  4.465921069101 	 11.998088280571 	 14.047322770957 	
C	 19.715323599101 	  5.814532940571 	  3.944898810957 	
C	 19.146779469101 	  5.814535750571 	 14.075455530957 	
C	 19.715292499101 	 11.998094700571 	  3.944895980957 	
C	 19.146748369101 	 11.998097510571 	 14.075452700957 	
C	  3.673685046067 	  3.480232634351 	  8.303013018391 	
C	  3.105140916067 	  3.480235444351 	 18.433569738391 	
C	  3.673653946067 	  9.663794394351 	  8.303010188391 	
C	  3.105109816067 	  9.663797204351 	 18.433566908391 	
C	 18.354512346067 	  3.480241864351 	  8.331142948391 	
C	 17.785968216067 	  3.480244674351 	 18.461699668391 	
C	 18.354481246067 	  9.663803624351 	  8.331140118391 	
C	 17.785937116067 	  9.663806434351 	 18.461696838391 	
C	 10.016899306331 	  0.400663483592 	  7.183933275141 	
C	  9.448355176331 	  0.400666293592 	 17.314489995141 	
C	 10.016868206331 	  6.584225243592 	  7.183930445141 	
C	  9.448324076331 	  6.584228053592 	 17.314487165141 	
C	 24.697726606331 	  0.400672713592 	  7.212063205141 	
C	 24.129182476331 	  0.400675523592 	 17.342619925141 	
C	 24.697695506331 	  6.584234473592 	  7.212060375141 	
C	 24.129151376331 	  6.584237283592 	 17.342617095141 	
C	 10.282775056025 	  2.678508573710 	  2.039226674259 	
C	  9.714230926025 	  2.678511383710 	 12.169783394259 	
C	 10.282743956025 	  8.862070333710 	  2.039223844259 	
C	  9.714199826025 	  8.862073143710 	 12.169780564259 	
C	 24.963602356025 	  2.678517803710 	  2.067356604259 	
C	 24.395058226025 	  2.678520613710 	 12.197913324259 	
C	 24.963571256025 	  8.862079563710 	  2.067353774259 	
C	 24.395027126025 	  8.862082373710 	 12.197910494259 	
C	  3.939561194198 	  5.758078128225 	  3.158306577704 	
C	  3.371017064198 	  5.758080938225 	 13.288863297704 	
C	  3.939530094198 	 11.941639888225 	  3.158303747704 	
C	  3.370985964198 	 11.941642698225 	 13.288860467704 	
C	 18.620388494198 	  5.758087358225 	  3.186436507704 	
C	 18.051844364198 	  5.758090168225 	 13.316993227704 	
C	 18.620357394198 	 11.941649118225 	  3.186433677704 	
C	 18.051813264198 	 11.941651928225 	 13.316990397704 	
H	  2.984510416984 	  4.405865115238 	  8.385293725438 	
H	  2.415966286984 	  4.405867925238 	 18.515850445438 	
H	  2.984479316984 	 10.589426875238 	  8.385290895438 	
H	  2.415935186984 	 10.589429685238 	 18.515847615438 	
H	 17.665337716984 	  4.405874345238 	  8.413423655438 	
H	 17.096793586984 	  4.405877155238 	 18.543980375438 	
H	 17.665306616984 	 10.589436105238 	  8.413420825438 	
H	 17.096762486984 	 10.589438915238 	 18.543977545438 	
H	 10.705972863920 	  1.326069599866 	  7.100038939472 	
H	 10.137428733920 	  1.326072409866 	 17.230595659472 	
H	 10.705941763920 	  7.509631359866 	  7.100036109472 	
H	 10.137397633920 	  7.509634169866 	 17.230592829472 	
H	 25.386800163920 	  1.326078829866 	  7.128168869472 	
H	 24.818256033920 	  1.326081639866 	 17.258725589472 	
H	 25.386769063920 	  7.509640589866 	  7.128166039472 	
H	 24.818224933920 	  7.509643399866 	 17.258722759472 	
H	 10.971949650024 	  1.752876054401 	  1.956945957902 	
H	 10.403405520024 	  1.752878864401 	 12.087502677902 	
H	 10.971918550024 	  7.936437814401 	  1.956943127902 	
H	 10.403374420024 	  7.936440624401 	 12.087499847902 	
H	 25.652776950024 	  1.752885284401 	  1.985075887902 	
H	 25.084232820024 	  1.752888094401 	 12.115632607902 	
H	 25.652745850024 	  7.936447044401 	  1.985073057902 	
H	 25.084201720024 	  7.936449854401 	 12.115629777902 	
H	  3.250487764038 	  4.832671914673 	  3.242200987841 	
H	  2.681943634038 	  4.832674724673 	 13.372757707841 	
H	  3.250456664038 	 11.016233674673 	  3.242198157841 	
H	  2.681912534038 	 11.016236484673 	 13.372754877841 	
H	 17.931315064038 	  4.832681144673 	  3.270330917841 	
H	 17.362770934038 	  4.832683954673 	 13.400887637841 	
H	 17.931283964038 	 11.016242904673 	  3.270328087841 	
H	 17.362739834038 	 11.016245714673 	 13.400884807841 	
C	  3.343302187138 	  2.496963047031 	  7.444902923124 	
C	  2.774758057138 	  2.496965857031 	 17.575459643124 	
C	  3.343271087138 	  8.680524807031 	  7.444900093124 	
C	  2.774726957138 	  8.680527617031 	 17.575456813124 	
C	 18.024129487138 	  2.496972277031 	  7.473032853124 	
C	 17.455585357138 	  2.496975087031 	 17.603589573124 	
C	 18.024098387138 	  8.680534037031 	  7.473030023124 	
C	 17.455554257138 	  8.680536847031 	 17.603586743124 	
C	 10.346596843206 	  5.576235929158 	  8.038070190496 	
C	  9.778052713206 	  5.576238739158 	 18.168626910496 	
C	 10.346565743206 	 11.759797689158 	  8.038067360496 	
C	  9.778021613206 	 11.759800499158 	 18.168624080496 	
C	 25.027424143206 	  5.576245159158 	  8.066200120496 	
C	 24.458880013206 	  5.576247969158 	 18.196756840496 	
C	 25.027393043206 	 11.759806919158 	  8.066197290496 	
C	 24.458848913206 	 11.759809729158 	 18.196754010496 	
C	 10.613157757226 	  3.661778140807 	  2.897336656022 	
C	 10.044613627226 	  3.661780950807 	 13.027893376022 	
C	 10.613126657226 	  9.845339900807 	  2.897333826022 	
C	 10.044582527226 	  9.845342710807 	 13.027890546022 	
C	 25.293985057226 	  3.661787370807 	  2.925466586022 	
C	 24.725440927226 	  3.661790180807 	 13.056023306022 	
C	 25.293953957226 	  9.845349130807 	  2.925463756022 	
C	 24.725409827226 	  9.845351940807 	 13.056020476022 	
C	  3.609863617869 	  0.582505666089 	  2.304169682822 	
C	  3.041319487869 	  0.582508476089 	 12.434726402822 	
C	  3.609832517869 	  6.766067426089 	  2.304166852822 	
C	  3.041288387869 	  6.766070236089 	 12.434723572822 	
C	 18.290690917869 	  0.582514896089 	  2.332299612822 	
C	 17.722146787869 	  0.582517706089 	 12.462856332822 	
C	 18.290659817869 	  6.766076656089 	  2.332296782822 	
C	 17.722115687869 	  6.766079466089 	 12.462853502822 	
C	  4.233454097413 	  1.453382285287 	  7.380054847956 	
C	  3.664909967413 	  1.453385095287 	 17.510611567956 	
C	  4.233422997413 	  7.636944045287 	  7.380052017956 	
C	  3.664878867413 	  7.636946855287 	 17.510608737956 	
C	 18.914281397413 	  1.453391515287 	  7.408184777956 	
C	 18.345737267413 	  1.453394325287 	 17.538741497956 	
C	 18.914250297413 	  7.636953275287 	  7.408181947956 	
C	 18.345706167413 	  7.636956085287 	 17.538738667956 	
C	  9.457117762701 	  4.533129620558 	  8.104702032010 	
C	  8.888573632701 	  4.533132430558 	 18.235258752010 	
C	  9.457086662701 	 10.716691380558 	  8.104699202010 	
C	  8.888542532701 	 10.716694190558 	 18.235255922010 	
C	 24.137945062701 	  4.533138850558 	  8.132831962010 	
C	 23.569400932701 	  4.533141660558 	 18.263388682010 	
C	 24.137913962701 	 10.716700610558 	  8.132829132010 	
C	 23.569369832701 	 10.716703420558 	 18.263385852010 	
C	  9.723005796207 	  4.705358881269 	  2.962184768926 	
C	  9.154461666207 	  4.705361691269 	 13.092741488926 	
C	  9.722974696207 	 10.888920641269 	  2.962181938926 	
C	  9.154430566207 	 10.888923451269 	 13.092738658926 	
C	 24.403833096207 	  4.705368111269 	  2.990314698926 	
C	 23.835288966207 	  4.705370921269 	 13.120871418926 	
C	 24.403801996207 	 10.888929871269 	  2.990311868926 	
C	 23.835257866207 	 10.888932681269 	 13.120868588926 	
C	  4.499342564181 	  1.625611925107 	  2.237537725723 	
C	  3.930798434181 	  1.625614735107 	 12.368094445723 	
C	  4.499311464181 	  7.809173685107 	  2.237534895723 	
C	  3.930767334181 	  7.809176495107 	 12.368091615723 	
C	 19.180169864181 	  1.625621155107 	  2.265667655723 	
C	 18.611625734181 	  1.625623965107 	 12.396224375723 	
C	 19.180138764181 	  7.809182915107 	  2.265664825723 	
C	 18.611594634181 	  7.809185725107 	 12.396221545723 	
H	  4.008907187638 	  0.599795114892 	  6.635712584082 	
H	  3.440363057638 	  0.599797924892 	 16.766269304082 	
H	  4.008876087638 	  6.783356874892 	  6.635709754082 	
H	  3.440331957638 	  6.783359684892 	 16.766266474082 	
H	 18.689734487638 	  0.599804344892 	  6.663842514082 	
H	 18.121190357638 	  0.599807154892 	 16.794399234082 	
H	 18.689703387638 	  6.783366104892 	  6.663839684082 	
H	 18.121159257638 	  6.783368914892 	 16.794396404082 	
H	  9.681529099946 	  3.679336682715 	  8.849232673400 	
H	  9.112984969946 	  3.679339492715 	 18.979789393400 	
H	  9.681497999946 	  9.862898442715 	  8.849229843400 	
H	  9.112953869946 	  9.862901252715 	 18.979786563400 	
H	 24.362356399946 	  3.679345912715 	  8.877362603400 	
H	 23.793812269946 	  3.679348722715 	 19.007919323400 	
H	 24.362325299946 	  9.862907672715 	  8.877359773400 	
H	 23.793781169946 	  9.862910482715 	 19.007916493400 	
H	  9.947552734319 	  5.558946061804 	  3.706527001099 	
H	  9.379008604319 	  5.558948871804 	 13.837083721099 	
H	  9.947521634319 	 11.742507821804 	  3.706524171099 	
H	  9.378977504319 	 11.742510631804 	 13.837080891099 	
H	 24.628380034319 	  5.558955291804 	  3.734656931099 	
H	 24.059835904319 	  5.558958101804 	 13.865213651099 	
H	 24.628348934319 	 11.742517051804 	  3.734654101099 	
H	 24.059804804319 	 11.742519861804 	 13.865210821099 	
H	  4.274931128251 	  2.479404917041 	  1.493007171044 	
H	  3.706386998251 	  2.479407727041 	 11.623563891044 	
H	  4.274900028251 	  8.662966677041 	  1.493004341044 	
H	  3.706355898251 	  8.662969487041 	 11.623561061044 	
H	 18.955758428251 	  2.479414147041 	  1.521137101044 	
H	 18.387214298251 	  2.479416957041 	 11.651693821044 	
H	 18.955727328251 	  8.662975907041 	  1.521134271044 	
H	 18.387183198251 	  8.662978717041 	 11.651690991044 	
C	  5.308951992319 	  1.376644446641 	  8.104184416074 	
C	  4.740407862319 	  1.376647256641 	 18.234741136074 	
C	  5.308920892319 	  7.560206206641 	  8.104181586074 	
C	  4.740376762319 	  7.560209016641 	 18.234738306074 	
C	 19.989779292319 	  1.376653676641 	  8.132314346074 	
C	 19.421235162319 	  1.376656486641 	 18.262871066074 	
C	 19.989748192319 	  7.560215436641 	  8.132311516074 	
C	 19.421204062319 	  7.560218246641 	 18.262868236074 	
C	  8.381502874850 	  4.456327787627 	  7.380507858013 	
C	  7.812958744850 	  4.456330597627 	 17.511064578013 	
C	  8.381471774850 	 10.639889547627 	  7.380505028013 	
C	  7.812927644850 	 10.639892357627 	 17.511061748013 	
C	 23.062330174850 	  4.456337017627 	  7.408637788013 	
C	 22.493786044850 	  4.456339827627 	 17.539194508013 	
C	 23.062299074850 	 10.639898777627 	  7.408634958013 	
C	 22.493754944850 	 10.639901587627 	 17.539191678013 	
C	  8.647507989537 	  4.782096672645 	  2.238055054798 	
C	  8.078963859537 	  4.782099482645 	 12.368611774798 	
C	  8.647476889537 	 10.965658432645 	  2.238052224798 	
C	  8.078932759537 	 10.965661242645 	 12.368608944798 	
C	 23.328335289537 	  4.782105902645 	  2.266184984798 	
C	 22.759791159537 	  4.782108712645 	 12.396741704798 	
C	 23.328304189537 	 10.965667662645 	  2.266182154798 	
C	 22.759760059537 	 10.965670472645 	 12.396738874798 	
C	  5.574957618496 	  1.702413849027 	  2.961731853931 	
C	  5.006413488496 	  1.702416659027 	 13.092288573931 	
C	  5.574926518496 	  7.885975609027 	  2.961729023931 	
C	  5.006382388496 	  7.885978419027 	 13.092285743931 	
C	 20.255784918496 	  1.702423079027 	  2.989861783931 	
C	 19.687240788496 	  1.702425889027 	 13.120418503931 	
C	 20.255753818496 	  7.885984839027 	  2.989858953931 	
C	 19.687209688496 	  7.885987649027 	 13.120415673931 	
H	  6.017873493989 	  0.469386463080 	  8.006758633576 	
H	  5.449329363989 	  0.469389273080 	 18.137315353576 	
H	  6.017842393989 	  6.652948223080 	  8.006755803576 	
H	  5.449298263989 	  6.652951033080 	 18.137312523576 	
H	 20.698700793989 	  0.469395693080 	  8.034888563576 	
H	 20.130156663989 	  0.469398503080 	 18.165445283576 	
H	 20.698669693989 	  6.652957453080 	  8.034885733576 	
H	 20.130125563989 	  6.652960263080 	 18.165442453576 	
H	  7.672523088012 	  3.548801899143 	  7.478172474999 	
H	  7.103978958012 	  3.548804709143 	 17.608729194999 	
H	  7.672491988012 	  9.732363659143 	  7.478169644999 	
H	  7.103947858012 	  9.732366469143 	 17.608726364999 	
H	 22.353350388012 	  3.548811129143 	  7.506302404999 	
H	 21.784806258012 	  3.548813939143 	 17.636859124999 	
H	 22.353319288012 	  9.732372889143 	  7.506299574999 	
H	 21.784775158012 	  9.732375699143 	 17.636856294999 	
H	  7.938586413649 	  5.689354582834 	  2.335480813456 	
H	  7.370042283649 	  5.689357392834 	 12.466037533456 	
H	  7.938555313649 	 11.872916342834 	  2.335477983456 	
H	  7.370011183649 	 11.872919152834 	 12.466034703456 	
H	 22.619413713649 	  5.689363812834 	  2.363610743456 	
H	 22.050869583649 	  5.689366622834 	 12.494167463456 	
H	 22.619382613649 	 11.872925572834 	  2.363607913456 	
H	 22.050838483649 	 11.872928382834 	 12.494164633456 	
H	  6.283937358820 	  2.609939747315 	  2.864067167656 	
H	  5.715393228820 	  2.609942557315 	 12.994623887656 	
H	  6.283906258820 	  8.793501507315 	  2.864064337656 	
H	  5.715362128820 	  8.793504317315 	 12.994621057656 	
H	 20.964764658820 	  2.609948977315 	  2.892197097656 	
H	 20.396220528820 	  2.609951787315 	 13.022753817656 	
H	 20.964733558820 	  8.793510737315 	  2.892194267656 	
H	 20.396189428820 	  8.793513547315 	 13.022750987656 	
C	  1.983371518996 	  2.553794353617 	  6.531097362374 	
C	  1.414827388996 	  2.553797163617 	 16.661654082374 	
C	  1.983340418996 	  8.737356113617 	  6.531094532374 	
C	  1.414796288996 	  8.737358923617 	 16.661651252374 	
C	 16.664198818996 	  2.553803583617 	  6.559227292374 	
C	 16.095654688996 	  2.553806393617 	 16.689784012374 	
C	 16.664167718996 	  8.737365343617 	  6.559224462374 	
C	 16.095623588996 	  8.737368153617 	 16.689781182374 	
C	 11.691570006494 	  5.613580727685 	  8.948424570642 	
C	 11.123025876494 	  5.613583537685 	 19.078981290642 	
C	 11.691538906494 	 11.797142487685 	  8.948421740642 	
C	 11.122994776494 	 11.797145297685 	 19.078978460642 	
C	 26.372397306494 	  5.613589957685 	  8.976554500642 	
C	 25.803853176494 	  5.613592767685 	 19.107111220642 	
C	 26.372366206494 	 11.797151717685 	  8.976551670642 	
C	 25.803822076494 	 11.797154527685 	 19.107108390642 	
C	 11.973088337211 	  3.604947063042 	  3.811142320072 	
C	 11.404544207211 	  3.604949873042 	 13.941699040072 	
C	 11.973057237211 	  9.788508823042 	  3.811139490072 	
C	 11.404513107211 	  9.788511633042 	 13.941696210072 	
C	 26.653915637211 	  3.604956293042 	  3.839272250072 	
C	 26.085371507211 	  3.604959103042 	 13.969828970072 	
C	 26.653884537211 	  9.788518053042 	  3.839269420072 	
C	 26.085340407211 	  9.788520863042 	 13.969826140072 	
C	  2.264890371348 	  0.545160747396 	  1.393815396372 	
C	  1.696346241348 	  0.545163557396 	 11.524372116372 	
C	  2.264859271348 	  6.728722507396 	  1.393812566372 	
C	  1.696315141348 	  6.728725317396 	 11.524369286372 	
C	 16.945717671348 	  0.545169977396 	  1.421945326372 	
C	 16.377173541348 	  0.545172787396 	 11.552502046372 	
C	 16.945686571348 	  6.728731737396 	  1.421942496372 	
C	 16.377142441348 	  6.728734547396 	 11.552499216372 	
C	  2.197476066017 	  2.881561727056 	  5.423046047096 	
C	  1.628931936017 	  2.881564537056 	 15.553602767096 	
C	  2.197444966017 	  9.065123487056 	  5.423043217096 	
C	  1.628900836017 	  9.065126297056 	 15.553599937096 	
C	 16.878303366017 	  2.881570957056 	  5.451175977096 	
C	 16.309759236017 	  2.881573767056 	 15.581732697096 	
C	 16.878272266017 	  9.065132717056 	  5.451173147096 	
C	 16.309728136017 	  9.065135527056 	 15.581729867096 	
C	 11.492751523521 	 -0.184591027891 	 10.024654286759 	
C	 10.924207393521 	 -0.184588217891 	 20.155211006759 	
C	 11.492720423521 	  5.998970732109 	 10.024651456759 	
C	 10.924176293521 	  5.998973542109 	 20.155208176759 	
C	 26.173578823521 	 -0.184581797891 	 10.052784216759 	
C	 25.605034693521 	 -0.184578987891 	 20.183340936759 	
C	 26.173547723521 	  5.998979962109 	 10.052781386759 	
C	 25.605003593521 	  5.998982772109 	 20.183338106759 	
C	 11.758983135812 	  3.277179496639 	  4.919194489522 	
C	 11.190439005812 	  3.277182306639 	 15.049751209522 	
C	 11.758952035812 	  9.460741256639 	  4.919191659522 	
C	 11.190407905812 	  9.460744066639 	 15.049748379522 	
C	 26.439810435812 	  3.277188726639 	  4.947324419522 	
C	 25.871266305812 	  3.277191536639 	 15.077881139522 	
C	 26.439779335812 	  9.460750486639 	  4.947321589522 	
C	 25.871235205812 	  9.460753296639 	 15.077878309522 	
C	  2.463708792969 	  6.343332741636 	  0.317585598747 	
C	  1.895164662969 	  6.343335551636 	 10.448142318747 	
C	  2.463677692969 	 12.526894501636 	  0.317582768747 	
C	  1.895133562969 	 12.526897311636 	 10.448139488747 	
C	 17.144536092969 	  6.343341971636 	  0.345715528747 	
C	 16.575991962969 	  6.343344781636 	 10.476272248747 	
C	 17.144504992969 	 12.526903731636 	  0.345712698747 	
C	 16.575960862969 	 12.526906541636 	 10.476269418747 	
H	  2.800383543339 	  3.815415715823 	  5.266022515306 	
H	  2.231839413339 	  3.815418525823 	 15.396579235306 	
H	  2.800352443339 	  9.998977475823 	  5.266019685306 	
H	  2.231808313339 	  9.998980285823 	 15.396576405306 	
H	 17.481210843339 	  3.815424945823 	  5.294152445306 	
H	 16.912666713339 	  3.815427755823 	 15.424709165306 	
H	 17.481179743339 	  9.998986705823 	  5.294149615306 	
H	 16.912635613339 	  9.998989515823 	 15.424706335306 	
H	 10.893653682234 	  0.732996389614 	 10.218764554110 	
H	 10.325109552234 	  0.732999199614 	 20.349321274110 	
H	 10.893622582234 	  6.916558149614 	 10.218761724110 	
H	 10.325078452234 	  6.916560959614 	 20.349318444110 	
H	 25.574480982234 	  0.733005619614 	 10.246894484110 	
H	 25.005936852234 	  0.733008429614 	 20.377451204110 	
H	 25.574449882234 	  6.916567379614 	 10.246891654110 	
H	 25.005905752234 	  6.916570189614 	 20.377448374110 	
H	 11.156076179021 	  2.343324544471 	  5.076217450409 	
H	 10.587532049021 	  2.343327354471 	 15.206774170409 	
H	 11.156045079021 	  8.526886304471 	  5.076214620409 	
H	 10.587500949021 	  8.526889114471 	 15.206771340409 	
H	 25.836903479021 	  2.343333774471 	  5.104347380409 	
H	 25.268359349021 	  2.343336584471 	 15.234904100409 	
H	 25.836872379021 	  8.526895534471 	  5.104344550409 	
H	 25.268328249021 	  8.526898344471 	 15.234901270409 	
H	  3.062806621159 	  5.425745431858 	  0.123475051241 	
H	  2.494262491159 	  5.425748241858 	 10.254031771241 	
H	  3.062775521159 	 11.609307191858 	  0.123472221241 	
H	  2.494231391159 	 11.609310001858 	 10.254028941241 	
H	 17.743633921159 	  5.425754661858 	  0.151604981241 	
H	 17.175089791159 	  5.425757471858 	 10.282161701241 	
H	 17.743602821159 	 11.609316421858 	  0.151602151241 	
H	 17.175058691159 	 11.609319231858 	 10.282158871241 	
H	  1.399615029674 	  3.016612269873 	  4.616263918808 	
H	  0.831070899674 	  3.016615079873 	 14.746820638808 	
H	  1.399583929674 	  9.200174029873 	  4.616261088808 	
H	  0.831039799674 	  9.200176839873 	 14.746817808808 	
H	 16.080442329674 	  3.016621499873 	  4.644393848808 	
H	 15.511898199674 	  3.016624309873 	 14.774950568808 	
H	 16.080411229674 	  9.200183259873 	  4.644391018808 	
H	 15.511867099674 	  9.200186069873 	 14.774947738808 	
H	 12.846408045276 	 -0.057554861174 	  0.607913907417 	
H	 12.277863915276 	 -0.057552051174 	 10.738470627417 	
H	 12.846376945276 	  6.126006898826 	  0.607911077417 	
H	 12.277832815276 	  6.126009708826 	 10.738467797417 	
H	 27.527235345276 	 -0.057545631174 	  0.636043837417 	
H	 26.958691215276 	 -0.057542821174 	 10.766600557417 	
H	 27.527204245276 	  6.126016128826 	  0.636041007417 	
H	 26.958660115276 	  6.126018938826 	 10.766597727417 	
H	 12.556844395695 	  3.142129486970 	  5.725976379457 	
H	 11.988300265695 	  3.142132296970 	 15.856533099457 	
H	 12.556813295695 	  9.325691246970 	  5.725973549457 	
H	 11.988269165695 	  9.325694056970 	 15.856530269457 	
H	 27.237671695695 	  3.142138716970 	  5.754106309457 	
H	 26.669127565695 	  3.142141526970 	 15.884663029457 	
H	 27.237640595695 	  9.325700476970 	  5.754103479457 	
H	 26.669096465695 	  9.325703286970 	 15.884660199457 	
H	  1.110052267475 	  6.216296639412 	  9.734326000659 	
H	  0.541508137475 	  6.216299449412 	 19.864882720659 	
H	  1.110021167475 	 12.399858399412 	  9.734323170659 	
H	  0.541477037475 	 12.399861209412 	 19.864879890659 	
H	 15.790879567475 	  6.216305869412 	  9.762455930659 	
H	 15.222335437475 	  6.216308679412 	 19.893012650659 	
H	 15.790848467475 	 12.399867629412 	  9.762453100659 	
H	 15.222304337475 	 12.399870439412 	 19.893009820659 	
H	  2.948370596598 	  2.289698310427 	  4.829847260860 	
H	  2.379826466598 	  2.289701120427 	 14.960403980860 	
H	  2.948339496598 	  8.473260070427 	  4.829844430860 	
H	  2.379795366598 	  8.473262880427 	 14.960401150860 	
H	 17.629197896598 	  2.289707540427 	  4.857977190860 	
H	 17.060653766598 	  2.289710350427 	 14.988533910860 	
H	 17.629166796598 	  8.473269300427 	  4.857974360860 	
H	 17.060622666598 	  8.473272110427 	 14.988531080860 	
H	 11.245867447425 	  5.357288197530 	  0.395212284533 	
H	 10.677323317425 	  5.357291007530 	 10.525769004533 	
H	 11.245836347425 	 11.540849957530 	  0.395209454533 	
H	 10.677292217425 	 11.540852767530 	 10.525766174533 	
H	 25.926694747425 	  5.357297427530 	  0.423342214533 	
H	 25.358150617425 	  5.357300237530 	 10.553898934533 	
H	 25.926663647425 	 11.540859187530 	  0.423339384533 	
H	 25.358119517425 	 11.540861997530 	 10.553896104533 	
H	 11.008088198435 	  3.869043666953 	  5.512392888033 	
H	 10.439544068435 	  3.869046476953 	 15.642949608033 	
H	 11.008057098435 	 10.052605426953 	  5.512390058033 	
H	 10.439512968435 	 10.052608236953 	 15.642946778033 	
H	 25.688915498435 	  3.869052896953 	  5.540522818033 	
H	 25.120371368435 	  3.869055706953 	 15.671079538033 	
H	 25.688884398435 	 10.052614656953 	  5.540519988033 	
H	 25.120340268435 	 10.052617466953 	 15.671076708033 	
H	  2.710592922267 	  0.801453647006 	  9.947027772056 	
H	  2.142048792267 	  0.801456457006 	 20.077584492056 	
H	  2.710561822267 	  6.985015407006 	  9.947024942056 	
H	  2.142017692267 	  6.985018217006 	 20.077581662056 	
H	 17.391420222267 	  0.801462877006 	  9.975157702056 	
H	 16.822876092267 	  0.801465687006 	 20.105714422056 	
H	 17.391389122267 	  6.985024637006 	  9.975154872056 	
H	 16.822844992267 	  6.985027447006 	 20.105711592056 	
C	  1.199522134962 	  3.317182923198 	  6.953619707219 	
C	  0.630978004962 	  3.317185733198 	 17.084176427219 	
C	  1.199491034962 	  9.500744683198 	  6.953616877219 	
C	  0.630946904962 	  9.500747493198 	 17.084173597219 	
C	 15.880349434962 	  3.317192153198 	  6.981749637219 	
C	 15.311805304962 	  3.317194963198 	 17.112306357219 	
C	 15.880318334962 	  9.500753913198 	  6.981746807219 	
C	 15.311774204962 	  9.500756723198 	 17.112303527219 	
C	 12.515607928607 	  0.258783799153 	  8.524083172341 	
C	 11.947063798607 	  0.258786609153 	 18.654639892341 	
C	 12.515576828607 	  6.442345559153 	  8.524080342341 	
C	 11.947032698607 	  6.442348369153 	 18.654637062341 	
C	 27.196435228607 	  0.258793029153 	  8.552213102341 	
C	 26.627891098607 	  0.258795839153 	 18.682769822341 	
C	 27.196404128607 	  6.442354789153 	  8.552210272341 	
C	 26.627859998607 	  6.442357599153 	 18.682766992341 	
C	 12.756938211691 	  2.841558022639 	  3.388619679782 	
C	 12.188394081691 	  2.841560832639 	 13.519176399782 	
C	 12.756907111691 	  9.025119782639 	  3.388616849782 	
C	 12.188362981691 	  9.025122592639 	 13.519173569782 	
C	 27.437765511691 	  2.841567252639 	  3.416749609782 	
C	 26.869221381691 	  2.841570062639 	 13.547306329782 	
C	 27.437734411691 	  9.025129012639 	  3.416746779782 	
C	 26.869190281691 	  9.025131822639 	 13.547303499782 	
C	  1.440852457739 	  5.899957457458 	  1.818156614636 	
C	  0.872308327739 	  5.899960267458 	 11.948713334636 	
C	  1.440821357739 	 12.083519217458 	  1.818153784636 	
C	  0.872277227739 	 12.083522027458 	 11.948710504636 	
C	 16.121679757739 	  5.899966687458 	  1.846286544636 	
C	 15.553135627739 	  5.899969497458 	 11.976843264636 	
C	 16.121648657739 	 12.083528447458 	  1.846283714636 	
C	 15.553104527739 	 12.083531257458 	 11.976840434636 	
H	  1.506946369537 	  4.403480796529 	  7.106607915176 	
H	  0.938402239537 	  4.403483606529 	 17.237164635176 	
H	  1.506915269537 	 10.587042556529 	  7.106605085176 	
H	  0.938371139537 	 10.587045366529 	 17.237161805176 	
H	 16.187773669537 	  4.403490026529 	  7.134737845176 	
H	 15.619229539537 	  4.403492836529 	 17.265294565176 	
H	 16.187742569537 	 10.587051786529 	  7.134735015176 	
H	 15.619198439537 	 10.587054596529 	 17.265291735176 	
H	 12.182840961091 	  1.326852429805 	  8.377718549596 	
H	 11.614296831091 	  1.326855239805 	 18.508275269596 	
H	 12.182809861091 	  7.510414189805 	  8.377715719596 	
H	 11.614265731091 	  7.510416999805 	 18.508272439596 	
H	 26.863668261091 	  1.326861659805 	  8.405848479596 	
H	 26.295124131091 	  1.326864469805 	 18.536405199596 	
H	 26.863637161091 	  7.510423419805 	  8.405845649596 	
H	 26.295093031091 	  7.510426229805 	 18.536402369596 	
H	 12.449513808747 	  1.755259877281 	  3.235631690845 	
H	 11.880969678747 	  1.755262687281 	 13.366188410845 	
H	 12.449482708747 	  7.938821637281 	  3.235628860845 	
H	 11.880938578747 	  7.938824447281 	 13.366185580845 	
H	 27.130341108747 	  1.755269107281 	  3.263761620845 	
H	 26.561796978747 	  1.755271917281 	 13.394318340845 	
H	 27.130310008747 	  7.938830867281 	  3.263758790845 	
H	 26.561765878747 	  7.938833677281 	 13.394315510845 	
H	  1.773619536604 	  4.831888849650 	  1.964520884127 	
H	  1.205075406604 	  4.831891659650 	 12.095077604127 	
H	  1.773588436604 	 11.015450609650 	  1.964518054127 	
H	  1.205044306604 	 11.015453419650 	 12.095074774127 	
H	 16.454446836604 	  4.831898079650 	  1.992650814127 	
H	 15.885902706604 	  4.831900889650 	 12.123207534127 	
H	 16.454415736604 	 11.015459839650 	  1.992647984127 	
H	 15.885871606604 	 11.015462649650 	 12.123204704127 	
H	  0.880878617357 	  3.224292540292 	  8.047771643967 	
H	  0.312334487357 	  3.224295350292 	 18.178328363967 	
H	  0.880847517357 	  9.407854300292 	  8.047768813967 	
H	  0.312303387357 	  9.407857110292 	 18.178325533967 	
H	 15.561705917357 	  3.224301770292 	  8.075901573967 	
H	 14.993161787357 	  3.224304580292 	 18.206458293967 	
H	 15.561674817357 	  9.407863530292 	  8.075898743967 	
H	 14.993130687357 	  9.407866340292 	 18.206455463967 	
H	 12.808767346973 	  6.297009599296 	  7.440856832362 	
H	 12.240223216973 	  6.297012409296 	 17.571413552362 	
H	 12.808736246973 	 12.480571359296 	  7.440854002362 	
H	 12.240192116973 	 12.480574169296 	 17.571410722362 	
H	 27.489594646973 	  6.297018829296 	  7.468986762362 	
H	 26.921050516973 	  6.297021639296 	 17.599543482362 	
H	 27.489563546973 	 12.480580589296 	  7.468983932362 	
H	 26.921019416973 	 12.480583399296 	 17.599540652362 	
H	 13.075582250529 	  2.934448900757 	  2.294467735550 	
H	 12.507038120529 	  2.934451710757 	 12.425024455550 	
H	 13.075551150529 	  9.118010660757 	  2.294464905550 	
H	 12.507007020529 	  9.118013470757 	 12.425021625550 	
H	 27.756409550529 	  2.934458130757 	  2.322597665550 	
H	 27.187865420529 	  2.934460940757 	 12.453154385550 	
H	 27.756378450529 	  9.118019890757 	  2.322594835550 	
H	 27.187834320529 	  9.118022700757 	 12.453151555550 	
H	  1.147693158023 	 -0.138268555525 	  2.901383068289 	
H	  0.579149028023 	 -0.138265745525 	 13.031939788289 	
H	  1.147662058023 	  6.045293204475 	  2.901380238289 	
H	  0.579117928023 	  6.045296014475 	 13.031936958289 	
H	 15.828520458023 	 -0.138259325525 	  2.929512998289 	
H	 15.259976328023 	 -0.138256515525 	 13.060069718289 	
H	 15.828489358023 	  6.045302434475 	  2.929510168289 	
H	 15.259945228023 	  6.045305244475 	 13.060066888289 	
H	  0.202568662215 	  3.435676466854 	  6.417989112196 	
H	 -0.365975467785 	  3.435679276854 	 16.548545832196 	
H	  0.202537562215 	  9.619238226854 	  6.417986282196 	
H	 -0.366006567785 	  9.619241036854 	 16.548543002196 	
H	 14.883395962215 	  3.435685696854 	  6.446119042196 	
H	 14.314851832215 	  3.435688506854 	 16.576675762196 	
H	 14.883364862215 	  9.619247456854 	  6.446116212196 	
H	 14.314820732215 	  9.619250266854 	 16.576672932196 	
H	 13.481280019261 	  6.511172707895 	  9.062847693796 	
H	 12.912735889261 	  6.511175517895 	 19.193404413796 	
H	 13.481248919261 	 12.694734467895 	  9.062844863796 	
H	 12.912704789261 	 12.694737277895 	 19.193401583796 	
H	 28.162107319261 	  6.511181937895 	  9.090977623796 	
H	 27.593563189261 	  6.511184747895 	 19.221534343796 	
H	 28.162076219261 	 12.694743697895 	  9.090974793796 	
H	 27.593532089261 	 12.694746507895 	 19.221531513796 	
H	 13.753891440752 	  2.723064682493 	  3.924250731516 	
H	 13.185347310752 	  2.723067492493 	 14.054807451516 	
H	 13.753860340752 	  8.906626442493 	  3.924247901516 	
H	 13.185316210752 	  8.906629252493 	 14.054804621516 	
H	 28.434718740752 	  2.723073912493 	  3.952380661516 	
H	 27.866174610752 	  2.723076722493 	 14.082937381516 	
H	 28.434687640752 	  8.906635672493 	  3.952377831516 	
H	 27.866143510752 	  8.906638482493 	 14.082934551516 	
H	  0.475180299335 	 -0.352431513342 	  1.279392213200 	
H	 -0.093363830665 	 -0.352428703342 	 11.409948933200 	
H	  0.475149199335 	  5.831130246658 	  1.279389383200 	
H	 -0.093394930665 	  5.831133056658 	 11.409946103200 	
H	 15.156007599335 	 -0.352422283342 	  1.307522143200 	
H	 14.587463469335 	 -0.352419473342 	 11.438078863200 	
H	 15.155976499335 	  5.831139476658 	  1.307519313200 	
H	 14.587432369335 	  5.831142286658 	 11.438076033200 	
C	  1.431517091221 	  1.524274231905 	  6.468611462362 	
C	  0.862972961221 	  1.524277041905 	 16.599168182362 	
C	  1.431485991221 	  7.707835991905 	  6.468608632362 	
C	  0.862941861221 	  7.707838801905 	 16.599165352362 	
C	 16.112344391221 	  1.524283461905 	  6.496741392362 	
C	 15.543800261221 	  1.524286271905 	 16.627298112362 	
C	 16.112313291221 	  7.707845221905 	  6.496738562362 	
C	 15.543769161221 	  7.707848031905 	 16.627295282362 	
C	 12.258586094439 	  4.605304353935 	  9.016773190876 	
C	 11.690041964439 	  4.605307163935 	 19.147329910876 	
C	 12.258554994439 	 10.788866113935 	  9.016770360876 	
C	 11.690010864439 	 10.788868923935 	 19.147327080876 	
C	 26.939413394439 	  4.605313583935 	  9.044903120876 	
C	 26.370869264439 	  4.605316393935 	 19.175459840876 	
C	 26.939382294439 	 10.788875343935 	  9.044900290876 	
C	 26.370838164439 	 10.788878153935 	 19.175457010876 	
C	 12.524942865309 	  4.634468267720 	  3.873627876573 	
C	 11.956398735309 	  4.634471077720 	 14.004184596573 	
C	 12.524911765309 	 10.818030027720 	  3.873625046573 	
C	 11.956367635309 	 10.818032837720 	 14.004181766573 	
C	 27.205770165309 	  4.634477497720 	  3.901757806573 	
C	 26.637226035309 	  4.634480307720 	 14.032314526573 	
C	 27.205739065309 	 10.818039257720 	  3.901754976573 	
C	 26.637194935309 	 10.818042067720 	 14.032311696573 	
C	  1.697874088089 	  1.553437014910 	  1.325467005161 	
C	  1.129329958089 	  1.553439824910 	 11.456023725161 	
C	  1.697842988089 	  7.736998774910 	  1.325464175161 	
C	  1.129298858089 	  7.737001584910 	 11.456020895161 	
C	 16.378701388089 	  1.553446244910 	  1.353596935161 	
C	 15.810157258090 	  1.553449054910 	 11.484153655161 	
C	 16.378670288089 	  7.737008004910 	  1.353594105161 	
C	 15.810126158089 	  7.737010814910 	 11.484150825161 	
H	  0.426982894210 	  1.389225684154 	  5.948634783087 	
H	 -0.141561235790 	  1.389228494154 	 16.079191503087 	
H	  0.426951794210 	  7.572787444154 	  5.948631953087 	
H	 -0.141592335790 	  7.572790254154 	 16.079188673087 	
H	 15.107810194210 	  1.389234914154 	  5.976764713087 	
H	 14.539266064210 	  1.389237724154 	 16.107321433087 	
H	 15.107779094210 	  7.572796674154 	  5.976761883087 	
H	 14.539234964210 	  7.572799484154 	 16.107318603087 	
H	 13.263062582226 	  4.469027803759 	  9.536399575075 	
H	 12.694518452226 	  4.469030613759 	 19.666956295075 	
H	 13.263031482226 	 10.652589563759 	  9.536396745075 	
H	 12.694487352226 	 10.652592373759 	 19.666953465075 	
H	 27.943889882226 	  4.469037033759 	  9.564529505075 	
H	 27.375345752226 	  4.469039843759 	 19.695086225075 	
H	 27.943858782226 	 10.652598793759 	  9.564526675075 	
H	 27.375314652226 	 10.652601603759 	 19.695083395075 	
H	 13.529476955585 	  4.769516443830 	  4.393604795171 	
H	 12.960932825585 	  4.769519253830 	 14.524161515171 	
H	 13.529445855585 	 10.953078203830 	  4.393601965171 	
H	 12.960901725585 	 10.953081013830 	 14.524158685171 	
H	 28.210304255585 	  4.769525673830 	  4.421734725171 	
H	 27.641760125585 	  4.769528483830 	 14.552291445171 	
H	 28.210273155585 	 10.953087433830 	  4.421731895171 	
H	 27.641729025585 	 10.953090243830 	 14.552288615171 	
H	  0.693397575106 	  1.689713508025 	  0.805840686595 	
H	  0.124853445106 	  1.689716318025 	 10.936397406595 	
H	  0.693366475106 	  7.873275268025 	  0.805837856595 	
H	  0.124822345106 	  7.873278078025 	 10.936394576595 	
H	 15.374224875106 	  1.689722738025 	  0.833970616595 	
H	 14.805680745106 	  1.689725548025 	 10.964527336595 	
H	 15.374193775106 	  7.873284498025 	  0.833967786595 	
H	 14.805649645106 	  7.873287308025 	 10.964524506595 	
H	  1.247800563787 	  0.974166803018 	  7.446754490130 	
H	  0.679256433787 	  0.974169613018 	 17.577311210130 	
H	  1.247769463787 	  7.157728563018 	  7.446751660130 	
H	  0.679225333787 	  7.157731373018 	 17.577308380130 	
H	 15.928627863787 	  0.974176033018 	  7.474884420130 	
H	 15.360083733787 	  0.974178843018 	 17.605441140130 	
H	 15.928596763787 	  7.157737793018 	  7.474881590130 	
H	 15.360052633787 	  7.157740603018 	 17.605438310130 	
H	 12.442536239187 	  4.053971872044 	  8.038416178286 	
H	 11.873992109187 	  4.053974682044 	 18.168972898286 	
H	 12.442505139187 	 10.237533632044 	  8.038413348286 	
H	 11.873961009187 	 10.237536442044 	 18.168970068286 	
H	 27.123363539187 	  4.053981102044 	  8.066546108286 	
H	 26.554819409187 	  4.053983912044 	 18.197102828286 	
H	 27.123332439187 	 10.237542862044 	  8.066543278286 	
H	 26.554788309187 	 10.237545672044 	 18.197099998286 	
H	 12.708659495336 	  5.184575321327 	  2.895484324989 	
H	 12.140115365336 	  5.184578131327 	 13.026041044989 	
H	 12.708628395336 	 11.368137081327 	  2.895481494989 	
H	 12.140084265336 	 11.368139891327 	 13.026038214989 	
H	 27.389486795336 	  5.184584551327 	  2.923614254989 	
H	 26.820942665336 	  5.184587361327 	 13.054170974989 	
H	 27.389455695336 	 11.368146311327 	  2.923611424989 	
H	 26.820911565336 	 11.368149121327 	 13.054168144989 	
H	  1.513923914638 	  2.104769283365 	  2.303824073958 	
H	  0.945379784638 	  2.104772093365 	 12.434380793958 	
H	  1.513892814638 	  8.288331043365 	  2.303821243958 	
H	  0.945348684638 	  8.288333853365 	 12.434377963958 	
H	 16.194751214638 	  2.104778513365 	  2.331954003958 	
H	 15.626207084638 	  2.104781323365 	 12.462510723958 	
H	 16.194720114638 	  8.288340273365 	  2.331951173958 	
H	 15.626175984638 	  8.288343083365 	 12.462507893958 	
H	  1.980174497158 	  0.638871610775 	  6.044644743547 	
H	  1.411630367158 	  0.638874420775 	 16.175201463547 	
H	  1.980143397158 	  6.822433370775 	  6.044641913547 	
H	  1.411599267158 	  6.822436180775 	 16.175198633547 	
H	 16.661001797158 	  0.638880840775 	  6.072774673547 	
H	 16.092457667158 	  0.638883650775 	 16.203331393547 	
H	 16.660970697158 	  6.822442600775 	  6.072771843547 	
H	 16.092426567158 	  6.822445410775 	 16.203328563547 	
H	 11.710215299393 	  3.718891711081 	  9.440315865330 	
H	 11.141671169393 	  3.718894521081 	 19.570872585330 	
H	 11.710184199393 	  9.902453471081 	  9.440313035330 	
H	 11.141640069393 	  9.902456281081 	 19.570869755330 	
H	 26.391042599393 	  3.718900941081 	  9.468445795330 	
H	 25.822498469393 	  3.718903751081 	 19.599002515330 	
H	 26.391011499393 	  9.902462701081 	  9.468442965330 	
H	 25.822467369393 	  9.902465511081 	 19.598999685330 	
H	 11.976284767432 	  5.519870658143 	  4.297595475407 	
H	 11.407740637432 	  5.519873468143 	 14.428152195407 	
H	 11.976253667432 	 11.703432418143 	  4.297592645407 	
H	 11.407709537432 	 11.703435228143 	 14.428149365407 	
H	 26.657112067432 	  5.519879888143 	  4.325725405407 	
H	 26.088567937432 	  5.519882698143 	 14.456282125407 	
H	 26.657080967432 	 11.703441648143 	  4.325722575407 	
H	 26.088536837432 	 11.703444458143 	 14.456279295407 	
H	  2.246244812134 	  2.439849854883 	  0.901924717037 	
H	  1.677700682134 	  2.439852664883 	 11.032481437037 	
H	  2.246213712134 	  8.623411614883 	  0.901921887037 	
H	  1.677669582134 	  8.623414424883 	 11.032478607037 	
H	 16.927072112134 	  2.439859084883 	  0.930054647037 	
H	 16.358527982134 	  2.439861894883 	 11.060611367037 	
H	 16.927041012134 	  8.623420844883 	  0.930051817037 	
H	 16.358496882134 	  8.623423654883 	 11.060608537037 	
768 
Energy: -9.4695762922279997e+01 
S	  8.588020461416 	  1.503387692066 	  0.077202906685 	
S	  8.019476331416 	  1.503390502066 	 10.207759626685 	
S	  8.587989361416 	  7.686949452066 	  0.077200076685 	
S	  8.019445231416 	  7.686952262066 	 10.207756796685 	
S	 23.268847761416 	  1.503396922066 	  0.105332836685 	
S	 22.700303631416 	  1.503399732066 	 10.235889556685 	
S	 23.268816661416 	  7.686958682066 	  0.105330006685 	
S	 22.700272531416 	  7.686961492066 	 10.235886726685 	
S	  5.572006336257 	  4.577725668926 	  5.159777586136 	
S	  5.003462206257 	  4.577728478926 	 15.290334306136 	
S	  5.571975236257 	 10.761287428926 	  5.159774756136 	
S	  5.003431106257 	 10.761290238926 	 15.290331476136 	
S	 20.252833636257 	  4.577734898926 	  5.187907516136 	
S	 19.684289506257 	  4.577737708926 	 15.318464236136 	
S	 20.252802536257 	 10.761296658926 	  5.187904686136 	
S	 19.684258406257 	 10.761299468926 	 15.318461406136 	
S	  5.313307006698 	  4.646565516308 	 10.329994767604 	
S	  4.744762876698 	  4.646568326308 	 20.460551487604 	
S	  5.313275906698 	 10.830127276308 	 10.329991937604 	
S	  4.744731776698 	 10.830130086308 	 20.460548657604 	
S	 19.994134306698 	  4.646574746308 	 10.358124697604 	
S	 19.425590176698 	  4.646577556308 	 20.488681417604 	
S	 19.994103206698 	 10.830136506308 	 10.358121867604 	
S	 19.425559076698 	 10.830139316308 	 20.488678587604 	
S	  8.329321873633 	  1.572227969731 	  5.247420098119 	
S	  7.760777743633 	  1.572230779731 	 15.377976818119 	
S	  8.329290773633 	  7.755789729731 	  5.247417268119 	
S	  7.760746643633 	  7.755792539731 	 15.377973988119 	
S	 23.010149173633 	  1.572237199731 	  5.275550028119 	
S	 22.441605043633 	  1.572240009731 	 15.406106748119 	
S	 23.010118073633 	  7.755798959731 	  5.275547198119 	
S	 22.441573943633 	  7.755801769731 	 15.406103918119 	
C	  6.677660199866 	  2.537843852988 	 10.008089885643 	
C	  6.109116069866 	  2.537846662988 	 20.138646605643 	
C	  6.677629099866 	  8.721405612988 	 10.008087055643 	
C	  6.109084969866 	  8.721408422988 	 20.138643775643 	
C	 21.358487499866 	  2.537853082988 	 10.036219815643 	
C	 20.789943369866 	  2.537855892988 	 20.166776535643 	
C	 21.358456399866 	  8.721414842988 	 10.036216985643 	
C	 20.789912269866 	  8.721417652988 	 20.166773705643 	
C	  6.963884597855 	  5.607307884338 	  5.571026330417 	
C	  6.395340467855 	  5.607310694338 	 15.701583050417 	
C	  6.963853497855 	 11.790869644338 	  5.571023500417 	
C	  6.395309367855 	 11.790872454338 	 15.701580220417 	
C	 21.644711897855 	  5.607317114338 	  5.599156260417 	
C	 21.076167767855 	  5.607319924338 	 15.729712980417 	
C	 21.644680797855 	 11.790878874338 	  5.599153430417 	
C	 21.076136667855 	 11.790881684338 	 15.729710150417 	
C	  7.223667290654 	  3.612109318220 	  0.399107729045 	
C	  6.655123160654 	  3.612112128220 	 10.529664449045 	
C	  7.223636190654 	  9.795671078220 	  0.399104899045 	
C	  6.655092060654 	  9.795673888220 	 10.529661619045 	
C	 21.904494590654 	  3.612118548220 	  0.427237659045 	
C	 21.335950460654 	  3.612121358220 	 10.557794379045 	
C	 21.904463490654 	  9.795680308220 	  0.427234829045 	
C	 21.335919360654 	  9.795683118220 	 10.557791549045 	
C	  6.937443468295 	  0.542645847405 	  4.836171281979 	
C	  6.368899338295 	  0.542648657405 	 14.966728001979 	
C	  6.937412368295 	  6.726207607405 	  4.836168451979 	
C	  6.368868238295 	  6.726210417405 	 14.966725171979 	
C	 21.618270768295 	  0.542655077405 	  4.864301211979 	
C	 21.049726638295 	  0.542657887405 	 14.994857931979 	
C	 21.618239668295 	  6.726216837405 	  4.864298381979 	
C	 21.049695538295 	  6.726219647405 	 14.994855101979 	
C	  5.628553623414 	  2.357892831194 	  9.065354509263 	
C	  5.060009493414 	  2.357895641194 	 19.195911229263 	
C	  5.628522523414 	  8.541454591194 	  9.065351679263 	
C	  5.059978393414 	  8.541457401194 	 19.195908399263 	
C	 20.309380923414 	  2.357902061194 	  9.093484439263 	
C	 19.740836793414 	  2.357904871194 	 19.224041159263 	
C	 20.309349823414 	  8.541463821194 	  9.093481609263 	
C	 19.740805693414 	  8.541466631194 	 19.224038329263 	
C	  8.016282893288 	  5.434238777780 	  6.511828467993 	
C	  7.447738763288 	  5.434241587780 	 16.642385187993 	
C	  8.016251793288 	 11.617800537780 	  6.511825637993 	
C	  7.447707663288 	 11.617803347780 	 16.642382357993 	
C	 22.697110193288 	  5.434248007780 	  6.539958397993 	
C	 22.128566063288 	  5.434250817780 	 16.670515117993 	
C	 22.697079093288 	 11.617809767780 	  6.539955567993 	
C	 22.128534963288 	 11.617812577780 	 16.670512287993 	
C	  8.272773738561 	  3.792060390833 	  1.341843007970 	
C	  7.704229608561 	  3.792063200833 	 11.472399727970 	
C	  8.272742638561 	  9.975622150833 	  1.341840177970 	
C	  7.704198508561 	  9.975624960833 	 11.472396897970 	
C	 22.953601038561 	  3.792069620833 	  1.369972937970 	
C	 22.385056908561 	  3.792072430833 	 11.500529657970 	
C	 22.953569938561 	  9.975631380833 	  1.369970107970 	
C	 22.385025808561 	  9.975634190833 	 11.500526827970 	
C	  5.885045058665 	  0.715714945629 	  3.895369180270 	
C	  5.316500928665 	  0.715717755629 	 14.025925900270 	
C	  5.885013958665 	  6.899276705629 	  3.895366350270 	
C	  5.316469828665 	  6.899279515629 	 14.025923070270 	
C	 20.565872358665 	  0.715724175629 	  3.923499110270 	
C	 19.997328228665 	  0.715726985629 	 14.054055830270 	
C	 20.565841258665 	  6.899285935629 	  3.923496280270 	
C	 19.997297128665 	  6.899288745629 	 14.054053000270 	
C	  4.755746863169 	  3.440496085952 	  9.108404055392 	
C	  4.187202733169 	  3.440498895952 	 19.238960775392 	
C	  4.755715763169 	  9.624057845952 	  9.108401225392 	
C	  4.187171633169 	  9.624060655952 	 19.238957945392 	
C	 19.436574163169 	  3.440505315952 	  9.136533985392 	
C	 18.868030033169 	  3.440508125952 	 19.267090705392 	
C	 19.436543063169 	  9.624067075952 	  9.136531155392 	
C	 18.867998933169 	  9.624069885952 	 19.267087875392 	
C	  8.883007680941 	  0.363889048046 	  6.469390383948 	
C	  8.314463550941 	  0.363891858046 	 16.599947103948 	
C	  8.882976580941 	  6.547450808046 	  6.469387553948 	
C	  8.314432450941 	  6.547453618046 	 16.599944273948 	
C	 23.563834980941 	  0.363898278046 	  6.497520313948 	
C	 22.995290850941 	  0.363901088046 	 16.628077033948 	
C	 23.563803880941 	  6.547460038046 	  6.497517483948 	
C	 22.995259750941 	  6.547462848046 	 16.628074203948 	
C	  9.145580492725 	  2.709457166053 	  1.298793531848 	
C	  8.577036362725 	  2.709459976053 	 11.429350251848 	
C	  9.145549392725 	  8.893018926053 	  1.298790701848 	
C	  8.577005262725 	  8.893021736053 	 11.429347421848 	
C	 23.826407792725 	  2.709466396053 	  1.326923461848 	
C	 23.257863662725 	  2.709469206053 	 11.457480181848 	
C	 23.826376692725 	  8.893028156053 	  1.326920631848 	
C	 23.257832562725 	  8.893030966053 	 11.457477351848 	
C	  5.018320325182 	  5.786064636525 	  3.937807357756 	
C	  4.449776195182 	  5.786067446525 	 14.068364077756 	
C	  5.018289225182 	 11.969626396525 	  3.937804527756 	
C	  4.449745095182 	 11.969629206525 	 14.068361247756 	
C	 19.699147625182 	  5.786073866525 	  3.965937287756 	
C	 19.130603495182 	  5.786076676525 	 14.096494007756 	
C	 19.699116525182 	 11.969635626525 	  3.965934457756 	
C	 19.130572395182 	 11.969638436525 	 14.096491177756 	
C	  3.671314661026 	  3.507902942542 	  8.343413968501 	
C	  3.102770531026 	  3.507905752542 	 18.473970688501 	
C	  3.671283561026 	  9.691464702542 	  8.343411138501 	
C	  3.102739431026 	  9.691467512542 	 18.473967858501 	
C	 18.352141961026 	  3.507912172542 	  8.371543898501 	
C	 17.783597831026 	  3.507914982542 	 18.502100618501 	
C	 18.352110861026 	  9.691473932542 	  8.371541068501 	
C	 17.783566731026 	  9.691476742542 	 18.502097788501 	
C	  9.970466871310 	  0.432938415643 	  7.235591729317 	
C	  9.401922741310 	  0.432941225643 	 17.366148449317 	
C	  9.970435771310 	  6.616500175643 	  7.235588899317 	
C	  9.401891641310 	  6.616502985643 	 17.366145619317 	
C	 24.651294171310 	  0.432947645643 	  7.263721659317 	
C	 24.082750041310 	  0.432950455643 	 17.394278379317 	
C	 24.651263071310 	  6.616509405643 	  7.263718829317 	
C	 24.082718941310 	  6.616512215643 	 17.394275549317 	
C	 10.230012711174 	  2.642050415710 	  2.063783783403 	
C	  9.661468581174 	  2.642053225710 	 12.194340503403 	
C	 10.229981611174 	  8.825612175710 	  2.063780953403 	
C	  9.661437481174 	  8.825614985710 	 12.194337673403 	
C	 24.910840011174 	  2.642059645710 	  2.091913713403 	
C	 24.342295881174 	  2.642062455710 	 12.222470433403 	
C	 24.910808911174 	  8.825621405710 	  2.091910883403 	
C	 24.342264781174 	  8.825624215710 	 12.222467603403 	
C	  3.930860936465 	  5.717015285784 	  3.171606213779 	
C	  3.362316806465 	  5.717018095784 	 13.302162933779 	
C	  3.930829836465 	 11.900577045784 	  3.171603383779 	
C	  3.362285706465 	 11.900579855784 	 13.302160103779 	
C	 18.611688236465 	  5.717024515784 	  3.199736143779 	
C	 18.043144106465 	  5.717027325784 	 13.330292863779 	
C	 18.611657136465 	 11.900586275784 	  3.199733313779 	
C	 18.043113006465 	 11.900589085784 	 13.330290033779 	
H	  2.989713407574 	  4.439070737644 	  8.424307420614 	
H	  2.421169277574 	  4.439073547644 	 18.554864140614 	
H	  2.989682307574 	 10.622632497644 	  8.424304590614 	
H	  2.421138177574 	 10.622635307644 	 18.554861310614 	
H	 17.670540707574 	  4.439079967644 	  8.452437350614 	
H	 17.101996577574 	  4.439082777644 	 18.582994070614 	
H	 17.670509607574 	 10.622641727644 	  8.452434520614 	
H	 17.101965477574 	 10.622644537644 	 18.582991240614 	
H	 10.652131326521 	  1.363904338221 	  7.153204578285 	
H	 10.083587196521 	  1.363907148221 	 17.283761298285 	
H	 10.652100226521 	  7.547466098221 	  7.153201748285 	
H	 10.083556096521 	  7.547468908221 	 17.283758468285 	
H	 25.332958626521 	  1.363913568221 	  7.181334508285 	
H	 24.764414496521 	  1.363916378221 	 17.311891228285 	
H	 25.332927526521 	  7.547475328221 	  7.181331678285 	
H	 24.764383396521 	  7.547478138221 	 17.311888398285 	
H	 10.911613922330 	  1.710882568226 	  1.982890362067 	
H	 10.343069792330 	  1.710885378226 	 12.113447082067 	
H	 10.911582822330 	  7.894444328226 	  1.982887532067 	
H	 10.343038692330 	  7.894447138226 	 12.113444252067 	
H	 25.592441222330 	  1.710891798226 	  2.011020292067 	
H	 25.023897092330 	  1.710894608226 	 12.141577012067 	
H	 25.592410122330 	  7.894453558226 	  2.011017462067 	
H	 25.023865992330 	  7.894456368226 	 12.141574182067 	
H	  3.249196611257 	  4.786049269615 	  3.253993462761 	
H	  2.680652481257 	  4.786052079615 	 13.384550182761 	
H	  3.249165511257 	 10.969611029615 	  3.253990632761 	
H	  2.680621381257 	 10.969613839615 	 13.384547352761 	
H	 17.930023911257 	  4.786058499615 	  3.282123392761 	
H	 17.361479781257 	  4.786061309615 	 13.412680112761 	
H	 17.929992811257 	 10.969620259615 	  3.282120562761 	
H	 17.361448681257 	 10.969623069615 	 13.412677282761 	
C	  3.339784618712 	  2.532512489420 	  7.477223275529 	
C	  2.771240488712 	  2.532515299420 	 17.607779995529 	
C	  3.339753518712 	  8.716074249420 	  7.477220445529 	
C	  2.771209388712 	  8.716077059420 	 17.607777165529 	
C	 18.020611918712 	  2.532521719420 	  7.505353205529 	
C	 17.452067788712 	  2.532524529420 	 17.635909925529 	
C	 18.020580818712 	  8.716083479420 	  7.505350375529 	
C	 17.452036688712 	  8.716086289420 	 17.635907095529 	
C	 10.301608556619 	  5.607102380929 	  8.098446530100 	
C	  9.733064426619 	  5.607105190929 	 18.229003250100 	
C	 10.301577456619 	 11.790664140929 	  8.098443700100 	
C	  9.733033326619 	 11.790666950929 	 18.229000420100 	
C	 24.982435856619 	  5.607111610929 	  8.126576460100 	
C	 24.413891726619 	  5.607114420929 	 18.257133180100 	
C	 24.982404756619 	 11.790673370929 	  8.126573630100 	
C	 24.413860626619 	 11.790676180929 	 18.257130350100 	
C	 10.561542593278 	  3.617440873101 	  2.929974329327 	
C	  9.992998463278 	  3.617443683101 	 13.060531049327 	
C	 10.561511493278 	  9.801002633101 	  2.929971499327 	
C	  9.992967363278 	  9.801005443101 	 13.060528219327 	
C	 25.242369893278 	  3.617450103101 	  2.958104259327 	
C	 24.673825763278 	  3.617452913101 	 13.088660979327 	
C	 25.242338793278 	  9.801011863101 	  2.958101429327 	
C	 24.673794663278 	  9.801014673101 	 13.088658149327 	
C	  3.599719150790 	  0.542851321530 	  2.308751474054 	
C	  3.031175020790 	  0.542854131530 	 12.439308194054 	
C	  3.599688050790 	  6.726413081530 	  2.308748644054 	
C	  3.031143920790 	  6.726415891530 	 12.439305364054 	
C	 18.280546450790 	  0.542860551530 	  2.336881404054 	
C	 17.712002320790 	  0.542863361530 	 12.467438124054 	
C	 18.280515350790 	  6.726422311530 	  2.336878574054 	
C	 17.711971220790 	  6.726425121530 	 12.467435294054 	
C	  4.221307046049 	  1.481106730492 	  7.415804232889 	
C	  3.652762916049 	  1.481109540492 	 17.546360952889 	
C	  4.221275946049 	  7.664668490492 	  7.415801402889 	
C	  3.652731816049 	  7.664671300492 	 17.546358122889 	
C	 18.902134346049 	  1.481115960492 	  7.443934162889 	
C	 18.333590216049 	  1.481118770492 	 17.574490882889 	
C	 18.902103246049 	  7.664677720492 	  7.443931332889 	
C	 18.333559116049 	  7.664680530492 	 17.574488052889 	
C	  9.420577432829 	  4.556458634263 	  8.161318660565 	
C	  8.852033302829 	  4.556461444263 	 18.291875380565 	
C	  9.420546332829 	 10.740020394263 	  8.161315830565 	
C	  8.852002202829 	 10.740023204263 	 18.291872550565 	
C	 24.101404732829 	  4.556467864263 	  8.189448590565 	
C	 23.532860602829 	  4.556470674263 	 18.320005310565 	
C	 24.101373632829 	 10.740029624263 	  8.189445760565 	
C	 23.532829502829 	 10.740032434263 	 18.320002480565 	
C	  9.680020149068 	  4.668846623850 	  2.991393383124 	
C	  9.111476019068 	  4.668849433850 	 13.121950103124 	
C	  9.679989049068 	 10.852408383850 	  2.991390553124 	
C	  9.111444919068 	 10.852411193850 	 13.121947273124 	
C	 24.360847449068 	  4.668855853850 	  3.019523313124 	
C	 23.792303319068 	  4.668858663850 	 13.150080033124 	
C	 24.360816349068 	 10.852417613850 	  3.019520483124 	
C	 23.792272219068 	 10.852420423850 	 13.150077203124 	
C	  4.480750156512 	  1.593495012665 	  2.245879188422 	
C	  3.912206026512 	  1.593497822665 	 12.376435908422 	
C	  4.480719056512 	  7.777056772665 	  2.245876358422 	
C	  3.912174926512 	  7.777059582665 	 12.376433078422 	
C	 19.161577456512 	  1.593504242665 	  2.274009118422 	
C	 18.593033326512 	  1.593507052665 	 12.404565838422 	
C	 19.161546356512 	  7.777066002665 	  2.274006288422 	
C	 18.593002226512 	  7.777068812665 	 12.404563008422 	
H	  3.996801526987 	  0.633295850180 	  6.665165739144 	
H	  3.428257396987 	  0.633298660180 	 16.795722459144 	
H	  3.996770426987 	  6.816857610180 	  6.665162909144 	
H	  3.428226296987 	  6.816860420180 	 16.795719629144 	
H	 18.677628826987 	  0.633305080180 	  6.693295669144 	
H	 18.109084696987 	  0.633307890180 	 16.823852389144 	
H	 18.677597726987 	  6.816866840180 	  6.693292839144 	
H	 18.109053596987 	  6.816869650180 	 16.823849559144 	
H	  9.645006983027 	  3.708526498209 	  8.912186820392 	
H	  9.076462853027 	  3.708529308209 	 19.042743540392 	
H	  9.644975883027 	  9.892088258209 	  8.912183990392 	
H	  9.076431753027 	  9.892091068209 	 19.042740710392 	
H	 24.325834283027 	  3.708535728209 	  8.940316750392 	
H	 23.757290153027 	  3.708538538209 	 19.070873470392 	
H	 24.325803183027 	  9.892097488209 	  8.940313920392 	
H	 23.757259053027 	  9.892100298209 	 19.070870640392 	
H	  9.904525717300 	  5.516657543508 	  3.742031812416 	
H	  9.335981587300 	  5.516660353508 	 13.872588532416 	
H	  9.904494617300 	 11.700219303508 	  3.742028982416 	
H	  9.335950487300 	 11.700222113508 	 13.872585702416 	
H	 24.585353017300 	  5.516666773508 	  3.770161742416 	
H	 24.016808887300 	  5.516669583508 	 13.900718462416 	
H	 24.585321917300 	 11.700228533508 	  3.770158912416 	
H	 24.016777787300 	 11.700231343508 	 13.900715632416 	
H	  4.256320462899 	  2.441427217905 	  1.495011142892 	
H	  3.687776332899 	  2.441430027905 	 11.625567862892 	
H	  4.256289362899 	  8.624988977905 	  1.495008312892 	
H	  3.687745232899 	  8.624991787905 	 11.625565032892 	
H	 18.937147762899 	  2.441436447905 	  1.523141072892 	
H	 18.368603632899 	  2.441439257905 	 11.653697792892 	
H	 18.937116662899 	  8.624998207905 	  1.523138242892 	
H	 18.368572532899 	  8.625001017905 	 11.653694962892 	
C	  5.289382214526 	  1.391406313347 	  8.148012829170 	
C	  4.720838084526 	  1.391409123347 	 18.278569549170 	
C	  5.289351114526 	  7.574968073347 	  8.148009999170 	
C	  4.720806984526 	  7.574970883347 	 18.278566719170 	
C	 19.970209514526 	  1.391415543347 	  8.176142759170 	
C	 19.401665384526 	  1.391418353347 	 18.306699479170 	
C	 19.970178414526 	  7.574977303347 	  8.176139929170 	
C	 19.401634284526 	  7.574980113347 	 18.306696649170 	
C	  8.352349903566 	  4.466693952554 	  7.429023912182 	
C	  7.783805773566 	  4.466696762554 	 17.559580632182 	
C	  8.352318803566 	 10.650255712554 	  7.429021082182 	
C	  7.783774673566 	 10.650258522554 	 17.559577802182 	
C	 23.033177203566 	  4.466703182554 	  7.457153842182 	
C	 22.464633073566 	  4.466705992554 	 17.587710562182 	
C	 23.033146103566 	 10.650264942554 	  7.457151012182 	
C	 22.464601973566 	 10.650267752554 	 17.587707732182 	
C	  8.611945058087 	  4.758546981283 	  2.259184661403 	
C	  8.043400928087 	  4.758549791283 	 12.389741381403 	
C	  8.611913958087 	 10.942108741283 	  2.259181831403 	
C	  8.043369828087 	 10.942111551283 	 12.389738551403 	
C	 23.292772358087 	  4.758556211283 	  2.287314591403 	
C	 22.724228228087 	  4.758559021283 	 12.417871311403 	
C	 23.292741258087 	 10.942117971283 	  2.287311761403 	
C	 22.724197128087 	 10.942120781283 	 12.417868481403 	
C	  5.548977887396 	  1.683259765097 	  2.978173832003 	
C	  4.980433757396 	  1.683262575097 	 13.108730552003 	
C	  5.548946787396 	  7.866821525097 	  2.978171002003 	
C	  4.980402657396 	  7.866824335097 	 13.108727722003 	
C	 20.229805187396 	  1.683268995097 	  3.006303762003 	
C	 19.661261057396 	  1.683271805097 	 13.136860482003 	
C	 20.229774087396 	  7.866830755097 	  3.006300932003 	
C	 19.661229957396 	  7.866833565097 	 13.136857652003 	
H	  5.991550197584 	  0.478736291954 	  8.051684079879 	
H	  5.423006067584 	  0.478739101954 	 18.182240799879 	
H	  5.991519097584 	  6.662298051954 	  8.051681249879 	
H	  5.422974967584 	  6.662300861954 	 18.182237969879 	
H	 20.672377497584 	  0.478745521954 	  8.079814009879 	
H	 20.103833367584 	  0.478748331954 	 18.210370729879 	
H	 20.672346397584 	  6.662307281954 	  8.079811179879 	
H	 20.103802267584 	  6.662310091954 	 18.210367899879 	
H	  7.650133670641 	  3.553761982473 	  7.525602498434 	
H	  7.081589540641 	  3.553764792473 	 17.656159218434 	
H	  7.650102570641 	  9.737323742473 	  7.525599668434 	
H	  7.081558440641 	  9.737326552473 	 17.656156388434 	
H	 22.330960970641 	  3.553771212473 	  7.553732428434 	
H	 21.762416840641 	  3.553774022473 	 17.684289148434 	
H	 22.330929870641 	  9.737332972473 	  7.553729598434 	
H	 21.762385740641 	  9.737335782473 	 17.684286318434 	
H	  7.909777012648 	  5.671216946001 	  2.355513347469 	
H	  7.341232882648 	  5.671219756001 	 12.486070067469 	
H	  7.909745912648 	 11.854778706001 	  2.355510517469 	
H	  7.341201782648 	 11.854781516001 	 12.486067237469 	
H	 22.590604312648 	  5.671226176001 	  2.383643277469 	
H	 22.022060182648 	  5.671228986001 	 12.514199997469 	
H	 22.590573212648 	 11.854787936001 	  2.383640447469 	
H	 22.022029082648 	 11.854790746001 	 12.514197167469 	
H	  6.251194078105 	  2.596191739486 	  2.881595155315 	
H	  5.682649948105 	  2.596194549486 	 13.012151875315 	
H	  6.251162978105 	  8.779753499486 	  2.881592325315 	
H	  5.682618848105 	  8.779756309486 	 13.012149045315 	
H	 20.932021378105 	  2.596200969486 	  2.909725085315 	
H	 20.363477248105 	  2.596203779486 	 13.040281805315 	
H	 20.931990278105 	  8.779762729486 	  2.909722255315 	
H	 20.363446148105 	  8.779765539486 	 13.040278975315 	
C	  1.988157061467 	  2.603161560564 	  6.561372876348 	
C	  1.419612931467 	  2.603164370564 	 16.691929596348 	
C	  1.988125961467 	  8.786723320564 	  6.561370046348 	
C	  1.419581831467 	  8.786726130564 	 16.691926766348 	
C	 16.668984361467 	  2.603170790564 	  6.589502806348 	
C	 16.100440231467 	  2.603173600564 	 16.720059526348 	
C	 16.668953261467 	  8.786732550564 	  6.589499976348 	
C	 16.100409131467 	  8.786735360564 	 16.720056696348 	
C	 11.626686251015 	  5.649472691970 	  9.002446232699 	
C	 11.058142121015 	  5.649475501970 	 19.133002952699 	
C	 11.626655151015 	 11.833034451970 	  9.002443402699 	
C	 11.058111021015 	 11.833037261970 	 19.133000122699 	
C	 26.307513551015 	  5.649481921970 	  9.030576162699 	
C	 25.738969421015 	  5.649484731970 	 19.161132882699 	
C	 26.307482451015 	 11.833043681970 	  9.030573332699 	
C	 25.738938321015 	 11.833046491970 	 19.161130052699 	
C	 11.913170323558 	  3.546792113695 	  3.845825179724 	
C	 11.344626193558 	  3.546794923695 	 13.976381899724 	
C	 11.913139223558 	  9.730353873695 	  3.845822349724 	
C	 11.344595093558 	  9.730356683695 	 13.976379069724 	
C	 26.593997623558 	  3.546801343695 	  3.873955109724 	
C	 26.025453493558 	  3.546804153695 	 14.004511829724 	
C	 26.593966523558 	  9.730363103695 	  3.873952279724 	
C	 26.025422393558 	  9.730365913695 	 14.004508999724 	
C	  2.274641291010 	  0.500480879004 	  1.404751925339 	
C	  1.706097161010 	  0.500483689004 	 11.535308645339 	
C	  2.274610191010 	  6.684042639004 	  1.404749095339 	
C	  1.706066061010 	  6.684045449004 	 11.535305815339 	
C	 16.955468591010 	  0.500490109004 	  1.432881855339 	
C	 16.386924461010 	  0.500492919004 	 11.563438575339 	
C	 16.955437491010 	  6.684051869004 	  1.432879025339 	
C	 16.386893361010 	  6.684054679004 	 11.563435745339 	
C	  2.176462067434 	  2.808630183019 	  5.473255306361 	
C	  1.607917937434 	  2.808632993019 	 15.603812026361 	
C	  2.176430967434 	  8.992191943019 	  5.473252476361 	
C	  1.607886837434 	  8.992194753019 	 15.603809196361 	
C	 16.857289367434 	  2.808639413019 	  5.501385236361 	
C	 16.288745237434 	  2.808642223019 	 15.631941956361 	
C	 16.857258267434 	  8.992201173019 	  5.501382406361 	
C	 16.288714137434 	  8.992203983019 	 15.631939126361 	
C	 11.469107216656 	 -0.259407286520 	 10.070460972381 	
C	 10.900563086656 	 -0.259404476520 	 20.201017692381 	
C	 11.469076116656 	  5.924154473480 	 10.070458142381 	
C	 10.900531986656 	  5.924157283480 	 20.201014862381 	
C	 26.149934516656 	 -0.259398056520 	 10.098590902381 	
C	 25.581390386656 	 -0.259395246520 	 20.229147622381 	
C	 26.149903416656 	  5.924163703480 	 10.098588072381 	
C	 25.581359286656 	  5.924166513480 	 20.229144792381 	
C	 11.724864123148 	  3.341323134438 	  4.933943576648 	
C	 11.156319993148 	  3.341325944438 	 15.064500296648 	
C	 11.724833023148 	  9.524884894438 	  4.933940746648 	
C	 11.156288893148 	  9.524887704438 	 15.064497466648 	
C	 26.405691423148 	  3.341332364438 	  4.962073506648 	
C	 25.837147293148 	  3.341335174438 	 15.092630226648 	
C	 26.405660323148 	  9.524894124438 	  4.962070676648 	
C	 25.837116193148 	  9.524896934438 	 15.092627396648 	
C	  2.432220217286 	  6.409361083115 	  0.336737134421 	
C	  1.863676087286 	  6.409363893115 	 10.467293854421 	
C	  2.432189117286 	 12.592922843115 	  0.336734304421 	
C	  1.863644987286 	 12.592925653115 	 10.467291024421 	
C	 17.113047517286 	  6.409370313115 	  0.364867064421 	
C	 16.544503387286 	  6.409373123115 	 10.495423784421 	
C	 17.113016417286 	 12.592932073115 	  0.364864234421 	
C	 16.544472287286 	 12.592934883115 	 10.495420954421 	
H	  2.860203557714 	  3.625523546610 	  5.195544745547 	
H	  2.291659427714 	  3.625526356610 	 15.326101465547 	
H	  2.860172457714 	  9.809085306610 	  5.195541915547 	
H	  2.291628327714 	  9.809088116610 	 15.326098635547 	
H	 17.541030857714 	  3.625532776610 	  5.223674675547 	
H	 16.972486727714 	  3.625535586610 	 15.354231395547 	
H	 17.540999757714 	  9.809094536610 	  5.223671845547 	
H	 16.972455627714 	  9.809097346610 	 15.354228565547 	
H	 10.787443788308 	  0.556694929415 	 10.376835359018 	
H	 10.218899658308 	  0.556697739415 	 20.507392079018 	
H	 10.787412688308 	  6.740256689415 	 10.376832529018 	
H	 10.218868558308 	  6.740259499415 	 20.507389249018 	
H	 25.468271088308 	  0.556704159415 	 10.404965289018 	
H	 24.899726958308 	  0.556706969415 	 20.535522009018 	
H	 25.468239988308 	  6.740265919415 	 10.404962459018 	
H	 24.899695858308 	  6.740268729415 	 20.535519179018 	
H	 11.041123396847 	  2.524427909554 	  5.211652782165 	
H	 10.472579266847 	  2.524430719554 	 15.342209502165 	
H	 11.041092296847 	  8.707989669554 	  5.211649952165 	
H	 10.472548166847 	  8.707992479554 	 15.342206672165 	
H	 25.721950696847 	  2.524437139554 	  5.239782712165 	
H	 25.153406566847 	  2.524439949554 	 15.370339432165 	
H	 25.721919596847 	  8.707998899554 	  5.239779882165 	
H	 25.153375466847 	  8.708001709554 	 15.370336602165 	
H	  3.113883602294 	  5.593259010190 	  0.030362429621 	
H	  2.545339472294 	  5.593261820190 	 10.160919149621 	
H	  3.113852502294 	 11.776820770190 	  0.030359599621 	
H	  2.545308372294 	 11.776823580190 	 10.160916319621 	
H	 17.794710902294 	  5.593268240190 	  0.058492359621 	
H	 17.226166772294 	  5.593271050190 	 10.189049079621 	
H	 17.794679802294 	 11.776830000190 	  0.058489529621 	
H	 17.226135672294 	 11.776832810190 	 10.189046249621 	
H	  1.401546877398 	  2.940599210318 	  4.638906607461 	
H	  0.833002747398 	  2.940602020318 	 14.769463327461 	
H	  1.401515777398 	  9.124160970318 	  4.638903777461 	
H	  0.832971647398 	  9.124163780318 	 14.769460497461 	
H	 16.082374177398 	  2.940608440318 	  4.667036537461 	
H	 15.513830047398 	  2.940611250318 	 14.797593257461 	
H	 16.082343077398 	  9.124170200318 	  4.667033707461 	
H	 15.513798947398 	  9.124173010318 	 14.797590427461 	
H	 12.780237567590 	 -0.129190791793 	  0.623841928804 	
H	 12.211693437590 	 -0.129187981793 	 10.754398648804 	
H	 12.780206467590 	  6.054370968207 	  0.623839098804 	
H	 12.211662337590 	  6.054373778207 	 10.754395818804 	
H	 27.461064867590 	 -0.129181561793 	  0.651971858804 	
H	 26.892520737590 	 -0.129178751793 	 10.782528578804 	
H	 27.461033767590 	  6.054380198207 	  0.651969028804 	
H	 26.892489637590 	  6.054383008207 	 10.782525748804 	
H	 12.499779784540 	  3.209354583274 	  5.768291786483 	
H	 11.931235654540 	  3.209357393274 	 15.898848506483 	
H	 12.499748684540 	  9.392916343274 	  5.768288956483 	
H	 11.931204554540 	  9.392919153274 	 15.898845676483 	
H	 27.180607084540 	  3.209363813274 	  5.796421716483 	
H	 26.612062954540 	  3.209366623274 	 15.926978436483 	
H	 27.180575984540 	  9.392925573274 	  5.796418886483 	
H	 26.612031854540 	  9.392928383274 	 15.926975606483 	
H	  1.121089802367 	  6.279144682807 	  9.783356249322 	
H	  0.552545672367 	  6.279147492807 	 19.913912969322 	
H	  1.121058702367 	 12.462706442807 	  9.783353419322 	
H	  0.552514572367 	 12.462709252807 	 19.913910139322 	
H	 15.801917102367 	  6.279153912807 	  9.811486179322 	
H	 15.233372972367 	  6.279156722807 	 19.942042899322 	
H	 15.801886002367 	 12.462715672807 	  9.811483349322 	
H	 15.233341872367 	 12.462718482807 	 19.942040069322 	
H	  2.876706203930 	  2.167706938345 	  4.909783866167 	
H	  2.308162073930 	  2.167709748345 	 15.040340586167 	
H	  2.876675103930 	  8.351268698345 	  4.909781036167 	
H	  2.308130973930 	  8.351271508345 	 15.040337756167 	
H	 17.557533503930 	  2.167716168345 	  4.937913796167 	
H	 16.988989373930 	  2.167718978345 	 15.068470516167 	
H	 17.557502403930 	  8.351277928345 	  4.937910966167 	
H	 16.988958273930 	  8.351280738345 	 15.068467686167 	
H	 11.250290418891 	  5.225576678473 	  0.365029298983 	
H	 10.681746288891 	  5.225579488473 	 10.495586018983 	
H	 11.250259318891 	 11.409138438473 	  0.365026468983 	
H	 10.681715188891 	 11.409141248473 	 10.495583188983 	
H	 25.931117718891 	  5.225585908473 	  0.393159228983 	
H	 25.362573588891 	  5.225588718473 	 10.523715948983 	
H	 25.931086618891 	 11.409147668473 	  0.393156398983 	
H	 25.362542488891 	 11.409150478473 	 10.523713118983 	
H	 11.024619688947 	  3.982247597399 	  5.497414252798 	
H	 10.456075558947 	  3.982250407399 	 15.627970972798 	
H	 11.024588588947 	 10.165809357399 	  5.497411422798 	
H	 10.456044458947 	 10.165812167399 	 15.627968142798 	
H	 25.705446988947 	  3.982256827399 	  5.525544182798 	
H	 25.136902858947 	  3.982259637399 	 15.656100902798 	
H	 25.705415888947 	 10.165818587399 	  5.525541352798 	
H	 25.136871758947 	 10.165821397399 	 15.656098072798 	
H	  2.651037048869 	  0.924377286386 	 10.042168989928 	
H	  2.082492918869 	  0.924380096386 	 20.172725709928 	
H	  2.651005948869 	  7.107939046386 	 10.042166159928 	
H	  2.082461818869 	  7.107941856386 	 20.172722879928 	
H	 17.331864348869 	  0.924386516386 	 10.070298919928 	
H	 16.763320218869 	  0.924389326386 	 20.200855639928 	
H	 17.331833248869 	  7.107948276386 	 10.070296089928 	
H	 16.763289118869 	  7.107951086386 	 20.200852809928 	
C	  1.274270223025 	  3.416961754321 	  6.885993689741 	
C	  0.705726093025 	  3.416964564321 	 17.016550409741 	
C	  1.274239123025 	  9.600523514321 	  6.885990859741 	
C	  0.705694993025 	  9.600526324321 	 17.016547579741 	
C	 15.955097523025 	  3.416970984321 	  6.914123619741 	
C	 15.386553393025 	  3.416973794321 	 17.044680339741 	
C	 15.955066423025 	  9.600532744321 	  6.914120789741 	
C	 15.386522293025 	  9.600535554321 	 17.044677509741 	
C	 12.406869633513 	  0.378942683255 	  8.677480759091 	
C	 11.838325503513 	  0.378945493255 	 18.808037479091 	
C	 12.406838533513 	  6.562504443255 	  8.677477929091 	
C	 11.838294403513 	  6.562507253255 	 18.808034649091 	
C	 27.087696933513 	  0.378951913255 	  8.705610689091 	
C	 26.519152803513 	  0.378954723255 	 18.836167409091 	
C	 27.087665833513 	  6.562513673255 	  8.705607859091 	
C	 26.519121703513 	  6.562516483255 	 18.836164579091 	
C	 12.627057463229 	  2.732991405359 	  3.521203573741 	
C	 12.058513333229 	  2.732994215359 	 13.651760293741 	
C	 12.627026363229 	  8.916553165359 	  3.521200743741 	
C	 12.058482233229 	  8.916555975359 	 13.651757463741 	
C	 27.307884763229 	  2.733000635359 	  3.549333503741 	
C	 26.739340633229 	  2.733003445359 	 13.679890223741 	
C	 27.307853663229 	  8.916562395359 	  3.549330673741 	
C	 26.739309533229 	  8.916565205359 	 13.679887393741 	
C	  1.494457935056 	  5.771010721710 	  1.729717236060 	
C	  0.925913805056 	  5.771013531710 	 11.860273956060 	
C	  1.494426835056 	 11.954572481710 	  1.729714406060 	
C	  0.925882705056 	 11.954575291710 	 11.860271126060 	
C	 16.175285235056 	  5.771019951710 	  1.757847166060 	
C	 15.606741105056 	  5.771022761710 	 11.888403886060 	
C	 16.175254135056 	 11.954581711710 	  1.757844336060 	
C	 15.606710005056 	 11.954584521710 	 11.888401056060 	
H	  1.643107004053 	  4.472335276443 	  6.981457172988 	
H	  1.074562874053 	  4.472338086443 	 17.112013892988 	
H	  1.643075904053 	 10.655897036443 	  6.981454342988 	
H	  1.074531774053 	 10.655899846443 	 17.112011062988 	
H	 16.323934304053 	  4.472344506443 	  7.009587102988 	
H	 15.755390174053 	  4.472347316443 	 17.140143822988 	
H	 16.323903204053 	 10.655906266443 	  7.009584272988 	
H	 15.755359074053 	 10.655909076443 	 17.140140992988 	
H	 11.993418196761 	  1.406612286830 	  8.596140347067 	
H	 11.424874066761 	  1.406615096830 	 18.726697067067 	
H	 11.993387096761 	  7.590174046830 	  8.596137517067 	
H	 11.424842966761 	  7.590176856830 	 18.726694237067 	
H	 26.674245496761 	  1.406621516830 	  8.624270277067 	
H	 26.105701366761 	  1.406624326830 	 18.754826997067 	
H	 26.674214396761 	  7.590183276830 	  8.624267447067 	
H	 26.105670266761 	  7.590186086830 	 18.754824167067 	
H	 12.258220465277 	  1.677617450511 	  3.425740335088 	
H	 11.689676335277 	  1.677620260511 	 13.556297055088 	
H	 12.258189365277 	  7.861179210511 	  3.425737505088 	
H	 11.689645235277 	  7.861182020511 	 13.556294225088 	
H	 26.939047765277 	  1.677626680511 	  3.453870265088 	
H	 26.370503635277 	  1.677629490511 	 13.584426985088 	
H	 26.939016665277 	  7.861188440511 	  3.453867435088 	
H	 26.370472535277 	  7.861191250511 	 13.584424155088 	
H	  1.907909447443 	  4.743341152565 	  1.811057280253 	
H	  1.339365317443 	  4.743343962565 	 11.941614000253 	
H	  1.907878347443 	 10.926902912565 	  1.811054450253 	
H	  1.339334217443 	 10.926905722565 	 11.941611170253 	
H	 16.588736747443 	  4.743350382565 	  1.839187210253 	
H	 16.020192617443 	  4.743353192565 	 11.969743930253 	
H	 16.588705647443 	 10.926912142565 	  1.839184380253 	
H	 16.020161517443 	 10.926914952565 	 11.969741100253 	
H	  0.957820922637 	  3.459661418084 	  7.969274920570 	
H	  0.389276792637 	  3.459664228084 	 18.099831640570 	
H	  0.957789822637 	  9.643223178084 	  7.969272090570 	
H	  0.389245692637 	  9.643225988084 	 18.099828810570 	
H	 15.638648222637 	  3.459670648084 	  7.997404850570 	
H	 15.070104092637 	  3.459673458084 	 18.127961570570 	
H	 15.638617122637 	  9.643232408084 	  7.997402020570 	
H	 15.070072992637 	  9.643235218084 	 18.127958740570 	
H	 12.682821165415 	  6.518602460032 	  7.611289238160 	
H	 12.114277035415 	  6.518605270032 	 17.741845958160 	
H	 12.682790065415 	 12.702164220032 	  7.611286408160 	
H	 12.114245935415 	 12.702167030032 	 17.741843128160 	
H	 27.363648465415 	  6.518611690032 	  7.639419168160 	
H	 26.795104335415 	  6.518614500032 	 17.769975888160 	
H	 27.363617365415 	 12.702173450032 	  7.639416338160 	
H	 26.795073235415 	 12.702176260032 	 17.769973058160 	
H	 12.943507491377 	  2.690292600711 	  2.437922129658 	
H	 12.374963361377 	  2.690295410711 	 12.568478849658 	
H	 12.943476391377 	  8.873854360711 	  2.437919299658 	
H	 12.374932261377 	  8.873857170711 	 12.568476019658 	
H	 27.624334791377 	  2.690301830711 	  2.466052059658 	
H	 27.055790661377 	  2.690304640711 	 12.596608779658 	
H	 27.624303691377 	  8.873863590711 	  2.466049229658 	
H	 27.055759561377 	  8.873866400711 	 12.596605949658 	
H	  1.218506589671 	 -0.368649239156 	  2.795908892790 	
H	  0.649962459671 	 -0.368646429156 	 12.926465612790 	
H	  1.218475489671 	  5.814912520844 	  2.795906062790 	
H	  0.649931359671 	  5.814915330844 	 12.926462782790 	
H	 15.899333889671 	 -0.368640009156 	  2.824038822790 	
H	 15.330789759671 	 -0.368637199156 	 12.954595542790 	
H	 15.899302789671 	  5.814921750844 	  2.824035992790 	
H	 15.330758659671 	  5.814924560844 	 12.954592712790 	
H	  0.288737008903 	  3.567207410939 	  6.338204733717 	
H	 -0.279807121097 	  3.567210220939 	 16.468761453717 	
H	  0.288705908903 	  9.750769170939 	  6.338201903717 	
H	 -0.279838221097 	  9.750771980939 	 16.468758623717 	
H	 14.969564308903 	  3.567216640939 	  6.366334663717 	
H	 14.401020178903 	  3.567219450939 	 16.496891383717 	
H	 14.969533208903 	  9.750778400939 	  6.366331833717 	
H	 14.400989078903 	  9.750781210939 	 16.496888553717 	
H	 13.349127481040 	  6.637803736613 	  9.236412399738 	
H	 12.780583351040 	  6.637806546613 	 19.366969119738 	
H	 13.349096381040 	 12.821365496613 	  9.236409569738 	
H	 12.780552251040 	 12.821368306613 	 19.366966289738 	
H	 28.029954781040 	  6.637812966613 	  9.264542329738 	
H	 27.461410651040 	  6.637815776613 	 19.395099049738 	
H	 28.029923681040 	 12.821374726613 	  9.264539499738 	
H	 27.461379551040 	 12.821377536613 	 19.395096219738 	
H	 13.612590499132 	  2.582745971946 	  4.068992987120 	
H	 13.044046369132 	  2.582748781946 	 14.199549707120 	
H	 13.612559399132 	  8.766307731946 	  4.068990157120 	
H	 13.044015269132 	  8.766310541946 	 14.199546877120 	
H	 28.293417799132 	  2.582755201946 	  4.097122917120 	
H	 27.724873669132 	  2.582758011946 	 14.227679637120 	
H	 28.293386699132 	  8.766316961946 	  4.097120087120 	
H	 27.724842569132 	  8.766319771946 	 14.227676807120 	
H	  0.552199970171 	 -0.487850393219 	  1.170785790497 	
H	 -0.016344159829 	 -0.487847583219 	 11.301342510497 	
H	  0.552168870171 	  5.695711366781 	  1.170782960497 	
H	 -0.016375259829 	  5.695714176781 	 11.301339680497 	
H	 15.233027270171 	 -0.487841163219 	  1.198915720497 	
H	 14.664483140171 	 -0.487838353219 	 11.329472440497 	
H	 15.232996170171 	  5.695720596781 	  1.198912890497 	
H	 14.664452040171 	  5.695723406781 	 11.329469610497 	
C	  1.380270637507 	  1.657178404408 	  6.571663419500 	
C	  0.811726507507 	  1.657181214408 	 16.702220139500 	
C	  1.380239537507 	  7.840740164408 	  6.571660589500 	
C	  0.811695407507 	  7.840742974408 	 16.702217309500 	
C	 16.061097937507 	  1.657187634408 	  6.599793349500 	
C	 15.492553807507 	  1.657190444408 	 16.730350069500 	
C	 16.061066837507 	  7.840749394408 	  6.599790519500 	
C	 15.492522707507 	  7.840752204408 	 16.730347239500 	
C	 12.261857537576 	  4.732606334782 	  9.006273744097 	
C	 11.693313407576 	  4.732609144782 	 19.136830464097 	
C	 12.261826437576 	 10.916168094782 	  9.006270914097 	
C	 11.693282307576 	 10.916170904782 	 19.136827634097 	
C	 26.942684837576 	  4.732615564782 	  9.034403674097 	
C	 26.374140707576 	  4.732618374782 	 19.164960394097 	
C	 26.942653737576 	 10.916177324782 	  9.034400844097 	
C	 26.374109607576 	 10.916180134782 	 19.164957564097 	
C	 12.521056561437 	  4.492776544425 	  3.835533903604 	
C	 11.952512431437 	  4.492779354425 	 13.966090623604 	
C	 12.521025461437 	 10.676338304425 	  3.835531073604 	
C	 11.952481331437 	 10.676341114425 	 13.966087793604 	
C	 27.201883861437 	  4.492785774425 	  3.863663833604 	
C	 26.633339731437 	  4.492788584425 	 13.994220553604 	
C	 27.201852761437 	 10.676347534425 	  3.863661003604 	
C	 26.633308631437 	 10.676350344425 	 13.994217723604 	
C	  1.639469846297 	  1.417347107658 	  1.400924677356 	
C	  1.070925716297 	  1.417349917658 	 11.531481397356 	
C	  1.639438746297 	  7.600908867658 	  1.400921847356 	
C	  1.070894616297 	  7.600911677658 	 11.531478567356 	
C	 16.320297146297 	  1.417356337658 	  1.429054607356 	
C	 15.751753016297 	  1.417359147658 	 11.559611327356 	
C	 16.320266046297 	  7.600918097658 	  1.429051777356 	
C	 15.751721916297 	  7.600920907658 	 11.559608497356 	
H	  0.367408586677 	  1.514754370898 	  6.067664623174 	
H	 -0.201135543323 	  1.514757180898 	 16.198221343174 	
H	  0.367377486677 	  7.698316130898 	  6.067661793174 	
H	 -0.201166643323 	  7.698318940898 	 16.198218513174 	
H	 15.048235886677 	  1.514763600898 	  6.095794553174 	
H	 14.479691756677 	  1.514766410898 	 16.226351273174 	
H	 15.048204786677 	  7.698325360898 	  6.095791723174 	
H	 14.479660656677 	  7.698328170898 	 16.226348443174 	
H	 13.274002579802 	  4.590114322844 	  9.509827359377 	
H	 12.705458449802 	  4.590117132844 	 19.640384079377 	
H	 13.273971479802 	 10.773676082844 	  9.509824529377 	
H	 12.705427349802 	 10.773678892844 	 19.640381249377 	
H	 27.954829879802 	  4.590123552844 	  9.537957289377 	
H	 27.386285749802 	  4.590126362844 	 19.668514009377 	
H	 27.954798779802 	 10.773685312844 	  9.537954459377 	
H	 27.386254649802 	 10.773688122844 	 19.668511179377 	
H	 13.533918501279 	  4.635200147039 	  4.339533082346 	
H	 12.965374371279 	  4.635202957039 	 14.470089802346 	
H	 13.533887401279 	 10.818761907039 	  4.339530252346 	
H	 12.965343271279 	 10.818764717039 	 14.470086972346 	
H	 28.214745801279 	  4.635209377039 	  4.367663012346 	
H	 27.646201671279 	  4.635212187039 	 14.498219732346 	
H	 28.214714701279 	 10.818771137039 	  4.367660182346 	
H	 27.646170571279 	 10.818773947039 	 14.498216902346 	
H	  0.627324762469 	  1.559839067916 	  0.897371165432 	
H	  0.058780632469 	  1.559841877916 	 11.027927885432 	
H	  0.627293662469 	  7.743400827916 	  0.897368335432 	
H	  0.058749532469 	  7.743403637916 	 11.027925055432 	
H	 15.308152062469 	  1.559848297916 	  0.925501095432 	
H	 14.739607932469 	  1.559851107916 	 11.056057815432 	
H	 15.308120962469 	  7.743410057916 	  0.925498265432 	
H	 14.739576832469 	  7.743412867916 	 11.056054985432 	
H	  1.177486934519 	  1.191217751247 	  7.567684176905 	
H	  0.608942804519 	  1.191220561247 	 17.698240896905 	
H	  1.177455834519 	  7.374779511247 	  7.567681346905 	
H	  0.608911704519 	  7.374782321247 	 17.698238066905 	
H	 15.858314234519 	  1.191226981247 	  7.595814106905 	
H	 15.289770104519 	  1.191229791247 	 17.726370826905 	
H	 15.858283134519 	  7.374788741247 	  7.595811276905 	
H	 15.289739004519 	  7.374791551247 	 17.726367996905 	
H	 12.464211483818 	  4.266559258291 	  8.009708636429 	
H	 11.895667353818 	  4.266562068291 	 18.140265356429 	
H	 12.464180383818 	 10.450121018291 	  8.009705806429 	
H	 11.895636253818 	 10.450123828291 	 18.140262526429 	
H	 27.145038783818 	  4.266568488291 	  8.037838566429 	
H	 26.576494653818 	  4.266571298291 	 18.168395286429 	
H	 27.145007683818 	 10.450130248291 	  8.037835736429 	
H	 26.576463553818 	 10.450133058291 	 18.168392456429 	
H	 12.723840413550 	  4.958736712209 	  2.839512413534 	
H	 12.155296283550 	  4.958739522209 	 12.970069133534 	
H	 12.723809313550 	 11.142298472209 	  2.839509583534 	
H	 12.155265183550 	 11.142301282209 	 12.970066303534 	
H	 27.404667713550 	  4.958745942209 	  2.867642343534 	
H	 26.836123583550 	  4.958748752209 	 12.998199063534 	
H	 27.404636613550 	 11.142307702209 	  2.867639513534 	
H	 26.836092483550 	 11.142310512209 	 12.998196233534 	
H	  1.437115919140 	  1.883393999037 	  2.397489792464 	
H	  0.868571789140 	  1.883396809037 	 12.528046512464 	
H	  1.437084819140 	  8.066955759037 	  2.397486962464 	
H	  0.868540689140 	  8.066958569037 	 12.528043682464 	
H	 16.117943219140 	  1.883403229037 	  2.425619722464 	
H	 15.549399089140 	  1.883406039037 	 12.556176442464 	
H	 16.117912119140 	  8.066964989037 	  2.425616892464 	
H	 15.549367989140 	  8.066967799037 	 12.556173612464 	
H	  1.845112985351 	  0.700011411682 	  6.281847521446 	
H	  1.276568855351 	  0.700014221682 	 16.412404241446 	
H	  1.845081885351 	  6.883573171682 	  6.281844691446 	
H	  1.276537755351 	  6.883575981682 	 16.412401411446 	
H	 16.525940285351 	  0.700020641682 	  6.309977451446 	
H	 15.957396155351 	  0.700023451682 	 16.440534171446 	
H	 16.525909185351 	  6.883582401682 	  6.309974621446 	
H	 15.957365055351 	  6.883585211682 	 16.440531341446 	
H	 11.796445967298 	  3.775563268200 	  9.295615561003 	
H	 11.227901837298 	  3.775566078200 	 19.426172281003 	
H	 11.796414867298 	  9.959125028200 	  9.295612731003 	
H	 11.227870737298 	  9.959127838200 	 19.426169451003 	
H	 26.477273267298 	  3.775572498200 	  9.323745491003 	
H	 25.908729137298 	  3.775575308200 	 19.454302211003 	
H	 26.477242167298 	  9.959134258200 	  9.323742661003 	
H	 25.908698037298 	  9.959137068200 	 19.454299381003 	
H	 12.056213046235 	  5.449943168758 	  4.125351486379 	
H	 11.487668916235 	  5.449945978758 	 14.255908206379 	
H	 12.056181946235 	 11.633504928758 	  4.125348656379 	
H	 11.487637816235 	 11.633507738758 	 14.255905376379 	
H	 26.737040346235 	  5.449952398758 	  4.153481416379 	
H	 26.168496216235 	  5.449955208758 	 14.284038136379 	
H	 26.737009246235 	 11.633514158758 	  4.153478586379 	
H	 26.168465116235 	 11.633516968758 	 14.284035306379 	
H	  2.104881311806 	  2.374390335096 	  1.111583303437 	
H	  1.536337181806 	  2.374393145096 	 11.242140023437 	
H	  2.104850211806 	  8.557952095096 	  1.111580473437 	
H	  1.536306081806 	  8.557954905096 	 11.242137193437 	
H	 16.785708611806 	  2.374399565096 	  1.139713233437 	
H	 16.217164481806 	  2.374402375096 	 11.270269953437 	
H	 16.785677511806 	  8.557961325096 	  1.139710403437 	
H	 16.217133381806 	  8.557964135096 	 11.270267123437 	
768 
Energy: -9.5927153282160006e+01 
S	  8.540439861314 	  1.487953681698 	  0.086680626478 	
S	  7.971895731314 	  1.487956491698 	 10.217237346478 	
S	  8.540408761314 	  7.671515441698 	  0.086677796478 	
S	  7.971864631314 	  7.671518251698 	 10.217234516478 	
S	 23.221267161314 	  1.487962911698 	  0.114810556478 	
S	 22.652723031314 	  1.487965721698 	 10.245367276478 	
S	 23.221236061314 	  7.671524671698 	  0.114807726478 	
S	 22.652691931314 	  7.671527481698 	 10.245364446478 	
S	  5.557757377648 	  4.557833024672 	  5.187974027771 	
S	  4.989213247648 	  4.557835834672 	 15.318530747771 	
S	  5.557726277648 	 10.741394784672 	  5.187971197771 	
S	  4.989182147648 	 10.741397594672 	 15.318527917771 	
S	 20.238584677648 	  4.557842254672 	  5.216103957771 	
S	 19.670040547648 	  4.557845064672 	 15.346660677771 	
S	 20.238553577648 	 10.741404014672 	  5.216101127771 	
S	 19.670009447648 	 10.741406824672 	 15.346657847771 	
S	  5.305500242801 	  4.653171085022 	 10.385775119849 	
S	  4.736956112801 	  4.653173895022 	 20.516331839849 	
S	  5.305469142801 	 10.836732845022 	 10.385772289849 	
S	  4.736925012801 	 10.836735655022 	 20.516329009849 	
S	 19.986327542801 	  4.653180315022 	 10.413905049849 	
S	 19.417783412801 	  4.653183125022 	 20.544461769849 	
S	 19.986296442801 	 10.836742075022 	 10.413902219849 	
S	 19.417752312801 	 10.836744885022 	 20.544458939849 	
S	  8.288183588700 	  1.583292091975 	  5.284481649825 	
S	  7.719639458700 	  1.583294901975 	 15.415038369825 	
S	  8.288152488700 	  7.766853851975 	  5.284478819825 	
S	  7.719608358700 	  7.766856661975 	 15.415035539825 	
S	 22.969010888700 	  1.583301321975 	  5.312611579825 	
S	 22.400466758700 	  1.583304131975 	 15.443168299825 	
S	 22.968979788700 	  7.766863081975 	  5.312608749825 	
S	 22.400435658700 	  7.766865891975 	 15.443165469825 	
C	  6.654360774241 	  2.534368887636 	 10.066420351951 	
C	  6.085816644241 	  2.534371697636 	 20.196977071951 	
C	  6.654329674241 	  8.717930647636 	 10.066417521951 	
C	  6.085785544241 	  8.717933457636 	 20.196974241951 	
C	 21.335188074241 	  2.534378117636 	 10.094550281951 	
C	 20.766643944241 	  2.534380927636 	 20.225107001951 	
C	 21.335156974241 	  8.717939877636 	 10.094547451951 	
C	 20.766612844241 	  8.717942687636 	 20.225104171951 	
C	  6.938168892029 	  5.598467412312 	  5.606280691171 	
C	  6.369624762029 	  5.598470222312 	 15.736837411171 	
C	  6.938137792029 	 11.782029172312 	  5.606277861171 	
C	  6.369593662029 	 11.782031982312 	 15.736834581171 	
C	 21.618996192029 	  5.598476642312 	  5.634410621171 	
C	 21.050452062029 	  5.598479452312 	 15.764967341171 	
C	 21.618965092029 	 11.782038402312 	  5.634407791171 	
C	 21.050420962029 	 11.782041212312 	 15.764964511171 	
C	  7.191579348705 	  3.606755847402 	  0.406035311811 	
C	  6.623035218705 	  3.606758657402 	 10.536592031811 	
C	  7.191548248705 	  9.790317607402 	  0.406032481811 	
C	  6.623004118705 	  9.790320417402 	 10.536589201811 	
C	 21.872406648705 	  3.606765077402 	  0.434165241811 	
C	 21.303862518705 	  3.606767887402 	 10.564721961811 	
C	 21.872375548705 	  9.790326837402 	  0.434162411811 	
C	 21.303831418705 	  9.790329647402 	 10.564719131811 	
C	  6.907771928882 	  0.542657790510 	  4.866174895161 	
C	  6.339227798882 	  0.542660600510 	 14.996731615161 	
C	  6.907740828882 	  6.726219550510 	  4.866172065161 	
C	  6.339196698882 	  6.726222360510 	 14.996728785161 	
C	 21.588599228882 	  0.542667020510 	  4.894304825161 	
C	 21.020055098882 	  0.542669830510 	 15.024861545161 	
C	 21.588568128882 	  6.726228780510 	  4.894301995161 	
C	 21.020023998882 	  6.726231590510 	 15.024858715161 	
C	  5.610431783645 	  2.366131266770 	  9.116072961851 	
C	  5.041887653645 	  2.366134076770 	 19.246629681851 	
C	  5.610400683645 	  8.549693026770 	  9.116070131851 	
C	  5.041856553645 	  8.549695836770 	 19.246626851851 	
C	 20.291259083645 	  2.366140496770 	  9.144202891851 	
C	 19.722714953645 	  2.366143306770 	 19.274759611851 	
C	 20.291227983645 	  8.549702256770 	  9.144200061851 	
C	 19.722683853645 	  8.549705066770 	 19.274756781851 	
C	  7.985904405927 	  5.438282096646 	  6.553852075967 	
C	  7.417360275927 	  5.438284906646 	 16.684408795967 	
C	  7.985873305927 	 11.621843856646 	  6.553849245967 	
C	  7.417329175927 	 11.621846666646 	 16.684405965967 	
C	 22.666731705927 	  5.438291326646 	  6.581982005967 	
C	 22.098187575927 	  5.438294136646 	 16.712538725967 	
C	 22.666700605927 	 11.621853086646 	  6.581979175967 	
C	 22.098156475927 	 11.621855896646 	 16.712535895967 	
C	  8.235508229505 	  3.774993523777 	  1.356382617504 	
C	  7.666964099505 	  3.774996333777 	 11.486939337504 	
C	  8.235477129505 	  9.958555283777 	  1.356379787504 	
C	  7.666932999505 	  9.958558093777 	 11.486936507504 	
C	 22.916335529505 	  3.775002753777 	  1.384512547504 	
C	 22.347791399505 	  3.775005563777 	 11.515069267504 	
C	 22.916304429505 	  9.958564513777 	  1.384509717504 	
C	 22.347760299505 	  9.958567323777 	 11.515066437504 	
C	  5.860036274607 	  0.702843105848 	  3.918603588087 	
C	  5.291492144607 	  0.702845915848 	 14.049160308087 	
C	  5.860005174607 	  6.886404865848 	  3.918600758087 	
C	  5.291461044607 	  6.886407675848 	 14.049157478087 	
C	 20.540863574607 	  0.702852335848 	  3.946733518087 	
C	 19.972319444607 	  0.702855145848 	 14.077290238087 	
C	 20.540832474607 	  6.886414095848 	  3.946730688087 	
C	 19.972288344607 	  6.886416905848 	 14.077287408087 	
C	  4.746342874781 	  3.455605172808 	  9.157120139134 	
C	  4.177798744781 	  3.455607982808 	 19.287676859134 	
C	  4.746311774781 	  9.639166932808 	  9.157117309134 	
C	  4.177767644781 	  9.639169742808 	 19.287674029134 	
C	 19.427170174781 	  3.455614402808 	  9.185250069134 	
C	 18.858626044781 	  3.455617212808 	 19.315806789134 	
C	 19.427139074781 	  9.639176162808 	  9.185247239134 	
C	 18.858594944781 	  9.639178972808 	 19.315803959134 	
C	  8.843024159014 	  0.383172439660 	  6.513492857524 	
C	  8.274480029014 	  0.383175249660 	 16.644049577524 	
C	  8.842993059014 	  6.566734199660 	  6.513490027524 	
C	  8.274448929014 	  6.566737009660 	 16.644046747524 	
C	 23.523851459014 	  0.383181669660 	  6.541622787524 	
C	 22.955307329014 	  0.383184479660 	 16.672179507524 	
C	 23.523820359014 	  6.566743429660 	  6.541619957524 	
C	 22.955276229014 	  6.566746239660 	 16.672176677524 	
C	  9.099597131400 	  2.685519630321 	  1.315335499302 	
C	  8.531053001400 	  2.685522440321 	 11.445892219302 	
C	  9.099566031400 	  8.869081390321 	  1.315332669302 	
C	  8.531021901400 	  8.869084200321 	 11.445889389302 	
C	 23.780424431400 	  2.685528860321 	  1.343465429302 	
C	 23.211880301400 	  2.685531670321 	 11.474022149302 	
C	 23.780393331400 	  8.869090620321 	  1.343462599302 	
C	 23.211849201400 	  8.869093430321 	 11.474019319302 	
C	  5.002916589244 	  5.757952735041 	  3.958962921328 	
C	  4.434372459244 	  5.757955545041 	 14.089519641328 	
C	  5.002885489244 	 11.941514495041 	  3.958960091328 	
C	  4.434341359244 	 11.941517305041 	 14.089516811328 	
C	 19.683743889244 	  5.757961965041 	  3.987092851328 	
C	 19.115199759244 	  5.757964775041 	 14.117649571328 	
C	 19.683712789244 	 11.941523725041 	  3.987090021328 	
C	 19.115168659244 	 11.941526535041 	 14.117646741328 	
C	  3.668933364896 	  3.535790561136 	  8.384019951295 	
C	  3.100389234896 	  3.535793371136 	 18.514576671295 	
C	  3.668902264896 	  9.719352321136 	  8.384017121295 	
C	  3.100358134896 	  9.719355131136 	 18.514573841295 	
C	 18.349760664896 	  3.535799791136 	  8.412149881295 	
C	 17.781216534896 	  3.535802601136 	 18.542706601295 	
C	 18.349729564896 	  9.719361551136 	  8.412147051295 	
C	 17.781185434896 	  9.719364361136 	 18.542703771295 	
C	  9.923936113447 	  0.465389707388 	  7.287933242393 	
C	  9.355391983447 	  0.465392517388 	 17.418489962393 	
C	  9.923905013447 	  6.648951467388 	  7.287930412393 	
C	  9.355360883447 	  6.648954277388 	 17.418487132393 	
C	 24.604763413447 	  0.465398937388 	  7.316063172393 	
C	 24.036219283447 	  0.465401747388 	 17.446619892393 	
C	 24.604732313447 	  6.648960697388 	  7.316060342393 	
C	 24.036188183447 	  6.648963507388 	 17.446617062393 	
C	 10.177006653344 	  2.605334361905 	  2.088435861678 	
C	  9.608462523344 	  2.605337171905 	 12.218992581678 	
C	 10.176975553344 	  8.788896121905 	  2.088433031678 	
C	  9.608431423344 	  8.788898931905 	 12.218989751678 	
C	 24.857833953344 	  2.605343591905 	  2.116565791678 	
C	 24.289289823344 	  2.605346401905 	 12.247122511678 	
C	 24.857802853344 	  8.788905351905 	  2.116562961678 	
C	 24.289258723344 	  8.788908161905 	 12.247119681678 	
C	  3.922004377441 	  5.675735497329 	  3.184522793031 	
C	  3.353460247441 	  5.675738307329 	 13.315079513031 	
C	  3.921973277441 	 11.859297257329 	  3.184519963031 	
C	  3.353429147441 	 11.859300067329 	 13.315076683031 	
C	 18.602831677441 	  5.675744727329 	  3.212652723031 	
C	 18.034287547441 	  5.675747537329 	 13.343209443031 	
C	 18.602800577441 	 11.859306487329 	  3.212649893031 	
C	 18.034256447441 	 11.859309297329 	 13.343206613031 	
H	  2.995045145186 	  4.472409385830 	  8.463776271791 	
H	  2.426501015186 	  4.472412195830 	 18.594332991791 	
H	  2.995014045186 	 10.655971145830 	  8.463773441791 	
H	  2.426469915186 	 10.655973955830 	 18.594330161791 	
H	 17.675872445186 	  4.472418615830 	  8.491906201791 	
H	 17.107328315186 	  4.472421425830 	 18.622462921791 	
H	 17.675841345186 	 10.655980375830 	  8.491903371791 	
H	 17.107297215186 	 10.655983185830 	 18.622460091791 	
H	 10.597901144259 	  1.401625633160 	  7.206544451808 	
H	 10.029357014259 	  1.401628443160 	 17.337101171808 	
H	 10.597870044259 	  7.585187393160 	  7.206541621808 	
H	 10.029325914259 	  7.585190203160 	 17.337098341808 	
H	 25.278728444259 	  1.401634863160 	  7.234674381808 	
H	 24.710184314259 	  1.401637673160 	 17.365231101808 	
H	 25.278697344259 	  7.585196623160 	  7.234671551808 	
H	 24.710153214259 	  7.585199433160 	 17.365228271808 	
H	 10.850894821068 	  1.668715470792 	  2.008679611894 	
H	 10.282350691068 	  1.668718280792 	 12.139236331894 	
H	 10.850863721068 	  7.852277230792 	  2.008676781894 	
H	 10.282319591068 	  7.852280040792 	 12.139233501894 	
H	 25.531722121068 	  1.668724700792 	  2.036809541894 	
H	 24.963177991068 	  1.668727510792 	 12.167366261894 	
H	 25.531691021068 	  7.852286460792 	  2.036806711894 	
H	 24.963146891068 	  7.852289270792 	 12.167363431894 	
H	  3.248039477750 	  4.739499482198 	  3.265911702948 	
H	  2.679495347750 	  4.739502292198 	 13.396468422948 	
H	  3.248008377750 	 10.923061242198 	  3.265908872948 	
H	  2.679464247750 	 10.923064052198 	 13.396465592948 	
H	 17.928866777750 	  4.739508712198 	  3.294041632948 	
H	 17.360322647750 	  4.739511522198 	 13.424598352948 	
H	 17.928835677750 	 10.923070472198 	  3.294038802948 	
H	 17.360291547750 	 10.923073282198 	 13.424595522948 	
C	  3.336295860190 	  2.568257930132 	  7.509709038888 	
C	  2.767751730190 	  2.568260740132 	 17.640265758888 	
C	  3.336264760190 	  8.751819690132 	  7.509706208888 	
C	  2.767720630190 	  8.751822500132 	 17.640262928888 	
C	 18.017123160190 	  2.568267160132 	  7.537838968888 	
C	 17.448579030190 	  2.568269970132 	 17.668395688888 	
C	 18.017092060190 	  8.751828920132 	  7.537836138888 	
C	 17.448547930190 	  8.751831730132 	 17.668392858888 	
C	 10.256311650763 	  5.638200138446 	  8.158671537467 	
C	  9.687767520763 	  5.638202948446 	 18.289228257467 	
C	 10.256280550763 	 11.821761898446 	  8.158668707467 	
C	  9.687736420763 	 11.821764708446 	 18.289225427467 	
C	 24.937138950763 	  5.638209368446 	  8.186801467467 	
C	 24.368594820763 	  5.638212178446 	 18.317358187467 	
C	 24.937107850763 	 11.821771128446 	  8.186798637467 	
C	 24.368563720763 	 11.821773938446 	 18.317355357467 	
C	 10.509643993716 	  3.572867021490 	  2.962746591957 	
C	  9.941099863716 	  3.572869831490 	 13.093303311957 	
C	 10.509612893716 	  9.756428781490 	  2.962743761957 	
C	  9.941068763716 	  9.756431591490 	 13.093300481957 	
C	 25.190471293716 	  3.572876251490 	  2.990876521957 	
C	 24.621927163716 	  3.572879061490 	 13.121433241957 	
C	 25.190440193716 	  9.756438011490 	  2.990873691957 	
C	 24.621896063716 	  9.756440821490 	 13.121430411957 	
C	  3.589628677958 	  0.502925085242 	  2.313784599213 	
C	  3.021084547958 	  0.502927895242 	 12.444341319213 	
C	  3.589597577958 	  6.686486845242 	  2.313781769213 	
C	  3.021053447958 	  6.686489655242 	 12.444338489213 	
C	 18.270455977958 	  0.502934315242 	  2.341914529213 	
C	 17.701911847958 	  0.502937125242 	 12.472471249213 	
C	 18.270424877958 	  6.686496075242 	  2.341911699213 	
C	 17.701880747958 	  6.686498885242 	 12.472468419213 	
C	  4.209240160975 	  1.508850911041 	  7.451680452037 	
C	  3.640696030975 	  1.508853721041 	 17.582237172037 	
C	  4.209209060975 	  7.692412671041 	  7.451677622037 	
C	  3.640664930975 	  7.692415481041 	 17.582234342037 	
C	 18.890067460975 	  1.508860141041 	  7.479810382037 	
C	 18.321523330975 	  1.508862951041 	 17.610367102037 	
C	 18.890036360975 	  7.692421901041 	  7.479807552037 	
C	 18.321492230975 	  7.692424711041 	 17.610364272037 	
C	  9.383818055885 	  4.579886312410 	  8.218263411256 	
C	  8.815273925885 	  4.579889122410 	 18.348820131256 	
C	  9.383786955885 	 10.763448072410 	  8.218260581256 	
C	  8.815242825885 	 10.763450882410 	 18.348817301256 	
C	 24.064645355885 	  4.579895542410 	  8.246393341256 	
C	 23.496101225885 	  4.579898352410 	 18.376950061256 	
C	 24.064614255885 	 10.763457302410 	  8.246390511256 	
C	 23.496070125885 	 10.763460112410 	 18.376947231256 	
C	  9.636699711041 	  4.632274045520 	  3.020775163908 	
C	  9.068155581041 	  4.632276855520 	 13.151331883908 	
C	  9.636668611041 	 10.815835805520 	  3.020772333908 	
C	  9.068124481041 	 10.815838615520 	 13.151329053908 	
C	 24.317527011041 	  4.632283275520 	  3.048905093908 	
C	 23.748982881041 	  4.632286085520 	 13.179461813908 	
C	 24.317495911041 	 10.815845035520 	  3.048902263908 	
C	 23.748951781041 	 10.815847845520 	 13.179458983908 	
C	  4.462122171774 	  1.561238849857 	  2.254192531053 	
C	  3.893578041774 	  1.561241659857 	 12.384749251053 	
C	  4.462091071774 	  7.744800609857 	  2.254189701053 	
C	  3.893546941774 	  7.744803419857 	 12.384746421053 	
C	 19.142949471774 	  1.561248079857 	  2.282322461053 	
C	 18.574405341774 	  1.561250889857 	 12.412879181053 	
C	 19.142918371774 	  7.744809839857 	  2.282319631053 	
C	 18.574374241774 	  7.744812649857 	 12.412876351053 	
H	  3.984132042593 	  0.667079347859 	  6.694642543407 	
H	  3.415587912593 	  0.667082157859 	 16.825199263407 	
H	  3.984100942593 	  6.850641107859 	  6.694639713407 	
H	  3.415556812593 	  6.850643917859 	 16.825196433407 	
H	 18.664959342593 	  0.667088577859 	  6.722772473407 	
H	 18.096415212593 	  0.667091387859 	 16.853329193407 	
H	 18.664928242593 	  6.850650337859 	  6.722769643407 	
H	 18.096384112593 	  6.850653147859 	 16.853326363407 	
H	  9.608725538547 	  3.737918896726 	  8.975539830431 	
H	  9.040181408547 	  3.737921706726 	 19.106096550431 	
H	  9.608694438547 	  9.921480656726 	  8.975537000431 	
H	  9.040150308547 	  9.921483466726 	 19.106093720431 	
H	 24.289552838547 	  3.737928126726 	  9.003669760431 	
H	 23.721008708547 	  3.737930936726 	 19.134226480431 	
H	 24.289521738547 	  9.921489886726 	  9.003666930431 	
H	 23.720977608547 	  9.921492696726 	 19.134223650431 	
H	  9.861807899195 	  5.474045677654 	  3.777812975329 	
H	  9.293263769195 	  5.474048487654 	 13.908369695329 	
H	  9.861776799195 	 11.657607437654 	  3.777810145329 	
H	  9.293232669195 	 11.657610247654 	 13.908366865329 	
H	 24.542635199195 	  5.474054907654 	  3.805942905329 	
H	 23.974091069195 	  5.474057717654 	 13.936499625329 	
H	 24.542604099195 	 11.657616667654 	  3.805940075329 	
H	 23.974059969195 	 11.657619477654 	 13.936496795329 	
H	  4.237214500419 	  2.403206349892 	  1.496916253021 	
H	  3.668670370419 	  2.403209159892 	 11.627472973021 	
H	  4.237183400419 	  8.586768109892 	  1.496913423021 	
H	  3.668639270419 	  8.586770919892 	 11.627470143021 	
H	 18.918041800419 	  2.403215579892 	  1.525046183021 	
H	 18.349497670419 	  2.403218389892 	 11.655602903021 	
H	 18.918010700419 	  8.586777339892 	  1.525043353021 	
H	 18.349466570419 	  8.586780149892 	 11.655600073021 	
C	  5.269782475010 	  1.406180497261 	  8.192065557332 	
C	  4.701238345010 	  1.406183307261 	 18.322622277332 	
C	  5.269751375010 	  7.589742257261 	  8.192062727332 	
C	  4.701207245010 	  7.589745067261 	 18.322619447332 	
C	 19.950609775010 	  1.406189727261 	  8.220195487332 	
C	 19.382065645010 	  1.406192537261 	 18.350752207332 	
C	 19.950578675010 	  7.589751487261 	  8.220192657332 	
C	 19.382034545010 	  7.589754297261 	 18.350749377332 	
C	  8.323038794239 	  4.477097631384 	  7.477724651227 	
C	  7.754494664239 	  4.477100441384 	 17.608281371227 	
C	  8.323007694239 	 10.660659391384 	  7.477721821227 	
C	  7.754463564239 	 10.660662201384 	 17.608278541227 	
C	 23.003866094239 	  4.477106861384 	  7.505854581227 	
C	 22.435321964239 	  4.477109671384 	 17.636411301227 	
C	 23.003834994239 	 10.660668621384 	  7.505851751227 	
C	 22.435290864239 	 10.660671431384 	 17.636408471227 	
C	  8.576157464021 	  4.734944387272 	  2.280389954351 	
C	  8.007613334021 	  4.734947197272 	 12.410946674351 	
C	  8.576126364021 	 10.918506147272 	  2.280387124351 	
C	  8.007582234021 	 10.918508957272 	 12.410943844351 	
C	 23.256984764021 	  4.734953617272 	  2.308519884351 	
C	 22.688440634021 	  4.734956427272 	 12.439076604351 	
C	 23.256953664021 	 10.918515377272 	  2.308517054351 	
C	 22.688409534021 	 10.918518187272 	 12.439073774351 	
C	  5.522901669746 	  1.664027581117 	  2.994731126311 	
C	  4.954357539746 	  1.664030391117 	 13.125287846311 	
C	  5.522870569746 	  7.847589341117 	  2.994728296311 	
C	  4.954326439746 	  7.847592151117 	 13.125285016311 	
C	 20.203728969746 	  1.664036811117 	  3.022861056311 	
C	 19.635184839746 	  1.664039621117 	 13.153417776311 	
C	 20.203697869746 	  7.847598571117 	  3.022858226311 	
C	 19.635153739746 	  7.847601381117 	 13.153414946311 	
H	  5.965100895888 	  0.488154547869 	  8.096816049836 	
H	  5.396556765888 	  0.488157357869 	 18.227372769836 	
H	  5.965069795888 	  6.671716307869 	  8.096813219836 	
H	  5.396525665888 	  6.671719117869 	 18.227369939836 	
H	 20.645928195888 	  0.488163777869 	  8.124945979836 	
H	 20.077384065888 	  0.488166587869 	 18.255502699836 	
H	 20.645897095888 	  6.671725537869 	  8.124943149836 	
H	 20.077352965888 	  6.671728347869 	 18.255499869836 	
H	  7.627657435436 	  3.558777864946 	  7.573247273233 	
H	  7.059113305436 	  3.558780674946 	 17.703803993233 	
H	  7.627626335436 	  9.742339624946 	  7.573244443233 	
H	  7.059082205436 	  9.742342434946 	 17.703801163233 	
H	 22.308484735436 	  3.558787094946 	  7.601377203233 	
H	 21.739940605436 	  3.558789904946 	 17.731933923233 	
H	 22.308453635436 	  9.742348854946 	  7.601374373233 	
H	 21.739909505436 	  9.742351664946 	 17.731931093233 	
H	  7.880838992948 	  5.652970296376 	  2.375639359023 	
H	  7.312294862948 	  5.652973106376 	 12.506196079023 	
H	  7.880807892948 	 11.836532056376 	  2.375636529023 	
H	  7.312263762948 	 11.836534866376 	 12.506193249023 	
H	 22.561666292948 	  5.652979526376 	  2.403769289023 	
H	 21.993122162948 	  5.652982336376 	 12.534326009023 	
H	 22.561635192948 	 11.836541286376 	  2.403766459023 	
H	 21.993091062948 	 11.836544096376 	 12.534323179023 	
H	  6.218282990911 	  2.582347346444 	  2.899208392951 	
H	  5.649738860911 	  2.582350156444 	 13.029765112951 	
H	  6.218251890911 	  8.765909106444 	  2.899205562951 	
H	  5.649707760911 	  8.765911916444 	 13.029762282951 	
H	 20.899110290911 	  2.582356576444 	  2.927338322951 	
H	 20.330566160911 	  2.582359386444 	 13.057895042951 	
H	 20.899079190911 	  8.765918336444 	  2.927335492951 	
H	 20.330535060911 	  8.765921146444 	 13.057892212951 	
C	  1.997846800625 	  2.653096976187 	  6.598763508273 	
C	  1.429302670625 	  2.653099786187 	 16.729320228273 	
C	  1.997815700625 	  8.836658736187 	  6.598760678273 	
C	  1.429271570625 	  8.836661546187 	 16.729317398273 	
C	 16.678674100625 	  2.653106206187 	  6.626893438273 	
C	 16.110129970625 	  2.653109016187 	 16.757450158273 	
C	 16.678643000625 	  8.836667966187 	  6.626890608273 	
C	 16.110098870625 	  8.836670776187 	 16.757447328273 	
C	 11.558449188984 	  5.688942026466 	  9.052327386176 	
C	 10.989905058984 	  5.688944836466 	 19.182884106176 	
C	 11.558418088984 	 11.872503786466 	  9.052324556176 	
C	 10.989873958984 	 11.872506596466 	 19.182881276176 	
C	 26.239276488984 	  5.688951256466 	  9.080457316176 	
C	 25.670732358984 	  5.688954066466 	 19.211014036176 	
C	 26.239245388984 	 11.872513016466 	  9.080454486176 	
C	 25.670701258984 	 11.872515826466 	 19.211011206176 	
C	 11.848093506169 	  3.488028381535 	  3.873693099738 	
C	 11.279549376169 	  3.488031191535 	 14.004249819738 	
C	 11.848062406169 	  9.671590141535 	  3.873690269738 	
C	 11.279518276169 	  9.671592951535 	 14.004246989738 	
C	 26.528920806169 	  3.488037611535 	  3.901823029738 	
C	 25.960376676169 	  3.488040421535 	 14.032379749738 	
C	 26.528889706169 	  9.671599371535 	  3.901820199738 	
C	 25.960345576169 	  9.671602181535 	 14.032376919738 	
C	  2.287490937565 	  0.452183096771 	  1.420128790791 	
C	  1.718946807565 	  0.452185906771 	 11.550685510791 	
C	  2.287459837565 	  6.635744856771 	  1.420125960791 	
C	  1.718915707565 	  6.635747666771 	 11.550682680791 	
C	 16.968318237565 	  0.452192326771 	  1.448258720791 	
C	 16.399774107565 	  0.452195136771 	 11.578815440791 	
C	 16.968287137565 	  6.635754086771 	  1.448255890791 	
C	 16.399743007565 	  6.635756896771 	 11.578812610791 	
C	  2.165834576667 	  2.744786904509 	  5.513287514192 	
C	  1.597290446667 	  2.744789714509 	 15.643844234192 	
C	  2.165803476667 	  8.928348664509 	  5.513284684192 	
C	  1.597259346667 	  8.928351474509 	 15.643841404192 	
C	 16.846661876667 	  2.744796134509 	  5.541417444192 	
C	 16.278117746667 	  2.744798944509 	 15.671974164192 	
C	 16.846630776667 	  8.928357894509 	  5.541414614192 	
C	 16.278086646667 	  8.928360704509 	 15.671971334192 	
C	 11.438558508534 	 -0.341192356874 	 10.112753976647 	
C	 10.870014378534 	 -0.341189546874 	 20.243310696647 	
C	 11.438527408534 	  5.842369403126 	 10.112751146647 	
C	 10.869983278534 	  5.842372213126 	 20.243307866647 	
C	 26.119385808534 	 -0.341183126874 	 10.140883906647 	
C	 25.550841678534 	 -0.341180316874 	 20.271440626647 	
C	 26.119354708534 	  5.842378633126 	 10.140881076647 	
C	 25.550810578534 	  5.842381443126 	 20.271437796647 	
C	 11.680104454542 	  3.396337973293 	  4.959169723763 	
C	 11.111560324542 	  3.396340783293 	 15.089726443763 	
C	 11.680073354542 	  9.579899733293 	  4.959166893763 	
C	 11.111529224542 	  9.579902543293 	 15.089723613763 	
C	 26.360931754542 	  3.396347203293 	  4.987299653763 	
C	 25.792387624542 	  3.396350013293 	 15.117856373763 	
C	 26.360900654542 	  9.579908963293 	  4.987296823763 	
C	 25.792356524542 	  9.579911773293 	 15.117853543763 	
C	  2.407380980250 	  6.482317234075 	  0.359702819772 	
C	  1.838836850250 	  6.482320044075 	 10.490259539772 	
C	  2.407349880250 	 12.665878994075 	  0.359699989772 	
C	  1.838805750250 	 12.665881804075 	 10.490256709772 	
C	 17.088208280250 	  6.482326464075 	  0.387832749772 	
C	 16.519664150250 	  6.482329274075 	 10.518389469772 	
C	 17.088177180250 	 12.665888224075 	  0.387829919772 	
C	 16.519633050250 	 12.665891034075 	 10.518386639772 	
H	  2.911277179485 	  3.433668809328 	  5.130361413511 	
H	  2.342733049485 	  3.433671619328 	 15.260918133511 	
H	  2.911246079485 	  9.617230569328 	  5.130358583511 	
H	  2.342701949485 	  9.617233379328 	 15.260915303511 	
H	 17.592104479485 	  3.433678039328 	  5.158491343511 	
H	 17.023560349485 	  3.433680849328 	 15.289048063511 	
H	 17.592073379485 	  9.617239799328 	  5.158488513511 	
H	 17.023529249485 	  9.617242609328 	 15.289045233511 	
H	 10.698280410609 	  0.361308008924 	 10.529357756834 	
H	 10.129736280609 	  0.361310818924 	 20.659914476834 	
H	 10.698249310609 	  6.544869768924 	 10.529354926834 	
H	 10.129705180609 	  6.544872578924 	 20.659911646834 	
H	 25.379107710609 	  0.361317238924 	 10.557487686834 	
H	 24.810563580609 	  0.361320048924 	 20.688044406834 	
H	 25.379076610609 	  6.544878998924 	 10.557484856834 	
H	 24.810532480609 	  6.544881808924 	 20.688041576834 	
H	 10.934662034000 	  2.707452897663 	  5.342093621960 	
H	 10.366117904000 	  2.707455707663 	 15.472650341960 	
H	 10.934630934000 	  8.891014657663 	  5.342090791960 	
H	 10.366086804000 	  8.891017467663 	 15.472647511960 	
H	 25.615489334000 	  2.707462127663 	  5.370223551960 	
H	 25.046945204000 	  2.707464937663 	 15.500780271960 	
H	 25.615458234000 	  8.891023887663 	  5.370220721960 	
H	 25.046914104000 	  8.891026697663 	 15.500777441960 	
H	  3.147659486841 	  5.779817415716 	 -0.056901832365 	
H	  2.579115356841 	  5.779820225716 	 10.073654887635 	
H	  3.147628386841 	 11.963379175716 	 -0.056904662365 	
H	  2.579084256841 	 11.963381985716 	 10.073652057635 	
H	 17.828486786841 	  5.779826645716 	 -0.028771902365 	
H	 17.259942656841 	  5.779829455716 	 10.101784817635 	
H	 17.828455686841 	 11.963388405716 	 -0.028774732365 	
H	 17.259911556841 	 11.963391215716 	 10.101781987635 	
H	  1.403029260974 	  2.864695997662 	  4.660807193833 	
H	  0.834485130974 	  2.864698807662 	 14.791363913833 	
H	  1.402998160974 	  9.048257757662 	  4.660804363833 	
H	  0.834454030974 	  9.048260567662 	 14.791361083833 	
H	 16.083856560974 	  2.864705227662 	  4.688937123833 	
H	 15.515312430974 	  2.864708037662 	 14.819493843833 	
H	 16.083825460974 	  9.048266987662 	  4.688934293833 	
H	 15.515281330974 	  9.048269797662 	 14.819491013833 	
H	 12.710393838573 	 -0.201602816473 	  0.636646319442 	
H	 12.141849708573 	 -0.201600006473 	 10.767203039442 	
H	 12.710362738573 	  5.981958943527 	  0.636643489442 	
H	 12.141818608573 	  5.981961753527 	 10.767200209442 	
H	 27.391221138573 	 -0.201593586473 	  0.664776249442 	
H	 26.822677008573 	 -0.201590776473 	 10.795332969442 	
H	 27.391190038573 	  5.981968173527 	  0.664773419442 	
H	 26.822645908573 	  5.981970983527 	 10.795330139442 	
H	 12.442910020235 	  3.276429246601 	  5.811649306686 	
H	 11.874365890235 	  3.276432056601 	 15.942206026686 	
H	 12.442878920235 	  9.459991006601 	  5.811646476686 	
H	 11.874334790235 	  9.459993816601 	 15.942203196686 	
H	 27.123737320235 	  3.276438476601 	  5.839779236686 	
H	 26.555193190235 	  3.276441286601 	 15.970335956686 	
H	 27.123706220235 	  9.460000236601 	  5.839776406686 	
H	 26.555162090235 	  9.460003046601 	 15.970333126686 	
H	  1.135545962341 	  6.342728234766 	  9.835810129937 	
H	  0.567001832341 	  6.342731044766 	 19.966366849937 	
H	  1.135514862341 	 12.526289994766 	  9.835807299937 	
H	  0.566970732341 	 12.526292804766 	 19.966364019937 	
H	 15.816373262341 	  6.342737464766 	  9.863940059937 	
H	 15.247829132341 	  6.342740274766 	 19.994496779937 	
H	 15.816342162341 	 12.526299224766 	  9.863937229937 	
H	 15.247798032341 	 12.526302034766 	 19.994493949937 	
H	  2.807312807642 	  2.038321552155 	  4.984502063961 	
H	  2.238768677642 	  2.038324362155 	 15.115058783961 	
H	  2.807281707642 	  8.221883312155 	  4.984499233961 	
H	  2.238737577642 	  8.221886122155 	 15.115055953961 	
H	 17.488140107642 	  2.038330782155 	  5.012631993961 	
H	 16.919595977642 	  2.038333592155 	 15.143188713961 	
H	 17.488109007642 	  8.221892542155 	  5.012629163961 	
H	 16.919564877642 	  8.221895352155 	 15.143185883961 	
H	 11.246071007797 	  5.116632290781 	  0.351822047644 	
H	 10.677526877797 	  5.116635100781 	 10.482378767644 	
H	 11.246039907797 	 11.300194050781 	  0.351819217644 	
H	 10.677495777797 	 11.300196860781 	 10.482375937644 	
H	 25.926898307797 	  5.116641520781 	  0.379951977644 	
H	 25.358354177797 	  5.116644330781 	 10.510508697644 	
H	 25.926867207797 	 11.300203280781 	  0.379949147644 	
H	 25.358323077797 	 11.300206090781 	 10.510505867644 	
H	 11.038625448732 	  4.102805209145 	  5.487953867748 	
H	 10.470081318732 	  4.102808019145 	 15.618510587748 	
H	 11.038594348732 	 10.286366969145 	  5.487951037748 	
H	 10.470050218732 	 10.286369779145 	 15.618507757748 	
H	 25.719452748732 	  4.102814439145 	  5.516083797748 	
H	 25.150908618732 	  4.102817249145 	 15.646640517748 	
H	 25.719421648732 	 10.286376199145 	  5.516080967748 	
H	 25.150877518732 	 10.286379009145 	 15.646637687748 	
H	  2.599869313306 	  1.024493644640 	 10.120634216290 	
H	  2.031325183306 	  1.024496454640 	 20.251190936290 	
H	  2.599838213306 	  7.208055404640 	 10.120631386290 	
H	  2.031294083306 	  7.208058214640 	 20.251188106290 	
H	 17.280696613306 	  1.024502874640 	 10.148764146290 	
H	 16.712152483306 	  1.024505684640 	 20.279320866290 	
H	 17.280665513306 	  7.208064634640 	 10.148761316290 	
H	 16.712121383306 	  7.208067444640 	 20.279318036290 	
C	  1.343659817184 	  3.523363437939 	  6.825133411558 	
C	  0.775115687184 	  3.523366247939 	 16.955690131558 	
C	  1.343628717184 	  9.706925197939 	  6.825130581558 	
C	  0.775084587184 	  9.706928007939 	 16.955687301558 	
C	 16.024487117184 	  3.523372667939 	  6.853263341558 	
C	 15.455942987184 	  3.523375477939 	 16.983820061558 	
C	 16.024456017184 	  9.706934427939 	  6.853260511558 	
C	 15.455911887184 	  9.706937237939 	 16.983817231558 	
C	 12.300518367532 	  0.506124124679 	  8.828902056920 	
C	 11.731974237532 	  0.506126934679 	 18.959458776920 	
C	 12.300487267532 	  6.689685884679 	  8.828899226920 	
C	 11.731943137532 	  6.689688694679 	 18.959455946920 	
C	 26.981345667532 	  0.506133354679 	  8.857031986920 	
C	 26.412801537532 	  0.506136164679 	 18.987588706920 	
C	 26.981314567532 	  6.689695114679 	  8.857029156920 	
C	 26.412770437532 	  6.689697924679 	 18.987585876920 	
C	 12.502280553826 	  2.617761349142 	  3.647321740635 	
C	 11.933736423826 	  2.617764159142 	 13.777878460635 	
C	 12.502249453826 	  8.801323109142 	  3.647318910635 	
C	 11.933705323826 	  8.801325919142 	 13.777875630635 	
C	 27.183107853826 	  2.617770579142 	  3.675451670635 	
C	 26.614563723826 	  2.617773389142 	 13.806008390635 	
C	 27.183076753826 	  8.801332339142 	  3.675448840635 	
C	 26.614532623826 	  8.801335149142 	 13.806005560635 	
C	  1.545421734886 	  5.635000827474 	  1.643554163501 	
C	  0.976877604886 	  5.635003637474 	 11.774110883501 	
C	  1.545390634886 	 11.818562587474 	  1.643551333501 	
C	  0.976846504886 	 11.818565397474 	 11.774108053501 	
C	 16.226249034886 	  5.635010057474 	  1.671684093501 	
C	 15.657704904886 	  5.635012867474 	 11.802240813501 	
C	 16.226217934886 	 11.818571817474 	  1.671681263501 	
C	 15.657673804886 	 11.818574627474 	 11.802237983501 	
H	  1.780432519915 	  4.545080167514 	  6.852668271594 	
H	  1.211888389915 	  4.545082977514 	 16.983224991594 	
H	  1.780401419915 	 10.728641927514 	  6.852665441594 	
H	  1.211857289915 	 10.728644737514 	 16.983222161594 	
H	 16.461259819915 	  4.545089397514 	  6.880798201594 	
H	 15.892715689915 	  4.545092207514 	 17.011354921594 	
H	 16.461228719915 	 10.728651157514 	  6.880795371594 	
H	 15.892684589915 	 10.728653967514 	 17.011352091594 	
H	 11.802342873425 	  1.488524501502 	  8.818453794698 	
H	 11.233798743425 	  1.488527311502 	 18.949010514698 	
H	 11.802311773425 	  7.672086261502 	  8.818450964698 	
H	 11.233767643425 	  7.672089071502 	 18.949007684698 	
H	 26.483170173425 	  1.488533731502 	  8.846583724698 	
H	 25.914626043425 	  1.488536541502 	 18.977140444698 	
H	 26.483139073425 	  7.672095491502 	  8.846580894698 	
H	 25.914594943425 	  7.672098301502 	 18.977137614698 	
H	 12.065507670429 	  1.596044133869 	  3.619787090936 	
H	 11.496963540429 	  1.596046943869 	 13.750343810936 	
H	 12.065476570429 	  7.779605893869 	  3.619784260936 	
H	 11.496932440429 	  7.779608703869 	 13.750340980936 	
H	 26.746334970429 	  1.596053363869 	  3.647917020936 	
H	 26.177790840429 	  1.596056173869 	 13.778473740936 	
H	 26.746303870429 	  7.779615123869 	  3.647914190936 	
H	 26.177759740429 	  7.779617933869 	 13.778470910936 	
H	  2.043597299681 	  4.652600514956 	  1.654002028841 	
H	  1.475053169681 	  4.652603324956 	 11.784558748841 	
H	  2.043566199681 	 10.836162274956 	  1.653999198841 	
H	  1.475022069681 	 10.836165084956 	 11.784555918841 	
H	 16.724424599681 	  4.652609744956 	  1.682131958841 	
H	 16.155880469681 	  4.652612554956 	 11.812688678841 	
H	 16.724393499681 	 10.836171504956 	  1.682129128841 	
H	 16.155849369681 	 10.836174314956 	 11.812685848841 	
H	  1.035683909368 	  3.692151513999 	  7.888773752233 	
H	  0.467139779368 	  3.692154323999 	 18.019330472233 	
H	  1.035652809368 	  9.875713273999 	  7.888770922233 	
H	  0.467108679368 	  9.875716083999 	 18.019327642233 	
H	 15.716511209368 	  3.692160743999 	  7.916903682233 	
H	 15.147967079368 	  3.692163553999 	 18.047460402233 	
H	 15.716480109368 	  9.875722503999 	  7.916900852233 	
H	 15.147935979368 	  9.875725313999 	 18.047457572233 	
H	 12.555427994878 	  6.738197335087 	  7.784310185511 	
H	 11.986883864878 	  6.738200145087 	 17.914866905511 	
H	 12.555396894878 	 12.921759095087 	  7.784307355511 	
H	 11.986852764878 	 12.921761905087 	 17.914864075511 	
H	 27.236255294878 	  6.738206565087 	  7.812440115511 	
H	 26.667711164878 	  6.738209375087 	 17.942996835511 	
H	 27.236224194878 	 12.921768325087 	  7.812437285511 	
H	 26.667680064878 	 12.921771135087 	 17.942994005511 	
H	 12.810257431435 	  2.448974426815 	  2.583680999141 	
H	 12.241713301435 	  2.448977236815 	 12.714237719141 	
H	 12.810226331435 	  8.632536186815 	  2.583678169141 	
H	 12.241682201435 	  8.632538996815 	 12.714234889141 	
H	 27.491084731435 	  2.448983656815 	  2.611810929141 	
H	 26.922540601435 	  2.448986466815 	 12.742367649141 	
H	 27.491053631435 	  8.632545416815 	  2.611808099141 	
H	 26.922509501435 	  8.632548226815 	 12.742364819141 	
H	  1.290512381483 	 -0.597072528609 	  2.688146177321 	
H	  0.721968251483 	 -0.597069718609 	 12.818702897321 	
H	  1.290481281483 	  5.586489231391 	  2.688143347321 	
H	  0.721937151483 	  5.586492041391 	 12.818700067321 	
H	 15.971339681483 	 -0.597063298609 	  2.716276107321 	
H	 15.402795551483 	 -0.597060488609 	 12.846832827321 	
H	 15.971308581483 	  5.586498461391 	  2.716273277321 	
H	 15.402764451483 	  5.586501271391 	 12.846829997321 	
H	  0.374964679202 	  3.699959222284 	  6.258923791118 	
H	 -0.193579450798 	  3.699962032284 	 16.389480511118 	
H	  0.374933579202 	  9.883520982284 	  6.258920961118 	
H	 -0.193610550798 	  9.883523792284 	 16.389477681118 	
H	 15.055791979202 	  3.699968452284 	  6.287053721118 	
H	 14.487247849202 	  3.699971262284 	 16.417610441118 	
H	 15.055760879202 	  9.883530212284 	  6.287050891118 	
H	 14.487216749202 	  9.883533022284 	 16.417607611118 	
H	 13.216079714549 	  6.765660309923 	  9.409549083375 	
H	 12.647535584549 	  6.765663119923 	 19.540105803375 	
H	 13.216048614549 	 12.949222069923 	  9.409546253375 	
H	 12.647504484549 	 12.949224879923 	 19.540102973375 	
H	 27.896907014549 	  6.765669539923 	  9.437679013375 	
H	 27.328362884549 	  6.765672349923 	 19.568235733375 	
H	 27.896875914549 	 12.949231299923 	  9.437676183375 	
H	 27.328331784549 	 12.949234109923 	 19.568232903375 	
H	 13.470975588823 	  2.441165813793 	  4.213531800590 	
H	 12.902431458823 	  2.441168623793 	 14.344088520590 	
H	 13.470944488823 	  8.624727573793 	  4.213528970590 	
H	 12.902400358823 	  8.624730383793 	 14.344085690590 	
H	 28.151802888823 	  2.441175043793 	  4.241661730590 	
H	 27.583258758823 	  2.441177853793 	 14.372218450590 	
H	 28.151771788823 	  8.624736803793 	  4.241658900590 	
H	 27.583227658823 	  8.624739613793 	 14.372215620590 	
H	  0.629860243079 	 -0.624535402572 	  1.062907391638 	
H	  0.061316113079 	 -0.624532592572 	 11.193464111638 	
H	  0.629829143079 	  5.559026357428 	  1.062904561638 	
H	  0.061285013079 	  5.559029167428 	 11.193461281638 	
H	 15.310687543079 	 -0.624526172572 	  1.091037321638 	
H	 14.742143413079 	 -0.624523362572 	 11.221594041638 	
H	 15.310656443079 	  5.559035587428 	  1.091034491638 	
H	 14.742112313079 	  5.559038397428 	 11.221591211638 	
C	  1.329068930611 	  1.776285261998 	  6.673215678562 	
C	  0.760524800611 	  1.776288071998 	 16.803772398562 	
C	  1.329037830611 	  7.959847021998 	  6.673212848562 	
C	  0.760493700611 	  7.959849831998 	 16.803769568562 	
C	 16.009896230611 	  1.776294491998 	  6.701345608562 	
C	 15.441352100611 	  1.776297301998 	 16.831902328562 	
C	 16.009865130611 	  7.959856251998 	  6.701342778562 	
C	 15.441321000611 	  7.959859061998 	 16.831899498562 	
C	 12.264839220403 	  4.847102947241 	  8.998176926312 	
C	 11.696295090403 	  4.847105757241 	 19.128733646312 	
C	 12.264808120403 	 11.030664707241 	  8.998174096312 	
C	 11.696263990403 	 11.030667517241 	 19.128730816312 	
C	 26.945666520403 	  4.847112177241 	  9.026306856312 	
C	 26.377122390403 	  4.847114987241 	 19.156863576312 	
C	 26.945635420403 	 11.030673937241 	  9.026304026312 	
C	 26.377091290403 	 11.030676747241 	 19.156860746312 	
C	 12.516871084754 	  4.364841384697 	  3.799239398937 	
C	 11.948326954754 	  4.364844194697 	 13.929796118937 	
C	 12.516839984754 	 10.548403144697 	  3.799236568937 	
C	 11.948295854754 	 10.548405954697 	 13.929793288937 	
C	 27.197698384754 	  4.364850614697 	  3.827369328937 	
C	 26.629154254754 	  4.364853424697 	 13.957926048937 	
C	 27.197667284754 	 10.548412374697 	  3.827366498937 	
C	 26.629123154754 	 10.548415184697 	 13.957923218937 	
C	  1.581100740002 	  1.294021994003 	  1.474279718220 	
C	  1.012556610002 	  1.294024804003 	 11.604836438220 	
C	  1.581069640002 	  7.477583754003 	  1.474276888220 	
C	  1.012525510002 	  7.477586564003 	 11.604833608220 	
C	 16.261928040002 	  1.294031224003 	  1.502409648220 	
C	 15.693383910002 	  1.294034034003 	 11.632966368220 	
C	 16.261896940002 	  7.477592984003 	  1.502406818220 	
C	 15.693352810002 	  7.477595794003 	 11.632963538220 	
H	  0.306720542351 	  1.639891151294 	  6.186751838075 	
H	 -0.261823587649 	  1.639893961294 	 16.317308558075 	
H	  0.306689442351 	  7.823452911294 	  6.186749008075 	
H	 -0.261854687649 	  7.823455721294 	 16.317305728075 	
H	 14.987547842351 	  1.639900381294 	  6.214881768075 	
H	 14.419003712351 	  1.639903191294 	 16.345438488075 	
H	 14.987516742351 	  7.823462141294 	  6.214878938075 	
H	 14.418972612351 	  7.823464951294 	 16.345435658075 	
H	 13.285818934471 	  4.710794543841 	  9.483670624708 	
H	 12.717274804471 	  4.710797353841 	 19.614227344708 	
H	 13.285787834471 	 10.894356303841 	  9.483667794708 	
H	 12.717243704471 	 10.894359113841 	 19.614224514708 	
H	 27.966646234471 	  4.710803773841 	  9.511800554708 	
H	 27.398102104471 	  4.710806583841 	 19.642357274708 	
H	 27.966615134471 	 10.894365533841 	  9.511797724708 	
H	 27.398071004471 	 10.894368343841 	 19.642354444708 	
H	 13.539219151113 	  4.501235164828 	  4.285703985519 	
H	 12.970675021113 	  4.501237974828 	 14.416260705519 	
H	 13.539188051113 	 10.684796924828 	  4.285701155519 	
H	 12.970643921113 	 10.684799734828 	 14.416257875519 	
H	 28.220046451113 	  4.501244394828 	  4.313833915519 	
H	 27.651502321113 	  4.501247204828 	 14.444390635519 	
H	 28.220015351113 	 10.684806154828 	  4.313831085519 	
H	 27.651471221113 	 10.684808964828 	 14.444387805519 	
H	  0.560120966694 	  1.430330339932 	  0.988786165048 	
H	 -0.008423163306 	  1.430333149932 	 11.119342885048 	
H	  0.560089866694 	  7.613892099932 	  0.988783335048 	
H	 -0.008454263306 	  7.613894909932 	 11.119340055048 	
H	 15.240948266694 	  1.430339569932 	  1.016916095048 	
H	 14.672404136694 	  1.430342379932 	 11.147472815048 	
H	 15.240917166694 	  7.613901329932 	  1.016913265048 	
H	 14.672373036694 	  7.613904139932 	 11.147469985048 	
H	  1.103827525210 	  1.408407457663 	  7.695680049098 	
H	  0.535283395210 	  1.408410267663 	 17.826236769098 	
H	  1.103796425210 	  7.591969217663 	  7.695677219098 	
H	  0.535252295210 	  7.591972027663 	 17.826233939098 	
H	 15.784654825210 	  1.408416687663 	  7.723809979098 	
H	 15.216110695210 	  1.408419497663 	 17.854366699098 	
H	 15.784623725210 	  7.591978447663 	  7.723807149098 	
H	 15.216079595210 	  7.591981257663 	 17.854363869098 	
H	 12.488745610943 	  4.479517553788 	  7.974813054480 	
H	 11.920201480943 	  4.479520363788 	 18.105369774480 	
H	 12.488714510943 	 10.663079313788 	  7.974810224480 	
H	 11.920170380943 	 10.663082123788 	 18.105366944480 	
H	 27.169572910943 	  4.479526783788 	  8.002942984480 	
H	 26.601028780943 	  4.479529593788 	 18.133499704480 	
H	 27.169541810943 	 10.663088543788 	  8.002940154480 	
H	 26.600997680943 	 10.663091353788 	 18.133496874480 	
H	 12.742112429684 	  4.732718718918 	  2.776774524907 	
H	 12.173568299684 	  4.732721528918 	 12.907331244907 	
H	 12.742081329684 	 10.916280478918 	  2.776771694907 	
H	 12.173537199684 	 10.916283288918 	 12.907328414907 	
H	 27.422939729684 	  4.732727948918 	  2.804904454907 	
H	 26.854395599684 	  4.732730758918 	 12.935461174907 	
H	 27.422908629684 	 10.916289708918 	  2.804901624907 	
H	 26.854364499684 	 10.916292518918 	 12.935458344907 	
H	  1.357194404964 	  1.661607221371 	  2.497643581294 	
H	  0.788650274964 	  1.661610031371 	 12.628200301294 	
H	  1.357163304964 	  7.845168981371 	  2.497640751294 	
H	  0.788619174964 	  7.845171791371 	 12.628197471294 	
H	 16.038021704964 	  1.661616451371 	  2.525773511294 	
H	 15.469477574964 	  1.661619261371 	 12.656330231294 	
H	 16.037990604964 	  7.845178211371 	  2.525770681294 	
H	 15.469446474964 	  7.845181021371 	 12.656327401294 	
H	  1.709354610313 	  0.768731071033 	  6.516828687335 	
H	  1.140810480313 	  0.768733881033 	 16.647385407335 	
H	  1.709323510313 	  6.952292831033 	  6.516825857335 	
H	  1.140779380313 	  6.952295641033 	 16.647382577335 	
H	 16.390181910313 	  0.768740301033 	  6.544958617335 	
H	 15.821637780313 	  0.768743111033 	 16.675515337335 	
H	 16.390150810313 	  6.952302061033 	  6.544955787335 	
H	 15.821606680313 	  6.952304871033 	 16.675512507335 	
H	 11.883141950807 	  3.840077867157 	  9.153450117326 	
H	 11.314597820807 	  3.840080677157 	 19.284006837326 	
H	 11.883110850807 	 10.023639627157 	  9.153447287326 	
H	 11.314566720807 	 10.023642437157 	 19.284004007326 	
H	 26.563969250807 	  3.840087097157 	  9.181580047326 	
H	 25.995425120807 	  3.840089907157 	 19.312136767326 	
H	 26.563938150807 	 10.023648857157 	  9.181577217326 	
H	 25.995394020807 	 10.023651667157 	 19.312133937326 	
H	 12.136583383721 	  5.372395451018 	  3.955629185813 	
H	 11.568039253721 	  5.372398261018 	 14.086185905813 	
H	 12.136552283721 	 11.555957211018 	  3.955626355813 	
H	 11.568008153721 	 11.555960021018 	 14.086183075813 	
H	 26.817410683721 	  5.372404681018 	  3.983759115813 	
H	 26.248866553721 	  5.372407491018 	 14.114315835813 	
H	 26.817379583721 	 11.555966441018 	  3.983756285813 	
H	 26.248835453721 	 11.555969251018 	 14.114313005813 	
H	  1.962797876704 	  2.301047177022 	  1.319007016365 	
H	  1.394253746704 	  2.301049987022 	 11.449563736365 	
H	  1.962766776704 	  8.484608937022 	  1.319004186365 	
H	  1.394222646704 	  8.484611747022 	 11.449560906365 	
H	 16.643625176704 	  2.301056407022 	  1.347136946365 	
H	 16.075081046704 	  2.301059217022 	 11.477693666365 	
H	 16.643594076704 	  8.484618167022 	  1.347134116365 	
H	 16.075049946704 	  8.484620977022 	 11.477690836365 	
768 
Energy: -9.5783251417689996e+01 
S	  8.492648725212 	  1.472396695434 	  0.096237653919 	
S	  7.924104595212 	  1.472399505434 	 10.226794373919 	
S	  8.492617625212 	  7.655958455434 	  0.096234823919 	
S	  7.924073495212 	  7.655961265434 	 10.226791543919 	
S	 23.173476025212 	  1.472405925434 	  0.124367583919 	
S	 22.604931895212 	  1.472408735434 	 10.254924303919 	
S	 23.173444925212 	  7.655967685434 	  0.124364753919 	
S	 22.604900795212 	  7.655970495434 	 10.254921473919 	
S	  5.543438938254 	  4.537816467662 	  5.216319085490 	
S	  4.974894808254 	  4.537819277662 	 15.346875805490 	
S	  5.543407838254 	 10.721378227662 	  5.216316255490 	
S	  4.974863708254 	 10.721381037662 	 15.346872975490 	
S	 20.224266238254 	  4.537825697662 	  5.244449015490 	
S	 19.655722108254 	  4.537828507662 	 15.375005735490 	
S	 20.224235138254 	 10.721387457662 	  5.244446185490 	
S	 19.655691008254 	 10.721390267662 	 15.375002905490 	
S	  5.297616657497 	  4.659853826411 	 10.441814732443 	
S	  4.729072527497 	  4.659856636411 	 20.572371452443 	
S	  5.297585557497 	 10.843415586411 	 10.441811902443 	
S	  4.729041427497 	 10.843418396411 	 20.572368622443 	
S	 19.978443957497 	  4.659863056411 	 10.469944662443 	
S	 19.409899827497 	  4.659865866411 	 20.600501382443 	
S	 19.978412857497 	 10.843424816411 	 10.469941832443 	
S	 19.409868727497 	 10.843427626411 	 20.600498552443 	
S	  8.246827427615 	  1.594434323443 	  5.321733153068 	
S	  7.678283297615 	  1.594437133443 	 15.452289873068 	
S	  8.246796327615 	  7.777996083443 	  5.321730323068 	
S	  7.678252197615 	  7.777998893443 	 15.452287043068 	
S	 22.927654727615 	  1.594443553443 	  5.349863083068 	
S	 22.359110597615 	  1.594446363443 	 15.480419803068 	
S	 22.927623627615 	  7.778005313443 	  5.349860253068 	
S	 22.359079497615 	  7.778008123443 	 15.480416973068 	
C	  6.631003601718 	  2.531138257653 	 10.125087176476 	
C	  6.062459471718 	  2.531141067653 	 20.255643896476 	
C	  6.630972501718 	  8.714700017653 	 10.125084346476 	
C	  6.062428371718 	  8.714702827653 	 20.255641066476 	
C	 21.311830901718 	  2.531147487653 	 10.153217106476 	
C	 20.743286771718 	  2.531150297653 	 20.283773826476 	
C	 21.311799801718 	  8.714709247653 	 10.153214276476 	
C	 20.743255671718 	  8.714712057653 	 20.283770996476 	
C	  6.912329339722 	  5.590229124483 	  5.641304256572 	
C	  6.343785209722 	  5.590231934483 	 15.771860976572 	
C	  6.912298239722 	 11.773790884483 	  5.641301426572 	
C	  6.343754109722 	 11.773793694483 	 15.771858146572 	
C	 21.593156639722 	  5.590238354483 	  5.669434186572 	
C	 21.024612509722 	  5.590241164483 	 15.799990906572 	
C	 21.593125539722 	 11.773800114483 	  5.669431356572 	
C	 21.024581409722 	 11.773802924483 	 15.799988076572 	
C	  7.159261796314 	  3.601112238151 	  0.412965104149 	
C	  6.590717666314 	  3.601115048151 	 10.543521824149 	
C	  7.159230696314 	  9.784673998151 	  0.412962274149 	
C	  6.590686566314 	  9.784676808151 	 10.543518994149 	
C	 21.840089096314 	  3.601121468151 	  0.441095034149 	
C	 21.271544966314 	  3.601124278151 	 10.571651754149 	
C	 21.840057996314 	  9.784683228151 	  0.441092204149 	
C	 21.271513866314 	  9.784686038151 	 10.571648924149 	
C	  6.877936879059 	  0.542021745764 	  4.896747870966 	
C	  6.309392749059 	  0.542024555764 	 15.027304590966 	
C	  6.877905779059 	  6.725583505764 	  4.896745040966 	
C	  6.309361649059 	  6.725586315764 	 15.027301760966 	
C	 21.558764179059 	  0.542030975764 	  4.924877800966 	
C	 20.990220049059 	  0.542033785764 	 15.055434520966 	
C	 21.558733079059 	  6.725592735764 	  4.924874970966 	
C	 20.990188949059 	  6.725595545764 	 15.055431690966 	
C	  5.592208782498 	  2.374405706582 	  9.167042355352 	
C	  5.023664652498 	  2.374408516582 	 19.297599075352 	
C	  5.592177682498 	  8.557967466582 	  9.167039525352 	
C	  5.023633552498 	  8.557970276582 	 19.297596245352 	
C	 20.273036082498 	  2.374414936582 	  9.195172285352 	
C	 19.704491952498 	  2.374417746582 	 19.325729005352 	
C	 20.273004982498 	  8.557976696582 	  9.195169455352 	
C	 19.704460852498 	  8.557979506582 	 19.325726175352 	
C	  7.955269087649 	  5.442332624778 	  6.596106429374 	
C	  7.386724957649 	  5.442335434778 	 16.726663149374 	
C	  7.955237987649 	 11.625894384778 	  6.596103599374 	
C	  7.386693857649 	 11.625897194778 	 16.726660319374 	
C	 22.636096387649 	  5.442341854778 	  6.624236359374 	
C	 22.067552257649 	  5.442344664778 	 16.754793079374 	
C	 22.636065287649 	 11.625903614778 	  6.624233529374 	
C	 22.067521157649 	 11.625906424778 	 16.754790249374 	
C	  8.198056524570 	  3.757844849396 	  1.371009854197 	
C	  7.629512394570 	  3.757847659396 	 11.501566574197 	
C	  8.198025424570 	  9.941406609396 	  1.371007024197 	
C	  7.629481294570 	  9.941409419396 	 11.501563744197 	
C	 22.878883824570 	  3.757854079396 	  1.399139784197 	
C	 22.310339694570 	  3.757856889396 	 11.529696504197 	
C	 22.878852724570 	  9.941415839396 	  1.399136954197 	
C	 22.310308594570 	  9.941418649396 	 11.529693674197 	
C	  5.834996964924 	  0.689918253450 	  3.941945818250 	
C	  5.266452834924 	  0.689921063450 	 14.072502538250 	
C	  5.834965864924 	  6.873480013450 	  3.941942988250 	
C	  5.266421734924 	  6.873482823450 	 14.072499708250 	
C	 20.515824264924 	  0.689927483450 	  3.970075748250 	
C	 19.947280134924 	  0.689930293450 	 14.100632468250 	
C	 20.515793164924 	  6.873489243450 	  3.970072918250 	
C	 19.947249034924 	  6.873492053450 	 14.100629638250 	
C	  4.736928847745 	  3.470804559064 	  9.206127324922 	
C	  4.168384717745 	  3.470807369064 	 19.336684044922 	
C	  4.736897747745 	  9.654366319064 	  9.206124494922 	
C	  4.168353617745 	  9.654369129064 	 19.336681214922 	
C	 19.417756147745 	  3.470813789064 	  9.234257254922 	
C	 18.849212017745 	  3.470816599064 	 19.364813974922 	
C	 19.417725047745 	  9.654375549064 	  9.234254424922 	
C	 18.849180917745 	  9.654378359064 	 19.364811144922 	
C	  8.802900483618 	  0.402582432041 	  6.557772452089 	
C	  8.234356353618 	  0.402585242041 	 16.688329172089 	
C	  8.802869383618 	  6.586144192041 	  6.557769622089 	
C	  8.234325253618 	  6.586147002041 	 16.688326342089 	
C	 23.483727783618 	  0.402591662041 	  6.585902382089 	
C	 22.915183653618 	  0.402594472041 	 16.716459102089 	
C	 23.483696683618 	  6.586153422041 	  6.585899552089 	
C	 22.915152553618 	  6.586156232041 	 16.716456272089 	
C	  9.053336451401 	  2.661445991948 	  1.331924932531 	
C	  8.484792321401 	  2.661448801948 	 11.462481652531 	
C	  9.053305351401 	  8.845007751948 	  1.331922102531 	
C	  8.484761221401 	  8.845010561948 	 11.462478822531 	
C	 23.734163751401 	  2.661455221948 	  1.360054862531 	
C	 23.165619621401 	  2.661458031948 	 11.490611582531 	
C	 23.734132651401 	  8.845016981948 	  1.360052032531 	
C	 23.165588521401 	  8.845019791948 	 11.490608752531 	
C	  4.987365649374 	  5.729668429053 	  3.980279931442 	
C	  4.418821519374 	  5.729671239053 	 14.110836651442 	
C	  4.987334549374 	 11.913230189053 	  3.980277101442 	
C	  4.418790419374 	 11.913232999053 	 14.110833821442 	
C	 19.668192949374 	  5.729677659053 	  4.008409861442 	
C	 19.099648819374 	  5.729680469053 	 14.138966581442 	
C	 19.668161849374 	 11.913239419053 	  4.008407031442 	
C	 19.099617719374 	 11.913242229053 	 14.138963751442 	
C	  3.666490539402 	  3.563977278225 	  8.424881711002 	
C	  3.097946409402 	  3.563980088225 	 18.555438431002 	
C	  3.666459439402 	  9.747539038225 	  8.424878881002 	
C	  3.097915309402 	  9.747541848225 	 18.555435601002 	
C	 18.347317839402 	  3.563986508225 	  8.453011641002 	
C	 17.778773709402 	  3.563989318225 	 18.583568361002 	
C	 18.347286739402 	  9.747548268225 	  8.453008811002 	
C	 17.778742609402 	  9.747551078225 	 18.583565531002 	
C	  9.877257892831 	  0.498042911233 	  7.340561331781 	
C	  9.308713762831 	  0.498045721233 	 17.471118051781 	
C	  9.877226792831 	  6.681604671233 	  7.340558501781 	
C	  9.308682662831 	  6.681607481233 	 17.471115221781 	
C	 24.558085192831 	  0.498052141233 	  7.368691261781 	
C	 23.989541062831 	  0.498054951233 	 17.499247981781 	
C	 24.558054092831 	  6.681613901233 	  7.368688431781 	
C	 23.989509962831 	  6.681616711233 	 17.499245151781 	
C	 10.123774768146 	  2.568273406766 	  2.113170731384 	
C	  9.555230638146 	  2.568276216766 	 12.243727451384 	
C	 10.123743668146 	  8.751835166766 	  2.113167901384 	
C	  9.555199538146 	  8.751837976766 	 12.243724621384 	
C	 24.804602068146 	  2.568282636766 	  2.141300661384 	
C	 24.236057938146 	  2.568285446766 	 12.271857381384 	
C	 24.804570968146 	  8.751844396766 	  2.141297831384 	
C	 24.236026838146 	  8.751847206766 	 12.271854551384 	
C	  3.913007924364 	  5.634207993568 	  3.197491364072 	
C	  3.344463794364 	  5.634210803568 	 13.328048084072 	
C	  3.912976824364 	 11.817769753568 	  3.197488534072 	
C	  3.344432694364 	 11.817772563568 	 13.328045254072 	
C	 18.593835224364 	  5.634217223568 	  3.225621294072 	
C	 18.025291094364 	  5.634220033568 	 13.356178014072 	
C	 18.593804124364 	 11.817778983568 	  3.225618464072 	
C	 18.025259994364 	 11.817781793568 	 13.356175184072 	
H	  3.000242893713 	  4.506082175708 	  8.503901356906 	
H	  2.431698763713 	  4.506084985708 	 18.634458076906 	
H	  3.000211793713 	 10.689643935708 	  8.503898526906 	
H	  2.431667663713 	 10.689646745708 	 18.634455246906 	
H	 17.681070193713 	  4.506091405708 	  8.532031286906 	
H	 17.112526063713 	  4.506094215708 	 18.662588006906 	
H	 17.681039093713 	 10.689653165708 	  8.532028456906 	
H	 17.112494963713 	 10.689655975708 	 18.662585176906 	
H	 10.543521198089 	  1.439699876787 	  7.259690386633 	
H	  9.974977068089 	  1.439702686787 	 17.390247106633 	
H	 10.543490098089 	  7.623261636787 	  7.259687556633 	
H	  9.974945968089 	  7.623264446787 	 17.390244276633 	
H	 25.224348498089 	  1.439709106787 	  7.287820316633 	
H	 24.655804368089 	  1.439711916787 	 17.418377036633 	
H	 25.224317398089 	  7.623270866787 	  7.287817486633 	
H	 24.655773268089 	  7.623273676787 	 17.418374206633 	
H	 10.790022350320 	  1.626168429094 	  2.034151194530 	
H	 10.221478220320 	  1.626171239094 	 12.164707914530 	
H	 10.789991250320 	  7.809730189094 	  2.034148364530 	
H	 10.221447120320 	  7.809732999094 	 12.164705084530 	
H	 25.470849650320 	  1.626177659094 	  2.062281124530 	
H	 24.902305520320 	  1.626180469094 	 12.192837844530 	
H	 25.470818550320 	  7.809739419094 	  2.062278294530 	
H	 24.902274420320 	  7.809742229094 	 12.192835014530 	
H	  3.246744750725 	  4.692550943613 	  3.278362448024 	
H	  2.678200620725 	  4.692553753613 	 13.408919168024 	
H	  3.246713650725 	 10.876112703613 	  3.278359618024 	
H	  2.678169520725 	 10.876115513613 	 13.408916338024 	
H	 17.927572050725 	  4.692560173613 	  3.306492378024 	
H	 17.359027920725 	  4.692562983613 	 13.437049098024 	
H	 17.927540950725 	 10.876121933613 	  3.306489548024 	
H	 17.358996820725 	 10.876124743613 	 13.437046268024 	
C	  3.333224458098 	  2.604161051532 	  7.542616137914 	
C	  2.764680328098 	  2.604163861532 	 17.673172857914 	
C	  3.333193358098 	  8.787722811532 	  7.542613307914 	
C	  2.764649228098 	  8.787725621532 	 17.673170027914 	
C	 18.014051758098 	  2.604170281532 	  7.570746067914 	
C	 17.445507628098 	  2.604173091532 	 17.701302787914 	
C	 18.014020658098 	  8.787732041532 	  7.570743237914 	
C	 17.445476528098 	  8.787734851532 	 17.701299957914 	
C	 10.210189971891 	  5.669632202797 	  8.218798271877 	
C	  9.641645841891 	  5.669635012797 	 18.349354991877 	
C	 10.210158871891 	 11.853193962797 	  8.218795441877 	
C	  9.641614741891 	 11.853196772797 	 18.349352161877 	
C	 24.891017271891 	  5.669641432797 	  8.246928201877 	
C	 24.322473141891 	  5.669644242797 	 18.377484921877 	
C	 24.890986171891 	 11.853203192797 	  8.246925371877 	
C	 24.322442041891 	 11.853206002797 	 18.377482091877 	
C	 10.457040691576 	  3.528089685014 	  2.995436093312 	
C	  9.888496561576 	  3.528092495014 	 13.125992813312 	
C	 10.457009591576 	  9.711651445014 	  2.995433263312 	
C	  9.888465461576 	  9.711654255014 	 13.125989983312 	
C	 25.137867991576 	  3.528098915014 	  3.023566023312 	
C	 24.569323861576 	  3.528101725014 	 13.154122743312 	
C	 25.137836891576 	  9.711660675014 	  3.023563193312 	
C	 24.569292761576 	  9.711663485014 	 13.154119913312 	
C	  3.580075621144 	  0.462618738535 	  2.319254565642 	
C	  3.011531491144 	  0.462621548535 	 12.449811285642 	
C	  3.580044521144 	  6.646180498535 	  2.319251735642 	
C	  3.011500391144 	  6.646183308535 	 12.449808455642 	
C	 18.260902921144 	  0.462627968535 	  2.347384495642 	
C	 17.692358791144 	  0.462630778535 	 12.477941215642 	
C	 18.260871821144 	  6.646189728535 	  2.347381665642 	
C	 17.692327691144 	  6.646192538535 	 12.477938385642 	
C	  4.197012965269 	  1.536653785019 	  7.487614539139 	
C	  3.628468835269 	  1.536656595019 	 17.618171259139 	
C	  4.196981865269 	  7.720215545019 	  7.487611709139 	
C	  3.628437735269 	  7.720218355019 	 17.618168429139 	
C	 18.877840265269 	  1.536663015019 	  7.515744469139 	
C	 18.309296135269 	  1.536665825019 	 17.646301189139 	
C	 18.877809165269 	  7.720224775019 	  7.515741639139 	
C	 18.309265035269 	  7.720227585019 	 17.646298359139 	
C	  9.346886622097 	  4.603304881895 	  8.275576485907 	
C	  8.778342492097 	  4.603307691895 	 18.406133205907 	
C	  9.346855522097 	 10.786866641895 	  8.275573655907 	
C	  8.778311392097 	 10.786869451895 	 18.406130375907 	
C	 24.027713922097 	  4.603314111895 	  8.303706415907 	
C	 23.459169792097 	  4.603316921895 	 18.434263135907 	
C	 24.027682822097 	 10.786875871895 	  8.303703585907 	
C	 23.459138692097 	 10.786878681895 	 18.434260305907 	
C	  9.593252226166 	  4.595596970709 	  3.050437643688 	
C	  9.024708096166 	  4.595599780709 	 13.180994363688 	
C	  9.593221126166 	 10.779158730709 	  3.050434813688 	
C	  9.024676996166 	 10.779161540709 	 13.180991533688 	
C	 24.274079526166 	  4.595606200709 	  3.078567573688 	
C	 23.705535396166 	  4.595609010709 	 13.209124293688 	
C	 24.274048426166 	 10.779167960709 	  3.078564743688 	
C	 23.705504296166 	 10.779170770709 	 13.209121463688 	
C	  4.443378886870 	  1.528945992327 	  2.262476118206 	
C	  3.874834756870 	  1.528948802327 	 12.393032838206 	
C	  4.443347786870 	  7.712507752327 	  2.262473288206 	
C	  3.874803656870 	  7.712510562327 	 12.393030008206 	
C	 19.124206186870 	  1.528955222327 	  2.290606048206 	
C	 18.555662056870 	  1.528958032327 	 12.421162768206 	
C	 19.124175086870 	  7.712516982327 	  2.290603218206 	
C	 18.555630956870 	  7.712519792327 	 12.421159938206 	
H	  3.970870798895 	  0.701167333610 	  6.723910945687 	
H	  3.402326668895 	  0.701170143610 	 16.854467665687 	
H	  3.970839698895 	  6.884729093610 	  6.723908115687 	
H	  3.402295568895 	  6.884731903610 	 16.854464835687 	
H	 18.651698098895 	  0.701176563610 	  6.752040875687 	
H	 18.083153968895 	  0.701179373610 	 16.882597595687 	
H	 18.651666998895 	  6.884738323610 	  6.752038045687 	
H	 18.083122868895 	  6.884741133610 	 16.882594765687 	
H	  9.572627615212 	  3.767564659456 	  9.039547148227 	
H	  9.004083485212 	  3.767567469456 	 19.170103868227 	
H	  9.572596515212 	  9.951126419456 	  9.039544318227 	
H	  9.004052385212 	  9.951129229456 	 19.170101038227 	
H	 24.253454915212 	  3.767573889456 	  9.067677078227 	
H	 23.684910785212 	  3.767576699456 	 19.198233798227 	
H	 24.253423815212 	  9.951135649456 	  9.067674248227 	
H	 23.684879685212 	  9.951138459456 	 19.198230968227 	
H	  9.819394480997 	  5.431083521434 	  3.814141107430 	
H	  9.250850350997 	  5.431086331434 	 13.944697827430 	
H	  9.819363380997 	 11.614645281434 	  3.814138277430 	
H	  9.250819250997 	 11.614648091434 	 13.944694997430 	
H	 24.500221780997 	  5.431092751434 	  3.842271037430 	
H	 23.931677650997 	  5.431095561434 	 13.972827757430 	
H	 24.500190680997 	 11.614654511434 	  3.842268207430 	
H	 23.931646550997 	 11.614657321434 	 13.972824927430 	
H	  4.217637658455 	  2.364686314401 	  1.498505623262 	
H	  3.649093528455 	  2.364689124401 	 11.629062343262 	
H	  4.217606558455 	  8.548248074401 	  1.498502793262 	
H	  3.649062428455 	  8.548250884401 	 11.629059513262 	
H	 18.898464958455 	  2.364695544401 	  1.526635553262 	
H	 18.329920828455 	  2.364698354401 	 11.657192273262 	
H	 18.898433858455 	  8.548257304401 	  1.526632723262 	
H	 18.329889728455 	  8.548260114401 	 11.657189443262 	
C	  5.250165408823 	  1.420988818724 	  8.236387637611 	
C	  4.681621278823 	  1.420991628724 	 18.366944357611 	
C	  5.250134308823 	  7.604550578724 	  8.236384807611 	
C	  4.681590178823 	  7.604553388724 	 18.366941527611 	
C	 19.930992708823 	  1.420998048724 	  8.264517567611 	
C	 19.362448578823 	  1.421000858724 	 18.395074287611 	
C	 19.930961608823 	  7.604559808724 	  8.264514737611 	
C	 19.362417478823 	  7.604562618724 	 18.395071457611 	
C	  8.293489220320 	  4.487493218725 	  7.526651894041 	
C	  7.724945090320 	  4.487496028725 	 17.657208614041 	
C	  8.293458120320 	 10.671054978725 	  7.526649064041 	
C	  7.724913990320 	 10.671057788725 	 17.657205784041 	
C	 22.974316520320 	  4.487502448725 	  7.554781824041 	
C	 22.405772390320 	  4.487505258725 	 17.685338544041 	
C	 22.974285420320 	 10.671064208725 	  7.554778994041 	
C	 22.405741290320 	 10.671067018725 	 17.685335714041 	
C	  8.540099839374 	  4.711261852793 	  2.301664462925 	
C	  7.971555709374 	  4.711264662793 	 12.432221182925 	
C	  8.540068739374 	 10.894823612793 	  2.301661632925 	
C	  7.971524609374 	 10.894826422793 	 12.432218352925 	
C	 23.220927139374 	  4.711271082793 	  2.329794392925 	
C	 22.652383009374 	  4.711273892793 	 12.460351112925 	
C	 23.220896039374 	 10.894832842793 	  2.329791562925 	
C	 22.652351909374 	 10.894835652793 	 12.460348282925 	
C	  5.496776559168 	  1.644757684992 	  3.011400484286 	
C	  4.928232429168 	  1.644760494992 	 13.141957204286 	
C	  5.496745459168 	  7.828319444992 	  3.011397654286 	
C	  4.928201329168 	  7.828322254992 	 13.141954374286 	
C	 20.177603859168 	  1.644766914992 	  3.039530414286 	
C	 19.609059729168 	  1.644769724992 	 13.170087134286 	
C	 20.177572759168 	  7.828328674992 	  3.039527584286 	
C	 19.609028629168 	  7.828331484992 	 13.170084304286 	
H	  5.938504274273 	  0.497641033834 	  8.142186860263 	
H	  5.369960144273 	  0.497643843834 	 18.272743580263 	
H	  5.938473174273 	  6.681202793834 	  8.142184030263 	
H	  5.369929044273 	  6.681205603834 	 18.272740750263 	
H	 20.619331574273 	  0.497650263834 	  8.170316790263 	
H	 20.050787444273 	  0.497653073834 	 18.300873510263 	
H	 20.619300474273 	  6.681212023834 	  8.170313960263 	
H	 20.050756344273 	  6.681214833834 	 18.300870680263 	
H	  7.605073921127 	  3.563837621258 	  7.621134469737 	
H	  7.036529791127 	  3.563840431258 	 17.751691189737 	
H	  7.605042821127 	  9.747399381258 	  7.621131639737 	
H	  7.036498691127 	  9.747402191258 	 17.751688359737 	
H	 22.285901221127 	  3.563846851258 	  7.649264399737 	
H	 21.717357091127 	  3.563849661258 	 17.779821119737 	
H	 22.285870121127 	  9.747408611258 	  7.649261569737 	
H	 21.717325991127 	  9.747411421258 	 17.779818289737 	
H	  7.851760936236 	  5.634609613558 	  2.395865097570 	
H	  7.283216806236 	  5.634612423558 	 12.526421817570 	
H	  7.851729836236 	 11.818171373558 	  2.395862267570 	
H	  7.283185706236 	 11.818174183558 	 12.526418987570 	
H	 22.532588236236 	  5.634618843558 	  2.423995027570 	
H	 21.964044106236 	  5.634621653558 	 12.554551747570 	
H	 22.532557136236 	 11.818180603558 	  2.423992197570 	
H	 21.964013006236 	 11.818183413558 	 12.554548917570 	
H	  6.185191825620 	  2.568413276023 	  2.916917776519 	
H	  5.616647695620 	  2.568416086023 	 13.047474496519 	
H	  6.185160725620 	  8.751975036023 	  2.916914946519 	
H	  5.616616595620 	  8.751977846023 	 13.047471666519 	
H	 20.866019125620 	  2.568422506023 	  2.945047706519 	
H	 20.297474995620 	  2.568425316023 	 13.075604426519 	
H	 20.865988025620 	  8.751984266023 	  2.945044876519 	
H	 20.297443895620 	  8.751987076023 	 13.075601596519 	
C	  1.999764088918 	  2.702259922311 	  6.625545441238 	
C	  1.431219958918 	  2.702262732311 	 16.756102161238 	
C	  1.999732988918 	  8.885821682311 	  6.625542611238 	
C	  1.431188858918 	  8.885824492311 	 16.756099331238 	
C	 16.680591388918 	  2.702269152311 	  6.653675371238 	
C	 16.112047258918 	  2.702271962311 	 16.784232091238 	
C	 16.680560288918 	  8.885830912311 	  6.653672541238 	
C	 16.112016158918 	  8.885833722311 	 16.784229261238 	
C	 11.505379813361 	  5.727483675966 	  9.121136116048 	
C	 10.936835683361 	  5.727486485966 	 19.251692836048 	
C	 11.505348713361 	 11.911045435966 	  9.121133286048 	
C	 10.936804583361 	 11.911048245966 	 19.251690006048 	
C	 26.186207113361 	  5.727492905966 	  9.149266046048 	
C	 25.617662983361 	  5.727495715966 	 19.279822766048 	
C	 26.186176013361 	 11.911054665966 	  9.149263216048 	
C	 25.617631883361 	 11.911057475966 	 19.279819936048 	
C	 11.790501498263 	  3.429991274732 	  3.912507750933 	
C	 11.221957368263 	  3.429994084732 	 14.043064470933 	
C	 11.790470398263 	  9.613553034732 	  3.912504920933 	
C	 11.221926268263 	  9.613555844732 	 14.043061640933 	
C	 26.471328798263 	  3.430000504732 	  3.940637680933 	
C	 25.902784668263 	  3.430003314732 	 14.071194400933 	
C	 26.471297698263 	  9.613562264732 	  3.940634850933 	
C	 25.902753568263 	  9.613565074732 	 14.071191570933 	
C	  2.284885473055 	  0.404767163540 	  1.416916949032 	
C	  1.716341343055 	  0.404769973540 	 11.547473669032 	
C	  2.284854373055 	  6.588328923540 	  1.416914119032 	
C	  1.716310243055 	  6.588331733540 	 11.547470839032 	
C	 16.965712773055 	  0.404776393540 	  1.445046879032 	
C	 16.397168643055 	  0.404779203540 	 11.575603599032 	
C	 16.965681673055 	  6.588338153540 	  1.445044049032 	
C	 16.397137543055 	  6.588340963540 	 11.575600769032 	
C	  2.164171453508 	  2.681167570855 	  5.535814224401 	
C	  1.595627323508 	  2.681170380855 	 15.666370944401 	
C	  2.164140353508 	  8.864729330855 	  5.535811394401 	
C	  1.595596223508 	  8.864732140855 	 15.666368114401 	
C	 16.844998753508 	  2.681176800855 	  5.563944154401 	
C	 16.276454623508 	  2.681179610855 	 15.694500874401 	
C	 16.844967653508 	  8.864738560855 	  5.563941324401 	
C	 16.276423523508 	  8.864741370855 	 15.694498044401 	
C	 11.398999290260 	 -0.402041412764 	 10.169726836419 	
C	 10.830455160260 	 -0.402038602764 	 20.300283556419 	
C	 11.398968190260 	  5.781520347236 	 10.169724006419 	
C	 10.830424060260 	  5.781523157236 	 20.300280726419 	
C	 26.079826590260 	 -0.402032182764 	 10.197856766419 	
C	 25.511282460260 	 -0.402029372764 	 20.328413486419 	
C	 26.079795490260 	  5.781529577236 	 10.197853936419 	
C	 25.511251360260 	  5.781532387236 	 20.328410656419 	
C	 11.626092801558 	  3.451083040775 	  5.002239633592 	
C	 11.057548671558 	  3.451085850775 	 15.132796353592 	
C	 11.626061701558 	  9.634644800775 	  5.002236803592 	
C	 11.057517571558 	  9.634647610775 	 15.132793523592 	
C	 26.306920101558 	  3.451092270775 	  5.030369563592 	
C	 25.738375971558 	  3.451095080775 	 15.160926283592 	
C	 26.306889001558 	  9.634654030775 	  5.030366733592 	
C	 25.738344871558 	  9.634656840775 	 15.160923453592 	
C	  2.391265652033 	  6.534291995577 	  0.368326409263 	
C	  1.822721522033 	  6.534294805577 	 10.498883129263 	
C	  2.391234552033 	 12.717853755577 	  0.368323579263 	
C	  1.822690422033 	 12.717856565577 	 10.498880299263 	
C	 17.072092952033 	  6.534301225577 	  0.396456339263 	
C	 16.503548822033 	  6.534304035577 	 10.527013059263 	
C	 17.072061852033 	 12.717862985577 	  0.396453509263 	
C	 16.503517722033 	 12.717865795577 	 10.527010229263 	
H	  2.959026323635 	  3.266674517565 	  5.085659693695 	
H	  2.390482193635 	  3.266677327565 	 15.216216413695 	
H	  2.958995223635 	  9.450236277565 	  5.085656863695 	
H	  2.390451093635 	  9.450239087565 	 15.216213583695 	
H	 17.639853623635 	  3.266683747565 	  5.113789623695 	
H	 17.071309493635 	  3.266686557565 	 15.244346343695 	
H	 17.639822523635 	  9.450245507565 	  5.113786793695 	
H	 17.071278393635 	  9.450248317565 	 15.244343513695 	
H	 10.605777484282 	  0.195494534820 	 10.665390302095 	
H	 10.037233354282 	  0.195497344820 	 20.795947022095 	
H	 10.605746384282 	  6.379056294820 	 10.665387472095 	
H	 10.037202254282 	  6.379059104820 	 20.795944192095 	
H	 25.286604784282 	  0.195503764820 	 10.693520232095 	
H	 24.718060654282 	  0.195506574820 	 20.824076952095 	
H	 25.286573684282 	  6.379065524820 	 10.693517402095 	
H	 24.718029554282 	  6.379068334820 	 20.824074122095 	
H	 10.831237919724 	  2.865572500074 	  5.452392098237 	
H	 10.262693789724 	  2.865575310074 	 15.582948818237 	
H	 10.831206819724 	  9.049134260074 	  5.452389268237 	
H	 10.262662689724 	  9.049137070074 	 15.582945988237 	
H	 25.512065219724 	  2.865581730074 	  5.480522028237 	
H	 24.943521089724 	  2.865584540074 	 15.611078748237 	
H	 25.512034119724 	  9.049143490074 	  5.480519198237 	
H	 24.943489989724 	  9.049146300074 	 15.611075918237 	
H	  3.184487466345 	  5.936756668239 	 -0.127337590150 	
H	  2.615943336345 	  5.936759478239 	 10.003219129850 	
H	  3.184456366345 	 12.120318428239 	 -0.127340420150 	
H	  2.615912236345 	 12.120321238239 	 10.003216299850 	
H	 17.865314766345 	  5.936765898239 	 -0.099207660150 	
H	 17.296770636345 	  5.936768708239 	 10.031349059850 	
H	 17.865283666345 	 12.120327658239 	 -0.099210490150 	
H	 17.296739536345 	 12.120330468239 	 10.031346229850 	
H	  1.402618115707 	  2.788822246479 	  4.680321650361 	
H	  0.834073985707 	  2.788825056479 	 14.810878370361 	
H	  1.402587015707 	  8.972384006479 	  4.680318820361 	
H	  0.834042885707 	  8.972386816479 	 14.810875540361 	
H	 16.083445415707 	  2.788831476479 	  4.708451580361 	
H	 15.514901285707 	  2.788834286479 	 14.839008300361 	
H	 16.083414315707 	  8.972393236479 	  4.708448750361 	
H	 15.514870185707 	  8.972396046479 	 14.839005470361 	
H	 12.646497619386 	 -0.274020645685 	  0.653946160305 	
H	 12.077953489386 	 -0.274017835685 	 10.784502880305 	
H	 12.646466519386 	  5.909541114315 	  0.653943330305 	
H	 12.077922389386 	  5.909543924315 	 10.784500050305 	
H	 27.327324919386 	 -0.274011415685 	  0.682076090305 	
H	 26.758780789386 	 -0.274008605685 	 10.812632810305 	
H	 27.327293819386 	  5.909550344315 	  0.682073260305 	
H	 26.758749689386 	  5.909553154315 	 10.812629980305 	
H	 12.387646374427 	  3.343428652943 	  5.857731470595 	
H	 11.819102244427 	  3.343431462943 	 15.988288190595 	
H	 12.387615274427 	  9.526990412943 	  5.857728640595 	
H	 11.819071144427 	  9.526993222943 	 15.988285360595 	
H	 27.068473674427 	  3.343437882943 	  5.885861400595 	
H	 26.499929544427 	  3.343440692943 	 16.016418120595 	
H	 27.068442574427 	  9.526999642943 	  5.885858570595 	
H	 26.499898444427 	  9.527002452943 	 16.016415290595 	
H	  1.143767252312 	  6.406271788099 	  9.884107122088 	
H	  0.575223122312 	  6.406274598099 	 20.014663842088 	
H	  1.143736152312 	 12.589833548099 	  9.884104292088 	
H	  0.575192022312 	 12.589836358099 	 20.014661012088 	
H	 15.824594552312 	  6.406281018099 	  9.912237052088 	
H	 15.256050422312 	  6.406283828099 	 20.042793772088 	
H	 15.824563452312 	 12.589842778099 	  9.912234222088 	
H	 15.256019322312 	 12.589845588099 	 20.042790942088 	
H	  2.735670956881 	  1.879965351182 	  5.066747537154 	
H	  2.167126826881 	  1.879968161182 	 15.197304257154 	
H	  2.735639856881 	  8.063527111182 	  5.066744707154 	
H	  2.167095726881 	  8.063529921182 	 15.197301427154 	
H	 17.416498256881 	  1.879974581182 	  5.094877467154 	
H	 16.847954126881 	  1.879977391182 	 15.225434187154 	
H	 17.416467156881 	  8.063536341182 	  5.094874637154 	
H	 16.847923026881 	  8.063539151182 	 15.225431357154 	
H	 11.246419853012 	  4.957416347945 	  0.319014398737 	
H	 10.677875723012 	  4.957419157945 	 10.449571118737 	
H	 11.246388753012 	 11.140978107945 	  0.319011568737 	
H	 10.677844623012 	 11.140980917945 	 10.449568288737 	
H	 25.927247153012 	  4.957425577945 	  0.347144328737 	
H	 25.358703023012 	  4.957428387945 	 10.477701048737 	
H	 25.927216053012 	 11.140987337945 	  0.347141498737 	
H	 25.358671923012 	 11.140990147945 	 10.477698218737 	
H	 11.054592434167 	  4.252286884336 	  5.471304985707 	
H	 10.486048304167 	  4.252289694336 	 15.601861705707 	
H	 11.054561334167 	 10.435848644336 	  5.471302155707 	
H	 10.486017204167 	 10.435851454336 	 15.601858875707 	
H	 25.735419734167 	  4.252296114336 	  5.499434915707 	
H	 25.166875604167 	  4.252298924336 	 15.629991635707 	
H	 25.735388634167 	 10.435857874336 	  5.499432085707 	
H	 25.166844504167 	 10.435860684336 	 15.629988805707 	
H	  2.543845335805 	  1.174835255639 	 10.219038848639 	
H	  1.975301205805 	  1.174838065639 	 20.349595568639 	
H	  2.543814235805 	  7.358397015639 	 10.219036018639 	
H	  1.975270105805 	  7.358399825639 	 20.349592738639 	
H	 17.224672635805 	  1.174844485639 	 10.247168778639 	
H	 16.656128505805 	  1.174847295639 	 20.377725498639 	
H	 17.224641535805 	  7.358406245639 	 10.247165948639 	
H	 16.656097405805 	  7.358409055639 	 20.377722668639 	
C	  1.411746635775 	  3.635510679734 	  6.769478394104 	
C	  0.843202505775 	  3.635513489734 	 16.900035114104 	
C	  1.411715535775 	  9.819072439734 	  6.769475564104 	
C	  0.843171405775 	  9.819075249734 	 16.900032284104 	
C	 16.092573935775 	  3.635519909734 	  6.797608324104 	
C	 15.524029805775 	  3.635522719734 	 16.928165044104 	
C	 16.092542835775 	  9.819081669734 	  6.797605494104 	
C	 15.523998705775 	  9.819084479734 	 16.928162214104 	
C	 12.185285387283 	  0.635276439445 	  8.979798541855 	
C	 11.616741257283 	  0.635279249445 	 19.110355261855 	
C	 12.185254287283 	  6.818838199445 	  8.979795711855 	
C	 11.616710157283 	  6.818841009445 	 19.110352431855 	
C	 26.866112687283 	  0.635285669445 	  9.007928471855 	
C	 26.297568557283 	  0.635288479445 	 19.138485191855 	
C	 26.866081587283 	  6.818847429445 	  9.007925641855 	
C	 26.297537457283 	  6.818850239445 	 19.138482361855 	
C	 12.378519113054 	  2.496739925762 	  3.768573244847 	
C	 11.809974983054 	  2.496742735762 	 13.899129964847 	
C	 12.378488013054 	  8.680301685762 	  3.768570414847 	
C	 11.809943883054 	  8.680304495762 	 13.899127134847 	
C	 27.059346413054 	  2.496749155762 	  3.796703174847 	
C	 26.490802283054 	  2.496751965762 	 13.927259894847 	
C	 27.059315313054 	  8.680310915762 	  3.796700344847 	
C	 26.490771183054 	  8.680313725762 	 13.927257064847 	
C	  1.604979918891 	  5.496974294128 	  1.558254467288 	
C	  1.036435788891 	  5.496977104128 	 11.688811187288 	
C	  1.604948818891 	 11.680536054128 	  1.558251637288 	
C	  1.036404688891 	 11.680538864128 	 11.688808357288 	
C	 16.285807218891 	  5.496983524128 	  1.586384397288 	
C	 15.717263088891 	  5.496986334128 	 11.716941117288 	
C	 16.285776118891 	 11.680545284128 	  1.586381567288 	
C	 15.717231988891 	 11.680548094128 	 11.716938287288 	
H	  1.924719120335 	  4.619993079077 	  6.714566824367 	
H	  1.356174990335 	  4.619995889077 	 16.845123544367 	
H	  1.924688020335 	 10.803554839077 	  6.714563994367 	
H	  1.356143890335 	 10.803557649077 	 16.845120714367 	
H	 16.605546420335 	  4.620002309077 	  6.742696754367 	
H	 16.037002290335 	  4.620005119077 	 16.873253474367 	
H	 16.605515320335 	 10.803564069077 	  6.742693924367 	
H	 16.036971190335 	 10.803566879077 	 16.873250644367 	
H	 11.606522096247 	  1.568896688285 	  9.050281412365 	
H	 11.037977966247 	  1.568899498285 	 19.180838132365 	
H	 11.606490996247 	  7.752458448285 	  9.050278582365 	
H	 11.037946866247 	  7.752461258285 	 19.180835302365 	
H	 26.287349396247 	  1.568905918285 	  9.078411342365 	
H	 25.718805266247 	  1.568908728285 	 19.208968062365 	
H	 26.287318296247 	  7.752467678285 	  9.078408512365 	
H	 25.718774166247 	  7.752470488285 	 19.208965232365 	
H	 11.865546545114 	  1.512256999367 	  3.823484812752 	
H	 11.297002415114 	  1.512259809367 	 13.954041532752 	
H	 11.865515445114 	  7.695818759367 	  3.823481982752 	
H	 11.296971315114 	  7.695821569367 	 13.954038702752 	
H	 26.546373845114 	  1.512266229367 	  3.851614742752 	
H	 25.977829715114 	  1.512269039367 	 13.982171462752 	
H	 26.546342745114 	  7.695827989367 	  3.851611912752 	
H	 25.977798615114 	  7.695830799367 	 13.982168632752 	
H	  2.183743248928 	  4.563354109473 	  1.487771173084 	
H	  1.615199118928 	  4.563356919473 	 11.618327893084 	
H	  2.183712148928 	 10.746915869473 	  1.487768343084 	
H	  1.615168018928 	 10.746918679473 	 11.618325063084 	
H	 16.864570548928 	  4.563363339473 	  1.515901103084 	
H	 16.296026418928 	  4.563366149473 	 11.646457823084 	
H	 16.864539448928 	 10.746925099473 	  1.515898273084 	
H	 16.295995318928 	 10.746927909473 	 11.646454993084 	
H	  1.111688155981 	  3.917601388263 	  7.811408174752 	
H	  0.543144025981 	  3.917604198263 	 17.941964894752 	
H	  1.111657055981 	 10.101163148263 	  7.811405344752 	
H	  0.543112925981 	 10.101165958263 	 17.941962064752 	
H	 15.792515455981 	  3.917610618263 	  7.839538104752 	
H	 15.223971325981 	  3.917613428263 	 17.970094824752 	
H	 15.792484355981 	 10.101172378263 	  7.839535274752 	
H	 15.223940225981 	 10.101175188263 	 17.970091994752 	
H	 12.429957220867 	  6.954481459061 	  7.954597608970 	
H	 11.861413090867 	  6.954484269061 	 18.085154328970 	
H	 12.429926120867 	 13.138043219061 	  7.954594778970 	
H	 11.861381990867 	 13.138046029061 	 18.085151498970 	
H	 27.110784520867 	  6.954490689061 	  7.982727538970 	
H	 26.542240390867 	  6.954493499061 	 18.113284258970 	
H	 27.110753420867 	 13.138052449061 	  7.982724708970 	
H	 26.542209290867 	 13.138055259061 	 18.113281428970 	
H	 12.678578727904 	  2.214650535732 	  2.726642921276 	
H	 12.110034597904 	  2.214653345732 	 12.857199641276 	
H	 12.678547627904 	  8.398212295732 	  2.726640091276 	
H	 12.110003497904 	  8.398215105732 	 12.857196811276 	
H	 27.359406027904 	  2.214659765732 	  2.754772851276 	
H	 26.790861897904 	  2.214662575732 	 12.885329571276 	
H	 27.359374927904 	  8.398221525732 	  2.754770021276 	
H	 26.790830797904 	  8.398224335732 	 12.885326741276 	
H	  1.360308416330 	 -0.822230890261 	  2.583455564785 	
H	  0.791764286330 	 -0.822228080261 	 12.714012284785 	
H	  1.360277316330 	  5.361330869739 	  2.583452734785 	
H	  0.791733186330 	  5.361333679739 	 12.714009454785 	
H	 16.041135716330 	 -0.822221660261 	  2.611585494785 	
H	 15.472591586330 	 -0.822218850261 	 12.742142214785 	
H	 16.041104616330 	  5.361340099739 	  2.611582664785 	
H	 15.472560486330 	  5.361342909739 	 12.742139384785 	
H	  0.461325445280 	  3.834350067902 	  6.180003053635 	
H	 -0.107218684720 	  3.834352877902 	 16.310559773635 	
H	  0.461294345280 	 10.017911827902 	  6.180000223635 	
H	 -0.107249784720 	 10.017914637902 	 16.310556943635 	
H	 15.142152745280 	  3.834359297902 	  6.208132983635 	
H	 14.573608615280 	  3.834362107902 	 16.338689703635 	
H	 15.142121645280 	 10.017921057902 	  6.208130153635 	
H	 14.573577515280 	 10.017923867902 	 16.338686873635 	
H	 13.081910893973 	  6.895337776116 	  9.582530013452 	
H	 12.513366763973 	  6.895340586116 	 19.713086733452 	
H	 13.081879793973 	 13.078899536116 	  9.582527183452 	
H	 12.513335663973 	 13.078902346116 	 19.713083903452 	
H	 27.762738193973 	  6.895347006116 	  9.610659943452 	
H	 27.194194063973 	  6.895349816116 	 19.741216663452 	
H	 27.762707093973 	 13.078908766116 	  9.610657113452 	
H	 27.194162963973 	 13.078911576116 	 19.741213833452 	
H	 13.328940225335 	  2.297900823642 	  4.358048980532 	
H	 12.760396095335 	  2.297903633642 	 14.488605700532 	
H	 13.328909125335 	  8.481462583642 	  4.358046150532 	
H	 12.760364995335 	  8.481465393642 	 14.488602870532 	
H	 28.009767525335 	  2.297910053642 	  4.386178910532 	
H	 27.441223395335 	  2.297912863642 	 14.516735630532 	
H	 28.009736425335 	  8.481471813642 	  4.386176080532 	
H	 27.441192295335 	  8.481474623642 	 14.516732800532 	
H	  0.708354208208 	 -0.763087107589 	  0.955523312237 	
H	  0.139810078208 	 -0.763084297589 	 11.086080032237 	
H	  0.708323108208 	  5.420474652411 	  0.955520482237 	
H	  0.139778978208 	  5.420477462411 	 11.086077202237 	
H	 15.389181508208 	 -0.763077877589 	  0.983653242237 	
H	 14.820637378208 	 -0.763075067589 	 11.114209962237 	
H	 15.389150408208 	  5.420483882411 	  0.983650412237 	
H	 14.820606278208 	  5.420486692411 	 11.114207132237 	
C	  1.272927264606 	  1.884029026984 	  6.784210988665 	
C	  0.704383134606 	  1.884031836984 	 16.914767708665 	
C	  1.272896164606 	  8.067590786984 	  6.784208158665 	
C	  0.704352034606 	  8.067593596984 	 16.914764878665 	
C	 15.953754564606 	  1.884038256984 	  6.812340918665 	
C	 15.385210434606 	  1.884041066984 	 16.942897638665 	
C	 15.953723464606 	  8.067600016984 	  6.812338088665 	
C	 15.385179334606 	  8.067602826984 	 16.942894808665 	
C	 12.271908103498 	  4.950298331421 	  8.980400472200 	
C	 11.703363973498 	  4.950301141421 	 19.110957192200 	
C	 12.271877003498 	 11.133860091421 	  8.980397642200 	
C	 11.703332873498 	 11.133862901421 	 19.110954362200 	
C	 26.952735403498 	  4.950307561421 	  9.008530402200 	
C	 26.384191273498 	  4.950310371421 	 19.139087122200 	
C	 26.952704303498 	 11.133869321421 	  9.008527572200 	
C	 26.384160173498 	 11.133872131421 	 19.139084292200 	
C	 12.517337974681 	  4.248223493250 	  3.753840783556 	
C	 11.948793844681 	  4.248226303250 	 13.884397503556 	
C	 12.517306874681 	 10.431785253250 	  3.753837953556 	
C	 11.948762744681 	 10.431788063250 	 13.884394673556 	
C	 27.198165274681 	  4.248232723250 	  3.781970713556 	
C	 26.629621144681 	  4.248235533250 	 13.912527433556 	
C	 27.198134174681 	 10.431794483250 	  3.781967883556 	
C	 26.629590044681 	 10.431797293250 	 13.912524603556 	
C	  1.518357071999 	  1.181952303749 	  1.557652976768 	
C	  0.949812941999 	  1.181955113749 	 11.688209696768 	
C	  1.518325971999 	  7.365514063749 	  1.557650146768 	
C	  0.949781841999 	  7.365516873749 	 11.688206866768 	
C	 16.199184371999 	  1.181961533749 	  1.585782906768 	
C	 15.630640241999 	  1.181964343749 	 11.716339626768 	
C	 16.199153271999 	  7.365523293749 	  1.585780076768 	
C	 15.630609141999 	  7.365526103749 	 11.716336796768 	
H	  0.244127041841 	  1.764841594966 	  6.306140091223 	
H	 -0.324417088159 	  1.764844404966 	 16.436696811223 	
H	  0.244095941841 	  7.948403354966 	  6.306137261223 	
H	 -0.324448188159 	  7.948406164966 	 16.436693981223 	
H	 14.924954341841 	  1.764850824966 	  6.334270021223 	
H	 14.356410211841 	  1.764853634966 	 16.464826741223 	
H	 14.924923241841 	  7.948412584966 	  6.334267191223 	
H	 14.356379111841 	  7.948415394966 	 16.464823911223 	
H	 13.299242061081 	  4.831211767845 	  9.457612419132 	
H	 12.730697931081 	  4.831214577845 	 19.588169139132 	
H	 13.299210961081 	 11.014773527845 	  9.457609589132 	
H	 12.730666831081 	 11.014776337845 	 19.588166309132 	
H	 27.980069361081 	  4.831220997845 	  9.485742349132 	
H	 27.411525231081 	  4.831223807845 	 19.616299069132 	
H	 27.980038261081 	 11.014782757845 	  9.485739519132 	
H	 27.411494131081 	 11.014785567845 	 19.616296239132 	
H	 13.546137873026 	  4.367410715199 	  4.231912416032 	
H	 12.977593743026 	  4.367413525199 	 14.362469136032 	
H	 13.546106773026 	 10.550972475199 	  4.231909586032 	
H	 12.977562643026 	 10.550975285199 	 14.362466306032 	
H	 28.226965173026 	  4.367419945199 	  4.260042346032 	
H	 27.658421043026 	  4.367422755199 	 14.390599066032 	
H	 28.226934073026 	 10.550981705199 	  4.260039516032 	
H	 27.658389943026 	 10.550984515199 	 14.390596236032 	
H	  0.491023040369 	  1.301038805271 	  1.080441203721 	
H	 -0.077521089631 	  1.301041615271 	 11.210997923721 	
H	  0.490991940369 	  7.484600565271 	  1.080438373721 	
H	 -0.077552189631 	  7.484603375271 	 11.210995093721 	
H	 15.171850340369 	  1.301048035271 	  1.108571133721 	
H	 14.603306210369 	  1.301050845271 	 11.239127853721 	
H	 15.171819240369 	  7.484609795271 	  1.108568303721 	
H	 14.603275110369 	  7.484612605271 	 11.239125023721 	
H	  1.025231711205 	  1.637092952804 	  7.837199339412 	
H	  0.456687581205 	  1.637095762804 	 17.967756059412 	
H	  1.025200611205 	  7.820654712804 	  7.837196509412 	
H	  0.456656481205 	  7.820657522804 	 17.967753229412 	
H	 15.706059011205 	  1.637102182804 	  7.865329269412 	
H	 15.137514881205 	  1.637104992804 	 17.995885989412 	
H	 15.706027911205 	  7.820663942804 	  7.865326439412 	
H	 15.137483781205 	  7.820666752804 	 17.995883159412 	
H	 12.518345027386 	  4.703647226527 	  7.926629423798 	
H	 11.949800897386 	  4.703650036527 	 18.057186143798 	
H	 12.518313927386 	 10.887208986527 	  7.926626593798 	
H	 11.949769797386 	 10.887211796527 	 18.057183313798 	
H	 27.199172327386 	  4.703656456527 	  7.954759353798 	
H	 26.630628197386 	  4.703659266527 	 18.085316073798 	
H	 27.199141227386 	 10.887218216527 	  7.954756523798 	
H	 26.630597097386 	 10.887221026527 	 18.085313243798 	
H	 12.765033408845 	  4.495159351119 	  2.700852015640 	
H	 12.196489278845 	  4.495162161119 	 12.831408735640 	
H	 12.765002308845 	 10.678721111119 	  2.700849185640 	
H	 12.196458178845 	 10.678723921119 	 12.831405905640 	
H	 27.445860708845 	  4.495168581119 	  2.728981945640 	
H	 26.877316578845 	  4.495171391119 	 12.859538665640 	
H	 27.445829608845 	 10.678730341119 	  2.728979115640 	
H	 26.877285478845 	 10.678733151119 	 12.859535835640 	
H	  1.271920237263 	  1.428603233981 	  2.611424000783 	
H	  0.703376107263 	  1.428606043981 	 12.741980720783 	
H	  1.271889137263 	  7.612164993981 	  2.611421170783 	
H	  0.703345007263 	  7.612167803981 	 12.741977890783 	
H	 15.952747537263 	  1.428612463981 	  2.639553930783 	
H	 15.384203407263 	  1.428615273981 	 12.770110650783 	
H	 15.952716437263 	  7.612174223981 	  2.639551100783 	
H	 15.384172307263 	  7.612177033981 	 12.770107820783 	
H	  1.587940730232 	  0.843291816209 	  6.732943022381 	
H	  1.019396600232 	  0.843294626209 	 16.863499742381 	
H	  1.587909630232 	  7.026853576209 	  6.732940192381 	
H	  1.019365500232 	  7.026856386209 	 16.863496912381 	
H	 16.268768030232 	  0.843301046209 	  6.761072952381 	
H	 15.700223900232 	  0.843303856209 	 16.891629672381 	
H	 16.268736930232 	  7.026862806209 	  6.761070122381 	
H	 15.700192800232 	  7.026865616209 	 16.891626842381 	
H	 11.955379789910 	  3.910184493590 	  9.030588655604 	
H	 11.386835659910 	  3.910187303590 	 19.161145375604 	
H	 11.955348689910 	 10.093746253590 	  9.030585825604 	
H	 11.386804559910 	 10.093749063590 	 19.161142545604 	
H	 26.636207089910 	  3.910193723590 	  9.058718585604 	
H	 26.067662959910 	  3.910196533590 	 19.189275305604 	
H	 26.636175989910 	 10.093755483590 	  9.058715755604 	
H	 26.067631859910 	 10.093758293590 	 19.189272475604 	
H	 12.202322410734 	  5.288960923117 	  3.805111717972 	
H	 11.633778280734 	  5.288963733117 	 13.935668437972 	
H	 12.202291310734 	 11.472522683117 	  3.805108887972 	
H	 11.633747180734 	 11.472525493117 	 13.935665607972 	
H	 26.883149710734 	  5.288970153117 	  3.833241647972 	
H	 26.314605580734 	  5.288972963117 	 13.963798367972 	
H	 26.883118610734 	 11.472531913117 	  3.833238817972 	
H	 26.314574480734 	 11.472534723117 	 13.963795537972 	
H	  1.834885252846 	  2.222066200484 	  1.507465286630 	
H	  1.266341122846 	  2.222069010484 	 11.638022006630 	
H	  1.834854152846 	  8.405627960484 	  1.507462456630 	
H	  1.266310022846 	  8.405630770484 	 11.638019176630 	
H	 16.515712552846 	  2.222075430484 	  1.535595216630 	
H	 15.947168422846 	  2.222078240484 	 11.666151936630 	
H	 16.515681452846 	  8.405637190484 	  1.535592386630 	
H	 15.947137322846 	  8.405640000484 	 11.666149106630 	
768 
Energy: -9.4584012203889998e+01 
S	  8.445196499870 	  1.456964093004 	  0.105636324619 	
S	  7.876652369870 	  1.456966903004 	 10.236193044619 	
S	  8.445165399870 	  7.640525853004 	  0.105633494619 	
S	  7.876621269870 	  7.640528663004 	 10.236190214619 	
S	 23.126023799870 	  1.456973323004 	  0.133766254619 	
S	 22.557479669870 	  1.456976133004 	 10.264322974619 	
S	 23.125992699870 	  7.640535083004 	  0.133763424619 	
S	 22.557448569870 	  7.640537893004 	 10.264320144619 	
S	  5.529325112956 	  4.517974434135 	  5.244527329737 	
S	  4.960780982956 	  4.517977244135 	 15.375084049737 	
S	  5.529294012956 	 10.701536194135 	  5.244524499737 	
S	  4.960749882956 	 10.701539004135 	 15.375081219737 	
S	 20.210152412956 	  4.517983664135 	  5.272657259737 	
S	 19.641608282956 	  4.517986474135 	 15.403213979737 	
S	 20.210121312956 	 10.701545424135 	  5.272654429737 	
S	 19.641577182956 	 10.701548234135 	 15.403211149737 	
S	  5.289936762613 	  4.666498671603 	 10.497373402392 	
S	  4.721392632613 	  4.666501481603 	 20.627930122392 	
S	  5.289905662613 	 10.850060431603 	 10.497370572392 	
S	  4.721361532613 	 10.850063241603 	 20.627927292392 	
S	 19.970764062613 	  4.666507901603 	 10.525503332392 	
S	 19.402219932613 	  4.666510711603 	 20.656060052392 	
S	 19.970732962613 	 10.850069661603 	 10.525500502392 	
S	 19.402188832613 	 10.850072471603 	 20.656057222392 	
S	  8.205809252238 	  1.605488519790 	  5.358482171115 	
S	  7.637265122238 	  1.605491329790 	 15.489038891115 	
S	  8.205778152238 	  7.789050279790 	  5.358479341115 	
S	  7.637234022238 	  7.789053089790 	 15.489036061115 	
S	 22.886636552238 	  1.605497749790 	  5.386612101115 	
S	 22.318092422238 	  1.605500559790 	 15.517168821115 	
S	 22.886605452238 	  7.789059509790 	  5.386609271115 	
S	 22.318061322238 	  7.789062319790 	 15.517165991115 	
C	  6.608041276823 	  2.528222251307 	 10.183092380401 	
C	  6.039497146823 	  2.528225061307 	 20.313649100401 	
C	  6.608010176823 	  8.711784011307 	 10.183089550401 	
C	  6.039466046823 	  8.711786821307 	 20.313646270401 	
C	 21.288868576823 	  2.528231481307 	 10.211222310401 	
C	 20.720324446823 	  2.528234291307 	 20.341779030401 	
C	 21.288837476823 	  8.711793241307 	 10.211219480401 	
C	 20.720293346823 	  8.711796051307 	 20.341776200401 	
C	  6.886659343910 	  5.584359135292 	  5.674466325617 	
C	  6.318115213910 	  5.584361945292 	 15.805023045617 	
C	  6.886628243910 	 11.767920895292 	  5.674463495617 	
C	  6.318084113910 	 11.767923705292 	 15.805020215617 	
C	 21.567486643910 	  5.584368365292 	  5.702596255617 	
C	 20.998942513910 	  5.584371175292 	 15.833152975617 	
C	 21.567455543910 	 11.767930125292 	  5.702593425617 	
C	 20.998911413910 	 11.767932935292 	 15.833150145617 	
C	  7.127091997551 	  3.595240492941 	  0.419917217831 	
C	  6.558547867551 	  3.595243302941 	 10.550473937831 	
C	  7.127060897551 	  9.778802252941 	  0.419914387831 	
C	  6.558516767551 	  9.778805062941 	 10.550471107831 	
C	 21.807919297551 	  3.595249722941 	  0.448047147831 	
C	 21.239375167551 	  3.595252532941 	 10.578603867831 	
C	 21.807888197551 	  9.778811482941 	  0.448044317831 	
C	 21.239344067551 	  9.778814292941 	 10.578601037831 	
C	  6.848474872625 	  0.539103890868 	  4.928543044509 	
C	  6.279930742625 	  0.539106700868 	 15.059099764509 	
C	  6.848443772625 	  6.722665650868 	  4.928540214509 	
C	  6.279899642625 	  6.722668460868 	 15.059096934509 	
C	 21.529302172625 	  0.539113120868 	  4.956672974509 	
C	 20.960758042625 	  0.539115930868 	 15.087229694509 	
C	 21.529271072625 	  6.722674880868 	  4.956670144509 	
C	 20.960726942625 	  6.722677690868 	 15.087226864509 	
C	  5.574157961492 	  2.382598826735 	  9.217498601883 	
C	  5.005613831492 	  2.382601636735 	 19.348055321883 	
C	  5.574126861492 	  8.566160586735 	  9.217495771883 	
C	  5.005582731492 	  8.566163396735 	 19.348052491883 	
C	 20.254985261492 	  2.382608056735 	  9.245628531883 	
C	 19.686441131492 	  2.382610866735 	 19.376185251883 	
C	 20.254954161492 	  8.566169816735 	  9.245625701883 	
C	 19.686410031492 	  8.566172626735 	 19.376182421883 	
C	  7.924508760876 	  5.446331579110 	  6.638043329528 	
C	  7.355964630876 	  5.446334389110 	 16.768600049528 	
C	  7.924477660876 	 11.629893339110 	  6.638040499528 	
C	  7.355933530876 	 11.629896149110 	 16.768597219528 	
C	 22.605336060876 	  5.446340809110 	  6.666173259528 	
C	 22.036791930876 	  5.446343619110 	 16.796729979528 	
C	 22.605304960876 	 11.629902569110 	  6.666170429528 	
C	 22.036760830876 	 11.629905379110 	 16.796727149528 	
C	  8.160975240601 	  3.740863982328 	  1.385510938725 	
C	  7.592431110601 	  3.740866792328 	 11.516067658725 	
C	  8.160944140601 	  9.924425742328 	  1.385508108725 	
C	  7.592400010601 	  9.924428552328 	 11.516064828725 	
C	 22.841802540601 	  3.740873212328 	  1.413640868725 	
C	 22.273258410601 	  3.740876022328 	 11.544197588725 	
C	 22.841771440601 	  9.924434972328 	  1.413638038725 	
C	 22.273227310601 	  9.924437782328 	 11.544194758725 	
C	  5.810625263634 	  0.677131462726 	  3.964966202928 	
C	  5.242081133634 	  0.677134272726 	 14.095522922928 	
C	  5.810594163634 	  6.860693222726 	  3.964963372928 	
C	  5.242050033634 	  6.860696032726 	 14.095520092928 	
C	 20.491452563634 	  0.677140692726 	  3.993096132928 	
C	 19.922908433634 	  0.677143502726 	 14.123652852928 	
C	 20.491421463634 	  6.860702452726 	  3.993093302928 	
C	 19.922877333634 	  6.860705262726 	 14.123650022928 	
C	  4.727639684366 	  3.485864703157 	  9.254682215071 	
C	  4.159095554366 	  3.485867513157 	 19.385238935071 	
C	  4.727608584366 	  9.669426463157 	  9.254679385071 	
C	  4.159064454366 	  9.669429273157 	 19.385236105071 	
C	 19.408466984366 	  3.485873933157 	  9.282812145071 	
C	 18.839922854366 	  3.485876743157 	 19.413368865071 	
C	 19.408435884366 	  9.669435693157 	  9.282809315071 	
C	 18.839891754366 	  9.669438503157 	 19.413366035071 	
C	  8.763613555629 	  0.421855340767 	  6.601500928351 	
C	  8.195069425629 	  0.421858150767 	 16.732057648351 	
C	  8.763582455629 	  6.605417100767 	  6.601498098351 	
C	  8.195038325629 	  6.605419910767 	 16.732054818351 	
C	 23.444440855629 	  0.421864570767 	  6.629630858351 	
C	 22.875896725629 	  0.421867380767 	 16.760187578351 	
C	 23.444409755629 	  6.605426330767 	  6.629628028351 	
C	 22.875865625629 	  6.605429140767 	 16.760184748351 	
C	  9.007493508789 	  2.637598083431 	  1.348327362165 	
C	  8.438949378789 	  2.637600893431 	 11.478884082165 	
C	  9.007462408789 	  8.821159843431 	  1.348324532165 	
C	  8.438918278789 	  8.821162653431 	 11.478881252165 	
C	 23.688320808789 	  2.637607313431 	  1.376457292165 	
C	 23.119776678789 	  2.637610123431 	 11.507014012165 	
C	 23.688289708789 	  8.821169073431 	  1.376454462165 	
C	 23.119745578789 	  8.821171883431 	 11.507011182165 	
C	  4.971520562425 	  5.701607695593 	  4.001508760647 	
C	  4.402976432425 	  5.701610505593 	 14.132065480647 	
C	  4.971489462425 	 11.885169455593 	  4.001505930647 	
C	  4.402945332425 	 11.885172265593 	 14.132062650647 	
C	 19.652347862425 	  5.701616925593 	  4.029638690647 	
C	 19.083803732425 	  5.701619735593 	 14.160195410647 	
C	 19.652316762425 	 11.885178685593 	  4.029635860647 	
C	 19.083772632425 	 11.885181495593 	 14.160192580647 	
C	  3.664127542145 	  3.591870295415 	  8.465375946575 	
C	  3.095583412145 	  3.591873105415 	 18.595932666575 	
C	  3.664096442145 	  9.775432055415 	  8.465373116575 	
C	  3.095552312145 	  9.775434865415 	 18.595929836575 	
C	 18.344954842145 	  3.591879525415 	  8.493505876575 	
C	 17.776410712145 	  3.591882335415 	 18.624062596575 	
C	 18.344923742145 	  9.775441285415 	  8.493503046575 	
C	 17.776379612145 	  9.775444095415 	 18.624059766575 	
C	  9.831025728605 	  0.529967068814 	  7.392561047828 	
C	  9.262481598605 	  0.529969878814 	 17.523117767828 	
C	  9.830994628605 	  6.713528828814 	  7.392558217828 	
C	  9.262450498605 	  6.713531638814 	 17.523114937828 	
C	 24.511853028605 	  0.529976298814 	  7.420690977828 	
C	 23.943308898605 	  0.529979108814 	 17.551247697828 	
C	 24.511821928605 	  6.713538058814 	  7.420688147828 	
C	 23.943277798605 	  6.713540868814 	 17.551244867828 	
C	 10.071005656194 	  2.531592639651 	  2.137633826446 	
C	  9.502461526194 	  2.531595449651 	 12.268190546446 	
C	 10.070974556194 	  8.715154399651 	  2.137630996446 	
C	  9.502430426194 	  8.715157209651 	 12.268187716446 	
C	 24.751832956194 	  2.531601869651 	  2.165763756446 	
C	 24.183288826194 	  2.531604679651 	 12.296320476446 	
C	 24.751801856194 	  8.715163629651 	  2.165760926446 	
C	 24.183257726194 	  8.715166439651 	 12.296317646446 	
C	  3.904108015516 	  5.593496024359 	  3.210449008569 	
C	  3.335563885516 	  5.593498834359 	 13.341005728569 	
C	  3.904076915516 	 11.777057784359 	  3.210446178569 	
C	  3.335532785516 	 11.777060594359 	 13.341002898569 	
C	 18.584935315516 	  5.593505254359 	  3.238578938569 	
C	 18.016391185516 	  5.593508064359 	 13.369135658569 	
C	 18.584904215516 	 11.777067014359 	  3.238576108569 	
C	 18.016360085516 	 11.777069824359 	 13.369132828569 	
H	  3.005410013213 	  4.539238766120 	  8.543294236074 	
H	  2.436865883213 	  4.539241576120 	 18.673850956074 	
H	  3.005378913213 	 10.722800526120 	  8.543291406074 	
H	  2.436834783213 	 10.722803336120 	 18.673848126074 	
H	 17.686237313213 	  4.539247996120 	  8.571424166074 	
H	 17.117693183213 	  4.539250806120 	 18.701980886074 	
H	 17.686206213213 	 10.722809756120 	  8.571421336074 	
H	 17.117662083213 	 10.722812566120 	 18.701978056074 	
H	 10.489622980250 	  1.477248636124 	  7.312594242502 	
H	  9.921078850250 	  1.477251446124 	 17.443150962502 	
H	 10.489591880250 	  7.660810396124 	  7.312591412502 	
H	  9.921047750250 	  7.660813206124 	 17.443148132502 	
H	 25.170450280250 	  1.477257866124 	  7.340724172502 	
H	 24.601906150250 	  1.477260676124 	 17.471280892502 	
H	 25.170419180250 	  7.660819626124 	  7.340721342502 	
H	 24.601875050250 	  7.660822436124 	 17.471278062502 	
H	 10.729723109782 	  1.584224076732 	  2.059715682823 	
H	 10.161178979782 	  1.584226886732 	 12.190272402823 	
H	 10.729692009782 	  7.767785836732 	  2.059712852823 	
H	 10.161147879782 	  7.767788646732 	 12.190269572823 	
H	 25.410550409782 	  1.584233306732 	  2.087845612823 	
H	 24.842006279782 	  1.584236116732 	 12.218402332823 	
H	 25.410519309782 	  7.767795066732 	  2.087842782823 	
H	 24.841975179782 	  7.767797876732 	 12.218399502823 	
H	  3.245510895958 	  4.646214376782 	  3.290415973103 	
H	  2.676966765958 	  4.646217186782 	 13.420972693103 	
H	  3.245479795958 	 10.829776136782 	  3.290413143103 	
H	  2.676935665958 	 10.829778946782 	 13.420969863103 	
H	 17.926338195958 	  4.646223606782 	  3.318545903103 	
H	 17.357794065958 	  4.646226416782 	 13.449102623103 	
H	 17.926307095958 	 10.829785366782 	  3.318543073103 	
H	 17.357762965958 	 10.829788176782 	 13.449099793103 	
C	  3.330604578713 	  2.639682987528 	  7.575463001606 	
C	  2.762060448713 	  2.639685797528 	 17.706019721606 	
C	  3.330573478713 	  8.823244747528 	  7.575460171606 	
C	  2.762029348713 	  8.823247557528 	 17.706016891606 	
C	 18.011431878713 	  2.639692217528 	  7.603592931606 	
C	 17.442887748713 	  2.639695027528 	 17.734149651606 	
C	 18.011400778713 	  8.823253977528 	  7.603590101606 	
C	 17.442856648713 	  8.823256787528 	 17.734146821606 	
C	 10.163863873526 	  5.701165382102 	  8.278020218337 	
C	  9.595319743526 	  5.701168192102 	 18.408576938337 	
C	 10.163832773526 	 11.884727142102 	  8.278017388337 	
C	  9.595288643526 	 11.884729952102 	 18.408574108337 	
C	 24.844691173526 	  5.701174612102 	  8.306150148337 	
C	 24.276147043526 	  5.701177422102 	 18.436706868337 	
C	 24.844660073526 	 11.884736372102 	  8.306147318337 	
C	 24.276115943526 	 11.884739182102 	 18.436704038337 	
C	 10.404528478339 	  3.483780019721 	  3.027546537449 	
C	  9.835984348339 	  3.483782829721 	 13.158103257449 	
C	 10.404497378339 	  9.667341779721 	  3.027543707449 	
C	  9.835953248339 	  9.667344589721 	 13.158100427449 	
C	 25.085355778339 	  3.483789249721 	  3.055676467449 	
C	 24.516811648339 	  3.483792059721 	 13.186233187449 	
C	 25.085324678339 	  9.667351009721 	  3.055673637449 	
C	 24.516780548339 	  9.667353819721 	 13.186230357449 	
C	  3.571269584596 	  0.422297764384 	  2.324990019715 	
C	  3.002725454596 	  0.422300574384 	 12.455546739715 	
C	  3.571238484596 	  6.605859524384 	  2.324987189715 	
C	  3.002694354596 	  6.605862334384 	 12.455543909715 	
C	 18.252096884596 	  0.422306994384 	  2.353119949715 	
C	 17.683552754596 	  0.422309804384 	 12.483676669715 	
C	 18.252065784596 	  6.605868754384 	  2.353117119715 	
C	 17.683521654596 	  6.605871564384 	 12.483673839715 	
C	  4.184676684347 	  1.564072403560 	  7.523015521807 	
C	  3.616132554347 	  1.564075213560 	 17.653572241807 	
C	  4.184645584347 	  7.747634163560 	  7.523012691807 	
C	  3.616101454347 	  7.747636973560 	 17.653569411807 	
C	 18.865503984347 	  1.564081633560 	  7.551145451807 	
C	 18.296959854347 	  1.564084443560 	 17.681702171807 	
C	 18.865472884347 	  7.747643393560 	  7.551142621807 	
C	 18.296928754347 	  7.747646203560 	 17.681699341807 	
C	  9.310507916100 	  4.626263716805 	  8.332575240880 	
C	  8.741963786100 	  4.626266526805 	 18.463131960880 	
C	  9.310476816100 	 10.809825476805 	  8.332572410880 	
C	  8.741932686100 	 10.809828286805 	 18.463129130880 	
C	 23.991335216100 	  4.626272946805 	  8.360705170880 	
C	 23.422791086100 	  4.626275756805 	 18.491261890880 	
C	 23.991304116100 	 10.809834706805 	  8.360702340880 	
C	 23.422759986100 	 10.809837516805 	 18.491259060880 	
C	  9.550456426760 	  4.559390638586 	  3.079993928548 	
C	  8.981912296760 	  4.559393448586 	 13.210550648548 	
C	  9.550425326760 	 10.742952398586 	  3.079991098548 	
C	  8.981881196760 	 10.742955208586 	 13.210547818548 	
C	 24.231283726760 	  4.559399868586 	  3.108123858548 	
C	 23.662739596760 	  4.559402678586 	 13.238680578548 	
C	 24.231252626760 	 10.742961628586 	  3.108121028548 	
C	 23.662708496760 	 10.742964438586 	 13.238677748548 	
C	  4.424625475687 	  1.497199357513 	  2.270434725906 	
C	  3.856081345687 	  1.497202167513 	 12.400991445906 	
C	  4.424594375687 	  7.680761117513 	  2.270431895906 	
C	  3.856050245687 	  7.680763927513 	 12.400988615906 	
C	 19.105452775687 	  1.497208587513 	  2.298564655906 	
C	 18.536908645687 	  1.497211397513 	 12.429121375906 	
C	 19.105421675687 	  7.680770347513 	  2.298561825906 	
C	 18.536877545687 	  7.680773157513 	 12.429118545906 	
H	  3.957924346832 	  0.734552965084 	  6.752811967086 	
H	  3.389380216832 	  0.734555775084 	 16.883368687086 	
H	  3.957893246832 	  6.918114725084 	  6.752809137086 	
H	  3.389349116832 	  6.918117535084 	 16.883365857086 	
H	 18.638751646832 	  0.734562195084 	  6.780941897086 	
H	 18.070207516832 	  0.734565005084 	 16.911498617086 	
H	 18.638720546832 	  6.918123955084 	  6.780939067086 	
H	 18.070176416832 	  6.918126765084 	 16.911495787086 	
H	  9.537048378238 	  3.796604175934 	  9.103128988814 	
H	  8.968504248238 	  3.796606985934 	 19.233685708814 	
H	  9.537017278238 	  9.980165935934 	  9.103126158814 	
H	  8.968473148238 	  9.980168745934 	 19.233682878814 	
H	 24.217875678238 	  3.796613405934 	  9.131258918814 	
H	 23.649331548238 	  3.796616215934 	 19.261815638814 	
H	 24.217844578238 	  9.980175165934 	  9.131256088814 	
H	 23.649300448238 	  9.980177975934 	 19.261812808814 	
H	  9.777208869341 	  5.388910206891 	  3.850197322274 	
H	  9.208664739341 	  5.388913016891 	 13.980754042274 	
H	  9.777177769341 	 11.572471966891 	  3.850194492274 	
H	  9.208633639341 	 11.572474776891 	 13.980751212274 	
H	 24.458036169341 	  5.388919436891 	  3.878327252274 	
H	 23.889492039341 	  5.388922246891 	 14.008883972274 	
H	 24.458005069341 	 11.572481196891 	  3.878324422274 	
H	 23.889460939341 	 11.572484006891 	 14.008881142274 	
H	  4.198084730991 	  2.326859013208 	  1.499881170758 	
H	  3.629540600991 	  2.326861823208 	 11.630437890758 	
H	  4.198053630991 	  8.510420773208 	  1.499878340758 	
H	  3.629509500991 	  8.510423583208 	 11.630435060758 	
H	 18.878912030991 	  2.326868243208 	  1.528011100758 	
H	 18.310367900991 	  2.326871053208 	 11.658567820758 	
H	 18.878880930991 	  8.510430003208 	  1.528008270758 	
H	 18.310336800991 	  8.510432813208 	 11.658564990758 	
C	  5.230819102790 	  1.435615857505 	  8.280311801344 	
C	  4.662274972790 	  1.435618667505 	 18.410868521344 	
C	  5.230788002790 	  7.619177617505 	  8.280308971344 	
C	  4.662243872790 	  7.619180427505 	 18.410865691344 	
C	 19.911646402790 	  1.435625087505 	  8.308441731344 	
C	 19.343102272790 	  1.435627897505 	 18.438998451344 	
C	 19.911615302790 	  7.619186847505 	  8.308438901344 	
C	 19.343071172790 	  7.619189657505 	 18.438995621344 	
C	  8.264117906092 	  4.497691287746 	  7.575102823936 	
C	  7.695573776092 	  4.497694097746 	 17.705659543936 	
C	  8.264086806092 	 10.681253047746 	  7.575099993936 	
C	  7.695542676092 	 10.681255857746 	 17.705656713936 	
C	 22.944945206092 	  4.497700517746 	  7.603232753936 	
C	 22.376401076092 	  4.497703327746 	 17.733789473936 	
C	 22.944914106092 	 10.681262277746 	  7.603229923936 	
C	 22.376369976092 	 10.681265087746 	 17.733786643936 	
C	  8.504314055455 	  4.687847088406 	  2.322697589193 	
C	  7.935769925455 	  4.687849898406 	 12.453254309193 	
C	  8.504282955455 	 10.871408848406 	  2.322694759193 	
C	  7.935738825455 	 10.871411658406 	 12.453251479193 	
C	 23.185141355455 	  4.687856318406 	  2.350827519193 	
C	 22.616597225455 	  4.687859128406 	 12.481384239193 	
C	 23.185110255455 	 10.871418078406 	  2.350824689193 	
C	 22.616566125455 	 10.871420888406 	 12.481381409193 	
C	  5.471015789366 	  1.625771795363 	  3.027906855796 	
C	  4.902471659366 	  1.625774605363 	 13.158463575796 	
C	  5.470984689366 	  7.809333555363 	  3.027904025796 	
C	  4.902440559366 	  7.809336365363 	 13.158460745796 	
C	 20.151843089366 	  1.625781025363 	  3.056036785796 	
C	 19.583298959366 	  1.625783835363 	 13.186593505796 	
C	 20.151811989366 	  7.809342785363 	  3.056033955796 	
C	 19.583267859366 	  7.809345595363 	 13.186590675796 	
H	  5.912151045276 	  0.507056421918 	  8.187124496460 	
H	  5.343606915276 	  0.507059231918 	 18.317681216460 	
H	  5.912119945276 	  6.690618181918 	  8.187121666460 	
H	  5.343575815276 	  6.690620991918 	 18.317678386460 	
H	 20.592978345276 	  0.507065651918 	  8.215254426460 	
H	 20.024434215276 	  0.507068461918 	 18.345811146460 	
H	 20.592947245276 	  6.690627411918 	  8.215251596460 	
H	 20.024403115276 	  6.690630221918 	 18.345808316460 	
H	  7.582715229612 	  3.568861229212 	  7.668551255515 	
H	  7.014171099612 	  3.568864039212 	 17.799107975515 	
H	  7.582684129612 	  9.752422989212 	  7.668548425515 	
H	  7.014139999612 	  9.752425799212 	 17.799105145515 	
H	 22.263542529612 	  3.568870459212 	  7.696681185515 	
H	 21.694998399612 	  3.568873269212 	 17.827237905515 	
H	 22.263511429612 	  9.752432219212 	  7.696678355515 	
H	 21.694967299612 	  9.752435029212 	 17.827235075515 	
H	  7.822982087892 	  5.616406515596 	  2.415884711798 	
H	  7.254437957892 	  5.616409325596 	 12.546441431798 	
H	  7.822950987892 	 11.799968275596 	  2.415881881798 	
H	  7.254406857892 	 11.799971085596 	 12.546438601798 	
H	 22.503809387892 	  5.616415745596 	  2.444014641798 	
H	 21.935265257892 	  5.616418555596 	 12.574571361798 	
H	 22.503778287892 	 11.799977505596 	  2.444011811798 	
H	 21.935234157892 	 11.799980315596 	 12.574568531798 	
H	  6.152418438291 	  2.554601842297 	  2.934458271971 	
H	  5.583874308291 	  2.554604652297 	 13.065014991971 	
H	  6.152387338291 	  8.738163602297 	  2.934455441971 	
H	  5.583843208291 	  8.738166412297 	 13.065012161971 	
H	 20.833245738291 	  2.554611072297 	  2.962588201971 	
H	 20.264701608291 	  2.554613882297 	 13.093144921971 	
H	 20.833214638291 	  8.738172832297 	  2.962585371971 	
H	 20.264670508291 	  8.738175642297 	 13.093142091971 	
C	  1.993980907764 	  2.748880603266 	  6.641781820738 	
C	  1.425436777764 	  2.748883413266 	 16.772338540738 	
C	  1.993949807764 	  8.932442363266 	  6.641778990738 	
C	  1.425405677764 	  8.932445173266 	 16.772335710738 	
C	 16.674808207764 	  2.748889833266 	  6.669911750738 	
C	 16.106264077764 	  2.748892643266 	 16.800468470738 	
C	 16.674777107764 	  8.932451593266 	  6.669908920738 	
C	 16.106232977764 	  8.932454403266 	 16.800465640738 	
C	 11.472182377260 	  5.767404541262 	  9.205825067353 	
C	 10.903638247260 	  5.767407351262 	 19.336381787353 	
C	 11.472151277260 	 11.950966301262 	  9.205822237353 	
C	 10.903607147260 	 11.950969111262 	 19.336378957353 	
C	 26.153009677260 	  5.767413771262 	  9.233954997353 	
C	 25.584465547260 	  5.767416581262 	 19.364511717353 	
C	 26.152978577260 	 11.950975531262 	  9.233952167353 	
C	 25.584434447260 	 11.950978341262 	 19.364508887353 	
C	 11.741152260794 	  3.374582799201 	  3.961228170208 	
C	 11.172608130794 	  3.374585609201 	 14.091784890208 	
C	 11.741121160794 	  9.558144559201 	  3.961225340208 	
C	 11.172577030794 	  9.558147369201 	 14.091782060208 	
C	 26.421979560794 	  3.374592029201 	  3.989358100208 	
C	 25.853435430794 	  3.374594839201 	 14.119914820208 	
C	 26.421948460794 	  9.558153789201 	  3.989355270208 	
C	 25.853404330794 	  9.558156599201 	 14.119911990208 	
C	  2.262950692222 	  0.356058515540 	  1.397185519532 	
C	  1.694406562222 	  0.356061325540 	 11.527742239532 	
C	  2.262919592222 	  6.539620275540 	  1.397182689532 	
C	  1.694375462222 	  6.539623085540 	 11.527739409532 	
C	 16.943777992222 	  0.356067745540 	  1.425315449532 	
C	 16.375233862222 	  0.356070555540 	 11.555872169532 	
C	 16.943746892222 	  6.539629505540 	  1.425312619532 	
C	 16.375202762222 	  6.539632315540 	 11.555869339532 	
C	  2.169290743881 	  2.612858650877 	  5.541162217214 	
C	  1.600746613881 	  2.612861460877 	 15.671718937214 	
C	  2.169259643881 	  8.796420410877 	  5.541159387214 	
C	  1.600715513881 	  8.796423220877 	 15.671716107214 	
C	 16.850118043881 	  2.612867880877 	  5.569292147214 	
C	 16.281573913881 	  2.612870690877 	 15.699848867214 	
C	 16.850086943881 	  8.796429640877 	  5.569289317214 	
C	 16.281542813881 	  8.796432450877 	 15.699846037214 	
C	 11.336579917843 	 -0.419728861474 	 10.258945751664 	
C	 10.768035787843 	 -0.419726051474 	 20.389502471664 	
C	 11.336548817843 	  5.763832898526 	 10.258942921664 	
C	 10.768004687843 	  5.763835708526 	 20.389499641664 	
C	 26.017407217843 	 -0.419719631474 	 10.287075681664 	
C	 25.448863087843 	 -0.419716821474 	 20.417632401664 	
C	 26.017376117843 	  5.763842128526 	 10.287072851664 	
C	 25.448831987843 	  5.763844938526 	 20.417629571664 	
C	 11.565841042418 	  3.510604179649 	  5.061848668667 	
C	 10.997296912418 	  3.510606989649 	 15.192405388667 	
C	 11.565809942418 	  9.694165939649 	  5.061845838667 	
C	 10.997265812418 	  9.694168749649 	 15.192402558667 	
C	 26.246668342418 	  3.510613409649 	  5.089978598667 	
C	 25.678124212418 	  3.510616219649 	 15.220535318667 	
C	 26.246637242418 	  9.694175169649 	  5.089975768667 	
C	 25.678093112418 	  9.694177979649 	 15.220532488667 	
C	  2.398552907162 	  6.543192068244 	  0.344064817270 	
C	  1.830008777162 	  6.543194878244 	 10.474621537270 	
C	  2.398521807162 	 12.726753828244 	  0.344061987270 	
C	  1.829977677162 	 12.726756638244 	 10.474618707270 	
C	 17.079380207162 	  6.543201298244 	  0.372194747270 	
C	 16.510836077162 	  6.543204108244 	 10.502751467270 	
C	 17.079349107162 	 12.726763058244 	  0.372191917270 	
C	 16.510804977162 	 12.726765868244 	 10.502748637270 	
H	  3.010533455574 	  3.131022500701 	  5.054682147116 	
H	  2.441989325574 	  3.131025310701 	 15.185238867116 	
H	  3.010502355574 	  9.314584260701 	  5.054679317116 	
H	  2.441958225574 	  9.314587070701 	 15.185236037116 	
H	 17.691360755574 	  3.131031730701 	  5.082812077116 	
H	 17.122816625574 	  3.131034540701 	 15.213368797116 	
H	 17.691329655574 	  9.314593490701 	  5.082809247116 	
H	 17.122785525574 	  9.314596300701 	 15.213365967116 	
H	 10.496926006497 	  0.068776710854 	 10.795110932585 	
H	  9.928381876497 	  0.068779520854 	 20.925667652585 	
H	 10.496894906497 	  6.252338470854 	 10.795108102585 	
H	  9.928350776497 	  6.252341280854 	 20.925664822585 	
H	 25.177753306497 	  0.068785940854 	 10.823240862585 	
H	 24.609209176497 	  0.068788750854 	 20.953797582585 	
H	 25.177722206497 	  6.252347700854 	 10.823238032585 	
H	 24.609178076497 	  6.252350510854 	 20.953794752585 	
H	 10.724598817301 	  2.992437241752 	  5.548327489701 	
H	 10.156054687301 	  2.992440051752 	 15.678884209701 	
H	 10.724567717301 	  9.175999001752 	  5.548324659701 	
H	 10.156023587301 	  9.176001811752 	 15.678881379701 	
H	 25.405426117301 	  2.992446471752 	  5.576457419701 	
H	 24.836881987301 	  2.992449281752 	 15.707014139701 	
H	 25.405395017301 	  9.176008231752 	  5.576454589701 	
H	 24.836850887301 	  9.176011041752 	 15.707011309701 	
H	  3.238206637729 	  6.054686684978 	 -0.192100725901 	
H	  2.669662507729 	  6.054689494978 	  9.938455994099 	
H	  3.238175537729 	 12.238248444978 	 -0.192103555901 	
H	  2.669631407729 	 12.238251254978 	  9.938453164099 	
H	 17.919033937729 	  6.054695914978 	 -0.163970795901 	
H	 17.350489807729 	  6.054698724978 	  9.966585924099 	
H	 17.919002837729 	 12.238257674978 	 -0.163973625901 	
H	 17.350458707729 	 12.238260484978 	  9.966583094099 	
H	  1.399963633742 	  2.713701277429 	  4.697156354538 	
H	  0.831419503742 	  2.713704087429 	 14.827713074538 	
H	  1.399932533742 	  8.897263037429 	  4.697153524538 	
H	  0.831388403742 	  8.897265847429 	 14.827710244538 	
H	 16.080790933742 	  2.713710507429 	  4.725286284538 	
H	 15.512246803742 	  2.713713317429 	 14.855843004538 	
H	 16.080759833742 	  8.897272267429 	  4.725283454538 	
H	 15.512215703742 	  8.897275077429 	 14.855840174538 	
H	 12.593233965383 	 -0.345189167807 	  0.678561657082 	
H	 12.024689835383 	 -0.345186357807 	 10.809118377082 	
H	 12.593202865383 	  5.838372592193 	  0.678558827082 	
H	 12.024658735383 	  5.838375402193 	 10.809115547082 	
H	 27.274061265383 	 -0.345179937807 	  0.706691587082 	
H	 26.705517135383 	 -0.345177127807 	 10.837248307082 	
H	 27.274030165383 	  5.838381822193 	  0.706688757082 	
H	 26.705486035383 	  5.838384632193 	 10.837245477082 	
H	 12.335168612221 	  3.409761775387 	  5.905854029908 	
H	 11.766624482221 	  3.409764585387 	 16.036410749908 	
H	 12.335137512221 	  9.593323535387 	  5.905851199908 	
H	 11.766593382221 	  9.593326345387 	 16.036407919908 	
H	 27.015995912221 	  3.409771005387 	  5.933983959908 	
H	 26.447451782221 	  3.409773815387 	 16.064540679908 	
H	 27.015964812221 	  9.593332765387 	  5.933981129908 	
H	 26.447420682221 	  9.593335575387 	 16.064537849908 	
H	  1.141898582344 	  6.468652523069 	  9.924449164727 	
H	  0.573354452344 	  6.468655333069 	 20.055005884727 	
H	  1.141867482344 	 12.652214283069 	  9.924446334727 	
H	  0.573323352344 	 12.652217093069 	 20.055003054727 	
H	 15.822725882344 	  6.468661753069 	  9.952579094727 	
H	 15.254181752344 	  6.468664563069 	 20.083135814727 	
H	 15.822694782344 	 12.652223513069 	  9.952576264727 	
H	 15.254150652344 	 12.652226323069 	 20.083132984727 	
H	  2.656899124155 	  1.699108230157 	  5.162526121854 	
H	  2.088354994155 	  1.699111040157 	 15.293082841854 	
H	  2.656868024155 	  7.882669990157 	  5.162523291854 	
H	  2.088323894155 	  7.882672800157 	 15.293080011854 	
H	 17.337726424155 	  1.699117460157 	  5.190656051854 	
H	 16.769182294155 	  1.699120270157 	 15.321212771854 	
H	 17.337695324155 	  7.882679220157 	  5.190653221854 	
H	 16.769151194155 	  7.882682030157 	 15.321209941854 	
H	 11.275821571456 	  4.726617312304 	  0.235442042368 	
H	 10.707277441456 	  4.726620122304 	 10.365998762368 	
H	 11.275790471456 	 10.910179072304 	  0.235439212368 	
H	 10.707246341456 	 10.910181882304 	 10.365995932368 	
H	 25.956648871456 	  4.726626542304 	  0.263571972368 	
H	 25.388104741456 	  4.726629352304 	 10.394128692368 	
H	 25.956617771456 	 10.910188302304 	  0.263569142368 	
H	 25.388073641456 	 10.910191112304 	 10.394125862368 	
H	 11.078231914463 	  4.424355106011 	  5.440484172454 	
H	 10.509687784463 	  4.424357916011 	 15.571040892454 	
H	 11.078200814463 	 10.607916866011 	  5.440481342454 	
H	 10.509656684463 	 10.607919676011 	 15.571038062454 	
H	 25.759059214463 	  4.424364336011 	  5.468614102454 	
H	 25.190515084463 	  4.424367146011 	 15.599170822454 	
H	 25.759028114463 	 10.607926096011 	  5.468611272454 	
H	 25.190483984463 	 10.607928906011 	 15.599167992454 	
H	  2.459311215874 	  1.396846104754 	 10.367568762273 	
H	  1.890767085874 	  1.396848914754 	 20.498125482273 	
H	  2.459280115874 	  7.580407864754 	 10.367565932273 	
H	  1.890735985874 	  7.580410674754 	 20.498122652273 	
H	 17.140138515874 	  1.396855334754 	 10.395698692273 	
H	 16.571594385874 	  1.396858144754 	 20.526255412273 	
H	 17.140107415874 	  7.580417094754 	 10.395695862273 	
H	 16.571563285874 	  7.580419904754 	 20.526252582273 	
C	  1.478624172316 	  3.753114452385 	  6.718156777184 	
C	  0.910080042316 	  3.753117262385 	 16.848713497184 	
C	  1.478593072316 	  9.936676212385 	  6.718153947184 	
C	  0.910048942316 	  9.936679022385 	 16.848710667184 	
C	 16.159451472316 	  3.753123682385 	  6.746286707184 	
C	 15.590907342316 	  3.753126492385 	 16.876843427184 	
C	 16.159420372316 	  9.936685442385 	  6.746283877184 	
C	 15.590876242316 	  9.936688252385 	 16.876840597184 	
C	 12.057053383650 	  0.755678402675 	  9.129612496553 	
C	 11.488509253650 	  0.755681212675 	 19.260169216553 	
C	 12.057022283650 	  6.939240162675 	  9.129609666553 	
C	 11.488478153650 	  6.939242972675 	 19.260166386553 	
C	 26.737880683650 	  0.755687632675 	  9.157742426553 	
C	 26.169336553650 	  0.755690442675 	 19.288299146553 	
C	 26.737849583650 	  6.939249392675 	  9.157739596553 	
C	 26.169305453650 	  6.939252202675 	 19.288296316553 	
C	 12.256509606336 	  2.370348453372 	  3.884852072651 	
C	 11.687965476336 	  2.370351263372 	 14.015408792651 	
C	 12.256478506336 	  8.553910213372 	  3.884849242651 	
C	 11.687934376336 	  8.553913023372 	 14.015405962651 	
C	 26.937336906336 	  2.370357683372 	  3.912982002651 	
C	 26.368792776336 	  2.370360493372 	 14.043538722651 	
C	 26.937305806336 	  8.553919443372 	  3.912979172651 	
C	 26.368761676336 	  8.553922253372 	 14.043535892651 	
C	  1.678079710497 	  5.367784586583 	  1.473398005646 	
C	  1.109535580497 	  5.367787396583 	 11.603954725646 	
C	  1.678048610497 	 11.551346346583 	  1.473395175646 	
C	  1.109504480497 	 11.551349156583 	 11.603951895646 	
C	 16.358907010497 	  5.367793816583 	  1.501527935646 	
C	 15.790362880497 	  5.367796626583 	 11.632084655646 	
C	 16.358875910497 	 11.551355576583 	  1.501525105646 	
C	 15.790331780497 	 11.551358386583 	 11.632081825646 	
H	  2.074214051862 	  4.691996225547 	  6.569565381823 	
H	  1.505669921862 	  4.691999035547 	 16.700122101823 	
H	  2.074182951862 	 10.875557985547 	  6.569562551823 	
H	  1.505638821862 	 10.875560795547 	 16.700119271823 	
H	 16.755041351862 	  4.692005455547 	  6.597695311823 	
H	 16.186497221862 	  4.692008265547 	 16.728252031823 	
H	 16.755010251862 	 10.875567215547 	  6.597692481823 	
H	 16.186466121862 	 10.875570025547 	 16.728249201823 	
H	 11.409796671476 	  1.642516165403 	  9.288048766617 	
H	 10.841252541476 	  1.642518975403 	 19.418605486617 	
H	 11.409765571476 	  7.826077925403 	  9.288045936617 	
H	 10.841221441476 	  7.826080735403 	 19.418602656617 	
H	 26.090623971476 	  1.642525395403 	  9.316178696617 	
H	 25.522079841476 	  1.642528205403 	 19.446735416617 	
H	 26.090592871476 	  7.826087155403 	  9.316175866617 	
H	 25.522048741476 	  7.826089965403 	 19.446732586617 	
H	 11.660919788875 	  1.431466070194 	  4.033443107881 	
H	 11.092375658875 	  1.431468880194 	 14.163999827881 	
H	 11.660888688875 	  7.615027830194 	  4.033440277881 	
H	 11.092344558875 	  7.615030640194 	 14.163996997881 	
H	 26.341747088875 	  1.431475300194 	  4.061573037881 	
H	 25.773202958875 	  1.431478110194 	 14.192129757881 	
H	 26.341715988875 	  7.615037060194 	  4.061570207881 	
H	 25.773171858875 	  7.615039870194 	 14.192126927881 	
H	  2.325336439882 	  4.480946906017 	  1.314961282315 	
H	  1.756792309882 	  4.480949716017 	 11.445518002315 	
H	  2.325305339882 	 10.664508666017 	  1.314958452315 	
H	  1.756761209882 	 10.664511476017 	 11.445515172315 	
H	 17.006163739882 	  4.480956136017 	  1.343091212315 	
H	 16.437619609882 	  4.480958946017 	 11.473647932315 	
H	 17.006132639882 	 10.664517896017 	  1.343088382315 	
H	 16.437588509882 	 10.664520706017 	 11.473645102315 	
H	  1.183239995378 	  4.134566387009 	  7.740030132113 	
H	  0.614695865378 	  4.134569197009 	 17.870586852113 	
H	  1.183208895378 	 10.318128147009 	  7.740027302113 	
H	  0.614664765378 	 10.318130957009 	 17.870584022113 	
H	 15.864067295378 	  4.134575617009 	  7.768160062113 	
H	 15.295523165378 	  4.134578427009 	 17.898716782113 	
H	 15.864036195378 	 10.318137377009 	  7.768157232113 	
H	 15.295492065378 	 10.318140187009 	 17.898713952113 	
H	 12.310834676902 	  7.169542086577 	  8.116938223618 	
H	 11.742290546902 	  7.169544896577 	 18.247494943618 	
H	 12.310803576902 	 13.353103846577 	  8.116935393618 	
H	 11.742259446902 	 13.353106656577 	 18.247492113618 	
H	 26.991661976902 	  7.169551316577 	  8.145068153618 	
H	 26.423117846902 	  7.169554126577 	 18.275624873618 	
H	 26.991630876902 	 13.353113076577 	  8.145065323618 	
H	 26.423086746902 	 13.353115886577 	 18.275622043618 	
H	 12.551894970780 	  1.988897905913 	  2.862978119036 	
H	 11.983350840780 	  1.988900715913 	 12.993534839036 	
H	 12.551863870780 	  8.172459665913 	  2.862975289036 	
H	 11.983319740780 	  8.172462475913 	 12.993532009036 	
H	 27.232722270780 	  1.988907135913 	  2.891108049036 	
H	 26.664178140780 	  1.988909945913 	 13.021664769036 	
H	 27.232691170780 	  8.172468895913 	  2.891105219036 	
H	 26.664147040780 	  8.172471705913 	 13.021661939036 	
H	  1.424298827785 	 -1.046079286686 	  2.486072461133 	
H	  0.855754697785 	 -1.046076476686 	 12.616629181133 	
H	  1.424267727785 	  5.137482473314 	  2.486069631133 	
H	  0.855723597785 	  5.137485283314 	 12.616626351133 	
H	 16.105126127785 	 -1.046070056686 	  2.514202391133 	
H	 15.536581997785 	 -1.046067246686 	 12.644759111133 	
H	 16.105095027785 	  5.137491703314 	  2.514199561133 	
H	 15.536550897785 	  5.137494513314 	 12.644756281133 	
H	  0.546679062009 	  3.968492111277 	  6.102429753431 	
H	 -0.021865067991 	  3.968494921277 	 16.232986473431 	
H	  0.546647962009 	 10.152053871277 	  6.102426923431 	
H	 -0.021896167991 	 10.152056681277 	 16.232983643431 	
H	 15.227506362009 	  3.968501341277 	  6.130559683431 	
H	 14.658962232009 	  3.968504151277 	 16.261116403431 	
H	 15.227475262009 	 10.152063101277 	  6.130556853431 	
H	 14.658931132009 	 10.152065911277 	 16.261113573431 	
H	 12.948156152806 	  7.025239707921 	  9.752811947305 	
H	 12.379612022806 	  7.025242517921 	 19.883368667305 	
H	 12.948125052806 	 13.208801467921 	  9.752809117305 	
H	 12.379580922806 	 13.208804277921 	 19.883365837305 	
H	 27.628983452806 	  7.025248937921 	  9.780941877305 	
H	 27.060439322806 	  7.025251747921 	 19.911498597305 	
H	 27.628952352806 	 13.208810697921 	  9.780939047305 	
H	 27.060408222806 	 13.208813507921 	 19.911495767305 	
H	 13.188454610920 	  2.154971128522 	  4.500579428770 	
H	 12.619910480920 	  2.154973938522 	 14.631136148770 	
H	 13.188423510920 	  8.338532888522 	  4.500576598770 	
H	 12.619879380920 	  8.338535698522 	 14.631133318770 	
H	 27.869281910920 	  2.154980358522 	  4.528709358770 	
H	 27.300737780920 	  2.154983168522 	 14.659266078770 	
H	 27.869250810920 	  8.338542118522 	  4.528706528770 	
H	 27.300706680920 	  8.338544928522 	 14.659263248770 	
H	  0.786976695365 	 -0.901776790257 	  0.850198926278 	
H	  0.218432565365 	 -0.901773980257 	 10.980755646278 	
H	  0.786945595365 	  5.281784969743 	  0.850196096278 	
H	  0.218401465365 	  5.281787779743 	 10.980752816278 	
H	 15.467803995365 	 -0.901767560257 	  0.878328856278 	
H	 14.899259865365 	 -0.901764750257 	 11.008885576278 	
H	 15.467772895365 	  5.281794199743 	  0.878326026278 	
H	 14.899228765365 	  5.281797009743 	 11.008882746278 	
C	  1.210576014765 	  1.982946803409 	  6.905505676122 	
C	  0.642031884765 	  1.982949613409 	 17.036062396122 	
C	  1.210544914765 	  8.166508563409 	  6.905502846122 	
C	  0.642000784765 	  8.166511373409 	 17.036059566122 	
C	 15.891403314765 	  1.982956033409 	  6.933635606122 	
C	 15.322859184765 	  1.982958843409 	 17.064192326122 	
C	 15.891372214765 	  8.166517793409 	  6.933632776122 	
C	 15.322828084765 	  8.166520603409 	 17.064189496122 	
C	 12.284951703943 	  5.044674900294 	  8.950649961947 	
C	 11.716407573943 	  5.044677710294 	 19.081206681947 	
C	 12.284920603943 	 11.228236660294 	  8.950647131947 	
C	 11.716376473943 	 11.228239470294 	 19.081203851947 	
C	 26.965779003943 	  5.044684130294 	  8.978779891947 	
C	 26.397234873943 	  5.044686940294 	 19.109336611947 	
C	 26.965747903943 	 11.228245890294 	  8.978777061947 	
C	 26.397203773943 	 11.228248700294 	 19.109333781947 	
C	 12.524556855451 	  4.140518192059 	  3.697503807185 	
C	 11.956012725451 	  4.140521002059 	 13.828060527185 	
C	 12.524525755451 	 10.324079952059 	  3.697500977185 	
C	 11.955981625451 	 10.324082762059 	 13.828057697185 	
C	 27.205384155451 	  4.140527422059 	  3.725633737185 	
C	 26.636840025451 	  4.140530232059 	 13.856190457185 	
C	 27.205353055451 	 10.324089182059 	  3.725630907185 	
C	 26.636808925451 	 10.324091992059 	 13.856187627185 	
C	  1.450181288249 	  1.078787928819 	  1.652360995435 	
C	  0.881637158249 	  1.078790738819 	 11.782917715435 	
C	  1.450150188249 	  7.262349688819 	  1.652358165435 	
C	  0.881606058249 	  7.262352498819 	 11.782914885435 	
C	 16.131008588249 	  1.078797158819 	  1.680490925435 	
C	 15.562464458249 	  1.078799968819 	 11.811047645435 	
C	 16.130977488249 	  7.262358918819 	  1.680488095435 	
C	 15.562433358249 	  7.262361728819 	 11.811044815435 	
H	  0.180371450616 	  1.888052012712 	  6.424198927684 	
H	 -0.388172679384 	  1.888054822712 	 16.554755647684 	
H	  0.180340350616 	  8.071613772712 	  6.424196097684 	
H	 -0.388203779384 	  8.071616582712 	 16.554752817684 	
H	 14.861198750616 	  1.888061242712 	  6.452328857684 	
H	 14.292654620616 	  1.888064052712 	 16.582885577684 	
H	 14.861167650616 	  8.071623002712 	  6.452326027684 	
H	 14.292623520616 	  8.071625812712 	 16.582882747684 	
H	 13.314311989883 	  4.949901598765 	  9.431838356977 	
H	 12.745767859883 	  4.949904408765 	 19.562395076977 	
H	 13.314280889883 	 11.133463358765 	  9.431835526977 	
H	 12.745736759883 	 11.133466168765 	 19.562392246977 	
H	 27.995139289883 	  4.949910828765 	  9.459968286977 	
H	 27.426595159883 	  4.949913638765 	 19.590525006977 	
H	 27.995108189883 	 11.133472588765 	  9.459965456977 	
H	 27.426564059883 	 11.133475398765 	 19.590522176977 	
H	 13.554761263451 	  4.235412779078 	  4.178810960898 	
H	 12.986217133451 	  4.235415589078 	 14.309367680898 	
H	 13.554730163451 	 10.418974539078 	  4.178808130898 	
H	 12.986186033451 	 10.418977349078 	 14.309364850898 	
H	 28.235588563451 	  4.235422009078 	  4.206940890898 	
H	 27.667044433451 	  4.235424819078 	 14.337497610898 	
H	 28.235557463451 	 10.418983769078 	  4.206938060898 	
H	 27.667013333451 	 10.418986579078 	 14.337494780898 	
H	  0.420820912586 	  1.173561152511 	  1.171172796777 	
H	 -0.147723217414 	  1.173563962511 	 11.301729516777 	
H	  0.420789812586 	  7.357122912511 	  1.171169966777 	
H	 -0.147754317414 	  7.357125722511 	 11.301726686777 	
H	 15.101648212586 	  1.173570382511 	  1.199302726777 	
H	 14.533104082586 	  1.173573192511 	 11.329859446777 	
H	 15.101617112586 	  7.357132142511 	  1.199299896777 	
H	 14.533072982586 	  7.357134952511 	 11.329856616777 	
H	  0.944908860455 	  1.877712591620 	  7.986239442424 	
H	  0.376364730455 	  1.877715401620 	 18.116796162424 	
H	  0.944877760455 	  8.061274351620 	  7.986236612424 	
H	  0.376333630455 	  8.061277161620 	 18.116793332424 	
H	 15.625736160455 	  1.877721821620 	  8.014369372424 	
H	 15.057192030455 	  1.877724631620 	 18.144926092424 	
H	 15.625705060455 	  8.061283581620 	  8.014366542424 	
H	 15.057160930455 	  8.061286391620 	 18.144923262424 	
H	 12.549976971622 	  4.939671267497 	  7.869639686119 	
H	 11.981432841622 	  4.939674077497 	 18.000196406119 	
H	 12.549945871622 	 11.123233027497 	  7.869636856119 	
H	 11.981401741622 	 11.123235837497 	 18.000193576119 	
H	 27.230804271622 	  4.939680497497 	  7.897769616119 	
H	 26.662260141622 	  4.939683307497 	 18.028326336119 	
H	 27.230773171622 	 11.123242257497 	  7.897766786119 	
H	 26.662229041622 	 11.123245067497 	 18.028323506119 	
H	 12.790224003702 	  4.245752612204 	  2.616769517698 	
H	 12.221679873702 	  4.245755422204 	 12.747326237698 	
H	 12.790192903702 	 10.429314372204 	  2.616766687698 	
H	 12.221648773702 	 10.429317182204 	 12.747323407698 	
H	 27.471051303702 	  4.245761842204 	  2.644899447698 	
H	 26.902507173702 	  4.245764652204 	 12.775456167698 	
H	 27.471020203702 	 10.429323602204 	  2.644896617698 	
H	 26.902476073702 	 10.429326412204 	 12.775453337698 	
H	  1.185156149154 	  1.183791329905 	  2.733371222332 	
H	  0.616612019154 	  1.183794139905 	 12.863927942332 	
H	  1.185125049154 	  7.367353089905 	  2.733368392332 	
H	  0.616580919154 	  7.367355899905 	 12.863925112332 	
H	 15.865983449154 	  1.183800559905 	  2.761501152332 	
H	 15.297439319154 	  1.183803369905 	 12.892057872332 	
H	 15.865952349154 	  7.367362319905 	  2.761498322332 	
H	 15.297408219154 	  7.367365129905 	 12.892055042332 	
H	  1.482660379968 	  0.913615249148 	  6.927742480835 	
H	  0.914116249968 	  0.913618059148 	 17.058299200835 	
H	  1.482629279968 	  7.097177009148 	  6.927739650835 	
H	  0.914085149968 	  7.097179819148 	 17.058296370835 	
H	 16.163487679968 	  0.913624479148 	  6.955872410835 	
H	 15.594943549968 	  0.913627289148 	 17.086429130835 	
H	 16.163456579968 	  7.097186239148 	  6.955869580835 	
H	 15.594912449968 	  7.097189049148 	 17.086426300835 	
H	 12.012114176519 	  3.975821817571 	  8.928050505767 	
H	 11.443570046519 	  3.975824627571 	 19.058607225767 	
H	 12.012083076519 	 10.159383577571 	  8.928047675767 	
H	 11.443538946519 	 10.159386387571 	 19.058604395767 	
H	 26.692941476519 	  3.975831047571 	  8.956180435767 	
H	 26.124397346519 	  3.975833857571 	 19.086737155767 	
H	 26.692910376519 	 10.159392807571 	  8.956177605767 	
H	 26.124366246519 	 10.159395617571 	 19.086734325767 	
H	 12.252470994573 	  5.209849986613 	  3.675269343455 	
H	 11.683926864573 	  5.209852796613 	 13.805826063455 	
H	 12.252439894573 	 11.393411746613 	  3.675266513455 	
H	 11.683895764573 	 11.393414556613 	 13.805823233455 	
H	 26.933298294573 	  5.209859216613 	  3.703399273455 	
H	 26.364754164573 	  5.209862026613 	 13.833955993455 	
H	 26.933267194573 	 11.393420976613 	  3.703396443455 	
H	 26.364723064573 	 11.393423786613 	 13.833953163455 	
H	  1.723018688067 	  2.147641037596 	  1.674960937363 	
H	  1.154474558067 	  2.147643847596 	 11.805517657363 	
H	  1.722987588067 	  8.331202797596 	  1.674958107363 	
H	  1.154443458067 	  8.331205607596 	 11.805514827363 	
H	 16.403845988067 	  2.147650267596 	  1.703090867363 	
H	 15.835301858067 	  2.147653077596 	 11.833647587363 	
H	 16.403814888067 	  8.331212027596 	  1.703088037363 	
H	 15.835270758067 	  8.331214837596 	 11.833644757363 	
768 
Energy: -9.1542755758639998e+01 
S	  8.398244533161 	  1.441636640616 	  0.115214175552 	
S	  7.829700403161 	  1.441639450616 	 10.245770895552 	
S	  8.398213433161 	  7.625198400616 	  0.115211345552 	
S	  7.829669303161 	  7.625201210616 	 10.245768065552 	
S	 23.079071833161 	  1.441645870616 	  0.143344105552 	
S	 22.510527703161 	  1.441648680616 	 10.273900825552 	
S	 23.079040733161 	  7.625207630616 	  0.143341275552 	
S	 22.510496603161 	  7.625210440616 	 10.273897995552 	
S	  5.515027219198 	  4.498259022312 	  5.272356654248 	
S	  4.946483089198 	  4.498261832312 	 15.402913374248 	
S	  5.514996119198 	 10.681820782312 	  5.272353824248 	
S	  4.946451989198 	 10.681823592312 	 15.402910544248 	
S	 20.195854519198 	  4.498268252312 	  5.300486584248 	
S	 19.627310389198 	  4.498271062312 	 15.431043304248 	
S	 20.195823419198 	 10.681830012312 	  5.300483754248 	
S	 19.627279289198 	 10.681832822312 	 15.431040474248 	
S	  5.282042626294 	  4.673083956347 	 10.552415903074 	
S	  4.713498496294 	  4.673086766347 	 20.682972623074 	
S	  5.282011526294 	 10.856645716347 	 10.552413073074 	
S	  4.713467396294 	 10.856648526347 	 20.682969793074 	
S	 19.962869926294 	  4.673093186347 	 10.580545833074 	
S	 19.394325796294 	  4.673095996347 	 20.711102553074 	
S	 19.962838826294 	 10.856654946347 	 10.580543003074 	
S	 19.394294696294 	 10.856657756347 	 20.711099723074 	
S	  8.165261161699 	  1.616461684441 	  5.395273120219 	
S	  7.596717031699 	  1.616464494441 	 15.525829840219 	
S	  8.165230061699 	  7.800023444441 	  5.395270290219 	
S	  7.596685931699 	  7.800026254441 	 15.525827010219 	
S	 22.846088461699 	  1.616470914441 	  5.423403050219 	
S	 22.277544331699 	  1.616473724441 	 15.553959770219 	
S	 22.846057361699 	  7.800032674441 	  5.423400220219 	
S	 22.277513231699 	  7.800035484441 	 15.553956940219 	
C	  6.585218197951 	  2.525484519375 	 10.240939268997 	
C	  6.016674067951 	  2.525487329375 	 20.371495988997 	
C	  6.585187097951 	  8.709046279375 	 10.240936438997 	
C	  6.016642967951 	  8.709049089375 	 20.371493158997 	
C	 21.266045497951 	  2.525493749375 	 10.269069198997 	
C	 20.697501367951 	  2.525496559375 	 20.399625918997 	
C	 21.266014397951 	  8.709055509375 	 10.269066368997 	
C	 20.697470267951 	  8.709058319375 	 20.399623088997 	
C	  6.861119134240 	  5.577634863258 	  5.708043964655 	
C	  6.292575004240 	  5.577637673258 	 15.838600684655 	
C	  6.861088034240 	 11.761196623258 	  5.708041134655 	
C	  6.292543904240 	 11.761199433258 	 15.838597854655 	
C	 21.541946434240 	  5.577644093258 	  5.736173894655 	
C	 20.973402304240 	  5.577646903258 	 15.866730614655 	
C	 21.541915334240 	 11.761205853258 	  5.736171064655 	
C	 20.973371204240 	 11.761208663258 	 15.866727784655 	
C	  7.095068970020 	  3.589236062949 	  0.426690657788 	
C	  6.526524840020 	  3.589238872949 	 10.557247377788 	
C	  7.095037870020 	  9.772797822949 	  0.426687827788 	
C	  6.526493740020 	  9.772800632949 	 10.557244547788 	
C	 21.775896270020 	  3.589245292949 	  0.454820587788 	
C	 21.207352140020 	  3.589248102949 	 10.585377307788 	
C	 21.775865170020 	  9.772807052949 	  0.454817757788 	
C	 21.207321040020 	  9.772809862949 	 10.585374477788 	
C	  6.819169096514 	  0.537085908833 	  4.959585659315 	
C	  6.250624966514 	  0.537088718833 	 15.090142379315 	
C	  6.819137996514 	  6.720647668833 	  4.959582829315 	
C	  6.250593866514 	  6.720650478833 	 15.090139549315 	
C	 21.499996396514 	  0.537095138833 	  4.987715589315 	
C	 20.931452266514 	  0.537097948833 	 15.118272309315 	
C	 21.499965296514 	  6.720656898833 	  4.987712759315 	
C	 20.931421166514 	  6.720659708833 	 15.118269479315 	
C	  5.556195259262 	  2.390746082397 	  9.267680612769 	
C	  4.987651129262 	  2.390748892397 	 19.398237332769 	
C	  5.556164159262 	  8.574307842397 	  9.267677782769 	
C	  4.987620029262 	  8.574310652397 	 19.398234502769 	
C	 20.237022559262 	  2.390755312397 	  9.295810542769 	
C	 19.668478429262 	  2.390758122397 	 19.426367262769 	
C	 20.236991459262 	  8.574317072397 	  9.295807712769 	
C	 19.668447329262 	  8.574319882397 	 19.426364432769 	
C	  7.894108129929 	  5.450354805154 	  6.679745086239 	
C	  7.325563999929 	  5.450357615154 	 16.810301806239 	
C	  7.894077029929 	 11.633916565154 	  6.679742256239 	
C	  7.325532899929 	 11.633919375154 	 16.810298976239 	
C	 22.574935429929 	  5.450364035154 	  6.707875016239 	
C	 22.006391299929 	  5.450366845154 	 16.838431736239 	
C	 22.574904329929 	 11.633925795154 	  6.707872186239 	
C	 22.006360199929 	 11.633928605154 	 16.838428906239 	
C	  8.124091855134 	  3.723974569438 	  1.399949270085 	
C	  7.555547725134 	  3.723977379438 	 11.530505990085 	
C	  8.124060755134 	  9.907536329438 	  1.399946440085 	
C	  7.555516625134 	  9.907539139438 	 11.530503160085 	
C	 22.804919155134 	  3.723983799438 	  1.428079200085 	
C	 22.236375025134 	  3.723986609438 	 11.558635920085 	
C	 22.804888055134 	  9.907545559438 	  1.428076370085 	
C	 22.236343925134 	  9.907548369438 	 11.558633090085 	
C	  5.786179883580 	  0.664365990337 	  3.987884742489 	
C	  5.217635753580 	  0.664368800337 	 14.118441462489 	
C	  5.786148783580 	  6.847927750337 	  3.987881912489 	
C	  5.217604653580 	  6.847930560337 	 14.118438632489 	
C	 20.467007183580 	  0.664375220337 	  4.016014672489 	
C	 19.898463053580 	  0.664378030337 	 14.146571392489 	
C	 20.466976083580 	  6.847936980337 	  4.016011842489 	
C	 19.898431953580 	  6.847939790337 	 14.146568562489 	
C	  4.718443847973 	  3.500877914316 	  9.303035772065 	
C	  4.149899717973 	  3.500880724316 	 19.433592492065 	
C	  4.718412747973 	  9.684439674316 	  9.303032942065 	
C	  4.149868617973 	  9.684442484316 	 19.433589662065 	
C	 19.399271147973 	  3.500887144316 	  9.331165702065 	
C	 18.830727017973 	  3.500889954316 	 19.461722422065 	
C	 19.399240047973 	  9.684448904316 	  9.331162872065 	
C	 18.830695917973 	  9.684451714316 	 19.461719592065 	
C	  8.724266732313 	  0.440990314997 	  6.644984357586 	
C	  8.155722602313 	  0.440993124997 	 16.775541077586 	
C	  8.724235632313 	  6.624552074997 	  6.644981527586 	
C	  8.155691502313 	  6.624554884997 	 16.775538247586 	
C	 23.405094032313 	  0.440999544997 	  6.673114287586 	
C	 22.836549902313 	  0.441002354997 	 16.803671007586 	
C	 23.405062932313 	  6.624561304997 	  6.673111457586 	
C	 22.836518802313 	  6.624564114997 	 16.803668177586 	
C	  8.961843256364 	  2.613842697415 	  1.364594135945 	
C	  8.393299126364 	  2.613845507415 	 11.495150855945 	
C	  8.961812156364 	  8.797404457415 	  1.364591305945 	
C	  8.393268026364 	  8.797407267415 	 11.495148025945 	
C	 23.642670556364 	  2.613851927415 	  1.392724065945 	
C	 23.074126426364 	  2.613854737415 	 11.523280785945 	
C	 23.642639456364 	  8.797413687415 	  1.392721235945 	
C	 23.074095326364 	  8.797416497415 	 11.523277955945 	
C	  4.956021387017 	  5.673730486498 	  4.022645647755 	
C	  4.387477257017 	  5.673733296498 	 14.153202367755 	
C	  4.955990287017 	 11.857292246498 	  4.022642817755 	
C	  4.387446157017 	 11.857295056498 	 14.153199537755 	
C	 19.636848687017 	  5.673739716498 	  4.050775577755 	
C	 19.068304557017 	  5.673742526498 	 14.181332297755 	
C	 19.636817587017 	 11.857301476498 	  4.050772747755 	
C	 19.068273457017 	 11.857304286498 	 14.181329467755 	
C	  3.661694540182 	  3.619754924870 	  8.505709733445 	
C	  3.093150410182 	  3.619757734870 	 18.636266453445 	
C	  3.661663440182 	  9.803316684870 	  8.505706903445 	
C	  3.093119310182 	  9.803319494870 	 18.636263623445 	
C	 18.342521840182 	  3.619764154870 	  8.533839663445 	
C	 17.773977710182 	  3.619766964870 	 18.664396383445 	
C	 18.342490740182 	  9.803325914870 	  8.533836833445 	
C	 17.773946610182 	  9.803328724870 	 18.664393553445 	
C	  9.785136571374 	  0.561980440218 	  7.444329727907 	
C	  9.216592441374 	  0.561983250218 	 17.574886447907 	
C	  9.785105471374 	  6.745542200218 	  7.444326897907 	
C	  9.216561341374 	  6.745545010218 	 17.574883617907 	
C	 24.465963871374 	  0.561989670218 	  7.472459657907 	
C	 23.897419741374 	  0.561992480218 	 17.603016377907 	
C	 24.465932771374 	  6.745551430218 	  7.472456827907 	
C	 23.897388641374 	  6.745554240218 	 17.603013547907 	
C	 10.018592566736 	  2.494965849640 	  2.161920381532 	
C	  9.450048436736 	  2.494968659640 	 12.292477101532 	
C	 10.018561466736 	  8.678527609640 	  2.161917551532 	
C	  9.450017336736 	  8.678530419640 	 12.292474271532 	
C	 24.699419866736 	  2.494975079640 	  2.190050311532 	
C	 24.130875736736 	  2.494977889640 	 12.320607031532 	
C	 24.699388766736 	  8.678536839640 	  2.190047481532 	
C	 24.130844636736 	  8.678539649640 	 12.320604201532 	
C	  3.895151117040 	  5.552740431298 	  3.223300699987 	
C	  3.326606987040 	  5.552743241298 	 13.353857419987 	
C	  3.895120017040 	 11.736302191298 	  3.223297869987 	
C	  3.326575887040 	 11.736305001298 	 13.353854589987 	
C	 18.575978417040 	  5.552749661298 	  3.251430629987 	
C	 18.007434287040 	  5.552752471298 	 13.381987349987 	
C	 18.575947317040 	 11.736311421298 	  3.251427799987 	
C	 18.007403187040 	 11.736314231298 	 13.381984519987 	
H	  3.010707641258 	  4.572566507434 	  8.582803958311 	
H	  2.442163511258 	  4.572569317434 	 18.713360678311 	
H	  3.010676541258 	 10.756128267434 	  8.582801128311 	
H	  2.442132411258 	 10.756131077434 	 18.713357848311 	
H	 17.691534941258 	  4.572575737434 	  8.610933888311 	
H	 17.122990811258 	  4.572578547434 	 18.741490608311 	
H	 17.691503841258 	 10.756137497434 	  8.610931058311 	
H	 17.122959711258 	 10.756140307434 	 18.741487778311 	
H	 10.435840848516 	  1.514906481773 	  7.364922394311 	
H	  9.867296718516 	  1.514909291773 	 17.495479114311 	
H	 10.435809748516 	  7.698468241773 	  7.364919564311 	
H	  9.867265618516 	  7.698471051773 	 17.495476284311 	
H	 25.116668148516 	  1.514915711773 	  7.393052324311 	
H	 24.548124018516 	  1.514918521773 	 17.523609044311 	
H	 25.116637048516 	  7.698477471773 	  7.393049494311 	
H	 24.548092918516 	  7.698480281773 	 17.523606214311 	
H	 10.669579381164 	  1.542154164505 	  2.084826338633 	
H	 10.101035251164 	  1.542156974505 	 12.215383058633 	
H	 10.669548281164 	  7.725715924505 	  2.084823508633 	
H	 10.101004151164 	  7.725718734505 	 12.215380228633 	
H	 25.350406681164 	  1.542163394505 	  2.112956268633 	
H	 24.781862551164 	  1.542166204505 	 12.243512988633 	
H	 25.350375581164 	  7.725725154505 	  2.112953438633 	
H	 24.781831451164 	  7.725727964505 	 12.243510158633 	
H	  3.244446972650 	  4.599814313762 	  3.302708212962 	
H	  2.675902842650 	  4.599817123762 	 13.433264932962 	
H	  3.244415872650 	 10.783376073762 	  3.302705382962 	
H	  2.675871742650 	 10.783378883762 	 13.433262102962 	
H	 17.925274272650 	  4.599823543762 	  3.330838142962 	
H	 17.356730142650 	  4.599826353762 	 13.461394862962 	
H	 17.925243172650 	 10.783385303762 	  3.330835312962 	
H	 17.356699042650 	 10.783388113762 	 13.461392032962 	
C	  3.328036464429 	  2.675003051455 	  7.608147819474 	
C	  2.759492334429 	  2.675005861455 	 17.738704539474 	
C	  3.328005364429 	  8.858564811455 	  7.608144989474 	
C	  2.759461234429 	  8.858567621455 	 17.738701709474 	
C	 18.008863764429 	  2.675012281455 	  7.636277749474 	
C	 17.440319634429 	  2.675015091455 	 17.766834469474 	
C	 18.008832664429 	  8.858574041455 	  7.636274919474 	
C	 17.440288534429 	  8.858576851455 	 17.766831639474 	
C	 10.117795349330 	  5.732449184494 	  8.336854465376 	
C	  9.549251219330 	  5.732451994494 	 18.467411185376 	
C	 10.117764249330 	 11.916010944494 	  8.336851635376 	
C	  9.549220119330 	 11.916013754494 	 18.467408355376 	
C	 24.798622649330 	  5.732458414494 	  8.364984395376 	
C	 24.230078519330 	  5.732461224494 	 18.495541115376 	
C	 24.798591549330 	 11.916020174494 	  8.364981565376 	
C	 24.230047419330 	 11.916022984494 	 18.495538285376 	
C	 10.352250515375 	  3.439717815583 	  3.059482037161 	
C	  9.783706385375 	  3.439720625583 	 13.190038757161 	
C	 10.352219415375 	  9.623279575583 	  3.059479207161 	
C	  9.783675285375 	  9.623282385583 	 13.190035927161 	
C	 25.033077815375 	  3.439727045583 	  3.087611967161 	
C	 24.464533685375 	  3.439729855583 	 13.218168687161 	
C	 25.033046715375 	  9.623288805583 	  3.087609137161 	
C	 24.464502585375 	  9.623291615583 	 13.218165857160 	
C	  3.562491991137 	  0.382271756713 	  2.330776183429 	
C	  2.993947861137 	  0.382274566713 	 12.461332903429 	
C	  3.562460891137 	  6.565833516713 	  2.330773353429 	
C	  2.993916761137 	  6.565836326713 	 12.461330073429 	
C	 18.243319291137 	  0.382280986713 	  2.358906113429 	
C	 17.674775161137 	  0.382283796713 	 12.489462833429 	
C	 18.243288191137 	  6.565842746713 	  2.358903283429 	
C	 17.674744061137 	  6.565845556713 	 12.489460003429 	
C	  4.172328108425 	  1.591304490583 	  7.558134611789 	
C	  3.603783978425 	  1.591307300583 	 17.688691331789 	
C	  4.172297008425 	  7.774866250583 	  7.558131781789 	
C	  3.603752878425 	  7.774869060583 	 17.688688501789 	
C	 18.853155408425 	  1.591313720583 	  7.586264541789 	
C	 18.284611278425 	  1.591316530583 	 17.716821261789 	
C	 18.853124308425 	  7.774875480583 	  7.586261711789 	
C	 18.284580178425 	  7.774878290583 	 17.716818431789 	
C	  9.274326916119 	  4.649048230377 	  8.389285662103 	
C	  8.705782786119 	  4.649051040377 	 18.519842382103 	
C	  9.274295816119 	 10.832609990377 	  8.389282832103 	
C	  8.705751686119 	 10.832612800377 	 18.519839552103 	
C	 23.955154216119 	  4.649057460377 	  8.417415592103 	
C	 23.386610086119 	  4.649060270377 	 18.547972312103 	
C	 23.955123116119 	 10.832619220377 	  8.417412762103 	
C	 23.386578986119 	 10.832622030377 	 18.547969482103 	
C	  9.507958939046 	  4.523416427358 	  3.109495117151 	
C	  8.939414809046 	  4.523419237358 	 13.240051837151 	
C	  9.507927839046 	 10.706978187358 	  3.109492287151 	
C	  8.939383709046 	 10.706980997358 	 13.240049007151 	
C	 24.188786239046 	  4.523425657358 	  3.137625047151 	
C	 23.620242109046 	  4.523428467358 	 13.268181767151 	
C	 24.188755139046 	 10.706987417358 	  3.137622217151 	
C	 23.620211009046 	 10.706990227358 	 13.268178937151 	
C	  4.405960376251 	  1.465672633755 	  2.278344678789 	
C	  3.837416246251 	  1.465675443755 	 12.408901398789 	
C	  4.405929276251 	  7.649234393755 	  2.278341848789 	
C	  3.837385146251 	  7.649237203755 	 12.408898568789 	
C	 19.086787676251 	  1.465681863755 	  2.306474608789 	
C	 18.518243546251 	  1.465684673755 	 12.437031328789 	
C	 19.086756576251 	  7.649243623755 	  2.306471778789 	
C	 18.518212446251 	  7.649246433755 	 12.437028498789 	
H	  3.944428458133 	  0.768170408742 	  6.781286578720 	
H	  3.375884328133 	  0.768173218742 	 16.911843298720 	
H	  3.944397358133 	  6.951732168742 	  6.781283748720 	
H	  3.375853228133 	  6.951734978742 	 16.911840468720 	
H	 18.625255758133 	  0.768179638742 	  6.809416508720 	
H	 18.056711628133 	  0.768182448742 	 16.939973228720 	
H	 18.625224658133 	  6.951741398742 	  6.809413678720 	
H	 18.056680528133 	  6.951744208742 	 16.939970398720 	
H	  9.502122945332 	  3.825709606213 	  9.166477359373 	
H	  8.933578815332 	  3.825712416213 	 19.297034079373 	
H	  9.502091845332 	 10.009271366213 	  9.166474529373 	
H	  8.933547715332 	 10.009274176213 	 19.297031249373 	
H	 24.182950245332 	  3.825718836213 	  9.194607289373 	
H	 23.614406115332 	  3.825721646213 	 19.325164009373 	
H	 24.182919145332 	 10.009280596213 	  9.194604459373 	
H	 23.614375015332 	 10.009283406213 	 19.325161179373 	
H	  9.735858711934 	  5.346550669926 	  3.886342959261 	
H	  9.167314581934 	  5.346553479926 	 14.016899679261 	
H	  9.735827611934 	 11.530112429926 	  3.886340129261 	
H	  9.167283481934 	 11.530115239926 	 14.016896849261 	
H	 24.416686011934 	  5.346559899926 	  3.914472889261 	
H	 23.848141881934 	  5.346562709926 	 14.045029609261 	
H	 24.416654911934 	 11.530121659926 	  3.914470059261 	
H	 23.848110781934 	 11.530124469926 	 14.045026779261 	
H	  4.178164016963 	  2.289011388236 	  1.501153199274 	
H	  3.609619886963 	  2.289014198236 	 11.631709919274 	
H	  4.178132916963 	  8.472573148236 	  1.501150369274 	
H	  3.609588786963 	  8.472575958236 	 11.631707089274 	
H	 18.858991316963 	  2.289020618236 	  1.529283129274 	
H	 18.290447186963 	  2.289023428236 	 11.659839849274 	
H	 18.858960216963 	  8.472582378236 	  1.529280299274 	
H	 18.290416086963 	  8.472585188236 	 11.659837019274 	
C	  5.211672389292 	  1.450115687737 	  8.324035571178 	
C	  4.643128259292 	  1.450118497737 	 18.454592291178 	
C	  5.211641289292 	  7.633677447737 	  8.324032741178 	
C	  4.643097159292 	  7.633680257737 	 18.454589461178 	
C	 19.892499689292 	  1.450124917737 	  8.352165501178 	
C	 19.323955559292 	  1.450127727737 	 18.482722221178 	
C	 19.892468589292 	  7.633686677737 	  8.352162671178 	
C	 19.323924459292 	  7.633689487737 	 18.482719391178 	
C	  8.234817241220 	  4.507806272387 	  7.623267054324 	
C	  7.666273111220 	  4.507809082387 	 17.753823774324 	
C	  8.234786141220 	 10.691368032387 	  7.623264224324 	
C	  7.666242011220 	 10.691370842387 	 17.753820944324 	
C	 22.915644541220 	  4.507815502387 	  7.651396984324 	
C	 22.347100411220 	  4.507818312387 	 17.781953704324 	
C	 22.915613441220 	 10.691377262387 	  7.651394154324 	
C	 22.347069311220 	 10.691380072387 	 17.781950874324 	
C	  8.468614696104 	  4.664605122003 	  2.343594120631 	
C	  7.900070566104 	  4.664607932003 	 12.474150840631 	
C	  8.468583596104 	 10.848166882003 	  2.343591290631 	
C	  7.900039466104 	 10.848169692003 	 12.474148010631 	
C	 23.149441996104 	  4.664614352003 	  2.371724050631 	
C	 22.580897866104 	  4.664617162003 	 12.502280770631 	
C	 23.149410896104 	 10.848176112003 	  2.371721220631 	
C	 22.580866766104 	 10.848178922003 	 12.502277940631 	
C	  5.445470386861 	  1.606914579885 	  3.044362937576 	
C	  4.876926256861 	  1.606917389885 	 13.174919657576 	
C	  5.445439286861 	  7.790476339885 	  3.044360107576 	
C	  4.876895156861 	  7.790479149885 	 13.174916827576 	
C	 20.126297686861 	  1.606923809885 	  3.072492867576 	
C	 19.557753556861 	  1.606926619885 	 13.203049587576 	
C	 20.126266586861 	  7.790485569885 	  3.072490037576 	
C	 19.557722456861 	  7.790488379885 	 13.203046757576 	
H	  5.885922347995 	  0.516443259823 	  8.231832993616 	
H	  5.317378217995 	  0.516446069823 	 18.362389713616 	
H	  5.885891247995 	  6.700005019823 	  8.231830163616 	
H	  5.317347117995 	  6.700007829823 	 18.362386883616 	
H	 20.566749647995 	  0.516452489823 	  8.259962923616 	
H	 19.998205517995 	  0.516455299823 	 18.390519643616 	
H	 20.566718547995 	  6.700014249823 	  8.259960093616 	
H	 19.998174417995 	  6.700017059823 	 18.390516813616 	
H	  7.560489646587 	  3.573882043035 	  7.715716027682 	
H	  6.991945516587 	  3.573884853035 	 17.846272747682 	
H	  7.560458546587 	  9.757443803035 	  7.715713197682 	
H	  6.991914416587 	  9.757446613035 	 17.846269917682 	
H	 22.241316946587 	  3.573891273035 	  7.743845957682 	
H	 21.672772816587 	  3.573894083035 	 17.874402677682 	
H	 22.241285846587 	  9.757453033035 	  7.743843127682 	
H	 21.672741716587 	  9.757455843035 	 17.874399847682 	
H	  7.794364725051 	  5.598277556967 	  2.435796476432 	
H	  7.225820595051 	  5.598280366967 	 12.566353196432 	
H	  7.794333625051 	 11.781839316967 	  2.435793646432 	
H	  7.225789495051 	 11.781842126967 	 12.566350366432 	
H	 22.475192025051 	  5.598286786967 	  2.463926406432 	
H	 21.906647895051 	  5.598289596967 	 12.594483126432 	
H	 22.475160925051 	 11.781848546967 	  2.463923576432 	
H	 21.906616795051 	 11.781851356967 	 12.594480296432 	
H	  6.119797959504 	  2.540838792659 	  2.951913792242 	
H	  5.551253829504 	  2.540841602659 	 13.082470512242 	
H	  6.119766859504 	  8.724400552659 	  2.951910962242 	
H	  5.551222729504 	  8.724403362659 	 13.082467682242 	
H	 20.800625259504 	  2.540848022659 	  2.980043722242 	
H	 20.232081129504 	  2.540850832659 	 13.110600442242 	
H	 20.800594159504 	  8.724409782659 	  2.980040892242 	
H	 20.232050029504 	  8.724412592659 	 13.110597612242 	
C	  1.993841019593 	  2.795874439477 	  6.664378991366 	
C	  1.425296889593 	  2.795877249477 	 16.794935711366 	
C	  1.993809919593 	  8.979436199477 	  6.664376161366 	
C	  1.425265789593 	  8.979439009477 	 16.794932881366 	
C	 16.674668319593 	  2.795883669477 	  6.692508921366 	
C	 16.106124189593 	  2.795886479477 	 16.823065641366 	
C	 16.674637219593 	  8.979445429477 	  6.692506091366 	
C	 16.106093089593 	  8.979448239477 	 16.823062811366 	
C	 11.433935744254 	  5.813315982965 	  9.282075053460 	
C	 10.865391614254 	  5.813318792965 	 19.412631773460 	
C	 11.433904644254 	 11.996877742965 	  9.282072223460 	
C	 10.865360514254 	 11.996880552965 	 19.412628943460 	
C	 26.114763044254 	  5.813325212965 	  9.310204983460 	
C	 25.546218914254 	  5.813328022965 	 19.440761703460 	
C	 26.114731944254 	 11.996886972965 	  9.310202153460 	
C	 25.546187814254 	 11.996889782965 	 19.440758873460 	
C	 11.686445758925 	  3.318846766199 	  4.003251021337 	
C	 11.117901628925 	  3.318849576199 	 14.133807741337 	
C	 11.686414658925 	  9.502408526199 	  4.003248191337 	
C	 11.117870528925 	  9.502411336199 	 14.133804911337 	
C	 26.367273058925 	  3.318855996199 	  4.031380951337 	
C	 25.798728928925 	  3.318858806199 	 14.161937671337 	
C	 26.367241958925 	  9.502417756199 	  4.031378121337 	
C	 25.798697828925 	  9.502420566199 	 14.161934841337 	
C	  2.246351132768 	  0.301404885953 	  1.385556048238 	
C	  1.677807002768 	  0.301407695953 	 11.516112768238 	
C	  2.246320032768 	  6.484966645953 	  1.385553218238 	
C	  1.677775902768 	  6.484969455953 	 11.516109938238 	
C	 16.927178432768 	  0.301414115953 	  1.413685978238 	
C	 16.358634302768 	  0.301416925953 	 11.544242698238 	
C	 16.927147332768 	  6.484975875953 	  1.413683148238 	
C	 16.358603202768 	  6.484978685953 	 11.544239868238 	
C	  2.182753193710 	  2.537660728532 	  5.535697209130 	
C	  1.614209063710 	  2.537663538532 	 15.666253929130 	
C	  2.182722093710 	  8.721222488532 	  5.535694379130 	
C	  1.614177963710 	  8.721225298532 	 15.666251099130 	
C	 16.863580493710 	  2.537669958532 	  5.563827139130 	
C	 16.295036363710 	  2.537672768532 	 15.694383859130 	
C	 16.863549393710 	  8.721231718532 	  5.563824309130 	
C	 16.295005263710 	  8.721234528532 	 15.694381029130 	
C	 11.265563215414 	 -0.462623713573 	 10.358252586467 	
C	 10.697019085414 	 -0.462620903573 	 20.488809306467 	
C	 11.265532115414 	  5.720938046427 	 10.358249756467 	
C	 10.696987985414 	  5.720940856427 	 20.488806476467 	
C	 25.946390515414 	 -0.462614483573 	 10.386382516467 	
C	 25.377846385414 	 -0.462611673573 	 20.516939236467 	
C	 25.946359415414 	  5.720947276427 	 10.386379686467 	
C	 25.377815285414 	  5.720950086427 	 20.516936406467 	
C	 11.497532564764 	  3.577059748933 	  5.131933734915 	
C	 10.928988434764 	  3.577062558933 	 15.262490454915 	
C	 11.497501464764 	  9.760621508933 	  5.131930904915 	
C	 10.928957334764 	  9.760624318933 	 15.262487624915 	
C	 26.178359864764 	  3.577068978933 	  5.160063664915 	
C	 25.609815734764 	  3.577071788933 	 15.290620384915 	
C	 26.178328764764 	  9.760630738933 	  5.160060834915 	
C	 25.609784634764 	  9.760633548933 	 15.290617554915 	
C	  2.414723372253 	  6.577344775409 	  0.309378435535 	
C	  1.846179242253 	  6.577347585409 	 10.439935155535 	
C	  2.414692272253 	 12.760906535409 	  0.309375605535 	
C	  1.846148142253 	 12.760909345409 	 10.439932325535 	
C	 17.095550672253 	  6.577354005409 	  0.337508365535 	
C	 16.527006542253 	  6.577356815409 	 10.468065085535 	
C	 17.095519572253 	 12.760915765409 	  0.337505535535 	
C	 16.526975442253 	 12.760918575409 	 10.468062255535 	
H	  3.065258942344 	  3.002296757322 	  5.018749683517 	
H	  2.496714812344 	  3.002299567322 	 15.149306403517 	
H	  3.065227842344 	  9.185858517322 	  5.018746853517 	
H	  2.496683712344 	  9.185861327322 	 15.149303573517 	
H	 17.746086242344 	  3.002305987322 	  5.046879613517 	
H	 17.177542112344 	  3.002308797322 	 15.177436333517 	
H	 17.746055142344 	  9.185867747322 	  5.046876783517 	
H	 17.177511012344 	  9.185870557322 	 15.177433503517 	
H	 10.391065381382 	 -0.059546114973 	 10.925727022817 	
H	  9.822521251382 	 -0.059543304973 	 21.056283742817 	
H	 10.391034281382 	  6.124015645027 	 10.925724192817 	
H	  9.822490151382 	  6.124018455027 	 21.056280912817 	
H	 25.071892681382 	 -0.059536884973 	 10.953856952817 	
H	 24.503348551382 	 -0.059534074973 	 21.084413672817 	
H	 25.071861581382 	  6.124024875027 	 10.953854122817 	
H	 24.503317451382 	  6.124027685027 	 21.084410842817 	
H	 10.615027264292 	  3.112421076244 	  5.648880531756 	
H	 10.046483134292 	  3.112423886244 	 15.779437251756 	
H	 10.614996164292 	  9.295982836244 	  5.648877701756 	
H	 10.046452034292 	  9.295985646244 	 15.779434421756 	
H	 25.295854564292 	  3.112430306244 	  5.677010461756 	
H	 24.727310434292 	  3.112433116244 	 15.807567181756 	
H	 25.295823464292 	  9.295992066244 	  5.677007631756 	
H	 24.727279334292 	  9.295994876244 	 15.807564351756 	
H	  3.289220972469 	  6.174267302888 	 -0.258096341281 	
H	  2.720676842469 	  6.174270112888 	  9.872460378719 	
H	  3.289189872469 	 12.357829062888 	 -0.258099171281 	
H	  2.720645742469 	 12.357831872888 	  9.872457548719 	
H	 17.970048272469 	  6.174276532888 	 -0.229966411281 	
H	 17.401504142469 	  6.174279342888 	  9.900590308719 	
H	 17.970017172469 	 12.357838292888 	 -0.229969241281 	
H	 17.401473042469 	 12.357841102888 	  9.900587478719 	
H	  1.396997681166 	  2.639100871580 	  4.712082877841 	
H	  0.828453551166 	  2.639103681580 	 14.842639597841 	
H	  1.396966581166 	  8.822662631580 	  4.712080047841 	
H	  0.828422451166 	  8.822665441580 	 14.842636767841 	
H	 16.077824981166 	  2.639110101580 	  4.740212807841 	
H	 15.509280851166 	  2.639112911580 	 14.870769527841 	
H	 16.077793881166 	  8.822671861580 	  4.740209977841 	
H	 15.509249751166 	  8.822674671580 	 14.870766697841 	
H	 12.540940276339 	 -0.415201963402 	  0.703529052406 	
H	 11.972396146339 	 -0.415199153402 	 10.834085772406 	
H	 12.540909176339 	  5.768359796598 	  0.703526222406 	
H	 11.972365046339 	  5.768362606598 	 10.834082942406 	
H	 27.221767576339 	 -0.415192733402 	  0.731658982406 	
H	 26.653223446339 	 -0.415189923402 	 10.862215702406 	
H	 27.221736476339 	  5.768369026598 	  0.731656152406 	
H	 26.653192346339 	  5.768371836598 	 10.862212872406 	
H	 12.283288345125 	  3.475619922942 	  5.955547785398 	
H	 11.714744215125 	  3.475622732942 	 16.086104505398 	
H	 12.283257245125 	  9.659181682942 	  5.955544955398 	
H	 11.714713115125 	  9.659184492942 	 16.086101675398 	
H	 26.964115645125 	  3.475629152942 	  5.983677715398 	
H	 26.395571515125 	  3.475631962942 	 16.114234435398 	
H	 26.964084545125 	  9.659190912942 	  5.983674885398 	
H	 26.395540415125 	  9.659193722942 	 16.114231605398 	
H	  1.139345965369 	  6.529923123068 	  9.964102321102 	
H	  0.570801835369 	  6.529925933068 	 20.094659041102 	
H	  1.139314865369 	 12.713484883068 	  9.964099491102 	
H	  0.570770735369 	 12.713487693068 	 20.094656211102 	
H	 15.820173265369 	  6.529932353068 	  9.992232251102 	
H	 15.251629135369 	  6.529935163068 	 20.122788971102 	
H	 15.820142165369 	 12.713494113068 	  9.992229421102 	
H	 15.251598035369 	 12.713496923068 	 20.122786141102 	
H	  2.570922320674 	  1.518696272885 	  5.264018793837 	
H	  2.002378190674 	  1.518699082885 	 15.394575513837 	
H	  2.570891220674 	  7.702258032885 	  5.264015963837 	
H	  2.002347090674 	  7.702260842885 	 15.394572683837 	
H	 17.251749620674 	  1.518705502885 	  5.292148723837 	
H	 16.683205490674 	  1.518708312885 	 15.422705443837 	
H	 17.251718520674 	  7.702267262885 	  5.292145893837 	
H	 16.683174390674 	  7.702270072885 	 15.422702613837 	
H	 11.307787321487 	  4.522292144292 	  0.152906748408 	
H	 10.739243191487 	  4.522294954292 	 10.283463468408 	
H	 11.307756221487 	 10.705853904292 	  0.152903918408 	
H	 10.739212091487 	 10.705856714292 	 10.283460638408 	
H	 25.988614621487 	  4.522301374292 	  0.181036678408 	
H	 25.420070491487 	  4.522304184292 	 10.311593398408 	
H	 25.988583521487 	 10.705863134292 	  0.181033848408 	
H	 25.420039391487 	 10.705865944292 	 10.311590568408 	
H	 11.109362100723 	  4.596024188953 	  5.403612332913 	
H	 10.540817970723 	  4.596026998953 	 15.534169052913 	
H	 11.109331000723 	 10.779585948953 	  5.403609502913 	
H	 10.540786870723 	 10.779588758953 	 15.534166222913 	
H	 25.790189400723 	  4.596033418953 	  5.431742262913 	
H	 25.221645270723 	  4.596036228953 	 15.562298982913 	
H	 25.790158300723 	 10.779595178953 	  5.431739432913 	
H	 25.221614170723 	 10.779597988953 	 15.562296152913 	
H	  2.372499221323 	  1.592429019307 	 10.514724546381 	
H	  1.803955091323 	  1.592431829307 	 20.645281266381 	
H	  2.372468121323 	  7.775990779307 	 10.514721716381 	
H	  1.803923991323 	  7.775993589307 	 20.645278436381 	
H	 17.053326521323 	  1.592438249307 	 10.542854476381 	
H	 16.484782391323 	  1.592441059307 	 20.673411196381 	
H	 17.053295421323 	  7.776000009307 	 10.542851646381 	
H	 16.484751291323 	  7.776002819307 	 20.673408366381 	
C	  1.543781437818 	  3.881090954019 	  6.668652301394 	
C	  0.975237307818 	  3.881093764019 	 16.799209021394 	
C	  1.543750337818 	 10.064652714019 	  6.668649471394 	
C	  0.975206207818 	 10.064655524019 	 16.799206191394 	
C	 16.224608737818 	  3.881100184019 	  6.696782231394 	
C	 15.656064607818 	  3.881102994019 	 16.827338951394 	
C	 16.224577637818 	 10.064661944019 	  6.696779401394 	
C	 15.656033507818 	 10.064664754019 	 16.827336121394 	
C	 11.929663915532 	  0.876423819619 	  9.279804402664 	
C	 11.361119785532 	  0.876426629619 	 19.410361122664 	
C	 11.929632815532 	  7.059985579619 	  9.279801572664 	
C	 11.361088685532 	  7.059988389619 	 19.410358292664 	
C	 26.610491215532 	  0.876433049619 	  9.307934332664 	
C	 26.041947085532 	  0.876435859619 	 19.438491052664 	
C	 26.610460115532 	  7.059994809619 	  9.307931502664 	
C	 26.041915985532 	  7.059997619619 	 19.438488222664 	
C	 12.136506374433 	  2.233629857966 	  3.998976755638 	
C	 11.567962244433 	  2.233632667966 	 14.129533475638 	
C	 12.136475274433 	  8.417191617966 	  3.998973925638 	
C	 11.567931144433 	  8.417194427966 	 14.129530645638 	
C	 26.817333674433 	  2.233639087966 	  4.027106685638 	
C	 26.248789544433 	  2.233641897966 	 14.157663405638 	
C	 26.817302574433 	  8.417200847966 	  4.027103855638 	
C	 26.248758444433 	  8.417203657966 	 14.157660575638 	
C	  1.750622981877 	  5.238297009255 	  1.387826614038 	
C	  1.182078851877 	  5.238299819255 	 11.518383334038 	
C	  1.750591881877 	 11.421858769255 	  1.387823784038 	
C	  1.182047751877 	 11.421861579255 	 11.518380504038 	
C	 16.431450281877 	  5.238306239255 	  1.415956544038 	
C	 15.862906151877 	  5.238309049255 	 11.546513264038 	
C	 16.431419181877 	 11.421867999255 	  1.415953714038 	
C	 15.862875051877 	 11.421870809255 	 11.546510434038 	
H	  2.224554068157 	  4.759943745462 	  6.422610560543 	
H	  1.656009938157 	  4.759946555462 	 16.553167280543 	
H	  2.224522968157 	 10.943505505462 	  6.422607730543 	
H	  1.655978838157 	 10.943508315462 	 16.553164450543 	
H	 16.905381368157 	  4.759952975462 	  6.450740490543 	
H	 16.336837238157 	  4.759955785462 	 16.581297210543 	
H	 16.905350268157 	 10.943514735462 	  6.450737660543 	
H	 16.336806138157 	 10.943517545462 	 16.581294380543 	
H	 11.215078309866 	  1.709769952600 	  9.526741433769 	
H	 10.646534179866 	  1.709772762600 	 19.657298153769 	
H	 11.215047209866 	  7.893331712600 	  9.526738603769 	
H	 10.646503079866 	  7.893334522600 	 19.657295323769 	
H	 25.895905609866 	  1.709779182600 	  9.554871363769 	
H	 25.327361479866 	  1.709781992600 	 19.685428083769 	
H	 25.895874509866 	  7.893340942600 	  9.554868533769 	
H	 25.327330379866 	  7.893343752600 	 19.685425253769 	
H	 11.455734017137 	  1.354776345013 	  4.245017760415 	
H	 10.887189887137 	  1.354779155013 	 14.375574480415 	
H	 11.455702917137 	  7.538338105013 	  4.245014930415 	
H	 10.887158787137 	  7.538340915013 	 14.375571650415 	
H	 26.136561317137 	  1.354785575013 	  4.273147690415 	
H	 25.568017187137 	  1.354788385013 	 14.403704410415 	
H	 26.136530217137 	  7.538347335013 	  4.273144860415 	
H	 25.567986087137 	  7.538350145013 	 14.403701580415 	
H	  2.465208574230 	  4.404950978304 	  1.140889099478 	
H	  1.896664444230 	  4.404953788304 	 11.271445819478 	
H	  2.465177474230 	 10.588512738304 	  1.140886269478 	
H	  1.896633344230 	 10.588515548304 	 11.271442989478 	
H	 17.146035874230 	  4.404960208304 	  1.169019029478 	
H	 16.577491744230 	  4.404963018304 	 11.299575749478 	
H	 17.146004774230 	 10.588521968304 	  1.169016199478 	
H	 16.577460644230 	 10.588524778304 	 11.299572919478 	
H	  1.251311749613 	  4.350157256417 	  7.670743057848 	
H	  0.682767619613 	  4.350160066417 	 17.801299777848 	
H	  1.251280649613 	 10.533719016417 	  7.670740227848 	
H	  0.682736519613 	 10.533721826417 	 17.801296947848 	
H	 15.932139049613 	  4.350166486417 	  7.698872987848 	
H	 15.363594919613 	  4.350169296417 	 17.829429707848 	
H	 15.932107949613 	 10.533728246417 	  7.698870157848 	
H	 15.363563819613 	 10.533731056417 	 17.829426877848 	
H	 12.195754366878 	  7.389134895072 	  8.274532835761 	
H	 11.627210236878 	  7.389137705072 	 18.405089555761 	
H	 12.195723266878 	 13.572696655072 	  8.274530005761 	
H	 11.627179136878 	 13.572699465072 	 18.405086725761 	
H	 26.876581666878 	  7.389144125072 	  8.302662765761 	
H	 26.308037536878 	  7.389146935072 	 18.433219485761 	
H	 26.876550566878 	 13.572705885072 	  8.302659935761 	
H	 26.308006436878 	 13.572708695072 	 18.433216655761 	
H	 12.428977259990 	  1.764565002852 	  2.996885443776 	
H	 11.860433129990 	  1.764567812852 	 13.127442163776 	
H	 12.428946159990 	  7.948126762852 	  2.996882613776 	
H	 11.860402029990 	  7.948129572852 	 13.127439333776 	
H	 27.109804559990 	  1.764574232852 	  3.025015373776 	
H	 26.541260429990 	  1.764577042852 	 13.155572093776 	
H	 27.109773459990 	  7.948135992852 	  3.025012543776 	
H	 26.541229329990 	  7.948138802852 	 13.155569263776 	
H	  1.484533036389 	 -1.274414274554 	  2.393098344646 	
H	  0.915988906389 	 -1.274411464554 	 12.523655064646 	
H	  1.484501936389 	  4.909147485446 	  2.393095514646 	
H	  0.915957806389 	  4.909150295446 	 12.523652234646 	
H	 16.165360336389 	 -1.274405044554 	  2.421228274646 	
H	 15.596816206389 	 -1.274402234554 	 12.551784994646 	
H	 16.165329236389 	  4.909156715446 	  2.421225444646 	
H	 15.596785106389 	  4.909159525446 	 12.551782164646 	
H	  0.631881112592 	  4.103175111278 	  6.025748686776 	
H	  0.063336982592 	  4.103177921278 	 16.156305406776 	
H	  0.631850012592 	 10.286736871278 	  6.025745856776 	
H	  0.063305882592 	 10.286739681278 	 16.156302576776 	
H	 15.312708412592 	  4.103184341278 	  6.053878616776 	
H	 14.744164282592 	  4.103187151278 	 16.184435336776 	
H	 15.312677312592 	 10.286746101278 	  6.053875786776 	
H	 14.744133182592 	 10.286748911278 	 16.184432506776 	
H	 12.812603520720 	  7.155412338933 	  9.920343507598 	
H	 12.244059390720 	  7.155415148933 	 20.050900227598 	
H	 12.812572420720 	 13.338974098933 	  9.920340677598 	
H	 12.244028290720 	 13.338976908933 	 20.050897397598 	
H	 27.493430820720 	  7.155421568933 	  9.948473437598 	
H	 26.924886690720 	  7.155424378933 	 20.079030157598 	
H	 27.493399720720 	 13.338983328933 	  9.948470607598 	
H	 26.924855590720 	 13.338986138933 	 20.079027327598 	
H	 13.048406563217 	  2.011546075666 	  4.641880644195 	
H	 12.479862433217 	  2.011548885666 	 14.772437364195 	
H	 13.048375463217 	  8.195107835666 	  4.641877814195 	
H	 12.479831333217 	  8.195110645666 	 14.772434534195 	
H	 27.729233863217 	  2.011555305666 	  4.670010574195 	
H	 27.160689733217 	  2.011558115666 	 14.800567294195 	
H	 27.729202763217 	  8.195117065666 	  4.670007744195 	
H	 27.160658633217 	  8.195119875666 	 14.800564464195 	
H	  0.867683093991 	 -1.040691581496 	  0.747287923664 	
H	  0.299138963991 	 -1.040688771496 	 10.877844643664 	
H	  0.867651993991 	  5.142870178504 	  0.747285093664 	
H	  0.299107863991 	  5.142872988504 	 10.877841813664 	
H	 15.548510393991 	 -1.040682351496 	  0.775417853664 	
H	 14.979966263991 	 -1.040679541496 	 10.905974573664 	
H	 15.548479293991 	  5.142879408504 	  0.775415023664 	
H	 14.979935163991 	  5.142882218504 	 10.905971743664 	
C	  1.142791773022 	  2.073756648880 	  7.032942531841 	
C	  0.574247643022 	  2.073759458880 	 17.163499251841 	
C	  1.142760673022 	  8.257318408880 	  7.032939701841 	
C	  0.574216543022 	  8.257321218880 	 17.163496421841 	
C	 15.823619073022 	  2.073765878880 	  7.061072461841 	
C	 15.255074943022 	  2.073768688880 	 17.191629181841 	
C	 15.823587973022 	  8.257327638880 	  7.061069631841 	
C	 15.255043843022 	  8.257330448880 	 17.191626351841 	
C	 12.303193057493 	  5.131760816672 	  8.915239740274 	
C	 11.734648927493 	  5.131763626672 	 19.045796460274 	
C	 12.303161957493 	 11.315322576672 	  8.915236910274 	
C	 11.734617827493 	 11.315325386672 	 19.045793630274 	
C	 26.984020357493 	  5.131770046672 	  8.943369670274 	
C	 26.415476227493 	  5.131772856672 	 19.073926390274 	
C	 26.983989257493 	 11.315331806672 	  8.943366840274 	
C	 26.415445127493 	 11.315334616672 	 19.073923560274 	
C	 12.537494894808 	  4.040966289743 	  3.634687495489 	
C	 11.968950764808 	  4.040969099743 	 13.765244215489 	
C	 12.537463794808 	 10.224528049743 	  3.634684665489 	
C	 11.968919664808 	 10.224530859743 	 13.765241385489 	
C	 27.218322194808 	  4.040975519743 	  3.662817425489 	
C	 26.649778064808 	  4.040978329743 	 13.793374145489 	
C	 27.218291094808 	 10.224537279743 	  3.662814595489 	
C	 26.649746964808 	 10.224540089743 	 13.793371315489 	
C	  1.377093766777 	  0.982959805682 	  1.752391728272 	
C	  0.808549636777 	  0.982962615682 	 11.882948448272 	
C	  1.377062666777 	  7.166521565682 	  1.752388898272 	
C	  0.808518536777 	  7.166524375682 	 11.882945618272 	
C	 16.057921066777 	  0.982969035682 	  1.780521658272 	
C	 15.489376936777 	  0.982971845682 	 11.911078378272 	
C	 16.057889966777 	  7.166530795682 	  1.780518828272 	
C	 15.489345836777 	  7.166533605682 	 11.911075548272 	
H	  0.116009896071 	  2.010385828699 	  6.541857503507 	
H	 -0.452534233929 	  2.010388638699 	 16.672414223507 	
H	  0.115978796071 	  8.193947588699 	  6.541854673507 	
H	 -0.452565333929 	  8.193950398699 	 16.672411393507 	
H	 14.796837196071 	  2.010395058699 	  6.569987433507 	
H	 14.228293066071 	  2.010397868699 	 16.700544153507 	
H	 14.796806096071 	  8.193956818699 	  6.569984603507 	
H	 14.228261966071 	  8.193959628699 	 16.700541323507 	
H	 13.330224820115 	  5.067779015363 	  9.405976410465 	
H	 12.761680690115 	  5.067781825363 	 19.536533130465 	
H	 13.330193720115 	 11.251340775363 	  9.405973580465 	
H	 12.761649590115 	 11.251343585363 	 19.536530300465 	
H	 28.011052120115 	  5.067788245363 	  9.434106340465 	
H	 27.442507990115 	  5.067791055363 	 19.564663060465 	
H	 28.011021020115 	 11.251350005363 	  9.434103510465 	
H	 27.442476890115 	 11.251352815363 	 19.564660230465 	
H	 13.564276623985 	  4.104337031336 	  4.125772768688 	
H	 12.995732493985 	  4.104339841336 	 14.256329488688 	
H	 13.564245523985 	 10.287898791336 	  4.125769938688 	
H	 12.995701393985 	 10.287901601336 	 14.256326658688 	
H	 28.245103923985 	  4.104346261336 	  4.153902698688 	
H	 27.676559793985 	  4.104349071336 	 14.284459418688 	
H	 28.245072823985 	 10.287908021336 	  4.153899868688 	
H	 27.676528693985 	 10.287910831336 	 14.284456588688 	
H	  0.350061898234 	  1.046941504445 	  1.261655283062 	
H	 -0.218482231766 	  1.046944314445 	 11.392212003062 	
H	  0.350030798234 	  7.230503264445 	  1.261652453062 	
H	 -0.218513331766 	  7.230506074445 	 11.392209173062 	
H	 15.030889198234 	  1.046950734445 	  1.289785213062 	
H	 14.462345068234 	  1.046953544445 	 11.420341933062 	
H	 15.030858098234 	  7.230512494445 	  1.289782383062 	
H	 14.462313968234 	  7.230515304445 	 11.420339103062 	
H	  0.865617607003 	  2.124274354153 	  8.133887783012 	
H	  0.297073477003 	  2.124277164153 	 18.264444503012 	
H	  0.865586507003 	  8.307836114153 	  8.133884953012 	
H	  0.297042377003 	  8.307838924153 	 18.264441673012 	
H	 15.546444907003 	  2.124283584153 	  8.162017713012 	
H	 14.977900777003 	  2.124286394153 	 18.292574433012 	
H	 15.546413807003 	  8.307845344153 	  8.162014883012 	
H	 14.977869677003 	  8.307848154153 	 18.292571603012 	
H	 12.580820279169 	  5.181765407906 	  7.813955998550 	
H	 12.012276149169 	  5.181768217906 	 17.944512718550 	
H	 12.580789179169 	 11.365327167906 	  7.813953168550 	
H	 12.012245049169 	 11.365329977906 	 17.944509888550 	
H	 27.261647579169 	  5.181774637906 	  7.842085928550 	
H	 26.693103449169 	  5.181777447906 	 17.972642648550 	
H	 27.261616479169 	 11.365336397906 	  7.842083098550 	
H	 26.693072349169 	 11.365339207906 	 17.972639818550 	
H	 12.814669046743 	  3.990449469215 	  2.533741839303 	
H	 12.246124916743 	  3.990452279215 	 12.664298559303 	
H	 12.814637946743 	 10.174011229215 	  2.533739009303 	
H	 12.246093816743 	 10.174014039215 	 12.664295729303 	
H	 27.495496346743 	  3.990458699215 	  2.561871769303 	
H	 26.926952216743 	  3.990461509215 	 12.692428489303 	
H	 27.495465246743 	 10.174020459215 	  2.561868939303 	
H	 26.926921116743 	 10.174023269215 	 12.692425659303 	
H	  1.099466719194 	  0.932954895488 	  2.853675411521 	
H	  0.530922589194 	  0.932957705488 	 12.984232131521 	
H	  1.099435619194 	  7.116516655488 	  2.853672581521 	
H	  0.530891489194 	  7.116519465488 	 12.984229301521 	
H	 15.780294019194 	  0.932964125488 	  2.881805341521 	
H	 15.211749889194 	  0.932966935488 	 13.012362061521 	
H	 15.780262919194 	  7.116525885488 	  2.881802511521 	
H	 15.211718789194 	  7.116528695488 	 13.012359231521 	
H	  1.378275231273 	  0.976490160084 	  7.119485769111 	
H	  0.809731101273 	  0.976492970084 	 17.250042489111 	
H	  1.378244131273 	  7.160051920084 	  7.119482939111 	
H	  0.809700001273 	  7.160054730084 	 17.250039659111 	
H	 16.059102531273 	  0.976499390084 	  7.147615699111 	
H	 15.490558401273 	  0.976502200084 	 17.278172419111 	
H	 16.059071431273 	  7.160061150084 	  7.147612869111 	
H	 15.490527301273 	  7.160063960084 	 17.278169589111 	
H	 12.068072544926 	  4.034344773294 	  8.828157118104 	
H	 11.499528414926 	  4.034347583294 	 18.958713838104 	
H	 12.068041444926 	 10.217906533294 	  8.828154288104 	
H	 11.499497314926 	 10.217909343294 	 18.958711008104 	
H	 26.748899844926 	  4.034354003294 	  8.856287048104 	
H	 26.180355714926 	  4.034356813294 	 18.986843768104 	
H	 26.748868744926 	 10.217915763294 	  8.856284218104 	
H	 26.180324614926 	 10.217918573294 	 18.986840938104 	
H	 12.302010212620 	  5.138233070360 	  3.548146257920 	
H	 11.733466082620 	  5.138235880360 	 13.678702977920 	
H	 12.301979112620 	 11.321794830360 	  3.548143427920 	
H	 11.733434982620 	 11.321797640360 	 13.678700147920 	
H	 26.982837512620 	  5.138242300360 	  3.576276187920 	
H	 26.414293382620 	  5.138245110360 	 13.706832907920 	
H	 26.982806412620 	 11.321804060360 	  3.576273357920 	
H	 26.414262282620 	 11.321806870360 	 13.706830077920 	
H	  1.612214152757 	  2.080375852180 	  1.839474843454 	
H	  1.043670022757 	  2.080378662180 	 11.970031563454 	
H	  1.612183052757 	  8.263937612180 	  1.839472013454 	
H	  1.043638922757 	  8.263940422180 	 11.970028733454 	
H	 16.293041452757 	  2.080385082180 	  1.867604773454 	
H	 15.724497322757 	  2.080387892180 	 11.998161493454 	
H	 16.293010352757 	  8.263946842180 	  1.867601943454 	
H	 15.724466222757 	  8.263949652180 	 11.998158663454 	
768 
Energy: -8.7161403054209998e+01 
S	  8.351519719045 	  1.426549530383 	  0.124586987623 	
S	  7.782975589045 	  1.426552340383 	 10.255143707623 	
S	  8.351488619045 	  7.610111290383 	  0.124584157623 	
S	  7.782944489045 	  7.610114100383 	 10.255140877623 	
S	 23.032347019045 	  1.426558760383 	  0.152716917623 	
S	 22.463802889045 	  1.426561570383 	 10.283273637623 	
S	 23.032315919045 	  7.610120520383 	  0.152714087623 	
S	 22.463771789045 	  7.610123330383 	 10.283270807623 	
S	  5.501049452660 	  4.478789701341 	  5.300018419733 	
S	  4.932505322660 	  4.478792511341 	 15.430575139733 	
S	  5.501018352660 	 10.662351461341 	  5.300015589733 	
S	  4.932474222660 	 10.662354271341 	 15.430572309733 	
S	 20.181876752660 	  4.478798931341 	  5.328148349733 	
S	 19.613332622660 	  4.478801741341 	 15.458705069733 	
S	 20.181845652660 	 10.662360691341 	  5.328145519733 	
S	 19.613301522660 	 10.662363501341 	 15.458702239733 	
S	  5.274463303067 	  4.679515285321 	 10.607024891935 	
S	  4.705919173067 	  4.679518095321 	 20.737581611935 	
S	  5.274432203067 	 10.863077045321 	 10.607022061935 	
S	  4.705888073067 	 10.863079855321 	 20.737578781935 	
S	 19.955290603067 	  4.679524515321 	 10.635154821935 	
S	 19.386746473067 	  4.679527325321 	 20.765711541935 	
S	 19.955259503067 	 10.863086275321 	 10.635151991935 	
S	 19.386715373067 	 10.863089085321 	 20.765708711935 	
S	  8.124934908390 	  1.627275145328 	  5.431593078373 	
S	  7.556390778390 	  1.627277955328 	 15.562149798373 	
S	  8.124903808390 	  7.810836905328 	  5.431590248373 	
S	  7.556359678390 	  7.810839715328 	 15.562146968373 	
S	 22.805762208390 	  1.627284375328 	  5.459723008373 	
S	 22.237218078390 	  1.627287185328 	 15.590279728373 	
S	 22.805731108390 	  7.810846135328 	  5.459720178373 	
S	 22.237186978390 	  7.810848945328 	 15.590276898373 	
C	  6.562638417703 	  2.523134902371 	 10.298335211836 	
C	  5.994094287703 	  2.523137712371 	 20.428891931836 	
C	  6.562607317703 	  8.706696662371 	 10.298332381836 	
C	  5.994063187703 	  8.706699472371 	 20.428889101836 	
C	 21.243465717703 	  2.523144132371 	 10.326465141836 	
C	 20.674921587703 	  2.523146942371 	 20.457021861836 	
C	 21.243434617703 	  8.706705892371 	 10.326462311836 	
C	 20.674890487703 	  8.706708702371 	 20.457019031836 	
C	  6.835824513155 	  5.570903871652 	  5.741284317352 	
C	  6.267280383155 	  5.570906681652 	 15.871841037352 	
C	  6.835793413155 	 11.754465631652 	  5.741281487352 	
C	  6.267249283155 	 11.754468441652 	 15.871838207352 	
C	 21.516651813155 	  5.570913101652 	  5.769414247352 	
C	 20.948107683155 	  5.570915911652 	 15.899970967352 	
C	 21.516620713155 	 11.754474861652 	  5.769411417352 	
C	 20.948076583155 	 11.754477671652 	 15.899968137352 	
C	  7.063344609648 	  3.582929904423 	  0.433276493005 	
C	  6.494800479648 	  3.582932714423 	 10.563833213005 	
C	  7.063313509648 	  9.766491664423 	  0.433273663005 	
C	  6.494769379648 	  9.766494474423 	 10.563830383005 	
C	 21.744171909648 	  3.582939134423 	  0.461406423005 	
C	 21.175627779648 	  3.582941944423 	 10.591963143005 	
C	 21.744140809648 	  9.766500894423 	  0.461403593005 	
C	 21.175596679648 	  9.766503704423 	 10.591960313005 	
C	  6.790159696199 	  0.535161033548 	  4.990327010558 	
C	  6.221615566199 	  0.535163843548 	 15.120883730558 	
C	  6.790128596199 	  6.718722793548 	  4.990324180558 	
C	  6.221584466199 	  6.718725603548 	 15.120880900558 	
C	 21.470986996199 	  0.535170263548 	  5.018456940558 	
C	 20.902442866199 	  0.535173073548 	 15.149013660558 	
C	 21.470955896199 	  6.718732023548 	  5.018454110558 	
C	 20.902411766199 	  6.718734833548 	 15.149010830558 	
C	  5.538389902296 	  2.398828638452 	  9.317348032442 	
C	  4.969845772296 	  2.398831448452 	 19.447904752442 	
C	  5.538358802296 	  8.582390398452 	  9.317345202442 	
C	  4.969814672296 	  8.582393208452 	 19.447901922442 	
C	 20.219217202296 	  2.398837868452 	  9.345477962442 	
C	 19.650673072296 	  2.398840678452 	 19.476034682442 	
C	 20.219186102296 	  8.582399628452 	  9.345475132442 	
C	 19.650641972296 	  8.582402438452 	 19.476031852442 	
C	  7.864611594135 	  5.454912312610 	  6.721038201315 	
C	  7.296067464135 	  5.454915122610 	 16.851594921315 	
C	  7.864580494135 	 11.638474072610 	  6.721035371315 	
C	  7.296036364135 	 11.638476882610 	 16.851592091315 	
C	 22.545438894135 	  5.454921542610 	  6.749168131315 	
C	 21.976894764135 	  5.454924352610 	 16.879724851315 	
C	 22.545407794135 	 11.638483302610 	  6.749165301315 	
C	 21.976863664135 	 11.638486112610 	 16.879722021315 	
C	  8.087593090019 	  3.707236242553 	  1.414263642242 	
C	  7.519048960019 	  3.707239052553 	 11.544820362242 	
C	  8.087561990019 	  9.890798002553 	  1.414260812242 	
C	  7.519017860019 	  9.890800812553 	 11.544817532242 	
C	 22.768420390019 	  3.707245472553 	  1.442393572242 	
C	 22.199876260019 	  3.707248282553 	 11.572950292242 	
C	 22.768389290019 	  9.890807232553 	  1.442390742242 	
C	 22.199845160019 	  9.890810042553 	 11.572947462242 	
C	  5.761372373581 	  0.651152623856 	  4.010573373872 	
C	  5.192828243581 	  0.651155433856 	 14.141130093872 	
C	  5.761341273581 	  6.834714383856 	  4.010570543872 	
C	  5.192797143581 	  6.834717193856 	 14.141127263872 	
C	 20.442199673581 	  0.651161853856 	  4.038703303872 	
C	 19.873655543581 	  0.651164663856 	 14.169260023872 	
C	 20.442168573581 	  6.834723613856 	  4.038700473872 	
C	 19.873624443581 	  6.834726423856 	 14.169257193872 	
C	  4.709355636550 	  3.515694034657 	  9.350891413672 	
C	  4.140811506550 	  3.515696844657 	 19.481448133672 	
C	  4.709324536550 	  9.699255794657 	  9.350888583672 	
C	  4.140780406550 	  9.699258604657 	 19.481445303672 	
C	 19.390182936550 	  3.515703264657 	  9.379021343672 	
C	 18.821638806550 	  3.515706074657 	 19.509578063672 	
C	 19.390151836550 	  9.699265024657 	  9.379018513672 	
C	 18.821607706550 	  9.699267834657 	 19.509575233672 	
C	  8.684661331892 	  0.459295609302 	  6.688057371101 	
C	  8.116117201892 	  0.459298419302 	 16.818614091101 	
C	  8.684630231892 	  6.642857369302 	  6.688054541101 	
C	  8.116086101892 	  6.642860179302 	 16.818611261101 	
C	 23.365488631892 	  0.459304839302 	  6.716187301101 	
C	 22.796944501892 	  0.459307649302 	 16.846744021101 	
C	 23.365457531892 	  6.642866599302 	  6.716184471101 	
C	 22.796913401892 	  6.642869409302 	 16.846741191101 	
C	  8.916627344485 	  2.590370788618 	  1.380720274568 	
C	  8.348083214485 	  2.590373598618 	 11.511276994568 	
C	  8.916596244485 	  8.773932548618 	  1.380717444568 	
C	  8.348052114485 	  8.773935358618 	 11.511274164568 	
C	 23.597454644485 	  2.590380018618 	  1.408850204568 	
C	 23.028910514485 	  2.590382828618 	 11.539406924568 	
C	 23.597423544485 	  8.773941778618 	  1.408847374568 	
C	 23.028879414485 	  8.773944588618 	 11.539404094568 	
C	  4.941322752793 	  5.646769344175 	  4.043554399893 	
C	  4.372778622793 	  5.646772154175 	 14.174111119893 	
C	  4.941291652793 	 11.830331104175 	  4.043551569893 	
C	  4.372747522793 	 11.830333914175 	 14.174108289893 	
C	 19.622150052793 	  5.646778574175 	  4.071684329893 	
C	 19.053605922793 	  5.646781384175 	 14.202241049893 	
C	 19.622118952793 	 11.830340334175 	  4.071681499893 	
C	 19.053574822793 	 11.830343144175 	 14.202238219893 	
C	  3.659315851878 	  3.647304794683 	  8.545661084317 	
C	  3.090771721878 	  3.647307604683 	 18.676217804317 	
C	  3.659284751878 	  9.830866554683 	  8.545658254317 	
C	  3.090740621878 	  9.830869364683 	 18.676214974317 	
C	 18.340143151878 	  3.647314024683 	  8.573791014317 	
C	 17.771599021878 	  3.647316834683 	 18.704347734317 	
C	 18.340112051878 	  9.830875784683 	  8.573788184317 	
C	 17.771567921878 	  9.830878594683 	 18.704344904317 	
C	  9.739945510647 	  0.593393356034 	  7.496103062473 	
C	  9.171401380647 	  0.593396166034 	 17.626659782473 	
C	  9.739914410647 	  6.776955116034 	  7.496100232473 	
C	  9.171370280647 	  6.776957926034 	 17.626656952473 	
C	 24.420772810647 	  0.593402586034 	  7.524232992473 	
C	 23.852228680647 	  0.593405396034 	 17.654789712473 	
C	 24.420741710647 	  6.776964346034 	  7.524230162473 	
C	 23.852197580647 	  6.776967156034 	 17.654786882473 	
C	  9.966667129774 	  2.458760205129 	  2.185950822279 	
C	  9.398122999774 	  2.458763015129 	 12.316507542279 	
C	  9.966636029774 	  8.642321965129 	  2.185947992279 	
C	  9.398091899774 	  8.642324775129 	 12.316504712279 	
C	 24.647494429774 	  2.458769435129 	  2.214080752279 	
C	 24.078950299774 	  2.458772245129 	 12.344637472279 	
C	 24.647463329774 	  8.642331195129 	  2.214077922279 	
C	 24.078919199774 	  8.642334005129 	 12.344634642279 	
C	  3.886038087293 	  5.512671680664 	  3.235509186358 	
C	  3.317493957293 	  5.512674490664 	 13.366065906358 	
C	  3.886006987293 	 11.696233440664 	  3.235506356358 	
C	  3.317462857293 	 11.696236250664 	 13.366063076358 	
C	 18.566865387293 	  5.512680910664 	  3.263639116358 	
C	 17.998321257293 	  5.512683720664 	 13.394195836358 	
C	 18.566834287293 	 11.696242670664 	  3.263636286358 	
C	 17.998290157293 	 11.696245480664 	 13.394193006358 	
H	  3.016149667280 	  4.605652908623 	  8.621810005522 	
H	  2.447605537280 	  4.605655718623 	 18.752366725522 	
H	  3.016118567280 	 10.789214668623 	  8.621807175522 	
H	  2.447574437280 	 10.789217478623 	 18.752363895522 	
H	 17.696976967280 	  4.605662138623 	  8.649939935522 	
H	 17.128432837280 	  4.605664948623 	 18.780496655522 	
H	 17.696945867280 	 10.789223898623 	  8.649937105522 	
H	 17.128401737280 	 10.789226708623 	 18.780493825522 	
H	 10.382317067984 	  1.552147831323 	  7.416907012547 	
H	  9.813772937984 	  1.552150641323 	 17.547463732547 	
H	 10.382285967984 	  7.735709591323 	  7.416904182547 	
H	  9.813741837984 	  7.735712401323 	 17.547460902547 	
H	 25.063144367984 	  1.552157061323 	  7.445036942547 	
H	 24.494600237984 	  1.552159871323 	 17.575593662547 	
H	 25.063113267984 	  7.735718821323 	  7.445034112547 	
H	 24.494569137984 	  7.735721631323 	 17.575590832547 	
H	 10.609833224732 	  1.500411979692 	  2.109802121034 	
H	 10.041289094732 	  1.500414789692 	 12.240358841034 	
H	 10.609802124732 	  7.683973739692 	  2.109799291034 	
H	 10.041257994732 	  7.683976549692 	 12.240356011034 	
H	 25.290660524732 	  1.500421209692 	  2.137932051034 	
H	 24.722116394732 	  1.500424019692 	 12.268488771034 	
H	 25.290629424732 	  7.683982969692 	  2.137929221034 	
H	 24.722085294732 	  7.683985779692 	 12.268485941034 	
H	  3.243666663250 	  4.553917133631 	  3.314705435742 	
H	  2.675122533250 	  4.553919943631 	 13.445262155742 	
H	  3.243635563250 	 10.737478893631 	  3.314702605742 	
H	  2.675091433250 	 10.737481703631 	 13.445259325742 	
H	 17.924493963250 	  4.553926363631 	  3.342835365742 	
H	 17.355949833250 	  4.553929173631 	 13.473392085742 	
H	 17.924462863250 	 10.737488123631 	  3.342832535742 	
H	 17.355918733250 	 10.737490933631 	 13.473389255742 	
C	  3.325376039061 	  2.709954614547 	  7.640400860991 	
C	  2.756831909061 	  2.709957424547 	 17.770957580991 	
C	  3.325344939061 	  8.893516374547 	  7.640398030991 	
C	  2.756800809061 	  8.893519184547 	 17.770954750991 	
C	 18.006203339061 	  2.709963844547 	  7.668530790991 	
C	 17.437659209061 	  2.709966654547 	 17.799087510991 	
C	 18.006172239061 	  8.893525604547 	  7.668527960991 	
C	 17.437628109061 	  8.893528414547 	 17.799084680991 	
C	 10.072137869167 	  5.763746467502 	  8.394708385052 	
C	  9.503593739167 	  5.763749277502 	 18.525265105052 	
C	 10.072106769167 	 11.947308227502 	  8.394705555052 	
C	  9.503562639167 	 11.947311037502 	 18.525262275052 	
C	 24.752965169167 	  5.763755697502 	  8.422838315052 	
C	 24.184421039167 	  5.763758507502 	 18.553395035052 	
C	 24.752934069167 	 11.947317457502 	  8.422835485052 	
C	 24.184389939167 	 11.947320267502 	 18.553392205052 	
C	 10.300606824529 	  3.396110498542 	  3.091210759721 	
C	  9.732062694529 	  3.396113308542 	 13.221767479721 	
C	 10.300575724529 	  9.579672258542 	  3.091207929721 	
C	  9.732031594529 	  9.579675068542 	 13.221764649721 	
C	 24.981434124529 	  3.396119728542 	  3.119340689721 	
C	 24.412889994529 	  3.396122538542 	 13.249897409721 	
C	 24.981403024529 	  9.579681488542 	  3.119337859721 	
C	 24.412858894529 	  9.579684298542 	 13.249894579721 	
C	  3.553845320016 	  0.342318655093 	  2.336904122964 	
C	  2.985301190016 	  0.342321465093 	 12.467460842964 	
C	  3.553814220016 	  6.525880415093 	  2.336901292964 	
C	  2.985270090016 	  6.525883225093 	 12.467458012964 	
C	 18.234672620016 	  0.342327885093 	  2.365034052964 	
C	 17.666128490016 	  0.342330695093 	 12.495590772964 	
C	 18.234641520016 	  6.525889645093 	  2.365031222964 	
C	 17.666097390016 	  6.525892455093 	 12.495587942964 	
C	  4.159887663349 	  1.618419831464 	  7.592690426158 	
C	  3.591343533349 	  1.618422641464 	 17.723247146158 	
C	  4.159856563349 	  7.801981591464 	  7.592687596158 	
C	  3.591312433349 	  7.801984401464 	 17.723244316158 	
C	 18.840714963349 	  1.618429061464 	  7.620820356158 	
C	 18.272170833349 	  1.618431871464 	 17.751377076158 	
C	 18.840683863349 	  7.801990821464 	  7.620817526158 	
C	 18.272139733349 	  7.801993631464 	 17.751374246158 	
C	  9.238737333974 	  4.671801604964 	  8.445647651874 	
C	  8.670193203974 	  4.671804414964 	 18.576204371874 	
C	  9.238706233974 	 10.855363364964 	  8.445644821874 	
C	  8.670162103974 	 10.855366174964 	 18.576201541874 	
C	 23.919564633974 	  4.671810834964 	  8.473777581874 	
C	 23.351020503974 	  4.671813644964 	 18.604334301874 	
C	 23.919533533974 	 10.855372594964 	  8.473774751874 	
C	 23.350989403974 	 10.855375404964 	 18.604331471874 	
C	  9.466095285330 	  4.487645348276 	  3.138921031150 	
C	  8.897551155330 	  4.487648158276 	 13.269477751150 	
C	  9.466064185330 	 10.671207108276 	  3.138918201150 	
C	  8.897520055330 	 10.671209918276 	 13.269474921150 	
C	 24.146922585330 	  4.487654578276 	  3.167050961150 	
C	 23.578378455330 	  4.487657388276 	 13.297607681150 	
C	 24.146891485330 	 10.671216338276 	  3.167048131150 	
C	 23.578347355330 	 10.671219148276 	 13.297604851150 	
C	  4.387245824869 	  1.434263435593 	  2.285964512878 	
C	  3.818701694869 	  1.434266245593 	 12.416521232878 	
C	  4.387214724869 	  7.617825195593 	  2.285961682878 	
C	  3.818670594869 	  7.617828005593 	 12.416518402878 	
C	 19.068073124869 	  1.434272665593 	  2.314094442878 	
C	 18.499528994869 	  1.434275475593 	 12.444651162878 	
C	 19.068042024869 	  7.617834425593 	  2.314091612878 	
C	 18.499497894869 	  7.617837235593 	 12.444648332878 	
H	  3.930935110236 	  0.801265526312 	  6.809485199446 	
H	  3.362390980236 	  0.801268336312 	 16.940041919446 	
H	  3.930904010236 	  6.984827286312 	  6.809482369446 	
H	  3.362359880236 	  6.984830096312 	 16.940039089446 	
H	 18.611762410236 	  0.801274756312 	  6.837615129446 	
H	 18.043218280236 	  0.801277566312 	 16.968171849446 	
H	 18.611731310236 	  6.984836516312 	  6.837612299446 	
H	 18.043187180236 	  6.984839326312 	 16.968169019446 	
H	  9.467880558902 	  3.854717375466 	  9.229494197321 	
H	  8.899336428902 	  3.854720185466 	 19.360050917321 	
H	  9.467849458902 	 10.038279135466 	  9.229491367321 	
H	  8.899305328902 	 10.038281945466 	 19.360048087321 	
H	 24.148707858902 	  3.854726605466 	  9.257624127321 	
H	 23.580163728902 	  3.854729415466 	 19.388180847321 	
H	 24.148676758902 	 10.038288365466 	  9.257621297321 	
H	 23.580132628902 	 10.038291175466 	 19.388178017321 	
H	  9.695047980733 	  5.304799844174 	  3.922126039564 	
H	  9.126503850733 	  5.304802654174 	 14.052682759564 	
H	  9.695016880733 	 11.488361604174 	  3.922123209564 	
H	  9.126472750733 	 11.488364414174 	 14.052679929564 	
H	 24.375875280733 	  5.304809074174 	  3.950255969564 	
H	 23.807331150733 	  5.304811884174 	 14.080812689564 	
H	 24.375844180733 	 11.488370834174 	  3.950253139564 	
H	 23.807300050733 	 11.488373644174 	 14.080809859564 	
H	  4.158102222598 	  2.251347811351 	  1.502118209707 	
H	  3.589558092598 	  2.251350621351 	 11.632674929707 	
H	  4.158071122598 	  8.434909571351 	  1.502115379707 	
H	  3.589526992598 	  8.434912381351 	 11.632672099707 	
H	 18.838929522598 	  2.251357041351 	  1.530248139707 	
H	 18.270385392598 	  2.251359851351 	 11.660804859707 	
H	 18.838898422598 	  8.434918801351 	  1.530245309707 	
H	 18.270354292598 	  8.434921611351 	 11.660802029707 	
C	  5.192738503820 	  1.464530684643 	  8.367378617893 	
C	  4.624194373820 	  1.464533494643 	 18.497935337893 	
C	  5.192707403820 	  7.648092444643 	  8.367375787893 	
C	  4.624163273820 	  7.648095254643 	 18.497932507893 	
C	 19.873565803820 	  1.464539914643 	  8.395508547893 	
C	 19.305021673820 	  1.464542724643 	 18.526065267893 	
C	 19.873534703820 	  7.648101674643 	  8.395505717893 	
C	 19.304990573820 	  7.648104484643 	 18.526062437893 	
C	  8.205812091271 	  4.517900718294 	  7.670909386566 	
C	  7.637267961271 	  4.517903528294 	 17.801466106566 	
C	  8.205780991271 	 10.701462478294 	  7.670906556566 	
C	  7.637236861271 	 10.701465288294 	 17.801463276566 	
C	 22.886639391271 	  4.517909948294 	  7.699039316566 	
C	 22.318095261271 	  4.517912758294 	 17.829596036566 	
C	 22.886608291271 	 10.701471708294 	  7.699036486566 	
C	 22.318064161271 	 10.701474518294 	 17.829593206566 	
C	  8.433244474126 	  4.641534375030 	  2.364232825106 	
C	  7.864700344126 	  4.641537185030 	 12.494789545106 	
C	  8.433213374126 	 10.825096135030 	  2.364229995106 	
C	  7.864669244126 	 10.825098945030 	 12.494786715106 	
C	 23.114071774126 	  4.641543605030 	  2.392362755106 	
C	 22.545527644126 	  4.641546415030 	 12.522919475106 	
C	 23.114040674126 	 10.825105365030 	  2.392359925106 	
C	 22.545496544126 	 10.825108175030 	 12.522916645106 	
C	  5.420171434479 	  1.588164289999 	  3.060702366853 	
C	  4.851627304479 	  1.588167099999 	 13.191259086853 	
C	  5.420140334479 	  7.771726049999 	  3.060699536853 	
C	  4.851596204479 	  7.771728859999 	 13.191256256853 	
C	 20.100998734479 	  1.588173519999 	  3.088832296853 	
C	 19.532454604479 	  1.588176329999 	 13.219389016853 	
C	 20.100967634479 	  7.771735279999 	  3.088829466853 	
C	 19.532423504479 	  7.771738089999 	 13.219386186853 	
H	  5.859941963560 	  0.525758922622 	  8.276100441508 	
H	  5.291397833560 	  0.525761732622 	 18.406657161508 	
H	  5.859910863560 	  6.709320682622 	  8.276097611508 	
H	  5.291366733560 	  6.709323492622 	 18.406654331508 	
H	 20.540769263560 	  0.525768152622 	  8.304230371508 	
H	 19.972225133560 	  0.525770962622 	 18.434787091508 	
H	 20.540738163560 	  6.709329912622 	  8.304227541508 	
H	 19.972194033560 	  6.709332722622 	 18.434784261508 	
H	  7.538502713065 	  3.578880507248 	  7.762412097070 	
H	  6.969958583065 	  3.578883317248 	 17.892968817070 	
H	  7.538471613065 	  9.762442267248 	  7.762409267070 	
H	  6.969927483065 	  9.762445077248 	 17.892965987070 	
H	 22.219330013065 	  3.578889737248 	  7.790542027070 	
H	 21.650785883065 	  3.578892547248 	 17.921098747070 	
H	 22.219298913065 	  9.762451497248 	  7.790539197070 	
H	 21.650754783065 	  9.762454307248 	 17.921095917070 	
H	  7.766041014864 	  5.580306159112 	  2.455510740509 	
H	  7.197496884864 	  5.580308969112 	 12.586067460509 	
H	  7.766009914864 	 11.763867919112 	  2.455507910509 	
H	  7.197465784864 	 11.763870729112 	 12.586064630509 	
H	 22.446868314864 	  5.580315389112 	  2.483640670509 	
H	 21.878324184864 	  5.580318199112 	 12.614197390509 	
H	 22.446837214864 	 11.763877149112 	  2.483637840509 	
H	 21.878293084864 	 11.763879959112 	 12.614194560509 	
H	  6.087480796484 	  2.527184479654 	  2.969199465175 	
H	  5.518936666484 	  2.527187289654 	 13.099756185175 	
H	  6.087449696484 	  8.710746239654 	  2.969196635175 	
H	  5.518905566484 	  8.710749049654 	 13.099753355175 	
H	 20.768308096484 	  2.527193709654 	  2.997329395175 	
H	 20.199763966484 	  2.527196519654 	 13.127886115175 	
H	 20.768276996484 	  8.710755469654 	  2.997326565175 	
H	 20.199732866484 	  8.710758279654 	 13.127883285175 	
C	  2.007040548375 	  2.842666943024 	  6.697471839382 	
C	  1.438496418375 	  2.842669753024 	 16.828028559382 	
C	  2.007009448375 	  9.026228703024 	  6.697469009382 	
C	  1.438465318375 	  9.026231513024 	 16.828025729382 	
C	 16.687867848375 	  2.842676173024 	  6.725601769382 	
C	 16.119323718375 	  2.842678983024 	 16.856158489382 	
C	 16.687836748375 	  9.026237933024 	  6.725598939382 	
C	 16.119292618375 	  9.026240743024 	 16.856155659382 	
C	 11.385054611195 	  5.875977634049 	  9.338777354775 	
C	 10.816510481195 	  5.875980444049 	 19.469334074775 	
C	 11.385023511195 	 12.059539394049 	  9.338774524775 	
C	 10.816479381195 	 12.059542204049 	 19.469331244775 	
C	 26.065881911195 	  5.875986864049 	  9.366907284775 	
C	 25.497337781195 	  5.875989674049 	 19.497464004775 	
C	 26.065850811195 	 12.059548624049 	  9.366904454775 	
C	 25.497306681195 	 12.059551434049 	 19.497461174775 	
C	 11.618942022081 	  3.263398528873 	  4.034139902295 	
C	 11.050397892081 	  3.263401338873 	 14.164696622295 	
C	 11.618910922081 	  9.446960288873 	  4.034137072295 	
C	 11.050366792081 	  9.446963098873 	 14.164693792295 	
C	 26.299769322081 	  3.263407758873 	  4.062269832295 	
C	 25.731225192081 	  3.263410568873 	 14.192826552295 	
C	 26.299738222081 	  9.446969518873 	  4.062267002295 	
C	 25.731194092081 	  9.446972328873 	 14.192823722295 	
C	  2.240928055221 	  0.230087431676 	  1.392835683973 	
C	  1.672383925221 	  0.230090241676 	 11.523392403973 	
C	  2.240896955221 	  6.413649191676 	  1.392832853973 	
C	  1.672352825221 	  6.413652001676 	 11.523389573973 	
C	 16.921755355221 	  0.230096661676 	  1.420965613973 	
C	 16.353211225221 	  0.230099471676 	 11.551522333973 	
C	 16.921724255221 	  6.413658421676 	  1.420962783973 	
C	 16.353180125221 	  6.413661231676 	 11.551519503973 	
C	  2.198857531420 	  2.453550217782 	  5.525449823914 	
C	  1.630313401420 	  2.453553027782 	 15.656006543914 	
C	  2.198826431420 	  8.637111977782 	  5.525446993914 	
C	  1.630282301420 	  8.637114787782 	 15.656003713914 	
C	 16.879684831420 	  2.453559447782 	  5.553579753914 	
C	 16.311140701420 	  2.453562257782 	 15.684136473914 	
C	 16.879653731420 	  8.637121207782 	  5.553576923914 	
C	 16.311109601420 	  8.637124017782 	 15.684133643914 	
C	 11.191168540394 	 -0.539610443356 	 10.470624913460 	
C	 10.622624410394 	 -0.539607633356 	 20.601181633460 	
C	 11.191137440394 	  5.643951316644 	 10.470622083460 	
C	 10.622593310394 	  5.643954126644 	 20.601178803460 	
C	 25.871995840394 	 -0.539601213356 	 10.498754843460 	
C	 25.303451710394 	 -0.539598403356 	 20.629311563460 	
C	 25.871964740394 	  5.643960546644 	 10.498752013460 	
C	 25.303420610394 	  5.643963356644 	 20.629308733460 	
C	 11.427124055559 	  3.652514294916 	  5.206162711079 	
C	 10.858579925559 	  3.652517104916 	 15.336719431079 	
C	 11.427092955559 	  9.836076054916 	  5.206159881079 	
C	 10.858548825559 	  9.836078864916 	 15.336716601079 	
C	 26.107951355559 	  3.652523524916 	  5.234292641079 	
C	 25.539407225559 	  3.652526334916 	 15.364849361079 	
C	 26.107920255559 	  9.836085284916 	  5.234289811079 	
C	 25.539376125559 	  9.836088094916 	 15.364846531079 	
C	  2.434813756422 	  6.645675728166 	  0.260988029044 	
C	  1.866269626422 	  6.645678538166 	 10.391544749044 	
C	  2.434782656422 	 12.829237488166 	  0.260985199044 	
C	  1.866238526422 	 12.829240298166 	 10.391541919044 	
C	 17.115641056422 	  6.645684958166 	  0.289117959044 	
C	 16.547096926422 	  6.645687768166 	 10.419674679044 	
C	 17.115609956422 	 12.829246718166 	  0.289115129044 	
C	 16.547065826422 	 12.829249528166 	 10.419671849044 	
H	  3.117862277038 	  2.862577454705 	  4.975269397529 	
H	  2.549318147038 	  2.862580264705 	 15.105826117529 	
H	  3.117831177038 	  9.046139214705 	  4.975266567529 	
H	  2.549287047038 	  9.046142024705 	 15.105823287529 	
H	 17.798689577038 	  2.862586684705 	  5.003399327529 	
H	 17.230145447038 	  2.862589494705 	 15.133956047529 	
H	 17.798658477038 	  9.046148444705 	  5.003396497529 	
H	 17.230114347038 	  9.046151254705 	 15.133953217529 	
H	 10.284082325963 	 -0.193226486914 	 11.061687957540 	
H	  9.715538195963 	 -0.193223676914 	 21.192244677540 	
H	 10.284051225963 	  5.990335273086 	 11.061685127540 	
H	  9.715507095963 	  5.990338083086 	 21.192241847540 	
H	 24.964909625963 	 -0.193217256914 	 11.089817887540 	
H	 24.396365495963 	 -0.193214446914 	 21.220374607540 	
H	 24.964878525963 	  5.990344503086 	 11.089815057540 	
H	 24.396334395963 	  5.990347313086 	 21.220371777540 	
H	 10.508119908836 	  3.243484656109 	  5.756342586344 	
H	  9.939575778836 	  3.243487466109 	 15.886899306344 	
H	 10.508088808836 	  9.427046416109 	  5.756339756344 	
H	  9.939544678836 	  9.427049226109 	 15.886896476344 	
H	 25.188947208836 	  3.243493886109 	  5.784472516344 	
H	 24.620403078836 	  3.243496696109 	 15.915029236344 	
H	 25.188916108836 	  9.427055646109 	  5.784469686344 	
H	 24.620371978836 	  9.427058456109 	 15.915026406344 	
H	  3.341899722675 	  6.299291842167 	 -0.330075363726 	
H	  2.773355592675 	  6.299294652167 	  9.800481356274 	
H	  3.341868622675 	 12.482853602167 	 -0.330078193726 	
H	  2.773324492675 	 12.482856412167 	  9.800478526274 	
H	 18.022727022675 	  6.299301072167 	 -0.301945433726 	
H	 17.454182892675 	  6.299303882167 	  9.828611286274 	
H	 18.022695922675 	 12.482862832167 	 -0.301948263726 	
H	 17.454151792675 	 12.482865642167 	  9.828608456274 	
H	  1.395935125782 	  2.564755022214 	  4.728171701194 	
H	  0.827390995782 	  2.564757832214 	 14.858728421194 	
H	  1.395904025782 	  8.748316782214 	  4.728168871194 	
H	  0.827359895782 	  8.748319592214 	 14.858725591194 	
H	 16.076762425782 	  2.564764252214 	  4.756301631194 	
H	 15.508218295782 	  2.564767062214 	 14.886858351194 	
H	 16.076731325782 	  8.748326012214 	  4.756298801194 	
H	 15.508187195782 	  8.748328822214 	 14.886855521194 	
H	 12.489120168543 	 -0.483651552175 	  0.727760270301 	
H	 11.920576038543 	 -0.483648742175 	 10.858316990301 	
H	 12.489089068543 	  5.699910207825 	  0.727757440301 	
H	 11.920544938543 	  5.699913017825 	 10.858314160301 	
H	 27.169947468543 	 -0.483642322175 	  0.755890200301 	
H	 26.601403338543 	 -0.483639512175 	 10.886446920301 	
H	 27.169916368543 	  5.699919437825 	  0.755887370301 	
H	 26.601372238543 	  5.699922247825 	 10.886444090301 	
H	 12.230046642094 	  3.541309900702 	  6.003440686266 	
H	 11.661502512094 	  3.541312710702 	 16.133997406266 	
H	 12.230015542094 	  9.724871660702 	  6.003437856266 	
H	 11.661471412094 	  9.724874470702 	 16.133994576266 	
H	 26.910873942094 	  3.541319130702 	  6.031570616266 	
H	 26.342329812094 	  3.541321940702 	 16.162127336266 	
H	 26.910842842094 	  9.724880890702 	  6.031567786266 	
H	 26.342298712094 	  9.724883700702 	 16.162124506266 	
H	  1.136861738078 	  6.589716903139 	 10.003853105832 	
H	  0.568317608078 	  6.589719713139 	 20.134409825832 	
H	  1.136830638078 	 12.773278663139 	 10.003850275832 	
H	  0.568286508078 	 12.773281473139 	 20.134406995832 	
H	 15.817689038078 	  6.589726133139 	 10.031983035832 	
H	 15.249144908078 	  6.589728943139 	 20.162539755832 	
H	 15.817657938078 	 12.773287893139 	 10.031980205832 	
H	 15.249113808078 	 12.773290703139 	 20.162536925832 	
H	  2.485186047314 	  1.356007022761 	  5.361223477269 	
H	  1.916641917314 	  1.356009832761 	 15.491780197269 	
H	  2.485154947314 	  7.539568782761 	  5.361220647269 	
H	  1.916610817314 	  7.539571592761 	 15.491777367269 	
H	 17.166013347314 	  1.356016252761 	  5.389353407269 	
H	 16.597469217314 	  1.356019062761 	 15.519910127269 	
H	 17.165982247314 	  7.539578012761 	  5.389350577269 	
H	 16.597438117314 	  7.539580822761 	 15.519907297269 	
H	 11.341533305149 	  4.349571161717 	  0.076563432672 	
H	 10.772989175149 	  4.349573971717 	 10.207120152672 	
H	 11.341502205149 	 10.533132921717 	  0.076560602672 	
H	 10.772958075149 	 10.533135731717 	 10.207117322672 	
H	 26.022360605149 	  4.349580391717 	  0.104693362672 	
H	 25.453816475149 	  4.349583201717 	 10.235250082672 	
H	 26.022329505149 	 10.533142151717 	  0.104690532672 	
H	 25.453785375149 	 10.533144961717 	 10.235247252672 	
H	 11.140793793568 	  4.750057096709 	  5.370389798760 	
H	 10.572249663568 	  4.750059906709 	 15.500946518760 	
H	 11.140762693568 	 10.933618856709 	  5.370386968760 	
H	 10.572218563568 	 10.933621666709 	 15.500943688760 	
H	 25.821621093568 	  4.750066326709 	  5.398519728760 	
H	 25.253076963568 	  4.750069136709 	 15.529076448760 	
H	 25.821589993568 	 10.933628086709 	  5.398516898760 	
H	 25.253045863568 	 10.933630896709 	 15.529073618760 	
H	  2.284448948736 	  1.756494166919 	 10.655049807496 	
H	  1.715904818736 	  1.756496976919 	 20.785606527496 	
H	  2.284417848736 	  7.940055926919 	 10.655046977496 	
H	  1.715873718736 	  7.940058736919 	 20.785603697496 	
H	 16.965276248736 	  1.756503396919 	 10.683179737496 	
H	 16.396732118736 	  1.756506206919 	 20.813736457496 	
H	 16.965245148736 	  7.940065156919 	 10.683176907496 	
H	 16.396701018736 	  7.940067966919 	 20.813733627496 	
C	  1.609646092320 	  4.024545790746 	  6.619054437817 	
C	  1.041101962320 	  4.024548600746 	 16.749611157817 	
C	  1.609614992320 	 10.208107550746 	  6.619051607817 	
C	  1.041070862320 	 10.208110360746 	 16.749608327817 	
C	 16.290473392320 	  4.024555020746 	  6.647184367817 	
C	 15.721929262320 	  4.024557830746 	 16.777741087817 	
C	 16.290442292320 	 10.208116780746 	  6.647181537817 	
C	 15.721898162320 	 10.208119590746 	 16.777738257817 	
C	 11.803421322553 	  1.000554368662 	  9.424012948053 	
C	 11.234877192553 	  1.000557178662 	 19.554569668053 	
C	 11.803390222553 	  7.184116128662 	  9.424010118053 	
C	 11.234846092553 	  7.184118938662 	 19.554566838053 	
C	 26.484248622553 	  1.000563598662 	  9.452142878053 	
C	 25.915704492553 	  1.000566408662 	 19.582699598053 	
C	 26.484217522553 	  7.184125358662 	  9.452140048053 	
C	 25.915673392553 	  7.184128168662 	 19.582696768053 	
C	 12.016337709400 	  2.081519353000 	  4.112556228654 	
C	 11.447793579400 	  2.081522163000 	 14.243112948654 	
C	 12.016306609400 	  8.265081113000 	  4.112553398654 	
C	 11.447762479400 	  8.265083923000 	 14.243110118654 	
C	 26.697165009400 	  2.081528583000 	  4.140686158654 	
C	 26.128620879400 	  2.081531393000 	 14.271242878654 	
C	 26.697133909400 	  8.265090343000 	  4.140683328654 	
C	 26.128589779400 	  8.265093153000 	 14.271240048654 	
C	  1.822561351432 	  5.105510662310 	  1.307600044498 	
C	  1.254017221432 	  5.105513472310 	 11.438156764498 	
C	  1.822530251432 	 11.289072422310 	  1.307597214498 	
C	  1.253986121432 	 11.289075232310 	 11.438153934498 	
C	 16.503388651432 	  5.105519892310 	  1.335729974498 	
C	 15.934844521432 	  5.105522702310 	 11.466286694498 	
C	 16.503357551432 	 11.289081652310 	  1.335727144498 	
C	 15.934813421432 	 11.289084462310 	 11.466283864498 	
H	  2.365396133254 	  4.822588775654 	  6.282398763898 	
H	  1.796852003254 	  4.822591585654 	 16.412955483898 	
H	  2.365365033254 	 11.006150535654 	  6.282395933898 	
H	  1.796820903254 	 11.006153345654 	 16.412952653898 	
H	 17.046223433254 	  4.822598005654 	  6.310528693898 	
H	 16.477679303254 	  4.822600815654 	 16.441085413898 	
H	 17.046192333254 	 11.006159765654 	  6.310525863898 	
H	 16.477648203254 	 11.006162575654 	 16.441082583898 	
H	 11.030538666705 	  1.772031791386 	  9.757096763371 	
H	 10.461994536705 	  1.772034601386 	 19.887653483371 	
H	 11.030507566705 	  7.955593551386 	  9.757093933371 	
H	 10.461963436705 	  7.955596361386 	 19.887650653371 	
H	 25.711365966705 	  1.772041021386 	  9.785226693371 	
H	 25.142821836705 	  1.772043831386 	 19.915783413371 	
H	 25.711334866705 	  7.955602781386 	  9.785223863371 	
H	 25.142790736705 	  7.955605591386 	 19.915780583371 	
H	 11.260588116095 	  1.283475510391 	  4.449210906632 	
H	 10.692043986095 	  1.283478320391 	 14.579767626632 	
H	 11.260557016095 	  7.467037270391 	  4.449208076632 	
H	 10.692012886095 	  7.467040080391 	 14.579764796632 	
H	 25.941415416095 	  1.283484740391 	  4.477340836632 	
H	 25.372871286095 	  1.283487550391 	 14.607897556632 	
H	 25.941384316095 	  7.467046500391 	  4.477338006632 	
H	 25.372840186095 	  7.467049310391 	 14.607894726632 	
H	  2.595443948321 	  4.334033379957 	  0.974515715030 	
H	  2.026899818321 	  4.334036189957 	 11.105072435030 	
H	  2.595412848321 	 10.517595139957 	  0.974512885030 	
H	  2.026868718321 	 10.517597949957 	 11.105069605030 	
H	 17.276271248321 	  4.334042609957 	  1.002645645030 	
H	 16.707727118321 	  4.334045419957 	 11.133202365030 	
H	 17.276240148321 	 10.517604369957 	  1.002642815030 	
H	 16.707696018321 	 10.517607179957 	 11.133199535030 	
H	  1.319815070288 	  4.564937164159 	  7.593954786699 	
H	  0.751270940288 	  4.564939974159 	 17.724511506699 	
H	  1.319783970288 	 10.748498924159 	  7.593951956699 	
H	  0.751239840288 	 10.748501734159 	 17.724508676699 	
H	 16.000642370288 	  4.564946394159 	  7.622084716699 	
H	 15.432098240288 	  4.564949204159 	 17.752641436699 	
H	 16.000611270288 	 10.748508154159 	  7.622081886699 	
H	 15.432067140288 	 10.748510964159 	 17.752638606699 	
H	 12.079061701228 	  7.607058232373 	  8.443369808504 	
H	 11.510517571228 	  7.607061042373 	 18.573926528504 	
H	 12.079030601228 	 13.790619992373 	  8.443366978504 	
H	 11.510486471228 	 13.790622802373 	 18.573923698504 	
H	 26.759889001228 	  7.607067462373 	  8.471499738504 	
H	 26.191344871228 	  7.607070272373 	 18.602056458504 	
H	 26.759857901228 	 13.790629222373 	  8.471496908504 	
H	 26.191313771228 	 13.790632032373 	 18.602053628504 	
H	 12.306169936073 	  1.541129523653 	  3.137655395392 	
H	 11.737625806073 	  1.541132333653 	 13.268212115392 	
H	 12.306138836073 	  7.724691283653 	  3.137652565392 	
H	 11.737594706073 	  7.724694093653 	 13.268209285392 	
H	 26.986997236073 	  1.541138753653 	  3.165785325392 	
H	 26.418453106073 	  1.541141563653 	 13.296342045392 	
H	 26.986966136073 	  7.724700513653 	  3.165782495392 	
H	 26.418422006073 	  7.724703323653 	 13.296339215392 	
H	  1.546921570327 	 -1.500993378029 	  2.288243287521 	
H	  0.978377440327 	 -1.500990568029 	 12.418800007521 	
H	  1.546890470327 	  4.682568381971 	  2.288240457521 	
H	  0.978346340327 	  4.682571191971 	 12.418797177521 	
H	 16.227748870327 	 -1.500984148029 	  2.316373217521 	
H	 15.659204740327 	 -1.500981338029 	 12.446929937521 	
H	 16.227717770327 	  4.682577611971 	  2.316370387521 	
H	 15.659173640327 	  4.682580421971 	 12.446927107521 	
H	  0.718081160892 	  4.236592743883 	  5.950814779600 	
H	  0.149537030892 	  4.236595553883 	 16.081371499600 	
H	  0.718050060892 	 10.420154503883 	  5.950811949600 	
H	  0.149505930892 	 10.420157313883 	 16.081368669600 	
H	 15.398908460892 	  4.236601973883 	  5.978944709600 	
H	 14.830364330892 	  4.236604783883 	 16.109501429600 	
H	 15.398877360892 	 10.420163733883 	  5.978941879600 	
H	 14.830333230892 	 10.420166543883 	 16.109498599600 	
H	 12.674955437684 	  7.284722139033 	 10.083503287986 	
H	 12.106411307684 	  7.284724949033 	 20.214060007986 	
H	 12.674924337684 	 13.468283899033 	 10.083500457986 	
H	 12.106380207684 	 13.468286709033 	 20.214057177986 	
H	 27.355782737684 	  7.284731369033 	 10.111633217986 	
H	 26.787238607684 	  7.284734179033 	 20.242189937986 	
H	 27.355751637684 	 13.468293129033 	 10.111630387986 	
H	 26.787207507684 	 13.468295939033 	 20.242187107986 	
H	 12.907902482313 	  1.869472779340 	  4.780796147302 	
H	 12.339358352313 	  1.869475589340 	 14.911352867302 	
H	 12.907871382313 	  8.053034539340 	  4.780793317302 	
H	 12.339327252313 	  8.053037349340 	 14.911350037302 	
H	 27.588729782313 	  1.869482009340 	  4.808926077302 	
H	 27.020185652313 	  1.869484819340 	 14.939482797302 	
H	 27.588698682313 	  8.053043769340 	  4.808923247302 	
H	 27.020154552313 	  8.053046579340 	 14.939479967302 	
H	  0.951026911861 	 -1.178657155089 	  0.648110146514 	
H	  0.382482781861 	 -1.178654345089 	 10.778666866514 	
H	  0.950995811861 	  5.004904604911 	  0.648107316514 	
H	  0.382451681861 	  5.004907414911 	 10.778664036514 	
H	 15.631854211861 	 -1.178647925089 	  0.676240076514 	
H	 15.063310081861 	 -1.178645115089 	 10.806796796514 	
H	 15.631823111861 	  5.004913834911 	  0.676237246514 	
H	 15.063278981861 	  5.004916644911 	 10.806793966514 	
C	  1.068059479278 	  2.160267468936 	  7.169335123507 	
C	  0.499515349278 	  2.160270278936 	 17.299891843507 	
C	  1.068028379278 	  8.343829228936 	  7.169332293507 	
C	  0.499484249278 	  8.343832038936 	 17.299889013507 	
C	 15.748886779278 	  2.160276698936 	  7.197465053507 	
C	 15.180342649278 	  2.160279508936 	 17.328021773507 	
C	 15.748855679278 	  8.343838458936 	  7.197462223507 	
C	 15.180311549278 	  8.343841268936 	 17.328018943507 	
C	 12.329851595759 	  5.214019294611 	  8.869744441804 	
C	 11.761307465759 	  5.214022104611 	 19.000301161804 	
C	 12.329820495759 	 11.397581054611 	  8.869741611804 	
C	 11.761276365759 	 11.397583864611 	 19.000298331804 	
C	 27.010678895759 	  5.214028524611 	  8.897874371804 	
C	 26.442134765759 	  5.214031334611 	 19.028431091804 	
C	 27.010647795759 	 11.397590284611 	  8.897871541804 	
C	 26.442103665759 	 11.397593094611 	 19.028428261804 	
C	 12.557922903963 	  3.945799854330 	  3.562276847073 	
C	 11.989378773963 	  3.945802664330 	 13.692833567073 	
C	 12.557891803963 	 10.129361614330 	  3.562274017073 	
C	 11.989347673963 	 10.129364424330 	 13.692830737073 	
C	 27.238750203963 	  3.945809084330 	  3.590406777073 	
C	 26.670206073963 	  3.945811894330 	 13.720963497073 	
C	 27.238719103963 	 10.129370844330 	  3.590403947073 	
C	 26.670174973963 	 10.129373654330 	 13.720960667073 	
C	  1.296131030252 	  0.892045508220 	  1.861868980673 	
C	  0.727586900252 	  0.892048318220 	 11.992425700673 	
C	  1.296099930252 	  7.075607268220 	  1.861866150673 	
C	  0.727555800252 	  7.075610078220 	 11.992422870673 	
C	 15.976958330252 	  0.892054738220 	  1.889998910673 	
C	 15.408414200252 	  0.892057548220 	 12.020555630673 	
C	 15.976927230252 	  7.075616498220 	  1.889996080673 	
C	 15.408383100252 	  7.075619308220 	 12.020552800673 	
H	  0.053880829314 	  2.131657311382 	  6.659967182298 	
H	 -0.514663300686 	  2.131660121382 	 16.790523902298 	
H	  0.053849729314 	  8.315219071382 	  6.659964352298 	
H	 -0.514694400686 	  8.315221881382 	 16.790521072298 	
H	 14.734708129314 	  2.131666541382 	  6.688097112298 	
H	 14.166163999314 	  2.131669351382 	 16.818653832298 	
H	 14.734677029314 	  8.315228301382 	  6.688094282298 	
H	 14.166132899314 	  8.315231111382 	 16.818651002298 	
H	 13.344448509756 	  5.184670012044 	  9.378786386246 	
H	 12.775904379756 	  5.184672822044 	 19.509343106246 	
H	 13.344417409756 	 11.368231772044 	  9.378783556246 	
H	 12.775873279756 	 11.368234582044 	 19.509340276246 	
H	 28.025275809756 	  5.184679242044 	  9.406916316246 	
H	 27.456731679756 	  5.184682052044 	 19.537473036246 	
H	 28.025244709756 	 11.368241002044 	  9.406913486246 	
H	 27.456700579756 	 11.368243812044 	 19.537470206246 	
H	 13.572101448712 	  3.974410002267 	  4.071644914855 	
H	 13.003557318712 	  3.974412812267 	 14.202201634855 	
H	 13.572070348712 	 10.157971762267 	  4.071642084855 	
H	 13.003526218712 	 10.157974572267 	 14.202198804855 	
H	 28.252928748712 	  3.974419232267 	  4.099774844855 	
H	 27.684384618712 	  3.974422042267 	 14.230331564855 	
H	 28.252897648712 	 10.157980992267 	  4.099772014855 	
H	 27.684353518712 	 10.157983802267 	 14.230328734855 	
H	  0.281533989865 	  0.921394663847 	  1.352827293488 	
H	 -0.287010140135 	  0.921397473847 	 11.483384013488 	
H	  0.281502889865 	  7.104956423847 	  1.352824463488 	
H	 -0.287041240135 	  7.104959233847 	 11.483381183488 	
H	 14.962361289865 	  0.921403893847 	  1.380957223488 	
H	 14.393817159865 	  0.921406703847 	 11.511513943488 	
H	 14.962330189865 	  7.104965653847 	  1.380954393488 	
H	 14.393786059865 	  7.104968463847 	 11.511511113488 	
H	  0.789491463932 	  2.362059523812 	  8.266438887288 	
H	  0.220947333932 	  2.362062333812 	 18.396995607288 	
H	  0.789460363932 	  8.545621283812 	  8.266436057288 	
H	  0.220916233932 	  8.545624093812 	 18.396992777288 	
H	 15.470318763932 	  2.362068753812 	  8.294568817288 	
H	 14.901774633932 	  2.362071563812 	 18.425125537288 	
H	 15.470287663932 	  8.545630513812 	  8.294565987288 	
H	 14.901743533932 	  8.545633323812 	 18.425122707288 	
H	 12.608897058284 	  5.415267656941 	  7.772311563917 	
H	 12.040352928284 	  5.415270466941 	 17.902868283917 	
H	 12.608865958284 	 11.598829416941 	  7.772308733917 	
H	 12.040321828284 	 11.598832226941 	 17.902865453917 	
H	 27.289724358284 	  5.415276886941 	  7.800441493917 	
H	 26.721180228284 	  5.415279696941 	 17.930998213917 	
H	 27.289693258284 	 11.598838646941 	  7.800438663917 	
H	 26.721149128284 	 11.598841456941 	 17.930995383917 	
H	 12.836490962114 	  3.744009212296 	  2.465172770700 	
H	 12.267946832114 	  3.744012022296 	 12.595729490700 	
H	 12.836459862114 	  9.927570972296 	  2.465169940700 	
H	 12.267915732114 	  9.927573782296 	 12.595726660700 	
H	 27.517318262114 	  3.744018442296 	  2.493302700700 	
H	 26.948774132114 	  3.744021252296 	 12.623859420700 	
H	 27.517287162114 	  9.927580202296 	  2.493299870700 	
H	 26.948743032114 	  9.927583012296 	 12.623856590700 	
H	  1.017085782980 	  0.690796745309 	  2.959301803565 	
H	  0.448541652980 	  0.690799555309 	 13.089858523565 	
H	  1.017054682980 	  6.874358505309 	  2.959298973565 	
H	  0.448510552980 	  6.874361315309 	 13.089855693565 	
H	 15.697913082980 	  0.690805975309 	  2.987431733565 	
H	 15.129368952980 	  0.690808785309 	 13.117988453565 	
H	 15.697881982980 	  6.874367735309 	  2.987428903565 	
H	 15.129337852980 	  6.874370545309 	 13.117985623565 	
H	  1.266632628523 	  1.040722610326 	  7.317917224008 	
H	  0.698088498523 	  1.040725420326 	 17.448473944008 	
H	  1.266601528523 	  7.224284370326 	  7.317914394008 	
H	  0.698057398523 	  7.224287180326 	 17.448471114008 	
H	 15.947459928523 	  1.040731840326 	  7.346047154008 	
H	 15.378915798523 	  1.040734650326 	 17.476603874008 	
H	 15.947428828523 	  7.224293600326 	  7.346044324008 	
H	 15.378884698523 	  7.224296410326 	 17.476601044008 	
H	 12.131731606687 	  4.094094232271 	  8.720749202880 	
H	 11.563187476687 	  4.094097042271 	 18.851305922880 	
H	 12.131700506687 	 10.277655992271 	  8.720746372880 	
H	 11.563156376687 	 10.277658802271 	 18.851303092880 	
H	 26.812558906687 	  4.094103462271 	  8.748879132880 	
H	 26.244014776687 	  4.094106272271 	 18.879435852880 	
H	 26.812527806687 	 10.277665222271 	  8.748876302880 	
H	 26.243983676687 	 10.277668032271 	 18.879433022880 	
H	 12.359348711160 	  5.065344876166 	  3.413696647493 	
H	 11.790804581160 	  5.065347686166 	 13.544253367493 	
H	 12.359317611160 	 11.248906636166 	  3.413693817493 	
H	 11.790773481160 	 11.248909446166 	 13.544250537493 	
H	 27.040176011160 	  5.065354106166 	  3.441826577493 	
H	 26.471631881160 	  5.065356916166 	 13.572383297493 	
H	 27.040144911160 	 11.248915866166 	  3.441823747493 	
H	 26.471600781160 	 11.248918676166 	 13.572380467493 	
H	  1.494250882983 	  2.011970545225 	  2.010864730648 	
H	  0.925706752983 	  2.011973355225 	 12.141421450648 	
H	  1.494219782983 	  8.195532305225 	  2.010861900648 	
H	  0.925675652983 	  8.195535115225 	 12.141418620648 	
H	 16.175078182983 	  2.011979775225 	  2.038994660648 	
H	 15.606534052983 	  2.011982585225 	 12.169551380648 	
H	 16.175047082983 	  8.195541535225 	  2.038991830648 	
H	 15.606502952983 	  8.195544345225 	 12.169548550648 	
768 
Energy: -8.3294555700939995e+01 
S	  8.305699381201 	  1.410229282459 	  0.133462481625 	
S	  7.737155251201 	  1.410232092459 	 10.264019201625 	
S	  8.305668281201 	  7.593791042459 	  0.133459651625 	
S	  7.737124151201 	  7.593793852459 	 10.264016371625 	
S	 22.986526681201 	  1.410238512459 	  0.161592411625 	
S	 22.417982551201 	  1.410241322459 	 10.292149131625 	
S	 22.986495581201 	  7.593800272459 	  0.161589581625 	
S	 22.417951451201 	  7.593803082459 	 10.292146301625 	
S	  5.486757731685 	  4.458211805814 	  5.327870396914 	
S	  4.918213601685 	  4.458214615814 	 15.458427116914 	
S	  5.486726631685 	 10.641773565814 	  5.327867566914 	
S	  4.918182501685 	 10.641776375814 	 15.458424286914 	
S	 20.167585031685 	  4.458221035814 	  5.356000326914 	
S	 19.599040901685 	  4.458223845814 	 15.486557046914 	
S	 20.167553931685 	 10.641782795814 	  5.355997496914 	
S	 19.599009801685 	 10.641785605814 	 15.486554216914 	
S	  5.266469349303 	  4.687257830635 	 10.661554055734 	
S	  4.697925219303 	  4.687260640635 	 20.792110775734 	
S	  5.266438249303 	 10.870819590635 	 10.661551225734 	
S	  4.697894119303 	 10.870822400635 	 20.792107945734 	
S	 19.947296649303 	  4.687267060635 	 10.689683985734 	
S	 19.378752519303 	  4.687269870635 	 20.820240705734 	
S	 19.947265549303 	 10.870828820635 	 10.689681155734 	
S	 19.378721419303 	 10.870831630635 	 20.820237875734 	
S	  8.085412454343 	  1.639275259489 	  5.467145682547 	
S	  7.516868324343 	  1.639278069489 	 15.597702402547 	
S	  8.085381354343 	  7.822837019489 	  5.467142852547 	
S	  7.516837224343 	  7.822839829489 	 15.597699572547 	
S	 22.766239754343 	  1.639284489489 	  5.495275612547 	
S	 22.197695624343 	  1.639287299489 	 15.625832332547 	
S	 22.766208654343 	  7.822846249489 	  5.495272782547 	
S	 22.197664524343 	  7.822849059489 	 15.625829502547 	
C	  6.542236535708 	  2.517976981081 	 10.354827402004 	
C	  5.973692405708 	  2.517979791081 	 20.485384122004 	
C	  6.542205435708 	  8.701538741081 	 10.354824572004 	
C	  5.973661305708 	  8.701541551081 	 20.485381292004 	
C	 21.223063835708 	  2.517986211081 	 10.382957332004 	
C	 20.654519705708 	  2.517989021081 	 20.513514052004 	
C	 21.223032735708 	  8.701547971081 	 10.382954502004 	
C	 20.654488605708 	  8.701550781081 	 20.513511222004 	
C	  6.808861064177 	  5.561791073128 	  5.773891290822 	
C	  6.240316934177 	  5.561793883128 	 15.904448010822 	
C	  6.808829964177 	 11.745352833128 	  5.773888460822 	
C	  6.240285834177 	 11.745355643128 	 15.904445180822 	
C	 21.489688364177 	  5.561800303128 	  5.802021220822 	
C	 20.921144234177 	  5.561803113128 	 15.932577940822 	
C	 21.489657264177 	 11.745362063128 	  5.802018390822 	
C	 20.921113134177 	 11.745364873128 	 15.932575110822 	
C	  7.029932197521 	  3.579510128667 	  0.440188938130 	
C	  6.461388067521 	  3.579512938667 	 10.570745658130 	
C	  7.029901097521 	  9.763071888667 	  0.440186108130 	
C	  6.461356967521 	  9.763074698667 	 10.570742828130 	
C	 21.710759497521 	  3.579519358667 	  0.468318868130 	
C	 21.142215367521 	  3.579522168667 	 10.598875588130 	
C	 21.710728397521 	  9.763081118667 	  0.468316038130 	
C	 21.142184267521 	  9.763083928667 	 10.598872758130 	
C	  6.763308970130 	  0.535696044949 	  5.021124598162 	
C	  6.194764840130 	  0.535698854949 	 15.151681318162 	
C	  6.763277870130 	  6.719257804949 	  5.021121768162 	
C	  6.194733740130 	  6.719260614949 	 15.151678488162 	
C	 21.444136270130 	  0.535705274949 	  5.049254528162 	
C	 20.875592140130 	  0.535708084949 	 15.179811248162 	
C	 21.444105170130 	  6.719267034949 	  5.049251698162 	
C	 20.875561040130 	  6.719269844949 	 15.179808418162 	
C	  5.521375210681 	  2.406357991642 	  9.366924589665 	
C	  4.952831080681 	  2.406360801642 	 19.497481309665 	
C	  5.521344110681 	  8.589919751642 	  9.366921759665 	
C	  4.952799980681 	  8.589922561642 	 19.497478479665 	
C	 20.202202510681 	  2.406367221642 	  9.395054519665 	
C	 19.633658380681 	  2.406370031642 	 19.525611239665 	
C	 20.202171410681 	  8.589928981642 	  9.395051689665 	
C	 19.633627280681 	  8.589931791642 	 19.525608409665 	
C	  7.835731572403 	  5.459976641032 	  6.761567468678 	
C	  7.267187442403 	  5.459979451032 	 16.892124188678 	
C	  7.835700472403 	 11.643538401032 	  6.761564638678 	
C	  7.267156342403 	 11.643541211032 	 16.892121358678 	
C	 22.516558872403 	  5.459985871032 	  6.789697398678 	
C	 21.948014742403 	  5.459988681032 	 16.920254118678 	
C	 22.516527772403 	 11.643547631032 	  6.789694568678 	
C	 21.947983642403 	 11.643550441032 	 16.920251288678 	
C	  8.050793505947 	  3.691129195566 	  1.428091734443 	
C	  7.482249375947 	  3.691132005566 	 11.558648454443 	
C	  8.050762405947 	  9.874690955566 	  1.428088904443 	
C	  7.482218275947 	  9.874693765566 	 11.558645624443 	
C	 22.731620805947 	  3.691138425566 	  1.456221664443 	
C	 22.163076675947 	  3.691141235566 	 11.586778384443 	
C	 22.731589705947 	  9.874700185566 	  1.456218834443 	
C	 22.163045575947 	  9.874702995566 	 11.586775554443 	
C	  5.736438196500 	  0.637510517625 	  4.033448709935 	
C	  5.167894066500 	  0.637513327625 	 14.164005429935 	
C	  5.736407096500 	  6.821072277625 	  4.033445879935 	
C	  5.167862966500 	  6.821075087625 	 14.164002599935 	
C	 20.417265496500 	  0.637519747625 	  4.061578639935 	
C	 19.848721366500 	  0.637522557625 	 14.192135359935 	
C	 20.417234396500 	  6.821081507625 	  4.061575809935 	
C	 19.848690266500 	  6.821084317625 	 14.192132529935 	
C	  4.701417337347 	  3.532493545369 	  9.400673246070 	
C	  4.132873207347 	  3.532496355369 	 19.531229966070 	
C	  4.701386237347 	  9.716055305369 	  9.400670416070 	
C	  4.132842107347 	  9.716058115369 	 19.531227136070 	
C	 19.382244637347 	  3.532502775369 	  9.428803176070 	
C	 18.813700507347 	  3.532505585369 	 19.559359896070 	
C	 19.382213537347 	  9.716064535369 	  9.428800346070 	
C	 18.813669407347 	  9.716067345369 	 19.559357066070 	
C	  8.643259586240 	  0.478490242218 	  6.728347861174 	
C	  8.074715456240 	  0.478493052218 	 16.858904581174 	
C	  8.643228486240 	  6.662052002218 	  6.728345031174 	
C	  8.074684356240 	  6.662054812218 	 16.858901751174 	
C	 23.324086886240 	  0.478499472218 	  6.756477791174 	
C	 22.755542756240 	  0.478502282218 	 16.887034511174 	
C	 23.324055786240 	  6.662061232218 	  6.756474961174 	
C	 22.755511656240 	  6.662064042218 	 16.887031681174 	
C	  8.870751367558 	  2.564993568421 	  1.394343080385 	
C	  8.302207237558 	  2.564996378421 	 11.524899800385 	
C	  8.870720267558 	  8.748555328421 	  1.394340250385 	
C	  8.302176137558 	  8.748558138421 	 11.524896970385 	
C	 23.551578667558 	  2.565002798421 	  1.422473010385 	
C	 22.983034537558 	  2.565005608421 	 11.553029730385 	
C	 23.551547567558 	  8.748564558421 	  1.422470180385 	
C	 22.983003437558 	  8.748567368421 	 11.553026900385 	
C	  4.928910308829 	  5.618996940966 	  4.066668530152 	
C	  4.360366178829 	  5.618999750966 	 14.197225250152 	
C	  4.928879208829 	 11.802558700966 	  4.066665700152 	
C	  4.360335078829 	 11.802561510966 	 14.197222420152 	
C	 19.609737608829 	  5.619006170966 	  4.094798460152 	
C	 19.041193478829 	  5.619008980966 	 14.225355180152 	
C	 19.609706508829 	 11.802567930966 	  4.094795630152 	
C	 19.041162378829 	 11.802570740966 	 14.225352350152 	
C	  3.654613879558 	  3.678105573385 	  8.585585512419 	
C	  3.086069749558 	  3.678108383385 	 18.716142232419 	
C	  3.654582779558 	  9.861667333385 	  8.585582682419 	
C	  3.086038649558 	  9.861670143385 	 18.716139402419 	
C	 18.335441179558 	  3.678114803385 	  8.613715442419 	
C	 17.766897049558 	  3.678117613385 	 18.744272162419 	
C	 18.335410079558 	  9.861676563385 	  8.613712612419 	
C	 17.766865949558 	  9.861679373385 	 18.744269332419 	
C	  9.697999276142 	  0.627476652575 	  7.548128456682 	
C	  9.129455146142 	  0.627479462575 	 17.678685176682 	
C	  9.697968176142 	  6.811038412575 	  7.548125626682 	
C	  9.129424046142 	  6.811041222575 	 17.678682346682 	
C	 24.378826576142 	  0.627485882575 	  7.576258386682 	
C	 23.810282446142 	  0.627488692575 	 17.706815106682 	
C	 24.378795476142 	  6.811047642575 	  7.576255556682 	
C	 23.810251346142 	  6.811050452575 	 17.706812276682 	
C	  9.917554823989 	  2.419381725062 	  2.209431042208 	
C	  9.349010693989 	  2.419384535062 	 12.339987762208 	
C	  9.917523723989 	  8.602943485062 	  2.209428212208 	
C	  9.348979593989 	  8.602946295062 	 12.339984932208 	
C	 24.598382123989 	  2.419390955062 	  2.237560972208 	
C	 24.029837993989 	  2.419393765062 	 12.368117692208 	
C	 24.598351023989 	  8.602952715062 	  2.237558142208 	
C	 24.029806893989 	  8.602955525062 	 12.368114862208 	
C	  3.874170077289 	  5.470010628373 	  3.246888472426 	
C	  3.305625947289 	  5.470013438373 	 13.377445192426 	
C	  3.874138977289 	 11.653572388373 	  3.246885642426 	
C	  3.305594847289 	 11.653575198373 	 13.377442362426 	
C	 18.554997377289 	  5.470019858373 	  3.275018402426 	
C	 17.986453247289 	  5.470022668373 	 13.405575122426 	
C	 18.554966277289 	 11.653581618373 	  3.275015572426 	
C	 17.986422147289 	 11.653584428373 	 13.405572292426 	
H	  3.021891541642 	  4.638764183245 	  8.661337346821 	
H	  2.453347411642 	  4.638766993245 	 18.791894066821 	
H	  3.021860441642 	 10.822325943245 	  8.661334516821 	
H	  2.453316311642 	 10.822328753245 	 18.791891236821 	
H	 17.702718841642 	  4.638773413245 	  8.689467276821 	
H	 17.134174711642 	  4.638776223245 	 18.820023996821 	
H	 17.702687741642 	 10.822335173245 	  8.689464446821 	
H	 17.134143611642 	 10.822337983245 	 18.820021166821 	
H	 10.328884763883 	  1.589115613828 	  7.467634666922 	
H	  9.760340633883 	  1.589118423828 	 17.598191386922 	
H	 10.328853663883 	  7.772677373828 	  7.467631836922 	
H	  9.760309533883 	  7.772680183828 	 17.598188556922 	
H	 25.009712063883 	  1.589124843828 	  7.495764596922 	
H	 24.441167933883 	  1.589127653828 	 17.626321316922 	
H	 25.009680963883 	  7.772686603828 	  7.495761766922 	
H	 24.441136833883 	  7.772689413828 	 17.626318486922 	
H	 10.550277066549 	  1.458723002484 	  2.133679470299 	
H	  9.981732936549 	  1.458725812484 	 12.264236190299 	
H	 10.550245966549 	  7.642284762484 	  2.133676640299 	
H	  9.981701836549 	  7.642287572484 	 12.264233360299 	
H	 25.231104366549 	  1.458732232484 	  2.161809400299 	
H	 24.662560236549 	  1.458735042484 	 12.292366120299 	
H	 25.231073266549 	  7.642293992484 	  2.161806570299 	
H	 24.662529136549 	  7.642296802484 	 12.292363290299 	
H	  3.243284723080 	  4.508371600040 	  3.327382482072 	
H	  2.674740593080 	  4.508374410040 	 13.457939202072 	
H	  3.243253623080 	 10.691933360040 	  3.327379652072 	
H	  2.674709493080 	 10.691936170040 	 13.457936372072 	
H	 17.924112023080 	  4.508380830040 	  3.355512412072 	
H	 17.355567893080 	  4.508383640040 	 13.486069132072 	
H	 17.924080923080 	 10.691942590040 	  3.355509582072 	
H	 17.355536793080 	 10.691945400040 	 13.486066302072 	
C	  3.321031394628 	  2.744682462716 	  7.670804377723 	
C	  2.752487264628 	  2.744685272716 	 17.801361097723 	
C	  3.321000294628 	  8.928244222716 	  7.670801547723 	
C	  2.752456164628 	  8.928247032716 	 17.801358267723 	
C	 18.001858694628 	  2.744691692716 	  7.698934307723 	
C	 17.433314564628 	  2.744694502716 	 17.829491027723 	
C	 18.001827594628 	  8.928253452716 	  7.698931477723 	
C	 17.433283464628 	  8.928256262716 	 17.829488197723 	
C	 10.028282122694 	  5.795570841805 	  8.452600339593 	
C	  9.459737992694 	  5.795573651805 	 18.583157059593 	
C	 10.028251022694 	 11.979132601805 	  8.452597509593 	
C	  9.459706892694 	 11.979135411805 	 18.583154229593 	
C	 24.709109422694 	  5.795580071805 	  8.480730269593 	
C	 24.140565292694 	  5.795582881805 	 18.611286989593 	
C	 24.709078322694 	 11.979141831805 	  8.480727439593 	
C	 24.140534192694 	 11.979144641805 	 18.611284159593 	
C	 10.251137195278 	  3.352804975800 	  3.124211862536 	
C	  9.682593065278 	  3.352807785800 	 13.254768582536 	
C	 10.251106095278 	  9.536366735800 	  3.124209032536 	
C	  9.682561965278 	  9.536369545800 	 13.254765752536 	
C	 24.931964495278 	  3.352814205800 	  3.152341792536 	
C	 24.363420365278 	  3.352817015800 	 13.282898512536 	
C	 24.931933395278 	  9.536375965800 	  3.152338962536 	
C	 24.363389265278 	  9.536378775800 	 13.282895682536 	
C	  3.543886759930 	  0.301916541357 	  2.342416884654 	
C	  2.975342629930 	  0.301919351357 	 12.472973604654 	
C	  3.543855659930 	  6.485478301357 	  2.342414054654 	
C	  2.975311529930 	  6.485481111357 	 12.472970774654 	
C	 18.224714059930 	  0.301925771357 	  2.370546814654 	
C	 17.656169929930 	  0.301928581357 	 12.501103534654 	
C	 18.224682959930 	  6.485487531357 	  2.370543984654 	
C	 17.656138829930 	  6.485490341357 	 12.501100704654 	
C	  4.146744452498 	  1.642511324819 	  7.624049920233 	
C	  3.578200322498 	  1.642514134819 	 17.754606640233 	
C	  4.146713352498 	  7.826073084819 	  7.624047090233 	
C	  3.578169222498 	  7.826075894819 	 17.754603810233 	
C	 18.827571752498 	  1.642520554819 	  7.652179850233 	
C	 18.259027622498 	  1.642523364819 	 17.782736570233 	
C	 18.827540652498 	  7.826082314819 	  7.652177020233 	
C	 18.258996522498 	  7.826085124819 	 17.782733740233 	
C	  9.204308773980 	  4.691601590886 	  8.504419878824 	
C	  8.635764643980 	  4.691604400886 	 18.634976598824 	
C	  9.204277673980 	 10.875163350886 	  8.504417048824 	
C	  8.635733543980 	 10.875166160886 	 18.634973768824 	
C	 23.885136073980 	  4.691610820886 	  8.532549808824 	
C	 23.316591943980 	  4.691613630886 	 18.663106528824 	
C	 23.885104973980 	 10.875172580886 	  8.532546978824 	
C	 23.316560843980 	 10.875175390886 	 18.663103698824 	
C	  9.425424243465 	  4.454976197831 	  3.170966123713 	
C	  8.856880113465 	  4.454979007831 	 13.301522843713 	
C	  9.425393143465 	 10.638537957831 	  3.170963293713 	
C	  8.856849013465 	 10.638540767831 	 13.301520013713 	
C	 24.106251543465 	  4.454985427831 	  3.199096053713 	
C	 23.537707413465 	  4.454988237831 	 13.329652773713 	
C	 24.106220443465 	 10.638547187831 	  3.199093223713 	
C	 23.537676313465 	 10.638549997831 	 13.329649943713 	
C	  4.367860096065 	  1.405885707201 	  2.290596966606 	
C	  3.799315966065 	  1.405888517201 	 12.421153686606 	
C	  4.367828996065 	  7.589447467201 	  2.290594136606 	
C	  3.799284866065 	  7.589450277201 	 12.421150856606 	
C	 19.048687396065 	  1.405894937201 	  2.318726896606 	
C	 18.480143266065 	  1.405897747201 	 12.449283616606 	
C	 19.048656296065 	  7.589456697201 	  2.318724066606 	
C	 18.480112166065 	  7.589459507201 	 12.449280786606 	
H	  3.917803542669 	  0.833449970036 	  6.837505008693 	
H	  3.349259412669 	  0.833452780036 	 16.968061728693 	
H	  3.917772442669 	  7.017011730036 	  6.837502178693 	
H	  3.349228312669 	  7.017014540036 	 16.968058898693 	
H	 18.598630842669 	  0.833459200036 	  6.865634938693 	
H	 18.030086712669 	  0.833462010036 	 16.996191658693 	
H	 18.598599742669 	  7.017020960036 	  6.865632108693 	
H	 18.030055612669 	  7.017023770036 	 16.996188828693 	
H	  9.433630021413 	  3.882672419840 	  9.291699528935 	
H	  8.865085891413 	  3.882675229840 	 19.422256248935 	
H	  9.433598921413 	 10.066234179840 	  9.291696698935 	
H	  8.865054791413 	 10.066236989840 	 19.422253418935 	
H	 24.114457321413 	  3.882681649840 	  9.319829458935 	
H	 23.545913191413 	  3.882684459840 	 19.450386178935 	
H	 24.114426221413 	 10.066243409840 	  9.319826628935 	
H	 23.545882091413 	 10.066246219840 	 19.450383348935 	
H	  9.654365316980 	  5.264037769248 	  3.957510788590 	
H	  9.085821186980 	  5.264040579248 	 14.088067508590 	
H	  9.654334216980 	 11.447599529248 	  3.957507958590 	
H	  9.085790086980 	 11.447602339248 	 14.088064678590 	
H	 24.335192616980 	  5.264046999248 	  3.985640718590 	
H	 23.766648486980 	  5.264049809248 	 14.116197438590 	
H	 24.335161516980 	 11.447608759248 	  3.985637888590 	
H	 23.766617386980 	 11.447611569248 	 14.116194608590 	
H	  4.138538426895 	  2.214815037434 	  1.503317584987 	
H	  3.569994296895 	  2.214817847434 	 11.633874304987 	
H	  4.138507326895 	  8.398376797434 	  1.503314754987 	
H	  3.569963196895 	  8.398379607434 	 11.633871474987 	
H	 18.819365726895 	  2.214824267434 	  1.531447514987 	
H	 18.250821596895 	  2.214827077434 	 11.662004234987 	
H	 18.819334626895 	  8.398386027434 	  1.531444684987 	
H	 18.250790496895 	  8.398388837434 	 11.662001404987 	
C	  5.176803334094 	  1.475385284432 	  8.410461573308 	
C	  4.608259204094 	  1.475388094432 	 18.541018293308 	
C	  5.176772234094 	  7.658947044432 	  8.410458743308 	
C	  4.608228104094 	  7.658949854432 	 18.541015463308 	
C	 19.857630634094 	  1.475394514432 	  8.438591503308 	
C	 19.289086504094 	  1.475397324432 	 18.569148223308 	
C	 19.857599534094 	  7.658956274432 	  8.438588673308 	
C	 19.289055404094 	  7.658959084432 	 18.569145393308 	
C	  8.174282109749 	  4.524491707451 	  7.718007650272 	
C	  7.605737979749 	  4.524494517451 	 17.848564370272 	
C	  8.174251009749 	 10.708053467451 	  7.718004820272 	
C	  7.605706879749 	 10.708056277451 	 17.848561540272 	
C	 22.855109409749 	  4.524500937451 	  7.746137580272 	
C	 22.286565279749 	  4.524503747451 	 17.876694300272 	
C	 22.855078309749 	 10.708062697451 	  7.746134750272 	
C	 22.286534179749 	 10.708065507451 	 17.876691470272 	
C	  8.395365382613 	  4.622102103837 	  2.384554477869 	
C	  7.826821252613 	  4.622104913837 	 12.515111197869 	
C	  8.395334282613 	 10.805663863837 	  2.384551647869 	
C	  7.826790152613 	 10.805666673837 	 12.515108367869 	
C	 23.076192682613 	  4.622111333837 	  2.412684407869 	
C	 22.507648552613 	  4.622114143837 	 12.543241127869 	
C	 23.076161582613 	 10.805673093837 	  2.412681577869 	
C	 22.507617452613 	 10.805675903837 	 12.543238297869 	
C	  5.397887158914 	  1.572995534835 	  3.077008721028 	
C	  4.829343028914 	  1.572998344835 	 13.207565441028 	
C	  5.397856058914 	  7.756557294835 	  3.077005891028 	
C	  4.829311928914 	  7.756560104835 	 13.207562611028 	
C	 20.078714458914 	  1.573004764835 	  3.105138651028 	
C	 19.510170328914 	  1.573007574835 	 13.235695371028 	
C	 20.078683358914 	  7.756566524835 	  3.105135821028 	
C	 19.510139228914 	  7.756569334835 	 13.235692541028 	
H	  5.834582725452 	  0.534510392171 	  8.320017622090 	
H	  5.266038595452 	  0.534513202171 	 18.450574342090 	
H	  5.834551625452 	  6.718072152171 	  8.320014792090 	
H	  5.266007495452 	  6.718074962171 	 18.450571512090 	
H	 20.515410025452 	  0.534519622171 	  8.348147552090 	
H	 19.946865895452 	  0.534522432171 	 18.478704272090 	
H	 20.515378925452 	  6.718081382171 	  8.348144722090 	
H	 19.946834795452 	  6.718084192171 	 18.478701442090 	
H	  7.516343125142 	  3.583363866139 	  7.808634247176 	
H	  6.947798995142 	  3.583366676139 	 17.939190967176 	
H	  7.516312025142 	  9.766925626139 	  7.808631417176 	
H	  6.947767895142 	  9.766928436139 	 17.939188137176 	
H	 22.197170425142 	  3.583373096139 	  7.836764177176 	
H	 21.628626295142 	  3.583375906139 	 17.967320897176 	
H	 22.197139325142 	  9.766934856139 	  7.836761347176 	
H	 21.628595195142 	  9.766937666139 	 17.967318067176 	
H	  7.737586003962 	  5.562977033387 	  2.474998129767 	
H	  7.169041873962 	  5.562979843387 	 12.605554849767 	
H	  7.737554903962 	 11.746538793387 	  2.474995299767 	
H	  7.169010773962 	 11.746541603387 	 12.605552019767 	
H	 22.418413303962 	  5.562986263387 	  2.503128059767 	
H	 21.849869173962 	  5.562989073387 	 12.633684779767 	
H	 22.418382203962 	 11.746548023387 	  2.503125229767 	
H	 21.849838073962 	 11.746550833387 	 12.633681949767 	
H	  6.055826134093 	  2.514123351994 	  2.986381914875 	
H	  5.487282004093 	  2.514126161994 	 13.116938634875 	
H	  6.055795034093 	  8.697685111994 	  2.986379084875 	
H	  5.487250904093 	  8.697687921994 	 13.116935804875 	
H	 20.736653434093 	  2.514132581994 	  3.014511844875 	
H	 20.168109304093 	  2.514135391994 	 13.145068564875 	
H	 20.736622334093 	  8.697694341994 	  3.014509014875 	
H	 20.168078204093 	  8.697697151994 	 13.145065734875 	
C	  2.030070075775 	  2.887213898682 	  6.736898748468 	
C	  1.461525945775 	  2.887216708682 	 16.867455468468 	
C	  2.030038975775 	  9.070775658682 	  6.736895918468 	
C	  1.461494845775 	  9.070778468682 	 16.867452638468 	
C	 16.710897375775 	  2.887223128682 	  6.765028678468 	
C	 16.142353245775 	  2.887225938682 	 16.895585398468 	
C	 16.710866275775 	  9.070784888682 	  6.765025848468 	
C	 16.142322145775 	  9.070787698682 	 16.895582568468 	
C	 11.323284114982 	  5.940742999561 	  9.390013581747 	
C	 10.754739984982 	  5.940745809561 	 19.520570301747 	
C	 11.323253014982 	 12.124304759561 	  9.390010751747 	
C	 10.754708884982 	 12.124307569561 	 19.520567471747 	
C	 26.004111414982 	  5.940752229561 	  9.418143511747 	
C	 25.435567284982 	  5.940755039561 	 19.548700231747 	
C	 26.004080314982 	 12.124313989561 	  9.418140681747 	
C	 25.435536184982 	 12.124316799561 	 19.548697401747 	
C	 11.542098273439 	  3.210273914586 	  4.058117661994 	
C	 10.973554143439 	  3.210276724586 	 14.188674381994 	
C	 11.542067173439 	  9.393835674586 	  4.058114831994 	
C	 10.973523043439 	  9.393838484586 	 14.188671551994 	
C	 26.222925573439 	  3.210283144586 	  4.086247591994 	
C	 25.654381443439 	  3.210285954586 	 14.216804311994 	
C	 26.222894473439 	  9.393844904586 	  4.086244761994 	
C	 25.654350343439 	  9.393847714586 	 14.216801481994 	
C	  2.248884195842 	  0.156744357789 	  1.405004233258 	
C	  1.680340065842 	  0.156747167789 	 11.535560953258 	
C	  2.248853095842 	  6.340306117789 	  1.405001403258 	
C	  1.680308965842 	  6.340308927789 	 11.535558123258 	
C	 16.929711495842 	  0.156753587789 	  1.433134163258 	
C	 16.361167365842 	  0.156756397789 	 11.563690883258 	
C	 16.929680395842 	  6.340315347789 	  1.433131333258 	
C	 16.361136265842 	  6.340318157789 	 11.563688053258 	
C	  2.225245238400 	  2.352285233125 	  5.504111436838 	
C	  1.656701108400 	  2.352288043125 	 15.634668156838 	
C	  2.225214138400 	  8.535846993125 	  5.504108606838 	
C	  1.656670008400 	  8.535849803125 	 15.634665326838 	
C	 16.906072538400 	  2.352294463125 	  5.532241366838 	
C	 16.337528408400 	  2.352297273125 	 15.662798086838 	
C	 16.906041438400 	  8.535856223125 	  5.532238536838 	
C	 16.337497308400 	  8.535859033125 	 15.662795256838 	
C	 11.106939847192 	 -0.629163656626 	 10.592655913050 	
C	 10.538395717192 	 -0.629160846626 	 20.723212633050 	
C	 11.106908747192 	  5.554398103374 	 10.592653083050 	
C	 10.538364617192 	  5.554400913374 	 20.723209803050 	
C	 25.787767147192 	 -0.629154426626 	 10.620785843050 	
C	 25.219223017192 	 -0.629151616626 	 20.751342563050 	
C	 25.787736047192 	  5.554407333374 	 10.620783013050 	
C	 25.219191917192 	  5.554410143374 	 20.751339733050 	
C	 11.346921986754 	  3.745201332886 	  5.290905635432 	
C	 10.778377856754 	  3.745204142886 	 15.421462355432 	
C	 11.346890886754 	  9.928763092886 	  5.290902805432 	
C	 10.778346756754 	  9.928765902886 	 15.421459525432 	
C	 26.027749286754 	  3.745210562886 	  5.319035565432 	
C	 25.459205156754 	  3.745213372886 	 15.449592285432 	
C	 26.027718186754 	  9.928772322886 	  5.319032735432 	
C	 25.459174056754 	  9.928775132886 	 15.449589455432 	
C	  2.465227985978 	  6.726651229646 	  0.202361820620 	
C	  1.896683855978 	  6.726654039646 	 10.332918540620 	
C	  2.465196885978 	 12.910212989646 	  0.202358990620 	
C	  1.896652755978 	 12.910215799646 	 10.332915710620 	
C	 17.146055285978 	  6.726660459646 	  0.230491750620 	
C	 16.577511155978 	  6.726663269646 	 10.361048470620 	
C	 17.146024185978 	 12.910222219646 	  0.230488920620 	
C	 16.577480055978 	 12.910225029646 	 10.361045640620 	
H	  3.152848681281 	  2.703941303047 	  4.935916653729 	
H	  2.584304551281 	  2.703944113047 	 15.066473373729 	
H	  3.152817581281 	  8.887503063047 	  4.935913823729 	
H	  2.584273451281 	  8.887505873047 	 15.066470543729 	
H	 17.833675981281 	  2.703950533047 	  4.964046583729 	
H	 17.265131851281 	  2.703953343047 	 15.094603303729 	
H	 17.833644881281 	  8.887512293047 	  4.964043753729 	
H	 17.265100751281 	  8.887515103047 	 15.094600473729 	
H	 10.195178008871 	 -0.344646288506 	 11.194012057442 	
H	  9.626633878871 	 -0.344643478506 	 21.324568777442 	
H	 10.195146908871 	  5.838915471494 	 11.194009227442 	
H	  9.626602778871 	  5.838918281494 	 21.324565947442 	
H	 24.876005308871 	 -0.344637058506 	 11.222141987442 	
H	 24.307461178871 	 -0.344634248506 	 21.352698707442 	
H	 24.875974208871 	  5.838924701494 	 11.222139157442 	
H	 24.307430078871 	  5.838927511494 	 21.352695877442 	
H	 10.419319194643 	  3.393542888761 	  5.859099903901 	
H	  9.850775064643 	  3.393545698761 	 15.989656623901 	
H	 10.419288094643 	  9.577104648761 	  5.859097073901 	
H	  9.850743964643 	  9.577107458761 	 15.989653793901 	
H	 25.100146494643 	  3.393552118761 	  5.887229833901 	
H	 24.531602364643 	  3.393554928761 	 16.017786553901 	
H	 25.100115394643 	  9.577113878761 	  5.887227003901 	
H	 24.531571264643 	  9.577116688761 	 16.017783723901 	
H	  3.376989585603 	  6.442133902475 	 -0.398994689370 	
H	  2.808445455603 	  6.442136712475 	  9.731562030630 	
H	  3.376958485603 	 12.625695662475 	 -0.398997519370 	
H	  2.808414355603 	 12.625698472475 	  9.731559200630 	
H	 18.057816885603 	  6.442143132475 	 -0.370864759370 	
H	 17.489272755603 	  6.442145942475 	  9.759691960630 	
H	 18.057785785603 	 12.625704892475 	 -0.370867589370 	
H	 17.489241655603 	 12.625707702475 	  9.759689130630 	
H	  1.399247455366 	  2.489980838279 	  4.747775568877 	
H	  0.830703325366 	  2.489983648279 	 14.878332288877 	
H	  1.399216355366 	  8.673542598279 	  4.747772738877 	
H	  0.830672225366 	  8.673545408279 	 14.878329458877 	
H	 16.080074755366 	  2.489990068279 	  4.775905498877 	
H	 15.511530625366 	  2.489992878279 	 14.906462218877 	
H	 16.080043655366 	  8.673551828279 	  4.775902668877 	
H	 15.511499525366 	  8.673554638279 	 14.906459388877 	
H	 12.431922143609 	 -0.552814169722 	  0.745975896091 	
H	 11.863378013609 	 -0.552811359722 	 10.876532616091 	
H	 12.431891043609 	  5.630747590278 	  0.745973066091 	
H	 11.863346913609 	  5.630750400278 	 10.876529786091 	
H	 27.112749443609 	 -0.552804939722 	  0.774105826091 	
H	 26.544205313609 	 -0.552802129722 	 10.904662546091 	
H	 27.112718343609 	  5.630756820278 	  0.774102996091 	
H	 26.544174213609 	  5.630759630278 	 10.904659716091 	
H	 12.172919941522 	  3.607506281198 	  6.047241434019 	
H	 11.604375811522 	  3.607509091198 	 16.177798154019 	
H	 12.172888841522 	  9.791068041198 	  6.047238604019 	
H	 11.604344711522 	  9.791070851198 	 16.177795324019 	
H	 26.853747241522 	  3.607515511198 	  6.075371364019 	
H	 26.285203111522 	  3.607518321198 	 16.205928084019 	
H	 26.853716141522 	  9.791077271198 	  6.075368534019 	
H	 26.285172011522 	  9.791080081198 	 16.205925254019 	
H	  1.140245281822 	  6.650301792037 	 10.049042337628 	
H	  0.571701151822 	  6.650304602037 	 20.179599057628 	
H	  1.140214181822 	 12.833863552037 	 10.049039507628 	
H	  0.571670051822 	 12.833866362037 	 20.179596227628 	
H	 15.821072581822 	  6.650311022037 	 10.077172267628 	
H	 15.252528451822 	  6.650313832037 	 20.207728987628 	
H	 15.821041481822 	 12.833872782037 	 10.077169437628 	
H	 15.252497351822 	 12.833875592037 	 20.207726157628 	
H	  2.402898863053 	  1.225035566837 	  5.449533142127 	
H	  1.834354733053 	  1.225038376837 	 15.580089862127 	
H	  2.402867763053 	  7.408597326837 	  5.449530312127 	
H	  1.834323633053 	  7.408600136837 	 15.580087032127 	
H	 17.083726163053 	  1.225044796837 	  5.477663072127 	
H	 16.515182033053 	  1.225047606837 	 15.608219792127 	
H	 17.083695063053 	  7.408606556837 	  5.477660242127 	
H	 16.515150933053 	  7.408609366837 	 15.608216962127 	
H	 11.373658598246 	  4.201240957146 	  0.012173255284 	
H	 10.805114468246 	  4.201243767146 	 10.142729975284 	
H	 11.373627498246 	 10.384802717146 	  0.012170425284 	
H	 10.805083368246 	 10.384805527146 	 10.142727145284 	
H	 26.054485898246 	  4.201250187146 	  0.040303185284 	
H	 25.485941768246 	  4.201252997146 	 10.170859905284 	
H	 26.054454798246 	 10.384811947146 	  0.040300355284 	
H	 25.485910668246 	 10.384814757146 	 10.170857075284 	
H	 11.169266368956 	  4.872450582987 	  5.345484972255 	
H	 10.600722238956 	  4.872453392987 	 15.476041692255 	
H	 11.169235268956 	 11.056012342987 	  5.345482142255 	
H	 10.600691138956 	 11.056015152987 	 15.476038862255 	
H	 25.850093668956 	  4.872459812987 	  5.373614902255 	
H	 25.281549538956 	  4.872462622987 	 15.504171622255 	
H	 25.850062568956 	 11.056021572987 	  5.373612072255 	
H	 25.281518438956 	 11.056024382987 	 15.504168792255 	
H	  2.198509214081 	  1.896246610064 	 10.782844782463 	
H	  1.629965084081 	  1.896249420064 	 20.913401502463 	
H	  2.198478114081 	  8.079808370064 	 10.782841952463 	
H	  1.629933984081 	  8.079811180064 	 20.913398672463 	
H	 16.879336514081 	  1.896255840064 	 10.810974712463 	
H	 16.310792384081 	  1.896258650064 	 20.941531432463 	
H	 16.879305414081 	  8.079817600064 	 10.810971882463 	
H	 16.310761284081 	  8.079820410064 	 20.941528602463 	
C	  1.680800515988 	  4.191010397012 	  6.566717115437 	
C	  1.112256385988 	  4.191013207012 	 16.697273835437 	
C	  1.680769415988 	 10.374572157012 	  6.566714285437 	
C	  1.112225285988 	 10.374574967012 	 16.697271005437 	
C	 16.361627815988 	  4.191019627012 	  6.594847045437 	
C	 15.793083685988 	  4.191022437012 	 16.725403765437 	
C	 16.361596715988 	 10.374581387012 	  6.594844215437 	
C	 15.793052585988 	 10.374584197012 	 16.725400935437 	
C	 11.680167358295 	  1.152877343056 	  9.555835692100 	
C	 11.111623228295 	  1.152880153056 	 19.686392412100 	
C	 11.680136258295 	  7.336439103056 	  9.555832862100 	
C	 11.111592128295 	  7.336441913056 	 19.686389582100 	
C	 26.360994658295 	  1.152886573056 	  9.583965622100 	
C	 25.792450528295 	  1.152889383056 	 19.714522342100 	
C	 26.360963558295 	  7.336448333056 	  9.583962792100 	
C	 25.792419428295 	  7.336451143056 	 19.714519512100 	
C	 11.891369165236 	  1.906477270959 	  4.228297987764 	
C	 11.322825035236 	  1.906480080959 	 14.358854707764 	
C	 11.891338065236 	  8.090039030959 	  4.228295157764 	
C	 11.322793935236 	  8.090041840959 	 14.358851877764 	
C	 26.572196465236 	  1.906486500959 	  4.256427917764 	
C	 26.003652335236 	  1.906489310959 	 14.386984637764 	
C	 26.572165365236 	  8.090048260959 	  4.256425087764 	
C	 26.003621235236 	  8.090051070959 	 14.386981807764 	
C	  1.892000961182 	  4.944609962466 	  1.239182104828 	
C	  1.323456831182 	  4.944612772466 	 11.369738824828 	
C	  1.891969861182 	 11.128171722466 	  1.239179274828 	
C	  1.323425731182 	 11.128174532466 	 11.369735994828 	
C	 16.572828261182 	  4.944619192466 	  1.267312034828 	
C	 16.004284131182 	  4.944622002466 	 11.397868754828 	
C	 16.572797161182 	 11.128180952466 	  1.267309204828 	
C	 16.004253031182 	 11.128183762466 	 11.397865924828 	
H	  2.490433491589 	  4.878529469102 	  6.153297551786 	
H	  1.921889361589 	  4.878532279102 	 16.283854271786 	
H	  2.490402391589 	 11.062091229102 	  6.153294721786 	
H	  1.921858261589 	 11.062094039102 	 16.283851441786 	
H	 17.171260791589 	  4.878538699102 	  6.181427481786 	
H	 16.602716661589 	  4.878541509102 	 16.311984201786 	
H	 17.171229691589 	 11.062100459102 	  6.181424651786 	
H	 16.602685561589 	 11.062103269102 	 16.311981371786 	
H	 10.861729457009 	  1.828990251473 	  9.974893605072 	
H	 10.293185327009 	  1.828993061473 	 20.105450325072 	
H	 10.861698357009 	  8.012552011473 	  9.974890775072 	
H	 10.293154227009 	  8.012554821473 	 20.105447495072 	
H	 25.542556757009 	  1.828999481473 	 10.003023535072 	
H	 24.974012627009 	  1.829002291473 	 20.133580255072 	
H	 25.542525657009 	  8.012561241473 	 10.003020705072 	
H	 24.973981527009 	  8.012564051473 	 20.133577425072 	
H	 11.081736639491 	  1.218957074386 	  4.641716438379 	
H	 10.513192509491 	  1.218959884386 	 14.772273158379 	
H	 11.081705539491 	  7.402518834386 	  4.641713608379 	
H	 10.513161409491 	  7.402521644386 	 14.772270328379 	
H	 25.762563939491 	  1.218966304386 	  4.669846368379 	
H	 25.194019809491 	  1.218969114386 	 14.800403088379 	
H	 25.762532839491 	  7.402528064386 	  4.669843538379 	
H	 25.193988709491 	  7.402530874386 	 14.800400258379 	
H	  2.710438739511 	  4.268497234252 	  0.820123681216 	
H	  2.141894609511 	  4.268500044252 	 10.950680401216 	
H	  2.710407639511 	 10.452058994252 	  0.820120851216 	
H	  2.141863509511 	 10.452061804252 	 10.950677571216 	
H	 17.391266039511 	  4.268506464252 	  0.848253611216 	
H	 16.822721909511 	  4.268509274252 	 10.978810331216 	
H	 17.391234939511 	 10.452068224252 	  0.848250781216 	
H	 16.822690809511 	 10.452071034252 	 10.978807501216 	
H	  1.391992729186 	  4.773898614970 	  7.503634090423 	
H	  0.823448599186 	  4.773901424970 	 17.634190810423 	
H	  1.391961629186 	 10.957460374970 	  7.503631260423 	
H	  0.823417499186 	 10.957463184970 	 17.634187980423 	
H	 16.072820029186 	  4.773907844970 	  7.531764020423 	
H	 15.504275899186 	  4.773910654970 	 17.662320740423 	
H	 16.072788929186 	 10.957469604970 	  7.531761190423 	
H	 15.504244799186 	 10.957472414970 	 17.662317910423 	
H	 11.955555598422 	  7.809745875781 	  8.637192245792 	
H	 11.387011468422 	  7.809748685781 	 18.767748965792 	
H	 11.955524498422 	 13.993307635781 	  8.637189415792 	
H	 11.386980368422 	 13.993310445781 	 18.767746135792 	
H	 26.636382898422 	  7.809755105781 	  8.665322175792 	
H	 26.067838768422 	  7.809757915781 	 18.795878895792 	
H	 26.636351798422 	 13.993316865781 	  8.665319345792 	
H	 26.067807668422 	 13.993319675781 	 18.795876065792 	
H	 12.180178154994 	  1.323590582436 	  3.291380497150 	
H	 11.611634024994 	  1.323593392436 	 13.421937217150 	
H	 12.180147054994 	  7.507152342436 	  3.291377667150 	
H	 11.611602924994 	  7.507155152436 	 13.421934387150 	
H	 26.861005454994 	  1.323599812436 	  3.319510427150 	
H	 26.292461324994 	  1.323602622436 	 13.450067147150 	
H	 26.860974354994 	  7.507161572436 	  3.319507597150 	
H	 26.292430224994 	  7.507164382436 	 13.450064317150 	
H	  1.616613362355 	 -1.712258702201 	  2.157825643659 	
H	  1.048069232355 	 -1.712255892201 	 12.288382363659 	
H	  1.616582262355 	  4.471303057799 	  2.157822813659 	
H	  1.048038132355 	  4.471305867799 	 12.288379533659 	
H	 16.297440662355 	 -1.712249472201 	  2.185955573659 	
H	 15.728896532355 	 -1.712246662201 	 12.316512293659 	
H	 16.297409562355 	  4.471312287799 	  2.185952743659 	
H	 15.728865432355 	  4.471315097799 	 12.316509463659 	
H	  0.805835174589 	  4.368956111500 	  5.878351511573 	
H	  0.237291044589 	  4.368958921500 	 16.008908231573 	
H	  0.805804074589 	 10.552517871500 	  5.878348681573 	
H	  0.237259944589 	 10.552520681500 	 16.008905401573 	
H	 15.486662474589 	  4.368965341500 	  5.906481441573 	
H	 14.918118344589 	  4.368968151500 	 16.037038161573 	
H	 15.486631374589 	 10.552527101500 	  5.906478611573 	
H	 14.918087244589 	 10.552529911500 	 16.037035331573 	
H	 12.535533546845 	  7.413694944107 	 10.242807645057 	
H	 11.966989416845 	  7.413697754107 	 20.373364365057 	
H	 12.535502446845 	 13.597256704107 	 10.242804815057 	
H	 11.966958316845 	 13.597259514107 	 20.373361535057 	
H	 27.216360846845 	  7.413704174107 	 10.270937575057 	
H	 26.647816716845 	  7.413706984107 	 20.401494295057 	
H	 27.216329746845 	 13.597265934107 	 10.270934745057 	
H	 26.647785616845 	 13.597268744107 	 20.401491465057 	
H	 12.766334307420 	  1.728531822002 	  4.916663882763 	
H	 12.197790177420 	  1.728534632002 	 15.047220602763 	
H	 12.766303207420 	  7.912093582002 	  4.916661052763 	
H	 12.197759077420 	  7.912096392002 	 15.047217772763 	
H	 27.447161607420 	  1.728541052002 	  4.944793812763 	
H	 26.878617477420 	  1.728543862002 	 15.075350532763 	
H	 27.447130507420 	  7.912102812002 	  4.944790982763 	
H	 26.878586377420 	  7.912105622002 	 15.075347702763 	
H	  1.036634385048 	 -1.316207654779 	  0.552210643932 	
H	  0.468090255048 	 -1.316204844779 	 10.682767363932 	
H	  1.036603285048 	  4.867354105221 	  0.552207813932 	
H	  0.468059155048 	  4.867356915221 	 10.682764533932 	
H	 15.717461685048 	 -1.316198424779 	  0.580340573932 	
H	 15.148917555048 	 -1.316195614779 	 10.710897293932 	
H	 15.717430585048 	  4.867363335221 	  0.580337743932 	
H	 15.148886455048 	  4.867366145221 	 10.710894463932 	
C	  0.983806817821 	  2.237830830223 	  7.323975687027 	
C	  0.415262687821 	  2.237833640223 	 17.454532407027 	
C	  0.983775717821 	  8.421392590223 	  7.323972857027 	
C	  0.415231587821 	  8.421395400223 	 17.454529577027 	
C	 15.664634117821 	  2.237840060223 	  7.352105617027 	
C	 15.096089987821 	  2.237842870223 	 17.482662337027 	
C	 15.664603017821 	  8.421401820223 	  7.352102787027 	
C	 15.096058887821 	  8.421404630223 	 17.482659507027 	
C	 12.366904484803 	  5.287015242081 	  8.804966790190 	
C	 11.798360354803 	  5.287018052081 	 18.935523510190 	
C	 12.366873384803 	 11.470577002081 	  8.804963960190 	
C	 11.798329254803 	 11.470579812081 	 18.935520680190 	
C	 27.047731784803 	  5.287024472081 	  8.833096720190 	
C	 26.479187654803 	  5.287027282081 	 18.963653440190 	
C	 27.047700684803 	 11.470586232081 	  8.833093890190 	
C	 26.479156554803 	 11.470589042081 	 18.963650610190 	
C	 12.588361095858 	  3.859658985787 	  3.471041145592 	
C	 12.019816965858 	  3.859661795787 	 13.601597865592 	
C	 12.588329995858 	 10.043220745787 	  3.471038315592 	
C	 12.019785865858 	 10.043223555787 	 13.601595035592 	
C	 27.269188395858 	  3.859668215787 	  3.499171075592 	
C	 26.700644265858 	  3.859671025787 	 13.629727795592 	
C	 27.269157295858 	 10.043229975787 	  3.499168245592 	
C	 26.700613165858 	 10.043232785787 	 13.629724965592 	
C	  1.205263793410 	  0.810471810821 	  1.990051456440 	
C	  0.636719663410 	  0.810474620821 	 12.120608176440 	
C	  1.205232693410 	  6.994033570821 	  1.990048626440 	
C	  0.636688563410 	  6.994036380821 	 12.120605346440 	
C	 15.886091093410 	  0.810481040821 	  2.018181386440 	
C	 15.317546963410 	  0.810483850821 	 12.148738106440 	
C	 15.886059993410 	  6.994042800821 	  2.018178556440 	
C	 15.317515863410 	  6.994045610821 	 12.148735276440 	
H	 -0.003437141741 	  2.252140976544 	  6.779763176228 	
H	 -0.571981271741 	  2.252143786544 	 16.910319896228 	
H	 -0.003468241741 	  8.435702736544 	  6.779760346228 	
H	 -0.572012371741 	  8.435705546544 	 16.910317066228 	
H	 14.677390158259 	  2.252150206544 	  6.807893106228 	
H	 14.108846028259 	  2.252153016544 	 16.938449826228 	
H	 14.677359058259 	  8.435711966544 	  6.807890276228 	
H	 14.108814928259 	  8.435714776544 	 16.938446996228 	
H	 13.354261435801 	  5.300891594161 	  9.349086132471 	
H	 12.785717305801 	  5.300894404161 	 19.479642852471 	
H	 13.354230335801 	 11.484453354161 	  9.349083302471 	
H	 12.785686205801 	 11.484456164161 	 19.479640022471 	
H	 28.035088735801 	  5.300900824161 	  9.377216062471 	
H	 27.466544605801 	  5.300903634161 	 19.507772782471 	
H	 28.035057635801 	 11.484462584161 	  9.377213232471 	
H	 27.466513505801 	 11.484465394161 	 19.507769952471 	
H	 13.575605062638 	  3.845348868588 	  4.015253626924 	
H	 13.007060932638 	  3.845351678588 	 14.145810346924 	
H	 13.575573962638 	 10.028910628588 	  4.015250796924 	
H	 13.007029832638 	 10.028913438588 	 14.145807516924 	
H	 28.256432362638 	  3.845358098588 	  4.043383556924 	
H	 27.687888232638 	  3.845360908588 	 14.173940276924 	
H	 28.256401262638 	 10.028919858588 	  4.043380726924 	
H	 27.687857132638 	 10.028922668588 	 14.173937446924 	
H	  0.217906698033 	  0.796595318344 	  1.445932390152 	
H	 -0.350637431967 	  0.796598128344 	 11.576489110152 	
H	  0.217875598033 	  6.980157078344 	  1.445929560152 	
H	 -0.350668531967 	  6.980159888344 	 11.576486280152 	
H	 14.898733998033 	  0.796604548344 	  1.474062320152 	
H	 14.330189868033 	  0.796607358344 	 11.604619040152 	
H	 14.898702898033 	  6.980166308344 	  1.474059490152 	
H	 14.330158768033 	  6.980169118344 	 11.604616210152 	
H	  0.718164261750 	  2.582810761786 	  8.377896519073 	
H	  0.149620131750 	  2.582813571786 	 18.508453239073 	
H	  0.718133161750 	  8.766372521786 	  8.377893689073 	
H	  0.149589031750 	  8.766375331786 	 18.508450409073 	
H	 15.398991561750 	  2.582819991786 	  8.406026449073 	
H	 14.830447431750 	  2.582822801786 	 18.536583169073 	
H	 15.398960461750 	  8.766381751786 	  8.406023619073 	
H	 14.830416331750 	  8.766384561786 	 18.536580339073 	
H	 12.632692979680 	  5.631827877574 	  7.750953002748 	
H	 12.064148849680 	  5.631830687574 	 17.881509722748 	
H	 12.632661879680 	 11.815389637574 	  7.750950172748 	
H	 12.064117749680 	 11.815392447574 	 17.881506892748 	
H	 27.313520279680 	  5.631837107574 	  7.779082932748 	
H	 26.744976149680 	  5.631839917574 	 17.909639652748 	
H	 27.313489179680 	 11.815398867574 	  7.779080102748 	
H	 26.744945049680 	 11.815401677574 	 17.909636822748 	
H	 12.854003804387 	  3.514680760131 	  2.417119856978 	
H	 12.285459674387 	  3.514683570131 	 12.547676576978 	
H	 12.853972704387 	  9.698242520131 	  2.417117026978 	
H	 12.285428574387 	  9.698245330131 	 12.547673746978 	
H	 27.534831104387 	  3.514689990131 	  2.445249786978 	
H	 26.966286974387 	  3.514692800131 	 12.575806506978 	
H	 27.534800004387 	  9.698251750131 	  2.445246956978 	
H	 26.966255874387 	  9.698254560131 	 12.575803676978 	
H	  0.939475545650 	  0.465658729802 	  3.044065170353 	
H	  0.370931415650 	  0.465661539802 	 13.174621890353 	
H	  0.939444445650 	  6.649220489802 	  3.044062340353 	
H	  0.370900315650 	  6.649223299802 	 13.174619060353 	
H	 15.620302845650 	  0.465667959802 	  3.072195100353 	
H	 15.051758715650 	  0.465670769802 	 13.202751820353 	
H	 15.620271745650 	  6.649229719802 	  3.072192270353 	
H	 15.051727615650 	  6.649232529802 	 13.202748990353 	
H	  1.145810239198 	  1.124138023353 	  7.520701601887 	
H	  0.577266109198 	  1.124140833353 	 17.651258321887 	
H	  1.145779139198 	  7.307699783353 	  7.520698771887 	
H	  0.577235009198 	  7.307702593353 	 17.651255491887 	
H	 15.826637539198 	  1.124147253353 	  7.548831531887 	
H	 15.258093409198 	  1.124150063353 	 17.679388251887 	
H	 15.826606439198 	  7.307709013353 	  7.548828701887 	
H	 15.258062309198 	  7.307711823353 	 17.679385421887 	
H	 12.205073889580 	  4.173141345935 	  8.608087198688 	
H	 11.636529759580 	  4.173144155935 	 18.738643918688 	
H	 12.205042789580 	 10.356703105935 	  8.608084368688 	
H	 11.636498659580 	 10.356705915935 	 18.738641088688 	
H	 26.885901189580 	  4.173150575935 	  8.636217128688 	
H	 26.317357059580 	  4.173153385935 	 18.766773848688 	
H	 26.885870089580 	 10.356712335935 	  8.636214298688 	
H	 26.317325959580 	 10.356715145935 	 18.766771018688 	
H	 12.426356704511 	  4.973351932841 	  3.274317110790 	
H	 11.857812574511 	  4.973354742841 	 13.404873830790 	
H	 12.426325604511 	 11.156913692841 	  3.274314280790 	
H	 11.857781474511 	 11.156916502841 	 13.404871000790 	
H	 27.107184004511 	  4.973361162841 	  3.302447040790 	
H	 26.538639874511 	  4.973363972841 	 13.433003760790 	
H	 27.107152904511 	 11.156922922841 	  3.302444210790 	
H	 26.538608774511 	 11.156925732841 	 13.433000930790 	
H	  1.367094237565 	  1.924345639082 	  2.186931558562 	
H	  0.798550107565 	  1.924348449082 	 12.317488278562 	
H	  1.367063137565 	  8.107907399082 	  2.186928728562 	
H	  0.798519007565 	  8.107910209082 	 12.317485448562 	
H	 16.047921537565 	  1.924354869082 	  2.215061488562 	
H	 15.479377407565 	  1.924357679082 	 12.345618208562 	
H	 16.047890437565 	  8.107916629082 	  2.215058658562 	
H	 15.479346307565 	  8.107919439082 	 12.345615378562 	
768 
Energy: -7.3846297469649997e+01 
S	  8.274226964800 	  1.377175302200 	  0.134797036600 	
S	  7.705682834800 	  1.377178112200 	 10.265353756600 	
S	  8.274195864800 	  7.560737062200 	  0.134794206600 	
S	  7.705651734800 	  7.560739872200 	 10.265350926600 	
S	 22.955054264800 	  1.377184532200 	  0.162926966600 	
S	 22.386510134800 	  1.377187342200 	 10.293483686600 	
S	 22.955023164800 	  7.560746292200 	  0.162924136600 	
S	 22.386479034800 	  7.560749102200 	 10.293480856600 	
S	  5.468105551400 	  4.422280389300 	  5.357839294400 	
S	  4.899561421400 	  4.422283199300 	 15.488396014400 	
S	  5.468074451400 	 10.605842149300 	  5.357836464400 	
S	  4.899530321400 	 10.605844959300 	 15.488393184400 	
S	 20.148932851400 	  4.422289619300 	  5.385969224400 	
S	 19.580388721400 	  4.422292429300 	 15.516525944400 	
S	 20.148901751400 	 10.605851379300 	  5.385966394400 	
S	 19.580357621400 	 10.605854189300 	 15.516523114400 	
S	  5.252181867800 	  4.713017932400 	 10.714134363300 	
S	  4.683637737800 	  4.713020742400 	 20.844691083300 	
S	  5.252150767800 	 10.896579692400 	 10.714131533300 	
S	  4.683606637800 	 10.896582502400 	 20.844688253300 	
S	 19.933009167800 	  4.713027162400 	 10.742264293300 	
S	 19.364465037800 	  4.713029972400 	 20.872821013300 	
S	 19.932978067800 	 10.896588922400 	 10.742261463300 	
S	 19.364433937800 	 10.896591732400 	 20.872818183300 	
S	  8.058304838100 	  1.667912723500 	  5.491091585000 	
S	  7.489760708100 	  1.667915533500 	 15.621648305000 	
S	  8.058273738100 	  7.851474483500 	  5.491088755000 	
S	  7.489729608100 	  7.851477293500 	 15.621645475000 	
S	 22.739132138100 	  1.667921953500 	  5.519221515000 	
S	 22.170588008100 	  1.667924763500 	 15.649778235000 	
S	 22.739101038100 	  7.851483713500 	  5.519218685000 	
S	 22.170556908100 	  7.851486523500 	 15.649775405000 	
C	  6.549448319000 	  2.468400911100 	 10.397561804200 	
C	  5.980904189000 	  2.468403721100 	 20.528118524200 	
C	  6.549417219000 	  8.651962671100 	 10.397558974200 	
C	  5.980873089000 	  8.651965481100 	 20.528115694200 	
C	 21.230275619000 	  2.468410141100 	 10.425691734200 	
C	 20.661731489000 	  2.468412951100 	 20.556248454200 	
C	 21.230244519000 	  8.651971901100 	 10.425688904200 	
C	 20.661700389000 	  8.651974711100 	 20.556245624200 	
C	  6.761044788800 	  5.513514746100 	  5.807719306500 	
C	  6.192500658800 	  5.513517556100 	 15.938276026500 	
C	  6.761013688800 	 11.697076506100 	  5.807716476500 	
C	  6.192469558800 	 11.697079316100 	 15.938273196500 	
C	 21.441872088800 	  5.513523976100 	  5.835849236500 	
C	 20.873327958800 	  5.513526786100 	 15.966405956500 	
C	 21.441840988800 	 11.697085736100 	  5.835846406500 	
C	 20.873296858800 	 11.697088546100 	 15.966403126500 	
C	  6.976960522100 	  3.621792323500 	  0.451369381500 	
C	  6.408416392100 	  3.621795133500 	 10.581926101500 	
C	  6.976929422100 	  9.805354083500 	  0.451366551500 	
C	  6.408385292100 	  9.805356893500 	 10.581923271500 	
C	 21.657787822100 	  3.621801553500 	  0.479499311500 	
C	 21.089243692100 	  3.621804363500 	 10.610056031500 	
C	 21.657756722100 	  9.805363313500 	  0.479496481500 	
C	 21.089212592100 	  9.805366123500 	 10.610053201500 	
C	  6.765365469800 	  0.576678427600 	  5.041211357200 	
C	  6.196821339800 	  0.576681237600 	 15.171768077200 	
C	  6.765334369800 	  6.760240187600 	  5.041208527200 	
C	  6.196790239800 	  6.760242997600 	 15.171765247200 	
C	 21.446192769800 	  0.576687657600 	  5.069341287200 	
C	 20.877648639800 	  0.576690467600 	 15.199898007200 	
C	 21.446161669800 	  6.760249417600 	  5.069338457200 	
C	 20.877617539800 	  6.760252227600 	 15.199895177200 	
C	  5.514830661500 	  2.406236873400 	  9.413614614800 	
C	  4.946286531500 	  2.406239683400 	 19.544171334800 	
C	  5.514799561500 	  8.589798633400 	  9.413611784800 	
C	  4.946255431500 	  8.589801443400 	 19.544168504800 	
C	 20.195657961500 	  2.406246103400 	  9.441744544800 	
C	 19.627113831500 	  2.406248913400 	 19.572301264800 	
C	 20.195626861500 	  8.589807863400 	  9.441741714800 	
C	 19.627082731500 	  8.589810673400 	 19.572298434800 	
C	  7.795666071200 	  5.451341527800 	  6.791658665300 	
C	  7.227121941200 	  5.451344337800 	 16.922215385300 	
C	  7.795634971200 	 11.634903287800 	  6.791655835300 	
C	  7.227090841200 	 11.634906097800 	 16.922212555300 	
C	 22.476493371200 	  5.451350757800 	  6.819788595300 	
C	 21.907949241200 	  5.451353567800 	 16.950345315300 	
C	 22.476462271200 	 11.634912517800 	  6.819785765300 	
C	 21.907918141200 	 11.634915327800 	 16.950342485300 	
C	  8.011578179700 	  3.683956422100 	  1.435316571000 	
C	  7.443034049700 	  3.683959232100 	 11.565873291000 	
C	  8.011547079700 	  9.867518182100 	  1.435313741000 	
C	  7.443002949700 	  9.867520992100 	 11.565870461000 	
C	 22.692405479700 	  3.683965652100 	  1.463446501000 	
C	 22.123861349700 	  3.683968462100 	 11.594003221000 	
C	 22.692374379700 	  9.867527412100 	  1.463443671000 	
C	 22.123830249700 	  9.867530222100 	 11.594000391000 	
C	  5.730743895300 	  0.638851706800 	  4.057272317100 	
C	  5.162199765300 	  0.638854516800 	 14.187829037100 	
C	  5.730712795300 	  6.822413466800 	  4.057269487100 	
C	  5.162168665300 	  6.822416276800 	 14.187826207100 	
C	 20.411571195300 	  0.638860936800 	  4.085402247100 	
C	 19.843027065300 	  0.638863746800 	 14.215958967100 	
C	 20.411540095300 	  6.822422696800 	  4.085399417100 	
C	 19.842995965300 	  6.822425506800 	 14.215956137100 	
C	  4.708186547100 	  3.575057243500 	  9.473887592500 	
C	  4.139642417100 	  3.575060053500 	 19.604444312500 	
C	  4.708155447100 	  9.758619003500 	  9.473884762500 	
C	  4.139611317100 	  9.758621813500 	 19.604441482500 	
C	 19.389013847100 	  3.575066473500 	  9.502017522500 	
C	 18.820469717100 	  3.575069283500 	 19.632574242500 	
C	 19.388982747100 	  9.758628233500 	  9.502014692500 	
C	 18.820438617100 	  9.758631043500 	 19.632571412500 	
C	  8.602283030900 	  0.529944629900 	  6.731329322300 	
C	  8.033738900900 	  0.529947439900 	 16.861886042300 	
C	  8.602251930900 	  6.713506389900 	  6.731326492300 	
C	  8.033707800900 	  6.713509199900 	 16.861883212300 	
C	 23.283110330900 	  0.529953859900 	  6.759459252300 	
C	 22.714566200900 	  0.529956669900 	 16.890015972300 	
C	 23.283079230900 	  6.713515619900 	  6.759456422300 	
C	 22.714535100900 	  6.713518429900 	 16.890013142300 	
C	  8.818222294000 	  2.515135991100 	  1.375043593200 	
C	  8.249678164000 	  2.515138801100 	 11.505600313200 	
C	  8.818191194000 	  8.698697751100 	  1.375040763200 	
C	  8.249647064000 	  8.698700561100 	 11.505597483200 	
C	 23.499049594000 	  2.515145221100 	  1.403173523200 	
C	 22.930505464000 	  2.515148031100 	 11.533730243200 	
C	 23.499018494000 	  8.698706981100 	  1.403170693200 	
C	 22.930474364000 	  8.698709791100 	 11.533727413200 	
C	  4.924127066500 	  5.560248604700 	  4.117601875700 	
C	  4.355582936500 	  5.560251414700 	 14.248158595700 	
C	  4.924095966500 	 11.743810364700 	  4.117599045700 	
C	  4.355551836500 	 11.743813174700 	 14.248155765700 	
C	 19.604954366500 	  5.560257834700 	  4.145731805700 	
C	 19.036410236500 	  5.560260644700 	 14.276288525700 	
C	 19.604923266500 	 11.743819594700 	  4.145728975700 	
C	 19.036379136500 	 11.743822404700 	 14.276285695700 	
C	  3.616380389000 	  3.755832070100 	  8.624223372800 	
C	  3.047836259000 	  3.755834880100 	 18.754780092800 	
C	  3.616349289000 	  9.939393830100 	  8.624220542800 	
C	  3.047805159000 	  9.939396640100 	 18.754777262800 	
C	 18.297207689000 	  3.755841300100 	  8.652353302800 	
C	 17.728663559000 	  3.755844110100 	 18.782910022800 	
C	 18.297176589000 	  9.939403060100 	  8.652350472800 	
C	 17.728632459000 	  9.939405870100 	 18.782907192800 	
C	  9.694110263800 	  0.710702205100 	  7.580976645800 	
C	  9.125566133800 	  0.710705015100 	 17.711533365800 	
C	  9.694079163800 	  6.894263965100 	  7.580973815800 	
C	  9.125535033800 	  6.894266775100 	 17.711530535800 	
C	 24.374937563800 	  0.710711435100 	  7.609106575800 	
C	 23.806393433800 	  0.710714245100 	 17.739663295800 	
C	 24.374906463800 	  6.894273195100 	  7.609103745800 	
C	 23.806362333800 	  6.894276005100 	 17.739660465800 	
C	  9.910028443500 	  2.334361286300 	  2.224708027200 	
C	  9.341484313500 	  2.334364096300 	 12.355264747200 	
C	  9.909997343500 	  8.517923046300 	  2.224705197200 	
C	  9.341453213500 	  8.517925856300 	 12.355261917200 	
C	 24.590855743500 	  2.334370516300 	  2.252837957200 	
C	 24.022311613500 	  2.334373326300 	 12.383394677200 	
C	 24.590824643500 	  8.517932276300 	  2.252835127200 	
C	 24.022280513500 	  8.517935086300 	 12.383391847200 	
C	  3.832299249400 	  5.379491151300 	  3.267955189500 	
C	  3.263755119400 	  5.379493961300 	 13.398511909500 	
C	  3.832268149400 	 11.563052911300 	  3.267952359500 	
C	  3.263724019400 	 11.563055721300 	 13.398509079500 	
C	 18.513126549400 	  5.379500381300 	  3.296085119500 	
C	 17.944582419400 	  5.379503191300 	 13.426641839500 	
C	 18.513095449400 	 11.563062141300 	  3.296082289500 	
C	 17.944551319400 	 11.563064951300 	 13.426639009500 	
H	  3.030192363400 	  4.667840350300 	  8.698825072800 	
H	  2.461648233400 	  4.667843160300 	 18.829381792800 	
H	  3.030161263400 	 10.851402110300 	  8.698822242800 	
H	  2.461617133400 	 10.851404920300 	 18.829378962800 	
H	 17.711019663400 	  4.667849580300 	  8.726955002800 	
H	 17.142475533400 	  4.667852390300 	 18.857511722800 	
H	 17.710988563400 	 10.851411340300 	  8.726952172800 	
H	 17.142444433400 	 10.851414150300 	 18.857508892800 	
H	 10.280332020700 	  1.622693456600 	  7.506360722100 	
H	  9.711787890700 	  1.622696266600 	 17.636917442100 	
H	 10.280300920700 	  7.806255216600 	  7.506357892100 	
H	  9.711756790700 	  7.806258026600 	 17.636914612100 	
H	 24.961159320700 	  1.622702686600 	  7.534490652100 	
H	 24.392615190700 	  1.622705496600 	 17.665047372100 	
H	 24.961128220700 	  7.806264446600 	  7.534487822100 	
H	 24.392584090700 	  7.806267256600 	 17.665044542100 	
H	 10.496216316600 	  1.422353006100 	  2.150106647200 	
H	  9.927672186600 	  1.422355816100 	 12.280663367200 	
H	 10.496185216600 	  7.605914766100 	  2.150103817200 	
H	  9.927641086600 	  7.605917576100 	 12.280660537200 	
H	 25.177043616600 	  1.422362236100 	  2.178236577200 	
H	 24.608499486600 	  1.422365046100 	 12.308793297200 	
H	 25.177012516600 	  7.605923996100 	  2.178233747200 	
H	 24.608468386600 	  7.605926806100 	 12.308790467200 	
H	  3.246077623500 	  4.467499838900 	  3.342571328800 	
H	  2.677533493500 	  4.467502648900 	 13.473128048800 	
H	  3.246046523500 	 10.651061598900 	  3.342568498800 	
H	  2.677502393500 	 10.651064408900 	 13.473125218800 	
H	 17.926904923500 	  4.467509068900 	  3.370701258800 	
H	 17.358360793500 	  4.467511878900 	 13.501257978800 	
H	 17.926873823500 	 10.651070828900 	  3.370698428800 	
H	 17.358329693500 	 10.651073638900 	 13.501255148800 	
C	  3.297673659000 	  2.774949442900 	  7.678024848600 	
C	  2.729129529000 	  2.774952252900 	 17.808581568600 	
C	  3.297642559000 	  8.958511202900 	  7.678022018600 	
C	  2.729098429000 	  8.958514012900 	 17.808578738600 	
C	 17.978500959000 	  2.774958672900 	  7.706154778600 	
C	 17.409956829000 	  2.774961482900 	 17.836711498600 	
C	 17.978469859000 	  8.958520432900 	  7.706151948600 	
C	 17.409925729000 	  8.958523242900 	 17.836708668600 	
C	 10.012846383800 	  5.820031992100 	  8.527231920200 	
C	  9.444302253800 	  5.820034802100 	 18.657788640200 	
C	 10.012815283800 	 12.003593752100 	  8.527229090200 	
C	  9.444271153800 	 12.003596562100 	 18.657785810200 	
C	 24.693673683800 	  5.820041222100 	  8.555361850200 	
C	 24.125129553800 	  5.820044032100 	 18.685918570200 	
C	 24.693642583800 	 12.003602982100 	  8.555359020200 	
C	 24.125098453800 	 12.003605792100 	 18.685915740200 	
C	 10.228735046900 	  3.315244157100 	  3.170906228600 	
C	  9.660190916900 	  3.315246967100 	 13.301462948600 	
C	 10.228703946900 	  9.498805917100 	  3.170903398600 	
C	  9.660159816900 	  9.498808727100 	 13.301460118600 	
C	 24.909562346900 	  3.315253387100 	  3.199036158600 	
C	 24.341018216900 	  3.315256197100 	 13.329592878600 	
C	 24.909531246900 	  9.498815147100 	  3.199033328600 	
C	 24.340987116900 	  9.498817957100 	 13.329590048600 	
C	  3.513562558100 	  0.270161486100 	  2.321700231000 	
C	  2.945018428100 	  0.270164296100 	 12.452256951000 	
C	  3.513531458100 	  6.453723246100 	  2.321697401000 	
C	  2.944987328100 	  6.453726056100 	 12.452254121000 	
C	 18.194389858100 	  0.270170716100 	  2.349830161000 	
C	 17.625845728100 	  0.270173526100 	 12.480386881000 	
C	 18.194358758100 	  6.453732476100 	  2.349827331000 	
C	 17.625814628100 	  6.453735286100 	 12.480384051000 	
C	  4.115613367000 	  1.624442344200 	  7.606279463600 	
C	  3.547069237000 	  1.624445154200 	 17.736836183600 	
C	  4.115582267000 	  7.808004104200 	  7.606276633600 	
C	  3.547038137000 	  7.808006914200 	 17.736833353600 	
C	 18.796440667000 	  1.624451574200 	  7.634409393600 	
C	 18.227896537000 	  1.624454384200 	 17.764966113600 	
C	 18.796409567000 	  7.808013334200 	  7.634406563600 	
C	 18.227865437000 	  7.808016144200 	 17.764963283600 	
C	  9.194872439700 	  4.669544365100 	  8.598991286000 	
C	  8.626328309700 	  4.669547175100 	 18.729548006000 	
C	  9.194841339700 	 10.853106125100 	  8.598988456000 	
C	  8.626297209700 	 10.853108935100 	 18.729545176000 	
C	 23.875699739700 	  4.669553595100 	  8.627121216000 	
C	 23.307155609700 	  4.669556405100 	 18.757677936000 	
C	 23.875668639700 	 10.853115355100 	  8.627118386000 	
C	 23.307124509700 	 10.853118165100 	 18.757675106000 	
C	  9.410795487100 	  4.465751377700 	  3.242651400700 	
C	  8.842251357100 	  4.465754187700 	 13.373208120700 	
C	  9.410764387100 	 10.649313137700 	  3.242648570700 	
C	  8.842220257100 	 10.649315947700 	 13.373205290700 	
C	 24.091622787100 	  4.465760607700 	  3.270781330700 	
C	 23.523078657100 	  4.465763417700 	 13.401338050700 	
C	 24.091591687100 	 10.649322367700 	  3.270778500700 	
C	 23.523047557100 	 10.649325177700 	 13.401335220700 	
C	  4.331536519400 	  1.420649052200 	  2.249940436700 	
C	  3.762992389400 	  1.420651862200 	 12.380497156700 	
C	  4.331505419400 	  7.604210812200 	  2.249937606700 	
C	  3.762961289400 	  7.604213622200 	 12.380494326700 	
C	 19.012363819400 	  1.420658282200 	  2.278070366700 	
C	 18.443819689400 	  1.420661092200 	 12.408627086700 	
C	 19.012332719400 	  7.604220042200 	  2.278067536700 	
C	 18.443788589400 	  7.604222852200 	 12.408624256700 	
H	  3.910307630800 	  0.858337997200 	  6.862660610300 	
H	  3.341763500800 	  0.858340807200 	 16.993217330300 	
H	  3.910276530800 	  7.041899757200 	  6.862657780300 	
H	  3.341732400800 	  7.041902567200 	 16.993214500300 	
H	 18.591134930800 	  0.858347227200 	  6.890790540300 	
H	 18.022590800800 	  0.858350037200 	 17.021347260300 	
H	 18.591103830800 	  7.041908987200 	  6.890787710300 	
H	 18.022559700800 	  7.041911797200 	 17.021344430300 	
H	  9.400179503700 	  3.903433024400 	  9.342599275100 	
H	  8.831635373700 	  3.903435834400 	 19.473155995100 	
H	  9.400148403700 	 10.086994784400 	  9.342596445100 	
H	  8.831604273700 	 10.086997594400 	 19.473153165100 	
H	 24.081006803700 	  3.903442254400 	  9.370729205100 	
H	 23.512462673700 	  3.903445064400 	 19.501285925100 	
H	 24.080975703700 	 10.087004014400 	  9.370726375100 	
H	 23.512431573700 	 10.087006824400 	 19.501283095100 	
H	  9.616101375900 	  5.231855907300 	  3.986269934100 	
H	  9.047557245900 	  5.231858717300 	 14.116826654100 	
H	  9.616070275900 	 11.415417667300 	  3.986267104100 	
H	  9.047526145900 	 11.415420477300 	 14.116823824100 	
H	 24.296928675900 	  5.231865137300 	  4.014399864100 	
H	 23.728384545900 	  5.231867947300 	 14.144956584100 	
H	 24.296897575900 	 11.415426897300 	  4.014397034100 	
H	 23.728353445900 	 11.415429707300 	 14.144953754100 	
H	  4.126229023800 	  2.186760514700 	  1.506332765000 	
H	  3.557684893800 	  2.186763324700 	 11.636889485000 	
H	  4.126197923800 	  8.370322274700 	  1.506329935000 	
H	  3.557653793800 	  8.370325084700 	 11.636886655000 	
H	 18.807056323800 	  2.186769744700 	  1.534462695000 	
H	 18.238512193800 	  2.186772554700 	 11.665019415000 	
H	 18.807025223800 	  8.370331504700 	  1.534459865000 	
H	 18.238481093800 	  8.370334314700 	 11.665016585000 	
C	  5.203863858000 	  1.434679543400 	  8.448323302000 	
C	  4.635319728000 	  1.434682353400 	 18.578880022000 	
C	  5.203832758000 	  7.618241303400 	  8.448320472000 	
C	  4.635288628000 	  7.618244113400 	 18.578877192000 	
C	 19.884691158000 	  1.434688773400 	  8.476453232000 	
C	 19.316147028000 	  1.434691583400 	 18.607009952000 	
C	 19.884660058000 	  7.618250533400 	  8.476450402000 	
C	 19.316115928000 	  7.618253343400 	 18.607007122000 	
C	  8.106607985800 	  4.479790023800 	  7.756956459800 	
C	  7.538063855800 	  4.479792833800 	 17.887513179800 	
C	  8.106576885800 	 10.663351783800 	  7.756953629800 	
C	  7.538032755800 	 10.663354593800 	 17.887510349800 	
C	 22.787435285800 	  4.479799253800 	  7.785086389800 	
C	 22.218891155800 	  4.479802063800 	 17.915643109800 	
C	 22.787404185800 	 10.663361013800 	  7.785083559800 	
C	 22.218860055800 	 10.663363823800 	 17.915640279800 	
C	  8.322544996100 	  4.655513995700 	  2.400607562400 	
C	  7.754000866100 	  4.655516805700 	 12.531164282400 	
C	  8.322513896100 	 10.839075755700 	  2.400604732400 	
C	  7.753969766100 	 10.839078565700 	 12.531161452400 	
C	 23.003372296100 	  4.655523225700 	  2.428737492400 	
C	 22.434828166100 	  4.655526035700 	 12.559294212400 	
C	 23.003341196100 	 10.839084985700 	  2.428734662400 	
C	 22.434797066100 	 10.839087795700 	 12.559291382400 	
C	  5.419801413700 	  1.610403271700 	  3.091974731400 	
C	  4.851257283700 	  1.610406081700 	 13.222531451400 	
C	  5.419770313700 	  7.793965031700 	  3.091971901400 	
C	  4.851226183700 	  7.793967841700 	 13.222528621400 	
C	 20.100628713700 	  1.610412501700 	  3.120104661400 	
C	 19.532084583700 	  1.610415311700 	 13.250661381400 	
C	 20.100597613700 	  7.793974261700 	  3.120101831400 	
C	 19.532053483700 	  7.793977071700 	 13.250658551400 	
H	  5.815280580100 	  0.539366990000 	  8.358446190600 	
H	  5.246736450100 	  0.539369800000 	 18.489002910600 	
H	  5.815249480100 	  6.722928750000 	  8.358443360600 	
H	  5.246705350100 	  6.722931560000 	 18.489000080600 	
H	 20.496107880100 	  0.539376220000 	  8.386576120600 	
H	 19.927563750100 	  0.539379030000 	 18.517132840600 	
H	 20.496076780100 	  6.722937980000 	  8.386573290600 	
H	 19.927532650100 	  6.722940790000 	 18.517130010600 	
H	  7.495164244800 	  3.584488939300 	  7.846838885500 	
H	  6.926620114800 	  3.584491749300 	 17.977395605500 	
H	  7.495133144800 	  9.768050699300 	  7.846836055500 	
H	  6.926589014800 	  9.768053509300 	 17.977392775500 	
H	 22.175991544800 	  3.584498169300 	  7.874968815500 	
H	 21.607447414800 	  3.584500979300 	 18.005525535500 	
H	 22.175960444800 	  9.768059929300 	  7.874965985500 	
H	 21.607416314800 	  9.768062739300 	 18.005522705500 	
H	  7.711128287000 	  5.550826610000 	  2.490484352400 	
H	  7.142584157000 	  5.550829420000 	 12.621041072400 	
H	  7.711097187000 	 11.734388370000 	  2.490481522400 	
H	  7.142553057000 	 11.734391180000 	 12.621038242400 	
H	 22.391955587000 	  5.550835840000 	  2.518614282400 	
H	 21.823411457000 	  5.550838650000 	 12.649171002400 	
H	 22.391924487000 	 11.734397600000 	  2.518611452400 	
H	 21.823380357000 	 11.734400410000 	 12.649168172400 	
H	  6.031245163400 	  2.505704356200 	  3.002092091400 	
H	  5.462701033400 	  2.505707166200 	 13.132648811400 	
H	  6.031214063400 	  8.689266116200 	  3.002089261400 	
H	  5.462669933400 	  8.689268926200 	 13.132645981400 	
H	 20.712072463400 	  2.505713586200 	  3.030222021400 	
H	 20.143528333400 	  2.505716396200 	 13.160778741400 	
H	 20.712041363400 	  8.689275346200 	  3.030219191400 	
H	 20.143497233400 	  8.689278156200 	 13.160775911400 	
C	  2.060699965000 	  2.923971898300 	  6.778256047500 	
C	  1.492155835000 	  2.923974708300 	 16.908812767500 	
C	  2.060668865000 	  9.107533658300 	  6.778253217500 	
C	  1.492124735000 	  9.107536468300 	 16.908809937500 	
C	 16.741527265000 	  2.923981128300 	  6.806385977500 	
C	 16.172983135000 	  2.923983938300 	 16.936942697500 	
C	 16.741496165000 	  9.107542888300 	  6.806383147500 	
C	 16.172952035000 	  9.107545698300 	 16.936939867500 	
C	 11.249821980800 	  5.969055390200 	  9.426999575200 	
C	 10.681277850800 	  5.969058200200 	 19.557556295200 	
C	 11.249790880800 	 12.152617150200 	  9.426996745200 	
C	 10.681246750800 	 12.152619960200 	 19.557553465200 	
C	 25.930649280800 	  5.969064620200 	  9.455129505200 	
C	 25.362105150800 	  5.969067430200 	 19.585686225200 	
C	 25.930618180800 	 12.152626380200 	  9.455126675200 	
C	 25.362074050800 	 12.152629190200 	 19.585683395200 	
C	 11.465708592700 	  3.166222067100 	  4.070675242600 	
C	 10.897164462700 	  3.166224877100 	 14.201231962600 	
C	 11.465677492700 	  9.349783827100 	  4.070672412600 	
C	 10.897133362700 	  9.349786637100 	 14.201229132600 	
C	 26.146535892700 	  3.166231297100 	  4.098805172600 	
C	 25.577991762700 	  3.166234107100 	 14.229361892600 	
C	 26.146504792700 	  9.349793057100 	  4.098802342600 	
C	 25.577960662700 	  9.349795867100 	 14.229359062600 	
C	  2.276586376900 	  0.121138088000 	  1.421933213400 	
C	  1.708042246900 	  0.121140898000 	 11.552489933400 	
C	  2.276555276900 	  6.304699848000 	  1.421930383400 	
C	  1.708011146900 	  6.304702658000 	 11.552487103400 	
C	 16.957413676900 	  0.121147318000 	  1.450063143400 	
C	 16.388869546900 	  0.121150128000 	 11.580619863400 	
C	 16.957382576900 	  6.304709078000 	  1.450060313400 	
C	 16.388838446900 	  6.304711888000 	 11.580617033400 	
C	  2.262347017200 	  2.221751156100 	  5.422902565400 	
C	  1.693802887200 	  2.221753966100 	 15.553459285400 	
C	  2.262315917200 	  8.405312916100 	  5.422899735400 	
C	  1.693771787200 	  8.405315726100 	 15.553456455400 	
C	 16.943174317200 	  2.221760386100 	  5.451032495400 	
C	 16.374630187200 	  2.221763196100 	 15.581589215400 	
C	 16.943143217200 	  8.405322146100 	  5.451029665400 	
C	 16.374599087200 	  8.405324956100 	 15.581586385400 	
C	 11.048108919500 	 -0.823375339700 	 10.782308126400 	
C	 10.479564789500 	 -0.823372529700 	 20.912864846400 	
C	 11.048077819500 	  5.360186420300 	 10.782305296400 	
C	 10.479533689500 	  5.360189230300 	 20.912862016400 	
C	 25.728936219500 	 -0.823366109700 	 10.810438056400 	
C	 25.160392089500 	 -0.823363299700 	 20.940994776400 	
C	 25.728905119500 	  5.360195650300 	 10.810435226400 	
C	 25.160360989500 	  5.360198460300 	 20.940991946400 	
C	 11.264060258300 	  3.868441104100 	  5.426029355200 	
C	 10.695516128300 	  3.868443914100 	 15.556586075200 	
C	 11.264029158300 	 10.052002864100 	  5.426026525200 	
C	 10.695485028300 	 10.052005674100 	 15.556583245200 	
C	 25.944887558300 	  3.868450334100 	  5.454159285200 	
C	 25.376343428300 	  3.868453144100 	 15.584716005200 	
C	 25.944856458300 	 10.052012094100 	  5.454156455200 	
C	 25.376312328300 	 10.052014904100 	 15.584713175200 	
C	  2.478298879800 	  6.913569000600 	  0.066624656700 	
C	  1.909754749800 	  6.913571810600 	 10.197181376700 	
C	  2.478267779800 	 13.097130760600 	  0.066621826700 	
C	  1.909723649800 	 13.097133570600 	 10.197178546700 	
C	 17.159126179800 	  6.913578230600 	  0.094754586700 	
C	 16.590582049800 	  6.913581040600 	 10.225311306700 	
C	 17.159095079800 	 13.097139990600 	  0.094751756700 	
C	 16.590550949800 	 13.097142800600 	 10.225308476700 	
H	  3.170768161300 	  2.565029211100 	  4.913710526400 	
H	  2.602224031300 	  2.565032021100 	 15.044267246400 	
H	  3.170737061300 	  8.748590971100 	  4.913707696400 	
H	  2.602192931300 	  8.748593781100 	 15.044264416400 	
H	 17.851595461300 	  2.565038441100 	  4.941840456400 	
H	 17.283051331300 	  2.565041251100 	 15.072397176400 	
H	 17.851564361300 	  8.748600201100 	  4.941837626400 	
H	 17.283020231300 	  8.748603011100 	 15.072394346400 	
H	 10.139696801000 	 -0.480096932800 	 11.291488826700 	
H	  9.571152671000 	 -0.480094122800 	 21.422045546700 	
H	 10.139665701000 	  5.703464827200 	 11.291485996700 	
H	  9.571121571000 	  5.703467637200 	 21.422042716700 	
H	 24.820524101000 	 -0.480087702800 	 11.319618756700 	
H	 24.251979971000 	 -0.480084892800 	 21.450175476700 	
H	 24.820493001000 	  5.703474057200 	 11.319615926700 	
H	 24.251948871000 	  5.703476867200 	 21.450172646700 	
H	 10.355639694200 	  3.525160856600 	  5.935220864000 	
H	  9.787095564200 	  3.525163666600 	 16.065777584000 	
H	 10.355608594200 	  9.708722616600 	  5.935218034000 	
H	  9.787064464200 	  9.708725426600 	 16.065774754000 	
H	 25.036466994200 	  3.525170086600 	  5.963350794000 	
H	 24.467922864200 	  3.525172896600 	 16.093907514000 	
H	 25.036435894200 	  9.708731846600 	  5.963347964000 	
H	 24.467891764200 	  9.708734656600 	 16.093904684000 	
H	  3.386710736400 	  6.570290654600 	 -0.442556474800 	
H	  2.818166606400 	  6.570293464600 	  9.688000245200 	
H	  3.386679636400 	 12.753852414600 	 -0.442559304800 	
H	  2.818135506400 	 12.753855224600 	  9.687997415200 	
H	 18.067538036400 	  6.570299884600 	 -0.414426544800 	
H	 17.498993906400 	  6.570302694600 	  9.716130175200 	
H	 18.067506936400 	 12.753861644600 	 -0.414429374800 	
H	 17.498962806400 	 12.753864454600 	  9.716127345200 	
H	  1.404496117300 	  2.427035558900 	  4.770053794800 	
H	  0.835951987300 	  2.427038368900 	 14.900610514800 	
H	  1.404465017300 	  8.610597318900 	  4.770050964800 	
H	  0.835920887300 	  8.610600128900 	 14.900607684800 	
H	 16.085323417300 	  2.427044788900 	  4.798183724800 	
H	 15.516779287300 	  2.427047598900 	 14.928740444800 	
H	 16.085292317300 	  8.610606548900 	  4.798180894800 	
H	 15.516748187300 	  8.610609358900 	 14.928737614800 	
H	 12.337828175700 	 -0.618075910000 	  0.722500627700 	
H	 11.769284045700 	 -0.618073100000 	 10.853057347700 	
H	 12.337797075700 	  5.565485850000 	  0.722497797700 	
H	 11.769252945700 	  5.565488660000 	 10.853054517700 	
H	 27.018655475700 	 -0.618066680000 	  0.750630557700 	
H	 26.450111345700 	 -0.618063870000 	 10.881187277700 	
H	 27.018624375700 	  5.565495080000 	  0.750627727700 	
H	 26.450080245700 	  5.565497890000 	 10.881184447700 	
H	 12.121911302100 	  3.663157614800 	  6.078878020100 	
H	 11.553367172100 	  3.663160424800 	 16.209434740100 	
H	 12.121880202100 	  9.846719374800 	  6.078875190100 	
H	 11.553336072100 	  9.846722184800 	 16.209431910100 	
H	 26.802738602100 	  3.663166844800 	  6.107007950100 	
H	 26.234194472100 	  3.663169654800 	 16.237564670100 	
H	 26.802707502100 	  9.846728604800 	  6.107005120100 	
H	 26.234163372100 	  9.846731414800 	 16.237561840100 	
H	  1.188579187600 	  6.708269631800 	 10.126432579800 	
H	  0.620035057600 	  6.708272441800 	 20.256989299800 	
H	  1.188548087600 	 12.891831391800 	 10.126429749800 	
H	  0.620003957600 	 12.891834201800 	 20.256986469800 	
H	 15.869406487600 	  6.708278861800 	 10.154562509800 	
H	 15.300862357600 	  6.708281671800 	 20.285119229800 	
H	 15.869375387600 	 12.891840621800 	 10.154559679800 	
H	 15.300831257600 	 12.891843431800 	 20.285116399800 	
H	  2.333338513100 	  1.133106211500 	  5.520678957300 	
H	  1.764794383100 	  1.133109021500 	 15.651235677300 	
H	  2.333307413100 	  7.316667971500 	  5.520676127300 	
H	  1.764763283100 	  7.316670781500 	 15.651232847300 	
H	 17.014165813100 	  1.133115441500 	  5.548808887300 	
H	 16.445621683100 	  1.133118251500 	 15.679365607300 	
H	 17.014134713100 	  7.316677201500 	  5.548806057300 	
H	 16.445590583100 	  7.316680011500 	 15.679362777300 	
H	 11.409028324500 	  4.178196056400 	 -0.028085263100 	
H	 10.840484194500 	  4.178198866400 	 10.102471456900 	
H	 11.408997224500 	 10.361757816400 	 -0.028088093100 	
H	 10.840453094500 	 10.361760626400 	 10.102468626900 	
H	 26.089855624500 	  4.178205286400 	  0.000044666900 	
H	 25.521311494500 	  4.178208096400 	 10.130601386900 	
H	 26.089824524500 	 10.361767046400 	  0.000041836900 	
H	 25.521280394500 	 10.361769856400 	 10.130598556900 	
H	 11.193066621200 	  4.957086048700 	  5.328254121300 	
H	 10.624522491200 	  4.957088858700 	 15.458810841300 	
H	 11.193035521200 	 11.140647808700 	  5.328251291300 	
H	 10.624491391200 	 11.140650618700 	 15.458808011300 	
H	 25.873893921200 	  4.957095278700 	  5.356384051300 	
H	 25.305349791200 	  4.957098088700 	 15.486940771300 	
H	 25.873862821200 	 11.140657038700 	  5.356381221300 	
H	 25.305318691200 	 11.140659848700 	 15.486937941300 	
H	  2.117379466200 	  1.911997604500 	 10.877018260400 	
H	  1.548835336200 	  1.912000414500 	 21.007574980400 	
H	  2.117348366200 	  8.095559364500 	 10.877015430400 	
H	  1.548804236200 	  8.095562174500 	 21.007572150400 	
H	 16.798206766200 	  1.912006834500 	 10.905148190400 	
H	 16.229662636200 	  1.912009644500 	 21.035704910400 	
H	 16.798175666200 	  8.095568594500 	 10.905145360400 	
H	 16.229631536200 	  8.095571404500 	 21.035702080400 	
C	  1.734559952200 	  4.404219912900 	  6.506123107300 	
C	  1.166015822200 	  4.404222722900 	 16.636679827300 	
C	  1.734528852200 	 10.587781672900 	  6.506120277300 	
C	  1.165984722200 	 10.587784482900 	 16.636676997300 	
C	 16.415387252200 	  4.404229142900 	  6.534253037300 	
C	 15.846843122200 	  4.404231952900 	 16.664809757300 	
C	 16.415356152200 	 10.587790902900 	  6.534250207300 	
C	 15.846812022200 	 10.587793712900 	 16.664806927300 	
C	 11.575904795300 	  1.359102403300 	  9.699089153700 	
C	 11.007360665300 	  1.359105213300 	 19.829645873700 	
C	 11.575873695300 	  7.542664163300 	  9.699086323700 	
C	 11.007329565300 	  7.542666973300 	 19.829643043700 	
C	 26.256732095300 	  1.359111633300 	  9.727219083700 	
C	 25.688187965300 	  1.359114443300 	 19.857775803700 	
C	 26.256700995300 	  7.542673393300 	  9.727216253700 	
C	 25.688156865300 	  7.542676203300 	 19.857772973700 	
C	 11.791850066100 	  1.685974113500 	  4.342806589600 	
C	 11.223305936100 	  1.685976923500 	 14.473363309600 	
C	 11.791818966100 	  7.869535873500 	  4.342803759600 	
C	 11.223274836100 	  7.869538683500 	 14.473360479600 	
C	 26.472677366100 	  1.685983343500 	  4.370936519600 	
C	 25.904133236100 	  1.685986153500 	 14.501493239600 	
C	 26.472646266100 	  7.869545103500 	  4.370933689600 	
C	 25.904102136100 	  7.869547913500 	 14.501490409600 	
C	  1.950503562300 	  4.731091074900 	  1.149843634900 	
C	  1.381959432300 	  4.731093884900 	 11.280400354900 	
C	  1.950472462300 	 10.914652834900 	  1.149840804900 	
C	  1.381928332300 	 10.914655644900 	 11.280397524900 	
C	 16.631330862300 	  4.731100304900 	  1.177973564900 	
C	 16.062786732300 	  4.731103114900 	 11.308530284900 	
C	 16.631299762300 	 10.914662064900 	  1.177970734900 	
C	 16.062755632300 	 10.914664874900 	 11.308527454900 	
H	  2.589703828300 	  4.918653371200 	  6.050687656000 	
H	  2.021159698300 	  4.918656181200 	 16.181244376000 	
H	  2.589672728300 	 11.102215131200 	  6.050684826000 	
H	  2.021128598300 	 11.102217941200 	 16.181241546000 	
H	 17.270531128300 	  4.918662601200 	  6.078817586000 	
H	 16.701986998300 	  4.918665411200 	 16.209374306000 	
H	 17.270500028300 	 11.102224361200 	  6.078814756000 	
H	 16.701955898300 	 11.102227171200 	 16.209371476000 	
H	 10.720753036400 	  1.873537183300 	 10.154505291000 	
H	 10.152208906400 	  1.873539993300 	 20.285062011000 	
H	 10.720721936400 	  8.057098943300 	 10.154502461000 	
H	 10.152177806400 	  8.057101753300 	 20.285059181000 	
H	 25.401580336400 	  1.873546413300 	 10.182635221000 	
H	 24.833036206400 	  1.873549223300 	 20.313191941000 	
H	 25.401549236400 	  8.057108173300 	 10.182632391000 	
H	 24.833005106400 	  8.057110983300 	 20.313189111000 	
H	 10.936706512400 	  1.171539254400 	  4.798240972300 	
H	 10.368162382400 	  1.171542064400 	 14.928797692300 	
H	 10.936675412400 	  7.355101014400 	  4.798238142300 	
H	 10.368131282400 	  7.355103824400 	 14.928794862300 	
H	 25.617533812400 	  1.171548484400 	  4.826370902300 	
H	 25.048989682400 	  1.171551294400 	 14.956927622300 	
H	 25.617502712400 	  7.355110244400 	  4.826368072300 	
H	 25.048958582400 	  7.355113054400 	 14.956924792300 	
H	  2.805655203200 	  4.216656416700 	  0.694426960500 	
H	  2.237111073200 	  4.216659226700 	 10.824983680500 	
H	  2.805624103200 	 10.400218176700 	  0.694424130500 	
H	  2.237079973200 	 10.400220986700 	 10.824980850500 	
H	 17.486482503200 	  4.216665646700 	  0.722556890500 	
H	 16.917938373200 	  4.216668456700 	 10.853113610500 	
H	 17.486451403200 	 10.400227406700 	  0.722554060500 	
H	 16.917907273200 	 10.400230216700 	 10.853110780500 	
H	  1.454454417400 	  4.942542076000 	  7.419312257100 	
H	  0.885910287400 	  4.942544886000 	 17.549868977100 	
H	  1.454423317400 	 11.126103836000 	  7.419309427100 	
H	  0.885879187400 	 11.126106646000 	 17.549866147100 	
H	 16.135281717400 	  4.942551306000 	  7.447442187100 	
H	 15.566737587400 	  4.942554116000 	 17.577998907100 	
H	 16.135250617400 	 11.126113066000 	  7.447439357100 	
H	 15.566706487400 	 11.126115876000 	 17.577996077100 	
H	 11.856081281800 	  7.987633929300 	  8.785941752800 	
H	 11.287537151800 	  7.987636739300 	 18.916498472800 	
H	 11.856050181800 	 14.171195689300 	  8.785938922800 	
H	 11.287506051800 	 14.171198499300 	 18.916495642800 	
H	 26.536908581800 	  7.987643159300 	  8.814071682800 	
H	 25.968364451800 	  7.987645969300 	 18.944628402800 	
H	 26.536877481800 	 14.171204919300 	  8.814068852800 	
H	 25.968333351800 	 14.171207729300 	 18.944625572800 	
H	 12.071956739200 	  1.147653411900 	  3.429616915000 	
H	 11.503412609200 	  1.147656221900 	 13.560173635000 	
H	 12.071925639200 	  7.331215171900 	  3.429614085000 	
H	 11.503381509200 	  7.331217981900 	 13.560170805000 	
H	 26.752784039200 	  1.147662641900 	  3.457746845000 	
H	 26.184239909200 	  1.147665451900 	 13.588303565000 	
H	 26.752752939200 	  7.331224401900 	  3.457744015000 	
H	 26.184208809200 	  7.331227211900 	 13.588300735000 	
H	  1.670327769500 	 -1.897440633900 	  2.062991149700 	
H	  1.101783639500 	 -1.897437823900 	 12.193547869700 	
H	  1.670296669500 	  4.286121126100 	  2.062988319700 	
H	  1.101752539500 	  4.286123936100 	 12.193545039700 	
H	 16.351155069500 	 -1.897431403900 	  2.091121079700 	
H	 15.782610939500 	 -1.897428593900 	 12.221677799700 	
H	 16.351123969500 	  4.286130356100 	  2.091118249700 	
H	 15.782579839500 	  4.286133166100 	 12.221674969700 	
H	  0.882064840800 	  4.479102131000 	  5.817989803200 	
H	  0.313520710800 	  4.479104941000 	 15.948546523200 	
H	  0.882033740800 	 10.662663891000 	  5.817986973200 	
H	  0.313489610800 	 10.662666701000 	 15.948543693200 	
H	 15.562892140800 	  4.479111361000 	  5.846119733200 	
H	 14.994348010800 	  4.479114171000 	 15.976676453200 	
H	 15.562861040800 	 10.662673121000 	  5.846116903200 	
H	 14.994316910800 	 10.662675931000 	 15.976673623200 	
H	 12.428454998600 	  7.524205360700 	 10.387278883200 	
H	 11.859910868600 	  7.524208170700 	 20.517835603200 	
H	 12.428423898600 	 13.707767120700 	 10.387276053200 	
H	 11.859879768600 	 13.707769930700 	 20.517832773200 	
H	 27.109282298600 	  7.524214590700 	 10.415408813200 	
H	 26.540738168600 	  7.524217400700 	 20.545965533200 	
H	 27.109251198600 	 13.707776350700 	 10.415405983200 	
H	 26.540707068600 	 13.707779160700 	 20.545962703200 	
H	 12.644344881100 	  1.611092017100 	  5.030940319400 	
H	 12.075800751100 	  1.611094827100 	 15.161497039400 	
H	 12.644313781100 	  7.794653777100 	  5.030937489400 	
H	 12.075769651100 	  7.794656587100 	 15.161494209400 	
H	 27.325172181100 	  1.611101247100 	  5.059070249400 	
H	 26.756628051100 	  1.611104057100 	 15.189626969400 	
H	 27.325141081100 	  7.794663007100 	  5.059067419400 	
H	 26.756596951100 	  7.794665817100 	 15.189624139400 	
H	  1.097952918700 	 -1.434011943400 	  0.461654436900 	
H	  0.529408788700 	 -1.434009133400 	 10.592211156900 	
H	  1.097921818700 	  4.749549816600 	  0.461651606900 	
H	  0.529377688700 	  4.749552626600 	 10.592208326900 	
H	 15.778780218700 	 -1.434002713400 	  0.489784366900 	
H	 15.210236088700 	 -1.433999903400 	 10.620341086900 	
H	 15.778749118700 	  4.749559046600 	  0.489781536900 	
H	 15.210204988700 	  4.749561856600 	 10.620338256900 	
C	  0.859009870300 	  2.275087521200 	  7.498940079800 	
C	  0.290465740300 	  2.275090331200 	 17.629496799800 	
C	  0.858978770300 	  8.458649281200 	  7.498937249800 	
C	  0.290434640300 	  8.458652091200 	 17.629493969800 	
C	 15.539837170300 	  2.275096751200 	  7.527070009800 	
C	 14.971293040300 	  2.275099561200 	 17.657626729800 	
C	 15.539806070300 	  8.458658511200 	  7.527067179800 	
C	 14.971261940300 	  8.458661321200 	 17.657623899800 	
C	 12.451513155200 	  5.320185271700 	  8.706323091700 	
C	 11.882969025200 	  5.320188081700 	 18.836879811700 	
C	 12.451482055200 	 11.503747031700 	  8.706320261700 	
C	 11.882937925200 	 11.503749841700 	 18.836876981700 	
C	 27.132340455200 	  5.320194501700 	  8.734453021700 	
C	 26.563796325200 	  5.320197311700 	 18.865009741700 	
C	 27.132309355200 	 11.503756261700 	  8.734450191700 	
C	 26.563765225200 	 11.503759071700 	 18.865006911700 	
C	 12.667397959200 	  3.815108697600 	  3.349991953400 	
C	 12.098853829200 	  3.815111507600 	 13.480548673400 	
C	 12.667366859200 	  9.998670457600 	  3.349989123400 	
C	 12.098822729200 	  9.998673267600 	 13.480545843400 	
C	 27.348225259200 	  3.815117927600 	  3.378121883400 	
C	 26.779681129200 	  3.815120737600 	 13.508678603400 	
C	 27.348194159200 	  9.998679687600 	  3.378119053400 	
C	 26.779650029200 	  9.998682497600 	 13.508675773400 	
C	  1.074895180800 	  0.770007780200 	  2.142610232500 	
C	  0.506351050800 	  0.770010590200 	 12.273166952500 	
C	  1.074864080800 	  6.953569540200 	  2.142607402500 	
C	  0.506319950800 	  6.953572350200 	 12.273164122500 	
C	 15.755722480800 	  0.770017010200 	  2.170740162500 	
C	 15.187178350800 	  0.770019820200 	 12.301296882500 	
C	 15.755691380800 	  6.953578770200 	  2.170737332500 	
C	 15.187147250800 	  6.953581580200 	 12.301294052500 	
H	 -0.047227588500 	  2.355973740600 	  6.881775666400 	
H	 -0.615771718500 	  2.355976550600 	 17.012332386400 	
H	 -0.047258688500 	  8.539535500600 	  6.881772836400 	
H	 -0.615802818500 	  8.539538310600 	 17.012329556400 	
H	 14.633599711500 	  2.355982970600 	  6.909905596400 	
H	 14.065055581500 	  2.355985780600 	 17.040462316400 	
H	 14.633568611500 	  8.539544730600 	  6.909902766400 	
H	 14.065024481500 	  8.539547540600 	 17.040459486400 	
H	 13.357742057700 	  5.401060799500 	  9.323509597600 	
H	 12.789197927700 	  5.401063609500 	 19.454066317600 	
H	 13.357710957700 	 11.584622559500 	  9.323506767600 	
H	 12.789166827700 	 11.584625369500 	 19.454063487600 	
H	 28.038569357700 	  5.401070029500 	  9.351639527600 	
H	 27.470025227700 	  5.401072839500 	 19.482196247600 	
H	 28.038538257700 	 11.584631789500 	  9.351636697600 	
H	 27.469994127700 	 11.584634599500 	 19.482193417600 	
H	 13.573635570700 	  3.734222417300 	  3.967156046800 	
H	 13.005091440700 	  3.734225227300 	 14.097712766800 	
H	 13.573604470700 	  9.917784177300 	  3.967153216800 	
H	 13.005060340700 	  9.917786987300 	 14.097709936800 	
H	 28.254462870700 	  3.734231647300 	  3.995285976800 	
H	 27.685918740700 	  3.734234457300 	 14.125842696800 	
H	 28.254431770700 	  9.917793407300 	  3.995283146800 	
H	 27.685887640700 	  9.917796217300 	 14.125839866800 	
H	  0.168666130200 	  0.689132191500 	  1.525423939400 	
H	 -0.399877999800 	  0.689135001500 	 11.655980659400 	
H	  0.168635030200 	  6.872693951500 	  1.525421109400 	
H	 -0.399909099800 	  6.872696761500 	 11.655977829400 	
H	 14.849493430200 	  0.689141421500 	  1.553553869400 	
H	 14.280949300200 	  0.689144231500 	 11.684110589400 	
H	 14.849462330200 	  6.872703181500 	  1.553551039400 	
H	 14.280918200200 	  6.872705991500 	 11.684107759400 	
H	  0.663727609200 	  2.763729103700 	  8.461941528400 	
H	  0.095183479200 	  2.763731913700 	 18.592498248400 	
H	  0.663696509200 	  8.947290863700 	  8.461938698400 	
H	  0.095152379200 	  8.947293673700 	 18.592495418400 	
H	 15.344554909200 	  2.763738333700 	  8.490071458400 	
H	 14.776010779200 	  2.763741143700 	 18.620628178400 	
H	 15.344523809200 	  8.947300093700 	  8.490068628400 	
H	 14.775979679200 	  8.947302903700 	 18.620625348400 	
H	 12.646828893000 	  5.808844884300 	  7.743333331200 	
H	 12.078284763000 	  5.808847694300 	 17.873890051200 	
H	 12.646797793000 	 11.992406644300 	  7.743330501200 	
H	 12.078253663000 	 11.992409454300 	 17.873887221200 	
H	 27.327656193000 	  5.808854114300 	  7.771463261200 	
H	 26.759112063000 	  5.808856924300 	 17.902019981200 	
H	 27.327625093000 	 11.992415874300 	  7.771460431200 	
H	 26.759080963000 	 11.992418684300 	 17.902017151200 	
H	 12.862680534200 	  3.326468820300 	  2.386989650500 	
H	 12.294136404200 	  3.326471630300 	 12.517546370500 	
H	 12.862649434200 	  9.510030580300 	  2.386986820500 	
H	 12.294105304200 	  9.510033390300 	 12.517543540500 	
H	 27.543507834200 	  3.326478050300 	  2.415119580500 	
H	 26.974963704200 	  3.326480860300 	 12.545676300500 	
H	 27.543476734200 	  9.510039810300 	  2.415116750500 	
H	 26.974932604200 	  9.510042620300 	 12.545673470500 	
H	  0.879579730900 	  0.281347802200 	  3.105599781400 	
H	  0.311035600900 	  0.281350612200 	 13.236156501400 	
H	  0.879548630900 	  6.464909562200 	  3.105596951400 	
H	  0.311004500900 	  6.464912372200 	 13.236153671400 	
H	 15.560407030900 	  0.281357032200 	  3.133729711400 	
H	 14.991862900900 	  0.281359842200 	 13.264286431400 	
H	 15.560375930900 	  6.464918792200 	  3.133726881400 	
H	 14.991831800900 	  6.464921602200 	 13.264283601400 	
H	  1.045204185900 	  1.211387289900 	  7.689215422100 	
H	  0.476660055900 	  1.211390099900 	 17.819772142100 	
H	  1.045173085900 	  7.394949049900 	  7.689212592100 	
H	  0.476628955900 	  7.394951859900 	 17.819769312100 	
H	 15.726031485900 	  1.211396519900 	  7.717345352100 	
H	 15.157487355900 	  1.211399329900 	 17.847902072100 	
H	 15.726000385900 	  7.394958279900 	  7.717342522100 	
H	 15.157456255900 	  7.394961089900 	 17.847899242100 	
H	 12.265311577400 	  4.256482564700 	  8.516029920700 	
H	 11.696767447400 	  4.256485374700 	 18.646586640700 	
H	 12.265280477400 	 10.440044324700 	  8.516027090700 	
H	 11.696736347400 	 10.440047134700 	 18.646583810700 	
H	 26.946138877400 	  4.256491794700 	  8.544159850700 	
H	 26.377594747400 	  4.256494604700 	 18.674716570700 	
H	 26.946107777400 	 10.440053554700 	  8.544157020700 	
H	 26.377563647400 	 10.440056364700 	 18.674713740700 	
H	 12.481202737100 	  4.878809050700 	  3.159718317000 	
H	 11.912658607100 	  4.878811860700 	 13.290275037000 	
H	 12.481171637100 	 11.062370810700 	  3.159715487000 	
H	 11.912627507100 	 11.062373620700 	 13.290272207000 	
H	 27.162030037100 	  4.878818280700 	  3.187848247000 	
H	 26.593485907100 	  4.878821090700 	 13.318404967000 	
H	 27.161998937100 	 11.062380040700 	  3.187845417000 	
H	 26.593454807100 	 11.062382850700 	 13.318402137000 	
H	  1.261096601800 	  1.833710487200 	  2.332903830600 	
H	  0.692552471800 	  1.833713297200 	 12.463460550600 	
H	  1.261065501800 	  8.017272247200 	  2.332901000600 	
H	  0.692521371800 	  8.017275057200 	 12.463457720600 	
H	 15.941923901800 	  1.833719717200 	  2.361033760600 	
H	 15.373379771800 	  1.833722527200 	 12.491590480600 	
H	 15.941892801800 	  8.017281477200 	  2.361030930600 	
H	 15.373348671800 	  8.017284287200 	 12.491587650600 	
