  Invoking FHI-aims ...
  | Number of atoms                   :  96
  ...scf iterations...
  | Total energy corrected        :   -9.819862227636E+01 eV
  ...
  Total atomic forces (unitary forces cleaned)
     1  -3.0822736430E-01  6.0595515877E-01  1.8808598956E-01
     2  2.2927276912E-01  5.7578398376E-01  -1.8180061770E-01
     3  3.0822732645E-01  -6.0595504420E-01  -1.8808596363E-01
     4  -2.2927265209E-01  -5.7578393020E-01  1.8180070011E-01
     5  -8.1345455636E-01  1.5169403470E+00  1.8922634174E-01
     6  9.6407189502E-01  -1.1236039613E+00  1.6974928898E+00
     7  8.1345532208E-01  -1.5169401684E+00  -1.8922563168E-01
     8  -9.6407177935E-01  1.1236037934E+00  -1.6974925614E+00
     9  -4.5208733922E-01  2.7383617600E-01  -1.9980697543E-01
    10  6.6758508049E-01  1.1552024693E-01  1.6899591678E-01
    11  4.5208663188E-01  -2.7383651790E-01  1.9980632682E-01
    12  -6.6758530752E-01  -1.1551994169E-01  -1.6899613477E-01
    13  -5.6775315518E-01  -1.0989867668E+00  -1.1067521915E+00
    14  3.0333376842E-01  -1.0163446638E+00  1.1861938720E+00
    15  5.6775235809E-01  1.0989870658E+00  1.1067518617E+00
    16  -3.0333407050E-01  1.0163446909E+00  -1.1861935655E+00
    17  3.5215578878E-01  -4.5228384432E-01  -1.9779759871E-02
    18  -5.6573336265E-01  1.3299620734E-01  -2.8141113601E-01
    19  -3.5215506457E-01  4.5228393290E-01  1.9780317490E-02
    20  5.6573350395E-01  -1.3299673460E-01  2.8141113586E-01
    21  7.7263959451E-01  -1.3682473159E+00  -2.2867819707E-01
    22  -7.4365927418E-01  -1.4804408197E+00  3.3737033790E-01
    23  -7.7263992223E-01  1.3682475350E+00  2.2867799342E-01
    24  7.4365945266E-01  1.4804410555E+00  -3.3737038466E-01
    25  1.0254801313E+00  9.7938072329E-02  7.8357286152E-01
    26  -7.1213782581E-01  -5.3154870641E-01  -3.8200036076E-01
    27  -1.0254821873E+00  -9.7938561681E-02  -7.8357445633E-01
    28  7.1213843630E-01  5.3154959217E-01  3.8199993007E-01
    29  4.8573719086E-01  2.4785960424E-01  5.2461744323E-01
    30  -4.3692865378E-01  3.3610042672E-01  -5.6178298079E-01
    31  -4.8573700282E-01  -2.4785971928E-01  -5.2461781985E-01
    32  4.3692780565E-01  -3.3610078923E-01  5.6178269029E-01
    33  2.4010564696E-01  1.2343449437E+00  1.0766349808E+00
    34  -2.2786008441E-01  1.2805112350E+00  -1.0615415012E+00
    35  -2.4010530865E-01  -1.2343448814E+00  -1.0766345864E+00
    36  2.2786027557E-01  -1.2805114841E+00  1.0615414328E+00
    37  -6.7252541099E-01  3.3587634716E-01  -2.5851079003E-01
    38  7.0553010371E-01  4.0938870107E-01  2.1327005148E-01
    39  6.7252555810E-01  -3.3587665835E-01  2.5851098223E-01
    40  -7.0552997375E-01  -4.0938933317E-01  -2.1326948679E-01
    41  -1.0470571994E+00  1.3251931545E+00  9.8389489787E-02
    42  1.0587709335E+00  1.3441617144E+00  -9.7910726903E-02
    43  1.0470570344E+00  -1.3251927420E+00  -9.8389355001E-02
    44  -1.0587705327E+00  -1.3441613412E+00  9.7910833604E-02
    45  8.4973797055E-01  1.2664698943E-01  8.3711169407E-01
    46  -4.4581599811E+00  -1.5083316953E+00  -4.1793932871E+00
    47  -8.4968950368E-01  -1.2664385307E-01  -8.3706776976E-01
    48  4.4581594208E+00  1.5083293811E+00  4.1793899780E+00
    49  -1.3695005587E+00  -7.4378437145E-02  -4.6692812590E-01
    50  1.6079983045E+00  5.3961417498E-01  -1.1232814650E+00
    51  1.3694589658E+00  7.4379062728E-02  4.6690909515E-01
    52  -1.6079985702E+00  -5.3961273512E-01  1.1232872417E+00
    53  -3.9241154438E-01  -1.2816161852E+00  -2.6167491128E-01
    54  5.5418744924E-01  -2.6981503055E+00  2.1193273120E-01
    55  3.9243241917E-01  1.2816269029E+00  2.6166195876E-01
    56  -5.5418617472E-01  2.6981484951E+00  -2.1193223619E-01
    57  1.3837769057E+00  -2.2986436009E-01  1.2894097947E+00
    58  1.6299648671E+00  4.3777613462E-01  2.0611116011E+00
    59  -1.3837741018E+00  2.2986316920E-01  -1.2894085687E+00
    60  -1.6299668117E+00  -4.3777653659E-01  -2.0611130551E+00
    61  -5.8513584161E-01  1.3601360906E+00  4.1354241690E-01
    62  -2.8962428699E+00  6.8530657424E-01  1.8513702428E+00
    63  5.8515583121E-01  -1.3601379838E+00  -4.1355647416E-01
    64  2.8962429336E+00  -6.8530577869E-01  -1.8513700436E+00
    65  -5.2606420662E-01  4.1162007310E-01  2.9829352707E-01
    66  4.3106009210E+00  1.8449614588E+00  -7.9541222383E-01
    67  5.2604210788E-01  -4.1161417887E-01  -2.9829832283E-01
    68  -4.3106012470E+00  -1.8449604535E+00  7.9541576139E-01
    69  -6.8040249127E-01  -1.6764463434E+00  3.1091373959E-01
    70  1.0196221985E+00  -1.7069050196E+00  -7.7025976237E-01
    71  6.8040601176E-01  1.6764596742E+00  -3.1090885073E-01
    72  -1.0196216202E+00  1.7069029810E+00  7.7025955708E-01
    73  7.0609645258E-01  3.5175773511E-01  -2.0469003065E+00
    74  -9.4396779898E-01  6.0495979813E-01  2.0652253330E+00
    75  -7.0609834575E-01  -3.5175532020E-01  2.0469088107E+00
    76  9.4396809300E-01  -6.0495736294E-01  -2.0652301718E+00
    77  1.2805333596E+00  -2.9460008991E-01  6.4100316755E-01
    78  -1.5810258706E+00  -4.3400143317E-01  -8.8264217070E-01
    79  -1.2805356575E+00  2.9459986593E-01  -6.4100561718E-01
    80  1.5810267293E+00  4.3400153514E-01  8.8264228496E-01
    81  -9.7456267365E-01  1.3650132899E-01  1.7575654244E-02
    82  9.6139298535E-01  6.4969772530E-01  2.3773469803E-01
    83  9.7452823167E-01  -1.3649466465E-01  -1.7586231300E-02
    84  -9.6139290710E-01  -6.4969969307E-01  -2.3773686516E-01
    85  1.4886479313E+00  1.7840208452E-01  7.6681032255E-01
    86  -1.5107790794E+00  2.8861810390E-01  -6.6579285231E-01
    87  -1.4886497319E+00  -1.7840280120E-01  -7.6681105242E-01
    88  1.5107783535E+00  -2.8861797000E-01  6.6579258904E-01
    89  4.4544815622E-01  2.9146782720E-01  -1.8663134353E+00
    90  -4.7675262654E-01  4.1182661294E-01  1.9721691640E+00
    91  -4.4544742419E-01  -2.9147905895E-01  1.8663212005E+00
    92  4.7675257339E-01  -4.1182440960E-01  -1.9721676617E+00
    93  -6.4627275756E-01  6.9019580627E-01  7.7293036191E-01
    94  6.2745777613E-01  9.0586360381E-01  -7.2231221733E-01
    95  6.4628250153E-01  -6.9022352217E-01  -7.7293120813E-01
    96  -6.2745763435E-01  -9.0586305650E-01  7.2231276460E-01
  Stress tensor (eV/A^3):
  7.5956654076E-02  -8.4626441784E-03  3.1880348392E-02
  -8.4626441784E-03  8.6398664205E-02  7.7657566194E-03
  3.1880348392E-02  7.7657566194E-03  5.7850061796E-02
