  Invoking FHI-aims ...
  | Number of atoms                   :  96
  ...scf iterations...
  | Total energy corrected        :   -4.948122503515E+01 eV
  ...
  Total atomic forces (unitary forces cleaned)
     1  -2.2713320849E-01  5.8633081906E-01  1.8948210405E-01
     2  2.2528483686E-01  5.8311559842E-01  -1.9402942900E-01
     3  2.2713324680E-01  -5.8633074189E-01  -1.8948206940E-01
     4  -2.2528470671E-01  -5.8311549639E-01  1.9402951814E-01
     5  -8.6233767072E-01  1.0948397259E+00  4.2119713444E-02
     6  8.4946458095E-01  1.0604211390E+00  3.0389199830E-02
     7  8.6233804861E-01  -1.0948395904E+00  -4.2119324720E-02
     8  -8.4946463137E-01  -1.0604212832E+00  -3.0388940451E-02
     9  -1.8995120286E-01  1.5139105834E-01  -8.8149402499E-02
    10  9.8102123664E-02  6.3285735814E-02  9.7246025077E-02
    11  1.8995079224E-01  -1.5139103252E-01  8.8149121006E-02
    12  -9.8102448368E-02  -6.3285716573E-02  -9.7246106959E-02
    13  -3.7994076281E-01  -8.9327918890E-01  -8.5791472135E-01
    14  4.7226171333E-01  -8.0284346341E-01  8.4721166931E-01
    15  3.7994024717E-01  8.9327931094E-01  8.5791449124E-01
    16  -4.7226180458E-01  8.0284360803E-01  -8.4721125783E-01
    17  2.1562705090E+00  -3.0497957525E+00  -2.8530451935E-01
    18  -2.1937039816E+00  -2.9806327873E+00  1.8656728461E-01
    19  -2.1562718380E+00  3.0497985791E+00  2.8530480083E-01
    20  2.1937045687E+00  2.9806342369E+00  -1.8656803503E-01
    21  -1.2601800899E+00  1.4480533600E+00  4.7317647818E-03
    22  1.2651602152E+00  1.4668792582E+00  -1.3874830055E-02
    23  1.2601817038E+00  -1.4480560554E+00  -4.7319419999E-03
    24  -1.2651607540E+00  -1.4668806304E+00  1.3875121693E-02
    25  4.5031505975E-01  3.3578440705E-02  3.4905229457E-01
    26  -4.2276275223E-01  -4.9555203239E-02  -2.4983803584E-01
    27  -4.5031555895E-01  -3.3578700138E-02  -3.4905268812E-01
    28  4.2276311873E-01  4.9555465574E-02  2.4983791202E-01
    29  8.7969021660E-01  2.6085283554E+00  2.4773727257E+00
    30  -8.8033744152E-01  2.6060865430E+00  -2.4760360241E+00
    31  -8.7969007888E-01  -2.6085278441E+00  -2.4773720221E+00
    32  8.8033774333E-01  -2.6060878194E+00  2.4760362753E+00
    33  -4.0600126771E-01  -1.2664076646E+00  -1.1684314042E+00
    34  4.0446817624E-01  -1.2687296312E+00  1.1664295733E+00
    35  4.0600145983E-01  1.2664070720E+00  1.1684307177E+00
    36  -4.0446873000E-01  1.2687305759E+00  -1.1664301158E+00
    37  -2.3580469857E+00  2.9131736062E+00  1.9599147261E-01
    38  2.3564802811E+00  2.9107135297E+00  -1.9495695220E-01
    39  2.3580457528E+00  -2.9131718525E+00  -1.9599091246E-01
    40  -2.3564783554E+00  -2.9107115734E+00  1.9495734569E-01
    41  1.0089851702E+00  -1.3744459422E+00  -1.9078395244E-01
    42  -1.0101894355E+00  -1.3752466093E+00  1.9165523586E-01
    43  -1.0089839349E+00  1.3744441033E+00  1.9078361212E-01
    44  1.0101879516E+00  1.3752446285E+00  -1.9165516225E-01
    45  -1.8306870321E+00  1.1597223283E-01  -1.1596145187E+00
    46  1.7174602043E+00  4.1092075748E-03  1.0879864722E+00
    47  1.8306818841E+00  -1.1597263126E-01  1.1596108572E+00
    48  -1.7174601746E+00  -4.1084266676E-03  -1.0879864574E+00
    49  -4.5676936694E+01  -3.1875012278E+00  2.1327355385E+01
    50  6.2319674010E+01  3.3273905537E+01  -3.2127331053E+01
    51  4.5675753461E+01  3.1874957721E+00  -2.1326946694E+01
    52  -6.2319704072E+01  -3.3273799071E+01  3.2127320682E+01
    53  2.6635008056E+01  3.1173546676E+01  -5.8048790306E+00
    54  -2.1825477045E+01  2.7355368137E+01  4.5334545781E+00
    55  -2.6634316720E+01  -3.1172770772E+01  5.8047334570E+00
    56  2.1825531956E+01  -2.7355441212E+01  -4.5334778769E+00
    57  -1.1346871454E+00  1.2168618840E-01  -8.6848272146E-01
    58  -1.3148552515E-01  -3.3223443755E-02  -8.4460641907E-02
    59  1.1347197682E+00  -1.2169018666E-01  8.6850936558E-01
    60  1.3149039667E-01  3.3223844487E-02  8.4464637380E-02
    61  1.9053459478E+01  -2.8391318343E+01  -1.1085725875E+01
    62  -3.9260024626E+01  -6.0872774763E+01  2.4274118704E+01
    63  -1.9053003619E+01  2.8390552374E+01  1.1085444951E+01
    64  3.9259995444E+01  6.0872740184E+01  -2.4274088723E+01
    65  -1.8234170537E+00  -1.8765688531E+01  -1.2721329540E+01
    66  2.2800260917E+00  -1.8533346477E+01  1.2700523427E+01
    67  1.8233301018E+00  1.8765513997E+01  1.2721240839E+01
    68  -2.2800484539E+00  1.8533361848E+01  -1.2700486148E+01
    69  9.2392551862E+00  1.5437835958E+01  -8.5465348254E-01
    70  -9.6422234113E+00  1.6020915867E+01  9.6284145911E-01
    71  -9.2391523192E+00  -1.5437677817E+01  8.5463564633E-01
    72  9.6422322371E+00  -1.6020927835E+01  -9.6284985254E-01
    73  -3.2319233877E+00  2.5978677709E-01  1.4121332524E+01
    74  3.3157779587E+00  -2.8967097511E-01  -1.4246395699E+01
    75  3.2319090638E+00  -2.5977818696E-01  -1.4121229348E+01
    76  -3.3157665416E+00  2.8966743234E-01  1.4246365680E+01
    77  -1.9857690550E+00  -3.0856556958E-02  -1.4935191790E+00
    78  1.9699464780E+00  -1.3541960614E-01  1.4638110118E+00
    79  1.9857706854E+00  3.0855783023E-02  1.4935206439E+00
    80  -1.9699456126E+00  1.3541936850E-01  -1.4638094656E+00
    81  -1.1429659783E+01  3.6373533529E+01  -8.9728528042E+00
    82  1.1444003458E+01  3.6353689294E+01  8.9714956730E+00
    83  1.1429263879E+01  -3.6372781027E+01  8.9728216311E+00
    84  -1.1444006634E+01  -3.6353711138E+01  -8.9715508371E+00
    85  -1.5614456154E+00  1.0148362304E-01  -9.2951601331E-01
    86  1.5688631420E+00  9.2024243951E-02  9.2236479053E-01
    87  1.5614667931E+00  -1.0148334506E-01  9.2952812773E-01
    88  -1.5688599515E+00  -9.2024429592E-02  -9.2236258020E-01
    89  -2.9176411694E+00  -3.1870886167E+00  1.8930115746E+01
    90  2.9202098121E+00  -3.1920711280E+00  -1.8946066814E+01
    91  2.9176046603E+00  3.1870660544E+00  -1.8929890853E+01
    92  -2.9202160485E+00  3.1920731098E+00  1.8946111739E+01
    93  1.7991429048E+01  -3.0067226540E+01  -9.5939385690E+00
    94  -1.7996956983E+01  -3.0089946225E+01  9.5918542855E+00
    95  -1.7991012046E+01  3.0066504572E+01  9.5937295055E+00
    96  1.7996963590E+01  3.0089966729E+01  -9.5918471722E+00
  Stress tensor (eV/A^3):
  -1.5133993356E-01  -3.6650116857E-02  1.0797447167E-01
  -3.6650116857E-02  -3.5870415176E-01  2.1692640736E-02
  1.0797447167E-01  2.1692640736E-02  -1.3484758633E-01
