64 
Energy: 2.6127807327040982e+00 
Mg	  0.000000000000 	  0.000000000000 	  0.000000000000 	
Mg	  1.000000000000 	  0.000000000000 	  2.980000000000 	
Mg	  0.000000000000 	  3.980000000000 	  0.000000000000 	
Mg	  1.000000000000 	  3.980000000000 	  2.980000000000 	
Mg	  3.980000000000 	  0.000000000000 	  0.000000000000 	
Mg	  4.980000000000 	  0.000000000000 	  2.980000000000 	
Mg	  3.980000000000 	  3.980000000000 	  0.000000000000 	
Mg	  4.980000000000 	  3.980000000000 	  2.980000000000 	
Mg	  1.717995298241 	  1.808663532161 	  0.000000000000 	
Mg	  2.717995298241 	  1.808663532161 	  2.980000000000 	
Mg	  1.717995298241 	  5.788663532161 	  0.000000000000 	
Mg	  2.717995298241 	  5.788663532161 	  2.980000000000 	
Mg	  5.697995298241 	  1.808663532161 	  0.000000000000 	
Mg	  6.697995298241 	  1.808663532161 	  2.980000000000 	
Mg	  5.697995298241 	  5.788663532161 	  0.000000000000 	
Mg	  6.697995298241 	  5.788663532161 	  2.980000000000 	
Mg	  2.443341169598 	  0.000000000000 	  1.536658830402 	
Mg	  3.443341169598 	  0.000000000000 	  4.516658830402 	
Mg	  2.443341169598 	  3.980000000000 	  1.536658830402 	
Mg	  3.443341169598 	  3.980000000000 	  4.516658830402 	
Mg	  6.423341169598 	  0.000000000000 	  1.536658830402 	
Mg	  7.423341169598 	  0.000000000000 	  4.516658830402 	
Mg	  6.423341169598 	  3.980000000000 	  1.536658830402 	
Mg	  7.423341169598 	  3.980000000000 	  4.516658830402 	
Mg	  0.453341169598 	  1.990000000000 	  1.536658830402 	
Mg	  1.453341169598 	  1.990000000000 	  4.516658830402 	
Mg	  0.453341169598 	  5.970000000000 	  1.536658830402 	
Mg	  1.453341169598 	  5.970000000000 	  4.516658830402 	
Mg	  4.433341169598 	  1.990000000000 	  1.536658830402 	
Mg	  5.433341169598 	  1.990000000000 	  4.516658830402 	
Mg	  4.433341169598 	  5.970000000000 	  1.536658830402 	
Mg	  5.433341169598 	  5.970000000000 	  4.516658830402 	
O	  1.990000000000 	  0.000000000000 	  0.000000000000 	
O	  2.990000000000 	  0.000000000000 	  2.980000000000 	
O	  1.990000000000 	  3.980000000000 	  0.000000000000 	
O	  2.990000000000 	  3.980000000000 	  2.980000000000 	
O	  5.970000000000 	  0.000000000000 	  0.000000000000 	
O	  6.970000000000 	  0.000000000000 	  2.980000000000 	
O	  5.970000000000 	  3.980000000000 	  0.000000000000 	
O	  6.970000000000 	  3.980000000000 	  2.980000000000 	
O	  0.000000000000 	  1.990000000000 	  0.000000000000 	
O	  1.000000000000 	  1.990000000000 	  2.980000000000 	
O	  0.000000000000 	  5.970000000000 	  0.000000000000 	
O	  1.000000000000 	  5.970000000000 	  2.980000000000 	
O	  3.980000000000 	  1.990000000000 	  0.000000000000 	
O	  4.980000000000 	  1.990000000000 	  2.980000000000 	
O	  3.980000000000 	  5.970000000000 	  0.000000000000 	
O	  4.980000000000 	  5.970000000000 	  2.980000000000 	
O	  0.453341169598 	  0.000000000000 	  1.536658830402 	
O	  1.453341169598 	  0.000000000000 	  4.516658830402 	
O	  0.453341169598 	  3.980000000000 	  1.536658830402 	
O	  1.453341169598 	  3.980000000000 	  4.516658830402 	
O	  4.433341169598 	  0.000000000000 	  1.536658830402 	
O	  5.433341169598 	  0.000000000000 	  4.516658830402 	
O	  4.433341169598 	  3.980000000000 	  1.536658830402 	
O	  5.433341169598 	  3.980000000000 	  4.516658830402 	
O	  2.806014105277 	  1.394309703148 	  1.536658830402 	
O	  3.806014105277 	  1.394309703148 	  4.516658830402 	
O	  2.806014105277 	  5.374309703148 	  1.536658830402 	
O	  3.806014105277 	  5.374309703148 	  4.516658830402 	
O	  6.786014105277 	  1.394309703148 	  1.536658830402 	
O	  7.786014105277 	  1.394309703148 	  4.516658830402 	
O	  6.786014105277 	  5.374309703148 	  1.536658830402 	
O	  7.786014105277 	  5.374309703148 	  4.516658830402 	
64 
Energy: 2.6847503039332365e+00 
Mg	  0.000000000000 	  0.000000000000 	  0.000000000000 	
Mg	  1.000000000000 	  0.000000000000 	  2.980000000000 	
Mg	  0.000000000000 	  3.980000000000 	  0.000000000000 	
Mg	  1.000000000000 	  3.980000000000 	  2.980000000000 	
Mg	  3.980000000000 	  0.000000000000 	  0.000000000000 	
Mg	  4.980000000000 	  0.000000000000 	  2.980000000000 	
Mg	  3.980000000000 	  3.980000000000 	  0.000000000000 	
Mg	  4.980000000000 	  3.980000000000 	  2.980000000000 	
Mg	  1.743067691947 	  1.828238250196 	  0.000000000000 	
Mg	  2.743067691947 	  1.828238250196 	  2.980000000000 	
Mg	  1.743067691947 	  5.808238250196 	  0.000000000000 	
Mg	  2.743067691947 	  5.808238250196 	  2.980000000000 	
Mg	  5.723067691947 	  1.828238250196 	  0.000000000000 	
Mg	  6.723067691947 	  1.828238250196 	  2.980000000000 	
Mg	  5.723067691947 	  5.808238250196 	  0.000000000000 	
Mg	  6.723067691947 	  5.808238250196 	  2.980000000000 	
Mg	  2.424432157934 	  0.000000000000 	  1.572726575451 	
Mg	  3.424432157934 	  0.000000000000 	  4.552726575451 	
Mg	  2.424432157934 	  3.980000000000 	  1.572726575451 	
Mg	  3.424432157934 	  3.980000000000 	  4.552726575451 	
Mg	  6.404432157934 	  0.000000000000 	  1.572726575451 	
Mg	  7.404432157934 	  0.000000000000 	  4.552726575451 	
Mg	  6.404432157934 	  3.980000000000 	  1.572726575451 	
Mg	  7.404432157934 	  3.980000000000 	  4.552726575451 	
Mg	  0.425852791242 	  1.998579366692 	  1.572726575451 	
Mg	  1.425852791242 	  1.998579366692 	  4.552726575451 	
Mg	  0.425852791242 	  5.978579366692 	  1.572726575451 	
Mg	  1.425852791242 	  5.978579366692 	  4.552726575451 	
Mg	  4.405852791242 	  1.998579366692 	  1.572726575451 	
Mg	  5.405852791242 	  1.998579366692 	  4.552726575451 	
Mg	  4.405852791242 	  5.978579366692 	  1.572726575451 	
Mg	  5.405852791242 	  5.978579366692 	  4.552726575451 	
O	  1.998579366692 	  0.000000000000 	  0.000000000000 	
O	  2.998579366692 	  0.000000000000 	  2.980000000000 	
O	  1.998579366692 	  3.980000000000 	  0.000000000000 	
O	  2.998579366692 	  3.980000000000 	  2.980000000000 	
O	  5.978579366692 	  0.000000000000 	  0.000000000000 	
O	  6.978579366692 	  0.000000000000 	  2.980000000000 	
O	  5.978579366692 	  3.980000000000 	  0.000000000000 	
O	  6.978579366692 	  3.980000000000 	  2.980000000000 	
O	  0.000000000000 	  1.998579366692 	  0.000000000000 	
O	  1.000000000000 	  1.998579366692 	  2.980000000000 	
O	  0.000000000000 	  5.978579366692 	  0.000000000000 	
O	  1.000000000000 	  5.978579366692 	  2.980000000000 	
O	  3.980000000000 	  1.998579366692 	  0.000000000000 	
O	  4.980000000000 	  1.998579366692 	  2.980000000000 	
O	  3.980000000000 	  5.978579366692 	  0.000000000000 	
O	  4.980000000000 	  5.978579366692 	  2.980000000000 	
O	  0.425852791242 	  0.000000000000 	  1.572726575451 	
O	  1.425852791242 	  0.000000000000 	  4.552726575451 	
O	  0.425852791242 	  3.980000000000 	  1.572726575451 	
O	  1.425852791242 	  3.980000000000 	  4.552726575451 	
O	  4.405852791242 	  0.000000000000 	  1.572726575451 	
O	  5.405852791242 	  0.000000000000 	  4.552726575451 	
O	  4.405852791242 	  3.980000000000 	  1.572726575451 	
O	  5.405852791242 	  3.980000000000 	  4.552726575451 	
O	  2.765114390928 	  1.439008799001 	  1.572726575451 	
O	  3.765114390928 	  1.439008799001 	  4.552726575451 	
O	  2.765114390928 	  5.419008799001 	  1.572726575451 	
O	  3.765114390928 	  5.419008799001 	  4.552726575451 	
O	  6.745114390928 	  1.439008799001 	  1.572726575451 	
O	  7.745114390928 	  1.439008799001 	  4.552726575451 	
O	  6.745114390928 	  5.419008799001 	  1.572726575451 	
O	  7.745114390928 	  5.419008799001 	  4.552726575451 	
64 
Energy: 3.1542172543732785e+00 
Mg	  0.000000000000 	  0.000000000000 	  0.000000000000 	
Mg	  1.000000000000 	  0.000000000000 	  2.980000000000 	
Mg	  0.000000000000 	  3.980000000000 	  0.000000000000 	
Mg	  1.000000000000 	  3.980000000000 	  2.980000000000 	
Mg	  3.980000000000 	  0.000000000000 	  0.000000000000 	
Mg	  4.980000000000 	  0.000000000000 	  2.980000000000 	
Mg	  3.980000000000 	  3.980000000000 	  0.000000000000 	
Mg	  4.980000000000 	  3.980000000000 	  2.980000000000 	
Mg	  1.768461545652 	  1.847960418244 	  0.000000000000 	
Mg	  2.768461545652 	  1.847960418244 	  2.980000000000 	
Mg	  1.768461545652 	  5.827960418244 	  0.000000000000 	
Mg	  2.768461545652 	  5.827960418244 	  2.980000000000 	
Mg	  5.748461545652 	  1.847960418244 	  0.000000000000 	
Mg	  6.748461545652 	  1.847960418244 	  2.980000000000 	
Mg	  5.748461545652 	  5.827960418244 	  0.000000000000 	
Mg	  6.748461545652 	  5.827960418244 	  2.980000000000 	
Mg	  2.404452526391 	  0.000000000000 	  1.609463800467 	
Mg	  3.404452526391 	  0.000000000000 	  4.589463800467 	
Mg	  2.404452526391 	  3.980000000000 	  1.609463800467 	
Mg	  3.404452526391 	  3.980000000000 	  4.589463800467 	
Mg	  6.384452526391 	  0.000000000000 	  1.609463800467 	
Mg	  7.384452526391 	  0.000000000000 	  4.589463800467 	
Mg	  6.384452526391 	  3.980000000000 	  1.609463800467 	
Mg	  7.384452526391 	  3.980000000000 	  4.589463800467 	
Mg	  0.397494362962 	  2.006958163429 	  1.609463800467 	
Mg	  1.397494362962 	  2.006958163429 	  4.589463800467 	
Mg	  0.397494362962 	  5.986958163429 	  1.609463800467 	
Mg	  1.397494362962 	  5.986958163429 	  4.589463800467 	
Mg	  4.377494362962 	  2.006958163429 	  1.609463800467 	
Mg	  5.377494362962 	  2.006958163429 	  4.589463800467 	
Mg	  4.377494362962 	  5.986958163429 	  1.609463800467 	
Mg	  5.377494362962 	  5.986958163429 	  4.589463800467 	
O	  2.006958163429 	  0.000000000000 	  0.000000000000 	
O	  3.006958163429 	  0.000000000000 	  2.980000000000 	
O	  2.006958163429 	  3.980000000000 	  0.000000000000 	
O	  3.006958163429 	  3.980000000000 	  2.980000000000 	
O	  5.986958163429 	  0.000000000000 	  0.000000000000 	
O	  6.986958163429 	  0.000000000000 	  2.980000000000 	
O	  5.986958163429 	  3.980000000000 	  0.000000000000 	
O	  6.986958163429 	  3.980000000000 	  2.980000000000 	
O	  0.000000000000 	  2.006958163429 	  0.000000000000 	
O	  1.000000000000 	  2.006958163429 	  2.980000000000 	
O	  0.000000000000 	  5.986958163429 	  0.000000000000 	
O	  1.000000000000 	  5.986958163429 	  2.980000000000 	
O	  3.980000000000 	  2.006958163429 	  0.000000000000 	
O	  4.980000000000 	  2.006958163429 	  2.980000000000 	
O	  3.980000000000 	  5.986958163429 	  0.000000000000 	
O	  4.980000000000 	  5.986958163429 	  2.980000000000 	
O	  0.397494362962 	  0.000000000000 	  1.609463800467 	
O	  1.397494362962 	  0.000000000000 	  4.589463800467 	
O	  0.397494362962 	  3.980000000000 	  1.609463800467 	
O	  1.397494362962 	  3.980000000000 	  4.589463800467 	
O	  4.377494362962 	  0.000000000000 	  1.609463800467 	
O	  5.377494362962 	  0.000000000000 	  4.589463800467 	
O	  4.377494362962 	  3.980000000000 	  1.609463800467 	
O	  5.377494362962 	  3.980000000000 	  4.589463800467 	
O	  2.722448016760 	  1.484650570497 	  1.609463800467 	
O	  3.722448016760 	  1.484650570497 	  4.589463800467 	
O	  2.722448016760 	  5.464650570497 	  1.609463800467 	
O	  3.722448016760 	  5.464650570497 	  4.589463800467 	
O	  6.702448016760 	  1.484650570497 	  1.609463800467 	
O	  7.702448016760 	  1.484650570497 	  4.589463800467 	
O	  6.702448016760 	  5.464650570497 	  1.609463800467 	
O	  7.702448016760 	  5.464650570497 	  4.589463800467 	
64 
Energy: 3.8091029310450564e+00 
Mg	  0.000000000000 	  0.000000000000 	  0.000000000000 	
Mg	  1.000000000000 	  0.000000000000 	  2.980000000000 	
Mg	  0.000000000000 	  3.980000000000 	  0.000000000000 	
Mg	  1.000000000000 	  3.980000000000 	  2.980000000000 	
Mg	  3.980000000000 	  0.000000000000 	  0.000000000000 	
Mg	  4.980000000000 	  0.000000000000 	  2.980000000000 	
Mg	  3.980000000000 	  3.980000000000 	  0.000000000000 	
Mg	  4.980000000000 	  3.980000000000 	  2.980000000000 	
Mg	  1.793885427095 	  1.867713842709 	  0.000000000000 	
Mg	  2.793885427095 	  1.867713842709 	  2.980000000000 	
Mg	  1.793885427095 	  5.847713842709 	  0.000000000000 	
Mg	  2.793885427095 	  5.847713842709 	  2.980000000000 	
Mg	  5.773885427095 	  1.867713842709 	  0.000000000000 	
Mg	  6.773885427095 	  1.867713842709 	  2.980000000000 	
Mg	  5.773885427095 	  5.847713842709 	  0.000000000000 	
Mg	  6.773885427095 	  5.847713842709 	  2.980000000000 	
Mg	  2.384512752013 	  0.000000000000 	  1.646228595865 	
Mg	  3.384512752013 	  0.000000000000 	  4.626228595865 	
Mg	  2.384512752013 	  3.980000000000 	  1.646228595865 	
Mg	  3.384512752013 	  3.980000000000 	  4.626228595865 	
Mg	  6.364512752013 	  0.000000000000 	  1.646228595865 	
Mg	  7.364512752013 	  0.000000000000 	  4.626228595865 	
Mg	  6.364512752013 	  3.980000000000 	  1.646228595865 	
Mg	  7.364512752013 	  3.980000000000 	  4.626228595865 	
Mg	  0.369142078074 	  2.015370673939 	  1.646228595865 	
Mg	  1.369142078074 	  2.015370673939 	  4.626228595865 	
Mg	  0.369142078074 	  5.995370673939 	  1.646228595865 	
Mg	  1.369142078074 	  5.995370673939 	  4.626228595865 	
Mg	  4.349142078074 	  2.015370673939 	  1.646228595865 	
Mg	  5.349142078074 	  2.015370673939 	  4.626228595865 	
Mg	  4.349142078074 	  5.995370673939 	  1.646228595865 	
Mg	  5.349142078074 	  5.995370673939 	  4.626228595865 	
O	  2.015370673939 	  0.000000000000 	  0.000000000000 	
O	  3.015370673939 	  0.000000000000 	  2.980000000000 	
O	  2.015370673939 	  3.980000000000 	  0.000000000000 	
O	  3.015370673939 	  3.980000000000 	  2.980000000000 	
O	  5.995370673939 	  0.000000000000 	  0.000000000000 	
O	  6.995370673939 	  0.000000000000 	  2.980000000000 	
O	  5.995370673939 	  3.980000000000 	  0.000000000000 	
O	  6.995370673939 	  3.980000000000 	  2.980000000000 	
O	  0.000000000000 	  2.015370673939 	  0.000000000000 	
O	  1.000000000000 	  2.015370673939 	  2.980000000000 	
O	  0.000000000000 	  5.995370673939 	  0.000000000000 	
O	  1.000000000000 	  5.995370673939 	  2.980000000000 	
O	  3.980000000000 	  2.015370673939 	  0.000000000000 	
O	  4.980000000000 	  2.015370673939 	  2.980000000000 	
O	  3.980000000000 	  5.995370673939 	  0.000000000000 	
O	  4.980000000000 	  5.995370673939 	  2.980000000000 	
O	  0.369142078074 	  0.000000000000 	  1.646228595865 	
O	  1.369142078074 	  0.000000000000 	  4.626228595865 	
O	  0.369142078074 	  3.980000000000 	  1.646228595865 	
O	  1.369142078074 	  3.980000000000 	  4.626228595865 	
O	  4.349142078074 	  0.000000000000 	  1.646228595865 	
O	  5.349142078074 	  0.000000000000 	  4.626228595865 	
O	  4.349142078074 	  3.980000000000 	  1.646228595865 	
O	  5.349142078074 	  3.980000000000 	  4.626228595865 	
O	  2.679826414472 	  1.530317983350 	  1.646228595865 	
O	  3.679826414472 	  1.530317983350 	  4.626228595865 	
O	  2.679826414472 	  5.510317983350 	  1.646228595865 	
O	  3.679826414472 	  5.510317983350 	  4.626228595865 	
O	  6.659826414472 	  1.530317983350 	  1.646228595865 	
O	  7.659826414472 	  1.530317983350 	  4.626228595865 	
O	  6.659826414472 	  5.510317983350 	  1.646228595865 	
O	  7.659826414472 	  5.510317983350 	  4.626228595865 	
64 
Energy: 4.4829770240070399e+00 
Mg	  0.000000000000 	  0.000000000000 	  0.000000000000 	
Mg	  1.000000000000 	  0.000000000000 	  2.980000000000 	
Mg	  0.000000000000 	  3.980000000000 	  0.000000000000 	
Mg	  1.000000000000 	  3.980000000000 	  2.980000000000 	
Mg	  3.980000000000 	  0.000000000000 	  0.000000000000 	
Mg	  4.980000000000 	  0.000000000000 	  2.980000000000 	
Mg	  3.980000000000 	  3.980000000000 	  0.000000000000 	
Mg	  4.980000000000 	  3.980000000000 	  2.980000000000 	
Mg	  1.819355650027 	  1.887503005531 	  0.000000000000 	
Mg	  2.819355650027 	  1.887503005531 	  2.980000000000 	
Mg	  1.819355650027 	  5.867503005531 	  0.000000000000 	
Mg	  2.819355650027 	  5.867503005531 	  2.980000000000 	
Mg	  5.799355650027 	  1.887503005531 	  0.000000000000 	
Mg	  6.799355650027 	  1.887503005531 	  2.980000000000 	
Mg	  5.799355650027 	  5.867503005531 	  0.000000000000 	
Mg	  6.799355650027 	  5.867503005531 	  2.980000000000 	
Mg	  2.364534494059 	  0.000000000000 	  1.683060939019 	
Mg	  3.364534494059 	  0.000000000000 	  4.663060939019 	
Mg	  2.364534494059 	  3.980000000000 	  1.683060939019 	
Mg	  3.364534494059 	  3.980000000000 	  4.663060939019 	
Mg	  6.344534494059 	  0.000000000000 	  1.683060939019 	
Mg	  7.344534494059 	  0.000000000000 	  4.663060939019 	
Mg	  6.344534494059 	  3.980000000000 	  1.683060939019 	
Mg	  7.344534494059 	  3.980000000000 	  4.663060939019 	
Mg	  0.340736777520 	  2.023797716539 	  1.683060939019 	
Mg	  1.340736777520 	  2.023797716539 	  4.663060939019 	
Mg	  0.340736777520 	  6.003797716539 	  1.683060939019 	
Mg	  1.340736777520 	  6.003797716539 	  4.663060939019 	
Mg	  4.320736777520 	  2.023797716539 	  1.683060939019 	
Mg	  5.320736777520 	  2.023797716539 	  4.663060939019 	
Mg	  4.320736777520 	  6.003797716539 	  1.683060939019 	
Mg	  5.320736777520 	  6.003797716539 	  4.663060939019 	
O	  2.023797716539 	  0.000000000000 	  0.000000000000 	
O	  3.023797716539 	  0.000000000000 	  2.980000000000 	
O	  2.023797716539 	  3.980000000000 	  0.000000000000 	
O	  3.023797716539 	  3.980000000000 	  2.980000000000 	
O	  6.003797716539 	  0.000000000000 	  0.000000000000 	
O	  7.003797716539 	  0.000000000000 	  2.980000000000 	
O	  6.003797716539 	  3.980000000000 	  0.000000000000 	
O	  7.003797716539 	  3.980000000000 	  2.980000000000 	
O	  0.000000000000 	  2.023797716539 	  0.000000000000 	
O	  1.000000000000 	  2.023797716539 	  2.980000000000 	
O	  0.000000000000 	  6.003797716539 	  0.000000000000 	
O	  1.000000000000 	  6.003797716539 	  2.980000000000 	
O	  3.980000000000 	  2.023797716539 	  0.000000000000 	
O	  4.980000000000 	  2.023797716539 	  2.980000000000 	
O	  3.980000000000 	  6.003797716539 	  0.000000000000 	
O	  4.980000000000 	  6.003797716539 	  2.980000000000 	
O	  0.340736777520 	  0.000000000000 	  1.683060939019 	
O	  1.340736777520 	  0.000000000000 	  4.663060939019 	
O	  0.340736777520 	  3.980000000000 	  1.683060939019 	
O	  1.340736777520 	  3.980000000000 	  4.663060939019 	
O	  4.320736777520 	  0.000000000000 	  1.683060939019 	
O	  5.320736777520 	  0.000000000000 	  4.663060939019 	
O	  4.320736777520 	  3.980000000000 	  1.683060939019 	
O	  5.320736777520 	  3.980000000000 	  4.663060939019 	
O	  2.637123916075 	  1.576069590878 	  1.683060939019 	
O	  3.637123916075 	  1.576069590878 	  4.663060939019 	
O	  2.637123916075 	  5.556069590878 	  1.683060939019 	
O	  3.637123916075 	  5.556069590878 	  4.663060939019 	
O	  6.617123916075 	  1.576069590878 	  1.683060939019 	
O	  7.617123916075 	  1.576069590878 	  4.663060939019 	
O	  6.617123916075 	  5.556069590878 	  1.683060939019 	
O	  7.617123916075 	  5.556069590878 	  4.663060939019 	
64 
Energy: 5.0670659676084071e+00 
Mg	  0.000000000000 	  0.000000000000 	  0.000000000000 	
Mg	  1.000000000000 	  0.000000000000 	  2.980000000000 	
Mg	  0.000000000000 	  3.980000000000 	  0.000000000000 	
Mg	  1.000000000000 	  3.980000000000 	  2.980000000000 	
Mg	  3.980000000000 	  0.000000000000 	  0.000000000000 	
Mg	  4.980000000000 	  0.000000000000 	  2.980000000000 	
Mg	  3.980000000000 	  3.980000000000 	  0.000000000000 	
Mg	  4.980000000000 	  3.980000000000 	  2.980000000000 	
Mg	  1.844851635826 	  1.907313798648 	  0.000000000000 	
Mg	  2.844851635826 	  1.907313798648 	  2.980000000000 	
Mg	  1.844851635826 	  5.887313798648 	  0.000000000000 	
Mg	  2.844851635826 	  5.887313798648 	  2.980000000000 	
Mg	  5.824851635826 	  1.907313798648 	  0.000000000000 	
Mg	  6.824851635826 	  1.907313798648 	  2.980000000000 	
Mg	  5.824851635826 	  5.887313798648 	  0.000000000000 	
Mg	  6.824851635826 	  5.887313798648 	  2.980000000000 	
Mg	  2.344548938396 	  0.000000000000 	  1.719927310184 	
Mg	  3.344548938396 	  0.000000000000 	  4.699927310184 	
Mg	  2.344548938396 	  3.980000000000 	  1.719927310184 	
Mg	  3.344548938396 	  3.980000000000 	  4.699927310184 	
Mg	  6.324548938396 	  0.000000000000 	  1.719927310184 	
Mg	  7.324548938396 	  0.000000000000 	  4.699927310184 	
Mg	  6.324548938396 	  3.980000000000 	  1.719927310184 	
Mg	  7.324548938396 	  3.980000000000 	  4.699927310184 	
Mg	  0.312310814106 	  2.032238124290 	  1.719927310184 	
Mg	  1.312310814106 	  2.032238124290 	  4.699927310184 	
Mg	  0.312310814106 	  6.012238124290 	  1.719927310184 	
Mg	  1.312310814106 	  6.012238124290 	  4.699927310184 	
Mg	  4.292310814106 	  2.032238124290 	  1.719927310184 	
Mg	  5.292310814106 	  2.032238124290 	  4.699927310184 	
Mg	  4.292310814106 	  6.012238124290 	  1.719927310184 	
Mg	  5.292310814106 	  6.012238124290 	  4.699927310184 	
O	  2.032238124290 	  0.000000000000 	  0.000000000000 	
O	  3.032238124290 	  0.000000000000 	  2.980000000000 	
O	  2.032238124290 	  3.980000000000 	  0.000000000000 	
O	  3.032238124290 	  3.980000000000 	  2.980000000000 	
O	  6.012238124290 	  0.000000000000 	  0.000000000000 	
O	  7.012238124290 	  0.000000000000 	  2.980000000000 	
O	  6.012238124290 	  3.980000000000 	  0.000000000000 	
O	  7.012238124290 	  3.980000000000 	  2.980000000000 	
O	  0.000000000000 	  2.032238124290 	  0.000000000000 	
O	  1.000000000000 	  2.032238124290 	  2.980000000000 	
O	  0.000000000000 	  6.012238124290 	  0.000000000000 	
O	  1.000000000000 	  6.012238124290 	  2.980000000000 	
O	  3.980000000000 	  2.032238124290 	  0.000000000000 	
O	  4.980000000000 	  2.032238124290 	  2.980000000000 	
O	  3.980000000000 	  6.012238124290 	  0.000000000000 	
O	  4.980000000000 	  6.012238124290 	  2.980000000000 	
O	  0.312310814106 	  0.000000000000 	  1.719927310184 	
O	  1.312310814106 	  0.000000000000 	  4.699927310184 	
O	  0.312310814106 	  3.980000000000 	  1.719927310184 	
O	  1.312310814106 	  3.980000000000 	  4.699927310184 	
O	  4.292310814106 	  0.000000000000 	  1.719927310184 	
O	  5.292310814106 	  0.000000000000 	  4.699927310184 	
O	  4.292310814106 	  3.980000000000 	  1.719927310184 	
O	  5.292310814106 	  3.980000000000 	  4.699927310184 	
O	  2.594397589681 	  1.621861714555 	  1.719927310184 	
O	  3.594397589681 	  1.621861714555 	  4.699927310184 	
O	  2.594397589681 	  5.601861714555 	  1.719927310184 	
O	  3.594397589681 	  5.601861714555 	  4.699927310184 	
O	  6.574397589681 	  1.621861714555 	  1.719927310184 	
O	  7.574397589681 	  1.621861714555 	  4.699927310184 	
O	  6.574397589681 	  5.601861714555 	  1.719927310184 	
O	  7.574397589681 	  5.601861714555 	  4.699927310184 	
64 
Energy: 5.4861173302226547e+00 
Mg	  0.000000000000 	  0.000000000000 	  0.000000000000 	
Mg	  1.000000000000 	  0.000000000000 	  2.980000000000 	
Mg	  0.000000000000 	  3.980000000000 	  0.000000000000 	
Mg	  1.000000000000 	  3.980000000000 	  2.980000000000 	
Mg	  3.980000000000 	  0.000000000000 	  0.000000000000 	
Mg	  4.980000000000 	  0.000000000000 	  2.980000000000 	
Mg	  3.980000000000 	  3.980000000000 	  0.000000000000 	
Mg	  4.980000000000 	  3.980000000000 	  2.980000000000 	
Mg	  1.870367302297 	  1.927140386944 	  0.000000000000 	
Mg	  2.870367302297 	  1.927140386944 	  2.980000000000 	
Mg	  1.870367302297 	  5.907140386944 	  0.000000000000 	
Mg	  2.870367302297 	  5.907140386944 	  2.980000000000 	
Mg	  5.850367302297 	  1.927140386944 	  0.000000000000 	
Mg	  6.850367302297 	  1.927140386944 	  2.980000000000 	
Mg	  5.850367302297 	  5.907140386944 	  0.000000000000 	
Mg	  6.850367302297 	  5.907140386944 	  2.980000000000 	
Mg	  2.324551979472 	  0.000000000000 	  1.756821133003 	
Mg	  3.324551979472 	  0.000000000000 	  4.736821133003 	
Mg	  2.324551979472 	  3.980000000000 	  1.756821133003 	
Mg	  3.324551979472 	  3.980000000000 	  4.736821133003 	
Mg	  6.304551979472 	  0.000000000000 	  1.756821133003 	
Mg	  7.304551979472 	  0.000000000000 	  4.736821133003 	
Mg	  6.304551979472 	  3.980000000000 	  1.756821133003 	
Mg	  7.304551979472 	  3.980000000000 	  4.736821133003 	
Mg	  0.283865423234 	  2.040686556237 	  1.756821133003 	
Mg	  1.283865423234 	  2.040686556237 	  4.736821133003 	
Mg	  0.283865423234 	  6.020686556237 	  1.756821133003 	
Mg	  1.283865423234 	  6.020686556237 	  4.736821133003 	
Mg	  4.263865423234 	  2.040686556237 	  1.756821133003 	
Mg	  5.263865423234 	  2.040686556237 	  4.736821133003 	
Mg	  4.263865423234 	  6.020686556237 	  1.756821133003 	
Mg	  5.263865423234 	  6.020686556237 	  4.736821133003 	
O	  2.040686556237 	  0.000000000000 	  0.000000000000 	
O	  3.040686556237 	  0.000000000000 	  2.980000000000 	
O	  2.040686556237 	  3.980000000000 	  0.000000000000 	
O	  3.040686556237 	  3.980000000000 	  2.980000000000 	
O	  6.020686556237 	  0.000000000000 	  0.000000000000 	
O	  7.020686556237 	  0.000000000000 	  2.980000000000 	
O	  6.020686556237 	  3.980000000000 	  0.000000000000 	
O	  7.020686556237 	  3.980000000000 	  2.980000000000 	
O	  0.000000000000 	  2.040686556237 	  0.000000000000 	
O	  1.000000000000 	  2.040686556237 	  2.980000000000 	
O	  0.000000000000 	  6.020686556237 	  0.000000000000 	
O	  1.000000000000 	  6.020686556237 	  2.980000000000 	
O	  3.980000000000 	  2.040686556237 	  0.000000000000 	
O	  4.980000000000 	  2.040686556237 	  2.980000000000 	
O	  3.980000000000 	  6.020686556237 	  0.000000000000 	
O	  4.980000000000 	  6.020686556237 	  2.980000000000 	
O	  0.283865423234 	  0.000000000000 	  1.756821133003 	
O	  1.283865423234 	  0.000000000000 	  4.736821133003 	
O	  0.283865423234 	  3.980000000000 	  1.756821133003 	
O	  1.283865423234 	  3.980000000000 	  4.736821133003 	
O	  4.263865423234 	  0.000000000000 	  1.756821133003 	
O	  5.263865423234 	  0.000000000000 	  4.736821133003 	
O	  4.263865423234 	  3.980000000000 	  1.756821133003 	
O	  5.263865423234 	  3.980000000000 	  4.736821133003 	
O	  2.551644318059 	  1.667687390108 	  1.756821133003 	
O	  3.551644318059 	  1.667687390108 	  4.736821133003 	
O	  2.551644318059 	  5.647687390108 	  1.756821133003 	
O	  3.551644318059 	  5.647687390108 	  4.736821133003 	
O	  6.531644318059 	  1.667687390108 	  1.756821133003 	
O	  7.531644318059 	  1.667687390108 	  4.736821133003 	
O	  6.531644318059 	  5.647687390108 	  1.756821133003 	
O	  7.531644318059 	  5.647687390108 	  4.736821133003 	
64 
Energy: 5.6918075404302648e+00 
Mg	  0.000000000000 	  0.000000000000 	  0.000000000000 	
Mg	  1.000000000000 	  0.000000000000 	  2.980000000000 	
Mg	  0.000000000000 	  3.980000000000 	  0.000000000000 	
Mg	  1.000000000000 	  3.980000000000 	  2.980000000000 	
Mg	  3.980000000000 	  0.000000000000 	  0.000000000000 	
Mg	  4.980000000000 	  0.000000000000 	  2.980000000000 	
Mg	  3.980000000000 	  3.980000000000 	  0.000000000000 	
Mg	  4.980000000000 	  3.980000000000 	  2.980000000000 	
Mg	  1.895892489101 	  1.946974891316 	  0.000000000000 	
Mg	  2.895892489101 	  1.946974891316 	  2.980000000000 	
Mg	  1.895892489101 	  5.926974891316 	  0.000000000000 	
Mg	  2.895892489101 	  5.926974891316 	  2.980000000000 	
Mg	  5.875892489101 	  1.946974891316 	  0.000000000000 	
Mg	  6.875892489101 	  1.946974891316 	  2.980000000000 	
Mg	  5.875892489101 	  5.926974891316 	  0.000000000000 	
Mg	  6.875892489101 	  5.926974891316 	  2.980000000000 	
Mg	  2.304551706826 	  0.000000000000 	  1.793727684669 	
Mg	  3.304551706826 	  0.000000000000 	  4.773727684669 	
Mg	  2.304551706826 	  3.980000000000 	  1.793727684669 	
Mg	  3.304551706826 	  3.980000000000 	  4.773727684669 	
Mg	  6.284551706826 	  0.000000000000 	  1.793727684669 	
Mg	  7.284551706826 	  0.000000000000 	  4.773727684669 	
Mg	  6.284551706826 	  3.980000000000 	  1.793727684669 	
Mg	  7.284551706826 	  3.980000000000 	  4.773727684669 	
Mg	  0.255412011078 	  2.049139695748 	  1.793727684669 	
Mg	  1.255412011078 	  2.049139695748 	  4.773727684669 	
Mg	  0.255412011078 	  6.029139695748 	  1.793727684669 	
Mg	  1.255412011078 	  6.029139695748 	  4.773727684669 	
Mg	  4.235412011078 	  2.049139695748 	  1.793727684669 	
Mg	  5.235412011078 	  2.049139695748 	  4.773727684669 	
Mg	  4.235412011078 	  6.029139695748 	  1.793727684669 	
Mg	  5.235412011078 	  6.029139695748 	  4.773727684669 	
O	  2.049139695748 	  0.000000000000 	  0.000000000000 	
O	  3.049139695748 	  0.000000000000 	  2.980000000000 	
O	  2.049139695748 	  3.980000000000 	  0.000000000000 	
O	  3.049139695748 	  3.980000000000 	  2.980000000000 	
O	  6.029139695748 	  0.000000000000 	  0.000000000000 	
O	  7.029139695748 	  0.000000000000 	  2.980000000000 	
O	  6.029139695748 	  3.980000000000 	  0.000000000000 	
O	  7.029139695748 	  3.980000000000 	  2.980000000000 	
O	  0.000000000000 	  2.049139695748 	  0.000000000000 	
O	  1.000000000000 	  2.049139695748 	  2.980000000000 	
O	  0.000000000000 	  6.029139695748 	  0.000000000000 	
O	  1.000000000000 	  6.029139695748 	  2.980000000000 	
O	  3.980000000000 	  2.049139695748 	  0.000000000000 	
O	  4.980000000000 	  2.049139695748 	  2.980000000000 	
O	  3.980000000000 	  6.029139695748 	  0.000000000000 	
O	  4.980000000000 	  6.029139695748 	  2.980000000000 	
O	  0.255412011078 	  0.000000000000 	  1.793727684669 	
O	  1.255412011078 	  0.000000000000 	  4.773727684669 	
O	  0.255412011078 	  3.980000000000 	  1.793727684669 	
O	  1.255412011078 	  3.980000000000 	  4.773727684669 	
O	  4.235412011078 	  0.000000000000 	  1.793727684669 	
O	  5.235412011078 	  0.000000000000 	  4.773727684669 	
O	  4.235412011078 	  3.980000000000 	  1.793727684669 	
O	  5.235412011078 	  3.980000000000 	  4.773727684669 	
O	  2.508881315689 	  1.713528313191 	  1.793727684669 	
O	  3.508881315689 	  1.713528313191 	  4.773727684669 	
O	  2.508881315689 	  5.693528313191 	  1.793727684669 	
O	  3.508881315689 	  5.693528313191 	  4.773727684669 	
O	  6.488881315689 	  1.713528313191 	  1.793727684669 	
O	  7.488881315689 	  1.713528313191 	  4.773727684669 	
O	  6.488881315689 	  5.693528313191 	  1.793727684669 	
O	  7.488881315689 	  5.693528313191 	  4.773727684669 	
64 
Energy: 5.6546722996217174e+00 
Mg	  0.000000000000 	  0.000000000000 	  0.000000000000 	
Mg	  1.000000000000 	  0.000000000000 	  2.980000000000 	
Mg	  0.000000000000 	  3.980000000000 	  0.000000000000 	
Mg	  1.000000000000 	  3.980000000000 	  2.980000000000 	
Mg	  3.980000000000 	  0.000000000000 	  0.000000000000 	
Mg	  4.980000000000 	  0.000000000000 	  2.980000000000 	
Mg	  3.980000000000 	  3.980000000000 	  0.000000000000 	
Mg	  4.980000000000 	  3.980000000000 	  2.980000000000 	
Mg	  1.921419398810 	  1.966810645990 	  0.000000000000 	
Mg	  2.921419398810 	  1.966810645990 	  2.980000000000 	
Mg	  1.921419398810 	  5.946810645990 	  0.000000000000 	
Mg	  2.921419398810 	  5.946810645990 	  2.980000000000 	
Mg	  5.901419398810 	  1.966810645990 	  0.000000000000 	
Mg	  6.901419398810 	  1.966810645990 	  2.980000000000 	
Mg	  5.901419398810 	  5.946810645990 	  0.000000000000 	
Mg	  6.901419398810 	  5.946810645990 	  2.980000000000 	
Mg	  2.284549376245 	  0.000000000000 	  1.830636904452 	
Mg	  3.284549376245 	  0.000000000000 	  4.810636904452 	
Mg	  2.284549376245 	  3.980000000000 	  1.830636904452 	
Mg	  3.284549376245 	  3.980000000000 	  4.810636904452 	
Mg	  6.264549376245 	  0.000000000000 	  1.830636904452 	
Mg	  7.264549376245 	  0.000000000000 	  4.810636904452 	
Mg	  6.264549376245 	  3.980000000000 	  1.830636904452 	
Mg	  7.264549376245 	  3.980000000000 	  4.810636904452 	
Mg	  0.226956235897 	  2.057593140349 	  1.830636904452 	
Mg	  1.226956235897 	  2.057593140349 	  4.810636904452 	
Mg	  0.226956235897 	  6.037593140349 	  1.830636904452 	
Mg	  1.226956235897 	  6.037593140349 	  4.810636904452 	
Mg	  4.206956235897 	  2.057593140349 	  1.830636904452 	
Mg	  5.206956235897 	  2.057593140349 	  4.810636904452 	
Mg	  4.206956235897 	  6.037593140349 	  1.830636904452 	
Mg	  5.206956235897 	  6.037593140349 	  4.810636904452 	
O	  2.057593140349 	  0.000000000000 	  0.000000000000 	
O	  3.057593140349 	  0.000000000000 	  2.980000000000 	
O	  2.057593140349 	  3.980000000000 	  0.000000000000 	
O	  3.057593140349 	  3.980000000000 	  2.980000000000 	
O	  6.037593140349 	  0.000000000000 	  0.000000000000 	
O	  7.037593140349 	  0.000000000000 	  2.980000000000 	
O	  6.037593140349 	  3.980000000000 	  0.000000000000 	
O	  7.037593140349 	  3.980000000000 	  2.980000000000 	
O	  0.000000000000 	  2.057593140349 	  0.000000000000 	
O	  1.000000000000 	  2.057593140349 	  2.980000000000 	
O	  0.000000000000 	  6.037593140349 	  0.000000000000 	
O	  1.000000000000 	  6.037593140349 	  2.980000000000 	
O	  3.980000000000 	  2.057593140349 	  0.000000000000 	
O	  4.980000000000 	  2.057593140349 	  2.980000000000 	
O	  3.980000000000 	  6.037593140349 	  0.000000000000 	
O	  4.980000000000 	  6.037593140349 	  2.980000000000 	
O	  0.226956235897 	  0.000000000000 	  1.830636904452 	
O	  1.226956235897 	  0.000000000000 	  4.810636904452 	
O	  0.226956235897 	  3.980000000000 	  1.830636904452 	
O	  1.226956235897 	  3.980000000000 	  4.810636904452 	
O	  4.206956235897 	  0.000000000000 	  1.830636904452 	
O	  5.206956235897 	  0.000000000000 	  4.810636904452 	
O	  4.206956235897 	  3.980000000000 	  1.830636904452 	
O	  5.206956235897 	  3.980000000000 	  4.810636904452 	
O	  2.466114364963 	  1.759372646380 	  1.830636904452 	
O	  3.466114364963 	  1.759372646380 	  4.810636904452 	
O	  2.466114364963 	  5.739372646380 	  1.830636904452 	
O	  3.466114364963 	  5.739372646380 	  4.810636904452 	
O	  6.446114364963 	  1.759372646380 	  1.830636904452 	
O	  7.446114364963 	  1.759372646380 	  4.810636904452 	
O	  6.446114364963 	  5.739372646380 	  1.830636904452 	
O	  7.446114364963 	  5.739372646380 	  4.810636904452 	
64 
Energy: 5.3630095131433730e+00 
Mg	  0.000000000000 	  0.000000000000 	  0.000000000000 	
Mg	  1.000000000000 	  0.000000000000 	  2.980000000000 	
Mg	  0.000000000000 	  3.980000000000 	  0.000000000000 	
Mg	  1.000000000000 	  3.980000000000 	  2.980000000000 	
Mg	  3.980000000000 	  0.000000000000 	  0.000000000000 	
Mg	  4.980000000000 	  0.000000000000 	  2.980000000000 	
Mg	  3.980000000000 	  3.980000000000 	  0.000000000000 	
Mg	  4.980000000000 	  3.980000000000 	  2.980000000000 	
Mg	  1.946941807496 	  1.986643115301 	  0.000000000000 	
Mg	  2.946941807496 	  1.986643115301 	  2.980000000000 	
Mg	  1.946941807496 	  5.966643115301 	  0.000000000000 	
Mg	  2.946941807496 	  5.966643115301 	  2.980000000000 	
Mg	  5.926941807496 	  1.986643115301 	  0.000000000000 	
Mg	  6.926941807496 	  1.986643115301 	  2.980000000000 	
Mg	  5.926941807496 	  5.966643115301 	  0.000000000000 	
Mg	  6.926941807496 	  5.966643115301 	  2.980000000000 	
Mg	  2.264552269940 	  0.000000000000 	  1.867539191885 	
Mg	  3.264552269940 	  0.000000000000 	  4.847539191885 	
Mg	  2.264552269940 	  3.980000000000 	  1.867539191885 	
Mg	  3.264552269940 	  3.980000000000 	  4.847539191885 	
Mg	  6.244552269940 	  0.000000000000 	  1.867539191885 	
Mg	  7.244552269940 	  0.000000000000 	  4.847539191885 	
Mg	  6.244552269940 	  3.980000000000 	  1.867539191885 	
Mg	  7.244552269940 	  3.980000000000 	  4.847539191885 	
Mg	  0.198506539027 	  2.066045730912 	  1.867539191885 	
Mg	  1.198506539027 	  2.066045730912 	  4.847539191885 	
Mg	  0.198506539027 	  6.046045730912 	  1.867539191885 	
Mg	  1.198506539027 	  6.046045730912 	  4.847539191885 	
Mg	  4.178506539027 	  2.066045730912 	  1.867539191885 	
Mg	  5.178506539027 	  2.066045730912 	  4.847539191885 	
Mg	  4.178506539027 	  6.046045730912 	  1.867539191885 	
Mg	  5.178506539027 	  6.046045730912 	  4.847539191885 	
O	  2.066045730912 	  0.000000000000 	  0.000000000000 	
O	  3.066045730912 	  0.000000000000 	  2.980000000000 	
O	  2.066045730912 	  3.980000000000 	  0.000000000000 	
O	  3.066045730912 	  3.980000000000 	  2.980000000000 	
O	  6.046045730912 	  0.000000000000 	  0.000000000000 	
O	  7.046045730912 	  0.000000000000 	  2.980000000000 	
O	  6.046045730912 	  3.980000000000 	  0.000000000000 	
O	  7.046045730912 	  3.980000000000 	  2.980000000000 	
O	  0.000000000000 	  2.066045730912 	  0.000000000000 	
O	  1.000000000000 	  2.066045730912 	  2.980000000000 	
O	  0.000000000000 	  6.046045730912 	  0.000000000000 	
O	  1.000000000000 	  6.046045730912 	  2.980000000000 	
O	  3.980000000000 	  2.066045730912 	  0.000000000000 	
O	  4.980000000000 	  2.066045730912 	  2.980000000000 	
O	  3.980000000000 	  6.046045730912 	  0.000000000000 	
O	  4.980000000000 	  6.046045730912 	  2.980000000000 	
O	  0.198506539027 	  0.000000000000 	  1.867539191885 	
O	  1.198506539027 	  0.000000000000 	  4.847539191885 	
O	  0.198506539027 	  3.980000000000 	  1.867539191885 	
O	  1.198506539027 	  3.980000000000 	  4.847539191885 	
O	  4.178506539027 	  0.000000000000 	  1.867539191885 	
O	  5.178506539027 	  0.000000000000 	  4.847539191885 	
O	  4.178506539027 	  3.980000000000 	  1.867539191885 	
O	  5.178506539027 	  3.980000000000 	  4.847539191885 	
O	  2.423357501161 	  1.805208138630 	  1.867539191885 	
O	  3.423357501161 	  1.805208138630 	  4.847539191885 	
O	  2.423357501161 	  5.785208138630 	  1.867539191885 	
O	  3.423357501161 	  5.785208138630 	  4.847539191885 	
O	  6.403357501161 	  1.805208138630 	  1.867539191885 	
O	  7.403357501161 	  1.805208138630 	  4.847539191885 	
O	  6.403357501161 	  5.785208138630 	  1.867539191885 	
O	  7.403357501161 	  5.785208138630 	  4.847539191885 	
64 
Energy: 4.8222494112530967e+00 
Mg	  0.000000000000 	  0.000000000000 	  0.000000000000 	
Mg	  1.000000000000 	  0.000000000000 	  2.980000000000 	
Mg	  0.000000000000 	  3.980000000000 	  0.000000000000 	
Mg	  1.000000000000 	  3.980000000000 	  2.980000000000 	
Mg	  3.980000000000 	  0.000000000000 	  0.000000000000 	
Mg	  4.980000000000 	  0.000000000000 	  2.980000000000 	
Mg	  3.980000000000 	  3.980000000000 	  0.000000000000 	
Mg	  4.980000000000 	  3.980000000000 	  2.980000000000 	
Mg	  1.972453568035 	  2.006467526682 	  0.000000000000 	
Mg	  2.972453568035 	  2.006467526682 	  2.980000000000 	
Mg	  1.972453568035 	  5.986467526682 	  0.000000000000 	
Mg	  2.972453568035 	  5.986467526682 	  2.980000000000 	
Mg	  5.952453568035 	  2.006467526682 	  0.000000000000 	
Mg	  6.952453568035 	  2.006467526682 	  2.980000000000 	
Mg	  5.952453568035 	  5.986467526682 	  0.000000000000 	
Mg	  6.952453568035 	  5.986467526682 	  2.980000000000 	
Mg	  2.244565237217 	  0.000000000000 	  1.904425650739 	
Mg	  3.244565237217 	  0.000000000000 	  4.884425650739 	
Mg	  2.244565237217 	  3.980000000000 	  1.904425650739 	
Mg	  3.244565237217 	  3.980000000000 	  4.884425650739 	
Mg	  6.224565237217 	  0.000000000000 	  1.904425650739 	
Mg	  7.224565237217 	  0.000000000000 	  4.884425650739 	
Mg	  6.224565237217 	  3.980000000000 	  1.904425650739 	
Mg	  7.224565237217 	  3.980000000000 	  4.884425650739 	
Mg	  0.170069793239 	  2.074495443978 	  1.904425650739 	
Mg	  1.170069793239 	  2.074495443978 	  4.884425650739 	
Mg	  0.170069793239 	  6.054495443978 	  1.904425650739 	
Mg	  1.170069793239 	  6.054495443978 	  4.884425650739 	
Mg	  4.150069793239 	  2.074495443978 	  1.904425650739 	
Mg	  5.150069793239 	  2.074495443978 	  4.884425650739 	
Mg	  4.150069793239 	  6.054495443978 	  1.904425650739 	
Mg	  5.150069793239 	  6.054495443978 	  4.884425650739 	
O	  2.074495443978 	  0.000000000000 	  0.000000000000 	
O	  3.074495443978 	  0.000000000000 	  2.980000000000 	
O	  2.074495443978 	  3.980000000000 	  0.000000000000 	
O	  3.074495443978 	  3.980000000000 	  2.980000000000 	
O	  6.054495443978 	  0.000000000000 	  0.000000000000 	
O	  7.054495443978 	  0.000000000000 	  2.980000000000 	
O	  6.054495443978 	  3.980000000000 	  0.000000000000 	
O	  7.054495443978 	  3.980000000000 	  2.980000000000 	
O	  0.000000000000 	  2.074495443978 	  0.000000000000 	
O	  1.000000000000 	  2.074495443978 	  2.980000000000 	
O	  0.000000000000 	  6.054495443978 	  0.000000000000 	
O	  1.000000000000 	  6.054495443978 	  2.980000000000 	
O	  3.980000000000 	  2.074495443978 	  0.000000000000 	
O	  4.980000000000 	  2.074495443978 	  2.980000000000 	
O	  3.980000000000 	  6.054495443978 	  0.000000000000 	
O	  4.980000000000 	  6.054495443978 	  2.980000000000 	
O	  0.170069793239 	  0.000000000000 	  1.904425650739 	
O	  1.170069793239 	  0.000000000000 	  4.884425650739 	
O	  0.170069793239 	  3.980000000000 	  1.904425650739 	
O	  1.170069793239 	  3.980000000000 	  4.884425650739 	
O	  4.150069793239 	  0.000000000000 	  1.904425650739 	
O	  5.150069793239 	  0.000000000000 	  4.884425650739 	
O	  4.150069793239 	  3.980000000000 	  1.904425650739 	
O	  5.150069793239 	  3.980000000000 	  4.884425650739 	
O	  2.380621071808 	  1.851023735662 	  1.904425650739 	
O	  3.380621071808 	  1.851023735662 	  4.884425650739 	
O	  2.380621071808 	  5.831023735662 	  1.904425650739 	
O	  3.380621071808 	  5.831023735662 	  4.884425650739 	
O	  6.360621071808 	  1.851023735662 	  1.904425650739 	
O	  7.360621071808 	  1.851023735662 	  4.884425650739 	
O	  6.360621071808 	  5.831023735662 	  1.904425650739 	
O	  7.360621071808 	  5.831023735662 	  4.884425650739 	
64 
Energy: 4.0578770441913665e+00 
Mg	  0.000000000000 	  0.000000000000 	  0.000000000000 	
Mg	  1.000000000000 	  0.000000000000 	  2.980000000000 	
Mg	  0.000000000000 	  3.980000000000 	  0.000000000000 	
Mg	  1.000000000000 	  3.980000000000 	  2.980000000000 	
Mg	  3.980000000000 	  0.000000000000 	  0.000000000000 	
Mg	  4.980000000000 	  0.000000000000 	  2.980000000000 	
Mg	  3.980000000000 	  3.980000000000 	  0.000000000000 	
Mg	  4.980000000000 	  3.980000000000 	  2.980000000000 	
Mg	  1.997948688231 	  2.026279128039 	  0.000000000000 	
Mg	  2.997948688231 	  2.026279128039 	  2.980000000000 	
Mg	  1.997948688231 	  6.006279128039 	  0.000000000000 	
Mg	  2.997948688231 	  6.006279128039 	  2.980000000000 	
Mg	  5.977948688231 	  2.026279128039 	  0.000000000000 	
Mg	  6.977948688231 	  2.026279128039 	  2.980000000000 	
Mg	  5.977948688231 	  6.006279128039 	  0.000000000000 	
Mg	  6.977948688231 	  6.006279128039 	  2.980000000000 	
Mg	  2.224592206694 	  0.000000000000 	  1.941287808615 	
Mg	  3.224592206694 	  0.000000000000 	  4.921287808615 	
Mg	  2.224592206694 	  3.980000000000 	  1.941287808615 	
Mg	  3.224592206694 	  3.980000000000 	  4.921287808615 	
Mg	  6.204592206694 	  0.000000000000 	  1.941287808615 	
Mg	  7.204592206694 	  0.000000000000 	  4.921287808615 	
Mg	  6.204592206694 	  3.980000000000 	  1.941287808615 	
Mg	  7.204592206694 	  3.980000000000 	  4.921287808615 	
Mg	  0.141652199039 	  2.082940007655 	  1.941287808615 	
Mg	  1.141652199039 	  2.082940007655 	  4.921287808615 	
Mg	  0.141652199039 	  6.062940007655 	  1.941287808615 	
Mg	  1.141652199039 	  6.062940007655 	  4.921287808615 	
Mg	  4.121652199039 	  2.082940007655 	  1.941287808615 	
Mg	  5.121652199039 	  2.082940007655 	  4.921287808615 	
Mg	  4.121652199039 	  6.062940007655 	  1.941287808615 	
Mg	  5.121652199039 	  6.062940007655 	  4.921287808615 	
O	  2.082940007655 	  0.000000000000 	  0.000000000000 	
O	  3.082940007655 	  0.000000000000 	  2.980000000000 	
O	  2.082940007655 	  3.980000000000 	  0.000000000000 	
O	  3.082940007655 	  3.980000000000 	  2.980000000000 	
O	  6.062940007655 	  0.000000000000 	  0.000000000000 	
O	  7.062940007655 	  0.000000000000 	  2.980000000000 	
O	  6.062940007655 	  3.980000000000 	  0.000000000000 	
O	  7.062940007655 	  3.980000000000 	  2.980000000000 	
O	  0.000000000000 	  2.082940007655 	  0.000000000000 	
O	  1.000000000000 	  2.082940007655 	  2.980000000000 	
O	  0.000000000000 	  6.062940007655 	  0.000000000000 	
O	  1.000000000000 	  6.062940007655 	  2.980000000000 	
O	  3.980000000000 	  2.082940007655 	  0.000000000000 	
O	  4.980000000000 	  2.082940007655 	  2.980000000000 	
O	  3.980000000000 	  6.062940007655 	  0.000000000000 	
O	  4.980000000000 	  6.062940007655 	  2.980000000000 	
O	  0.141652199039 	  0.000000000000 	  1.941287808615 	
O	  1.141652199039 	  0.000000000000 	  4.921287808615 	
O	  0.141652199039 	  3.980000000000 	  1.941287808615 	
O	  1.141652199039 	  3.980000000000 	  4.921287808615 	
O	  4.121652199039 	  0.000000000000 	  1.941287808615 	
O	  5.121652199039 	  0.000000000000 	  4.921287808615 	
O	  4.121652199039 	  3.980000000000 	  1.941287808615 	
O	  5.121652199039 	  3.980000000000 	  4.921287808615 	
O	  2.337913965925 	  1.896809018117 	  1.941287808615 	
O	  3.337913965925 	  1.896809018117 	  4.921287808615 	
O	  2.337913965925 	  5.876809018117 	  1.941287808615 	
O	  3.337913965925 	  5.876809018117 	  4.921287808615 	
O	  6.317913965925 	  1.896809018117 	  1.941287808615 	
O	  7.317913965925 	  1.896809018117 	  4.921287808615 	
O	  6.317913965925 	  5.876809018117 	  1.941287808615 	
O	  7.317913965925 	  5.876809018117 	  4.921287808615 	
64 
Energy: 3.1206748668564264e+00 
Mg	  0.000000000000 	  0.000000000000 	  0.000000000000 	
Mg	  1.000000000000 	  0.000000000000 	  2.980000000000 	
Mg	  0.000000000000 	  3.980000000000 	  0.000000000000 	
Mg	  1.000000000000 	  3.980000000000 	  2.980000000000 	
Mg	  3.980000000000 	  0.000000000000 	  0.000000000000 	
Mg	  4.980000000000 	  0.000000000000 	  2.980000000000 	
Mg	  3.980000000000 	  3.980000000000 	  0.000000000000 	
Mg	  4.980000000000 	  3.980000000000 	  2.980000000000 	
Mg	  2.023421674431 	  2.046073466941 	  0.000000000000 	
Mg	  3.023421674431 	  2.046073466941 	  2.980000000000 	
Mg	  2.023421674431 	  6.026073466941 	  0.000000000000 	
Mg	  3.023421674431 	  6.026073466941 	  2.980000000000 	
Mg	  6.003421674431 	  2.046073466941 	  0.000000000000 	
Mg	  7.003421674431 	  2.046073466941 	  2.980000000000 	
Mg	  6.003421674431 	  6.026073466941 	  0.000000000000 	
Mg	  7.003421674431 	  6.026073466941 	  2.980000000000 	
Mg	  2.204636014506 	  0.000000000000 	  1.978118089413 	
Mg	  3.204636014506 	  0.000000000000 	  4.958118089413 	
Mg	  2.204636014506 	  3.980000000000 	  1.978118089413 	
Mg	  3.204636014506 	  3.980000000000 	  4.958118089413 	
Mg	  6.184636014506 	  0.000000000000 	  1.978118089413 	
Mg	  7.184636014506 	  0.000000000000 	  4.958118089413 	
Mg	  6.184636014506 	  3.980000000000 	  1.978118089413 	
Mg	  7.184636014506 	  3.980000000000 	  4.958118089413 	
Mg	  0.113258962546 	  2.091377051959 	  1.978118089413 	
Mg	  1.113258962546 	  2.091377051959 	  4.958118089413 	
Mg	  0.113258962546 	  6.071377051959 	  1.978118089413 	
Mg	  1.113258962546 	  6.071377051959 	  4.958118089413 	
Mg	  4.093258962546 	  2.091377051959 	  1.978118089413 	
Mg	  5.093258962546 	  2.091377051959 	  4.958118089413 	
Mg	  4.093258962546 	  6.071377051959 	  1.978118089413 	
Mg	  5.093258962546 	  6.071377051959 	  4.958118089413 	
O	  2.091377051959 	  0.000000000000 	  0.000000000000 	
O	  3.091377051959 	  0.000000000000 	  2.980000000000 	
O	  2.091377051959 	  3.980000000000 	  0.000000000000 	
O	  3.091377051959 	  3.980000000000 	  2.980000000000 	
O	  6.071377051959 	  0.000000000000 	  0.000000000000 	
O	  7.071377051959 	  0.000000000000 	  2.980000000000 	
O	  6.071377051959 	  3.980000000000 	  0.000000000000 	
O	  7.071377051959 	  3.980000000000 	  2.980000000000 	
O	  0.000000000000 	  2.091377051959 	  0.000000000000 	
O	  1.000000000000 	  2.091377051959 	  2.980000000000 	
O	  0.000000000000 	  6.071377051959 	  0.000000000000 	
O	  1.000000000000 	  6.071377051959 	  2.980000000000 	
O	  3.980000000000 	  2.091377051959 	  0.000000000000 	
O	  4.980000000000 	  2.091377051959 	  2.980000000000 	
O	  3.980000000000 	  6.071377051959 	  0.000000000000 	
O	  4.980000000000 	  6.071377051959 	  2.980000000000 	
O	  0.113258962546 	  0.000000000000 	  1.978118089413 	
O	  1.113258962546 	  0.000000000000 	  4.958118089413 	
O	  0.113258962546 	  3.980000000000 	  1.978118089413 	
O	  1.113258962546 	  3.980000000000 	  4.958118089413 	
O	  4.093258962546 	  0.000000000000 	  1.978118089413 	
O	  5.093258962546 	  0.000000000000 	  4.958118089413 	
O	  4.093258962546 	  3.980000000000 	  1.978118089413 	
O	  5.093258962546 	  3.980000000000 	  4.958118089413 	
O	  2.295243184543 	  1.942554775173 	  1.978118089413 	
O	  3.295243184543 	  1.942554775173 	  4.958118089413 	
O	  2.295243184543 	  5.922554775173 	  1.978118089413 	
O	  3.295243184543 	  5.922554775173 	  4.958118089413 	
O	  6.275243184543 	  1.942554775173 	  1.978118089413 	
O	  7.275243184543 	  1.942554775173 	  4.958118089413 	
O	  6.275243184543 	  5.922554775173 	  1.978118089413 	
O	  7.275243184543 	  5.922554775173 	  4.958118089413 	
64 
Energy: 2.0939819951338183e+00 
Mg	  0.000000000000 	  0.000000000000 	  0.000000000000 	
Mg	  1.000000000000 	  0.000000000000 	  2.980000000000 	
Mg	  0.000000000000 	  3.980000000000 	  0.000000000000 	
Mg	  1.000000000000 	  3.980000000000 	  2.980000000000 	
Mg	  3.980000000000 	  0.000000000000 	  0.000000000000 	
Mg	  4.980000000000 	  0.000000000000 	  2.980000000000 	
Mg	  3.980000000000 	  3.980000000000 	  0.000000000000 	
Mg	  4.980000000000 	  3.980000000000 	  2.980000000000 	
Mg	  2.048867494514 	  2.065846382063 	  0.000000000000 	
Mg	  3.048867494514 	  2.065846382063 	  2.980000000000 	
Mg	  2.048867494514 	  6.045846382063 	  0.000000000000 	
Mg	  3.048867494514 	  6.045846382063 	  2.980000000000 	
Mg	  6.028867494514 	  2.065846382063 	  0.000000000000 	
Mg	  7.028867494514 	  2.065846382063 	  2.980000000000 	
Mg	  6.028867494514 	  6.045846382063 	  0.000000000000 	
Mg	  7.028867494514 	  6.045846382063 	  2.980000000000 	
Mg	  2.184698594909 	  0.000000000000 	  2.014909719415 	
Mg	  3.184698594909 	  0.000000000000 	  4.994909719415 	
Mg	  2.184698594909 	  3.980000000000 	  2.014909719415 	
Mg	  3.184698594909 	  3.980000000000 	  4.994909719415 	
Mg	  6.164698594909 	  0.000000000000 	  2.014909719415 	
Mg	  7.164698594909 	  0.000000000000 	  4.994909719415 	
Mg	  6.164698594909 	  3.980000000000 	  2.014909719415 	
Mg	  7.164698594909 	  3.980000000000 	  4.994909719415 	
Mg	  0.084894437747 	  2.099804157162 	  2.014909719415 	
Mg	  1.084894437747 	  2.099804157162 	  4.994909719415 	
Mg	  0.084894437747 	  6.079804157162 	  2.014909719415 	
Mg	  1.084894437747 	  6.079804157162 	  4.994909719415 	
Mg	  4.064894437747 	  2.099804157162 	  2.014909719415 	
Mg	  5.064894437747 	  2.099804157162 	  4.994909719415 	
Mg	  4.064894437747 	  6.079804157162 	  2.014909719415 	
Mg	  5.064894437747 	  6.079804157162 	  4.994909719415 	
O	  2.099804157162 	  0.000000000000 	  0.000000000000 	
O	  3.099804157162 	  0.000000000000 	  2.980000000000 	
O	  2.099804157162 	  3.980000000000 	  0.000000000000 	
O	  3.099804157162 	  3.980000000000 	  2.980000000000 	
O	  6.079804157162 	  0.000000000000 	  0.000000000000 	
O	  7.079804157162 	  0.000000000000 	  2.980000000000 	
O	  6.079804157162 	  3.980000000000 	  0.000000000000 	
O	  7.079804157162 	  3.980000000000 	  2.980000000000 	
O	  0.000000000000 	  2.099804157162 	  0.000000000000 	
O	  1.000000000000 	  2.099804157162 	  2.980000000000 	
O	  0.000000000000 	  6.079804157162 	  0.000000000000 	
O	  1.000000000000 	  6.079804157162 	  2.980000000000 	
O	  3.980000000000 	  2.099804157162 	  0.000000000000 	
O	  4.980000000000 	  2.099804157162 	  2.980000000000 	
O	  3.980000000000 	  6.079804157162 	  0.000000000000 	
O	  4.980000000000 	  6.079804157162 	  2.980000000000 	
O	  0.084894437747 	  0.000000000000 	  2.014909719415 	
O	  1.084894437747 	  0.000000000000 	  4.994909719415 	
O	  0.084894437747 	  3.980000000000 	  2.014909719415 	
O	  1.084894437747 	  3.980000000000 	  4.994909719415 	
O	  4.064894437747 	  0.000000000000 	  2.014909719415 	
O	  5.064894437747 	  0.000000000000 	  4.994909719415 	
O	  4.064894437747 	  3.980000000000 	  2.014909719415 	
O	  5.064894437747 	  3.980000000000 	  4.994909719415 	
O	  2.252614145106 	  1.988252865963 	  2.014909719415 	
O	  3.252614145106 	  1.988252865963 	  4.994909719415 	
O	  2.252614145106 	  5.968252865963 	  2.014909719415 	
O	  3.252614145106 	  5.968252865963 	  4.994909719415 	
O	  6.232614145106 	  1.988252865963 	  2.014909719415 	
O	  7.232614145106 	  1.988252865963 	  4.994909719415 	
O	  6.232614145106 	  5.968252865963 	  2.014909719415 	
O	  7.232614145106 	  5.968252865963 	  4.994909719415 	
64 
Energy: 1.1028636753006289e+00 
Mg	  0.000000000000 	  0.000000000000 	  0.000000000000 	
Mg	  1.000000000000 	  0.000000000000 	  2.980000000000 	
Mg	  0.000000000000 	  3.980000000000 	  0.000000000000 	
Mg	  1.000000000000 	  3.980000000000 	  2.980000000000 	
Mg	  3.980000000000 	  0.000000000000 	  0.000000000000 	
Mg	  4.980000000000 	  0.000000000000 	  2.980000000000 	
Mg	  3.980000000000 	  3.980000000000 	  0.000000000000 	
Mg	  4.980000000000 	  3.980000000000 	  2.980000000000 	
Mg	  2.074281621475 	  2.085594014057 	  0.000000000000 	
Mg	  3.074281621475 	  2.085594014057 	  2.980000000000 	
Mg	  2.074281621475 	  6.065594014057 	  0.000000000000 	
Mg	  3.074281621475 	  6.065594014057 	  2.980000000000 	
Mg	  6.054281621475 	  2.085594014057 	  0.000000000000 	
Mg	  7.054281621475 	  2.085594014057 	  2.980000000000 	
Mg	  6.054281621475 	  6.065594014057 	  0.000000000000 	
Mg	  7.054281621475 	  6.065594014057 	  2.980000000000 	
Mg	  2.164780762128 	  0.000000000000 	  2.051656836312 	
Mg	  3.164780762128 	  0.000000000000 	  5.031656836312 	
Mg	  2.164780762128 	  3.980000000000 	  2.051656836312 	
Mg	  3.164780762128 	  3.980000000000 	  5.031656836312 	
Mg	  6.144780762128 	  0.000000000000 	  2.051656836312 	
Mg	  7.144780762128 	  0.000000000000 	  5.031656836312 	
Mg	  6.144780762128 	  3.980000000000 	  2.051656836312 	
Mg	  7.144780762128 	  3.980000000000 	  5.031656836312 	
Mg	  0.056561962908 	  2.108218799220 	  2.051656836312 	
Mg	  1.056561962908 	  2.108218799220 	  5.031656836312 	
Mg	  0.056561962908 	  6.088218799220 	  2.051656836312 	
Mg	  1.056561962908 	  6.088218799220 	  5.031656836312 	
Mg	  4.036561962908 	  2.108218799220 	  2.051656836312 	
Mg	  5.036561962908 	  2.108218799220 	  5.031656836312 	
Mg	  4.036561962908 	  6.088218799220 	  2.051656836312 	
Mg	  5.036561962908 	  6.088218799220 	  5.031656836312 	
O	  2.108218799220 	  0.000000000000 	  0.000000000000 	
O	  3.108218799220 	  0.000000000000 	  2.980000000000 	
O	  2.108218799220 	  3.980000000000 	  0.000000000000 	
O	  3.108218799220 	  3.980000000000 	  2.980000000000 	
O	  6.088218799220 	  0.000000000000 	  0.000000000000 	
O	  7.088218799220 	  0.000000000000 	  2.980000000000 	
O	  6.088218799220 	  3.980000000000 	  0.000000000000 	
O	  7.088218799220 	  3.980000000000 	  2.980000000000 	
O	  0.000000000000 	  2.108218799220 	  0.000000000000 	
O	  1.000000000000 	  2.108218799220 	  2.980000000000 	
O	  0.000000000000 	  6.088218799220 	  0.000000000000 	
O	  1.000000000000 	  6.088218799220 	  2.980000000000 	
O	  3.980000000000 	  2.108218799220 	  0.000000000000 	
O	  4.980000000000 	  2.108218799220 	  2.980000000000 	
O	  3.980000000000 	  6.088218799220 	  0.000000000000 	
O	  4.980000000000 	  6.088218799220 	  2.980000000000 	
O	  0.056561962908 	  0.000000000000 	  2.051656836312 	
O	  1.056561962908 	  0.000000000000 	  5.031656836312 	
O	  0.056561962908 	  3.980000000000 	  2.051656836312 	
O	  1.056561962908 	  3.980000000000 	  5.031656836312 	
O	  4.036561962908 	  0.000000000000 	  2.051656836312 	
O	  5.036561962908 	  0.000000000000 	  5.031656836312 	
O	  4.036561962908 	  3.980000000000 	  2.051656836312 	
O	  5.036561962908 	  3.980000000000 	  5.031656836312 	
O	  2.210030332455 	  2.033896379959 	  2.051656836312 	
O	  3.210030332455 	  2.033896379959 	  5.031656836312 	
O	  2.210030332455 	  6.013896379959 	  2.051656836312 	
O	  3.210030332455 	  6.013896379959 	  5.031656836312 	
O	  6.190030332455 	  2.033896379959 	  2.051656836312 	
O	  7.190030332455 	  2.033896379959 	  5.031656836312 	
O	  6.190030332455 	  6.013896379959 	  2.051656836312 	
O	  7.190030332455 	  6.013896379959 	  5.031656836312 	
64 
Energy: 3.2468866852317801e-01 
Mg	  0.000000000000 	  0.000000000000 	  0.000000000000 	
Mg	  1.000000000000 	  0.000000000000 	  2.980000000000 	
Mg	  0.000000000000 	  3.980000000000 	  0.000000000000 	
Mg	  1.000000000000 	  3.980000000000 	  2.980000000000 	
Mg	  3.980000000000 	  0.000000000000 	  0.000000000000 	
Mg	  4.980000000000 	  0.000000000000 	  2.980000000000 	
Mg	  3.980000000000 	  3.980000000000 	  0.000000000000 	
Mg	  4.980000000000 	  3.980000000000 	  2.980000000000 	
Mg	  2.099660156968 	  2.105312882344 	  0.000000000000 	
Mg	  3.099660156968 	  2.105312882344 	  2.980000000000 	
Mg	  2.099660156968 	  6.085312882344 	  0.000000000000 	
Mg	  3.099660156968 	  6.085312882344 	  2.980000000000 	
Mg	  6.079660156968 	  2.105312882344 	  0.000000000000 	
Mg	  7.079660156968 	  2.105312882344 	  2.980000000000 	
Mg	  6.079660156968 	  6.085312882344 	  0.000000000000 	
Mg	  7.079660156968 	  6.085312882344 	  2.980000000000 	
Mg	  2.144881959973 	  0.000000000000 	  2.088354706217 	
Mg	  3.144881959973 	  0.000000000000 	  5.068354706217 	
Mg	  2.144881959973 	  3.980000000000 	  2.088354706217 	
Mg	  3.144881959973 	  3.980000000000 	  5.068354706217 	
Mg	  6.124881959973 	  0.000000000000 	  2.088354706217 	
Mg	  7.124881959973 	  0.000000000000 	  5.068354706217 	
Mg	  6.124881959973 	  3.980000000000 	  2.088354706217 	
Mg	  7.124881959973 	  3.980000000000 	  5.068354706217 	
Mg	  0.028263626878 	  2.116618333095 	  2.088354706217 	
Mg	  1.028263626878 	  2.116618333095 	  5.068354706217 	
Mg	  0.028263626878 	  6.096618333095 	  2.088354706217 	
Mg	  1.028263626878 	  6.096618333095 	  5.068354706217 	
Mg	  4.008263626878 	  2.116618333095 	  2.088354706217 	
Mg	  5.008263626878 	  2.116618333095 	  5.068354706217 	
Mg	  4.008263626878 	  6.096618333095 	  2.088354706217 	
Mg	  5.008263626878 	  6.096618333095 	  5.068354706217 	
O	  2.116618333095 	  0.000000000000 	  0.000000000000 	
O	  3.116618333095 	  0.000000000000 	  2.980000000000 	
O	  2.116618333095 	  3.980000000000 	  0.000000000000 	
O	  3.116618333095 	  3.980000000000 	  2.980000000000 	
O	  6.096618333095 	  0.000000000000 	  0.000000000000 	
O	  7.096618333095 	  0.000000000000 	  2.980000000000 	
O	  6.096618333095 	  3.980000000000 	  0.000000000000 	
O	  7.096618333095 	  3.980000000000 	  2.980000000000 	
O	  0.000000000000 	  2.116618333095 	  0.000000000000 	
O	  1.000000000000 	  2.116618333095 	  2.980000000000 	
O	  0.000000000000 	  6.096618333095 	  0.000000000000 	
O	  1.000000000000 	  6.096618333095 	  2.980000000000 	
O	  3.980000000000 	  2.116618333095 	  0.000000000000 	
O	  4.980000000000 	  2.116618333095 	  2.980000000000 	
O	  3.980000000000 	  6.096618333095 	  0.000000000000 	
O	  4.980000000000 	  6.096618333095 	  2.980000000000 	
O	  0.028263626878 	  0.000000000000 	  2.088354706217 	
O	  1.028263626878 	  0.000000000000 	  5.068354706217 	
O	  0.028263626878 	  3.980000000000 	  2.088354706217 	
O	  1.028263626878 	  3.980000000000 	  5.068354706217 	
O	  4.008263626878 	  0.000000000000 	  2.088354706217 	
O	  5.008263626878 	  0.000000000000 	  5.068354706217 	
O	  4.008263626878 	  3.980000000000 	  2.088354706217 	
O	  5.008263626878 	  3.980000000000 	  5.068354706217 	
O	  2.167492861475 	  2.079479927377 	  2.088354706217 	
O	  3.167492861475 	  2.079479927377 	  5.068354706217 	
O	  2.167492861475 	  6.059479927377 	  2.088354706217 	
O	  3.167492861475 	  6.059479927377 	  5.068354706217 	
O	  6.147492861475 	  2.079479927377 	  2.088354706217 	
O	  7.147492861475 	  2.079479927377 	  5.068354706217 	
O	  6.147492861475 	  6.059479927377 	  2.088354706217 	
O	  7.147492861475 	  6.059479927377 	  5.068354706217 	
64 
Energy: 0.0000000000000000e+00 
Mg	  0.000000000000 	  0.000000000000 	  0.000000000000 	
Mg	  1.000000000000 	  0.000000000000 	  2.980000000000 	
Mg	  0.000000000000 	  3.980000000000 	  0.000000000000 	
Mg	  1.000000000000 	  3.980000000000 	  2.980000000000 	
Mg	  3.980000000000 	  0.000000000000 	  0.000000000000 	
Mg	  4.980000000000 	  0.000000000000 	  2.980000000000 	
Mg	  3.980000000000 	  3.980000000000 	  0.000000000000 	
Mg	  4.980000000000 	  3.980000000000 	  2.980000000000 	
Mg	  2.125000000000 	  2.125000000000 	  0.000000000000 	
Mg	  3.125000000000 	  2.125000000000 	  2.980000000000 	
Mg	  2.125000000000 	  6.105000000000 	  0.000000000000 	
Mg	  3.125000000000 	  6.105000000000 	  2.980000000000 	
Mg	  6.105000000000 	  2.125000000000 	  0.000000000000 	
Mg	  7.105000000000 	  2.125000000000 	  2.980000000000 	
Mg	  6.105000000000 	  6.105000000000 	  0.000000000000 	
Mg	  7.105000000000 	  6.105000000000 	  2.980000000000 	
Mg	  2.125000000000 	  0.000000000000 	  2.125000000000 	
Mg	  3.125000000000 	  0.000000000000 	  5.105000000000 	
Mg	  2.125000000000 	  3.980000000000 	  2.125000000000 	
Mg	  3.125000000000 	  3.980000000000 	  5.105000000000 	
Mg	  6.105000000000 	  0.000000000000 	  2.125000000000 	
Mg	  7.105000000000 	  0.000000000000 	  5.105000000000 	
Mg	  6.105000000000 	  3.980000000000 	  2.125000000000 	
Mg	  7.105000000000 	  3.980000000000 	  5.105000000000 	
Mg	  0.000000000000 	  2.125000000000 	  2.125000000000 	
Mg	  1.000000000000 	  2.125000000000 	  5.105000000000 	
Mg	  0.000000000000 	  6.105000000000 	  2.125000000000 	
Mg	  1.000000000000 	  6.105000000000 	  5.105000000000 	
Mg	  3.980000000000 	  2.125000000000 	  2.125000000000 	
Mg	  4.980000000000 	  2.125000000000 	  5.105000000000 	
Mg	  3.980000000000 	  6.105000000000 	  2.125000000000 	
Mg	  4.980000000000 	  6.105000000000 	  5.105000000000 	
O	  2.125000000000 	  0.000000000000 	  0.000000000000 	
O	  3.125000000000 	  0.000000000000 	  2.980000000000 	
O	  2.125000000000 	  3.980000000000 	  0.000000000000 	
O	  3.125000000000 	  3.980000000000 	  2.980000000000 	
O	  6.105000000000 	  0.000000000000 	  0.000000000000 	
O	  7.105000000000 	  0.000000000000 	  2.980000000000 	
O	  6.105000000000 	  3.980000000000 	  0.000000000000 	
O	  7.105000000000 	  3.980000000000 	  2.980000000000 	
O	  0.000000000000 	  2.125000000000 	  0.000000000000 	
O	  1.000000000000 	  2.125000000000 	  2.980000000000 	
O	  0.000000000000 	  6.105000000000 	  0.000000000000 	
O	  1.000000000000 	  6.105000000000 	  2.980000000000 	
O	  3.980000000000 	  2.125000000000 	  0.000000000000 	
O	  4.980000000000 	  2.125000000000 	  2.980000000000 	
O	  3.980000000000 	  6.105000000000 	  0.000000000000 	
O	  4.980000000000 	  6.105000000000 	  2.980000000000 	
O	  0.000000000000 	  0.000000000000 	  2.125000000000 	
O	  1.000000000000 	  0.000000000000 	  5.105000000000 	
O	  0.000000000000 	  3.980000000000 	  2.125000000000 	
O	  1.000000000000 	  3.980000000000 	  5.105000000000 	
O	  3.980000000000 	  0.000000000000 	  2.125000000000 	
O	  4.980000000000 	  0.000000000000 	  5.105000000000 	
O	  3.980000000000 	  3.980000000000 	  2.125000000000 	
O	  4.980000000000 	  3.980000000000 	  5.105000000000 	
O	  2.125000000000 	  2.125000000000 	  2.125000000000 	
O	  3.125000000000 	  2.125000000000 	  5.105000000000 	
O	  2.125000000000 	  6.105000000000 	  2.125000000000 	
O	  3.125000000000 	  6.105000000000 	  5.105000000000 	
O	  6.105000000000 	  2.125000000000 	  2.125000000000 	
O	  7.105000000000 	  2.125000000000 	  5.105000000000 	
O	  6.105000000000 	  6.105000000000 	  2.125000000000 	
O	  7.105000000000 	  6.105000000000 	  5.105000000000 	
