  Invoking FHI-aims ...
  | Number of atoms                   :  96
  ...scf iterations...
  | Total energy corrected        :   -8.716140305421E+01 eV
  ...
  Total atomic forces (unitary forces cleaned)
     1  -2.7662191626E-01  6.1060836821E-01  1.9337516900E-01
     2  2.0883593425E-01  5.6753580307E-01  -1.9409819149E-01
     3  2.7662203648E-01  -6.1060828447E-01  -1.9337507817E-01
     4  -2.0883580574E-01  -5.6753554355E-01  1.9409824284E-01
     5  -7.6782334279E-01  1.6914692186E+00  2.8968299794E-01
     6  8.0596357645E-01  9.0574522733E-01  -5.4873138918E-02
     7  7.6782346418E-01  -1.6914690777E+00  -2.8968278770E-01
     8  -8.0596398306E-01  -9.0574534466E-01  5.4873423954E-02
     9  -3.6729720208E-01  2.6078906901E-01  -1.9162690373E-01
    10  9.6645479396E-01  6.8593732805E-01  1.7343700758E-01
    11  3.6729693058E-01  -2.6078854950E-01  1.9162670423E-01
    12  -9.6645496318E-01  -6.8593752087E-01  -1.7343649965E-01
    13  -5.1870979757E-01  -9.9302284535E-01  -1.0964959262E+00
    14  -8.4457813203E-02  -1.4567264933E+00  1.1466091909E+00
    15  5.1870923895E-01  9.9302290965E-01  1.0964956167E+00
    16  8.4457489294E-02  1.4567267498E+00  -1.1466084193E+00
    17  4.0199925175E-01  -5.4482178297E-01  -4.4051055033E-02
    18  -2.6700571808E-01  -6.5922183146E-01  4.8957388010E-01
    19  -4.0199821912E-01  5.4482163285E-01  4.4051677224E-02
    20  2.6700534702E-01  6.5922172305E-01  -4.8957421339E-01
    21  6.5249817156E-01  -1.2351667835E+00  -2.4769947264E-01
    22  -6.6761859889E-01  -1.3137508246E+00  2.9674229515E-01
    23  -6.5249864247E-01  1.2351675060E+00  2.4769888628E-01
    24  6.6761833554E-01  1.3137510504E+00  -2.9674264703E-01
    25  8.9569073345E-01  8.0567765804E-03  7.8384376768E-01
    26  -1.0168266700E+00  1.4446991277E-01  -1.2276892711E+00
    27  -8.9569051964E-01  -8.0573462213E-03  -7.8384392233E-01
    28  1.0168279006E+00  -1.4446973387E-01  1.2276887528E+00
    29  4.6613700725E-01  3.0103436383E-01  5.8823626986E-01
    30  -4.4965582857E-01  3.4086914629E-01  -6.1016211246E-01
    31  -4.6613692714E-01  -3.0103419540E-01  -5.8823611510E-01
    32  4.4965549886E-01  -3.4086912957E-01  6.1016171519E-01
    33  1.7666496981E-01  1.0809513672E+00  9.4242297925E-01
    34  -1.3826888142E-01  1.1263529831E+00  -8.9251989317E-01
    35  -1.7666510045E-01  -1.0809519345E+00  -9.4242278001E-01
    36  1.3826930865E-01  -1.1263534519E+00  8.9251978341E-01
    37  -6.7068876177E-01  4.9133232990E-01  -2.3442871534E-01
    38  6.9013028829E-01  5.3074593929E-01  2.1478080395E-01
    39  6.7068884875E-01  -4.9133259973E-01  2.3442865668E-01
    40  -6.9013038992E-01  -5.3074606075E-01  -2.1478047145E-01
    41  -8.8343852646E-01  1.2167353344E+00  8.2217403870E-02
    42  8.8821215596E-01  1.2276909156E+00  -7.8206189682E-02
    43  8.8343846240E-01  -1.2167352960E+00  -8.2217060222E-02
    44  -8.8821193037E-01  -1.2276906189E+00  7.8206422031E-02
    45  -1.8500160029E+00  1.8276292552E-01  -1.2405054903E+00
    46  8.5568227372E-01  -2.7398615057E+00  9.3213188851E-01
    47  1.8500121873E+00  -1.8276226504E-01  1.2405036982E+00
    48  -8.5568474461E-01  2.7398572880E+00  -9.3213149849E-01
    49  -1.5606057492E-01  4.7000466182E-01  1.6239699571E+00
    50  1.8173654700E-01  7.3330631586E+00  -4.9790960654E+00
    51  1.5605342824E-01  -4.6999690462E-01  -1.6239650552E+00
    52  -1.8173369669E-01  -7.3330615064E+00  4.9790947755E+00
    53  -1.3975004053E+00  -8.0393837206E-01  6.4122652188E-01
    54  1.2392528870E+00  -9.6059810577E-01  -6.2771970453E-01
    55  1.3975027348E+00  8.0394216321E-01  -6.4122746148E-01
    56  -1.2392507846E+00  9.6059711504E-01  6.2771943885E-01
    57  1.0761786914E+00  -1.9049095274E-01  9.4830128708E-01
    58  1.5011812686E+00  5.9438157076E-02  1.5567369818E+00
    59  -1.0761777525E+00  1.9048968808E-01  -9.4829957966E-01
    60  -1.5011840479E+00  -5.9438682653E-02  -1.5567373885E+00
    61  -2.8245608885E-01  1.6852998251E+00  1.2071931146E-01
    62  -2.1948981647E+00  -5.0063718486E+00  7.3178629574E-01
    63  2.8246092603E-01  -1.6853053880E+00  -1.2072215875E-01
    64  2.1948976410E+00  5.0063712465E+00  -7.3178436700E-01
    65  7.8536283236E-01  -1.3712506011E+00  4.4663232137E-01
    66  1.3008929684E+00  2.3689308125E+00  -7.4556645403E-01
    67  -7.8536578191E-01  1.3712476845E+00  -4.4663245204E-01
    68  -1.3008905620E+00  -2.3689277049E+00  7.4556706458E-01
    69  -1.3421869566E+00  -1.0830164254E+00  7.0609794422E-01
    70  1.4235764350E+00  -1.0814002220E+00  -7.1447314020E-01
    71  1.3421862986E+00  1.0830182342E+00  -7.0609630467E-01
    72  -1.4235764343E+00  1.0814002685E+00  7.1447408541E-01
    73  6.6892161945E-01  -6.8377657391E-01  -1.6545559009E+00
    74  -9.4641135287E-01  -1.5975860577E+00  2.6591414428E+00
    75  -6.6892249952E-01  6.8377353527E-01  1.6545564636E+00
    76  9.4640952671E-01  1.5975866111E+00  -2.6591416811E+00
    77  1.0078983464E+00  -2.4621600278E-01  7.3061528500E-01
    78  -1.7874384148E+00  -6.3191942745E-01  -1.3158548972E+00
    79  -1.0078959561E+00  2.4621471021E-01  -7.3061437843E-01
    80  1.7874389289E+00  6.3191948978E-01  1.3158538979E+00
    81  1.3848271346E+00  8.9958641556E-01  -3.4937630589E-01
    82  -1.4576598691E+00  9.9200308170E-01  4.2406156131E-01
    83  -1.3848260116E+00  -8.9958222091E-01  3.4936981036E-01
    84  1.4576604516E+00  -9.9200184445E-01  -4.2406316525E-01
    85  1.1481629068E+00  -2.2812895674E-02  6.3120039211E-01
    86  -1.1719542947E+00  -2.1941426296E-02  -6.0155251110E-01
    87  -1.1481604318E+00  2.2813223630E-02  -6.3119926644E-01
    88  1.1719540564E+00  2.1941360506E-02  6.0155242185E-01
    89  3.6314908685E-01  -5.7037298631E-01  -1.7401408856E+00
    90  -3.7319095993E-01  -5.5312432149E-01  1.7739106153E+00
    91  -3.6314958973E-01  5.7037079884E-01  1.7401431315E+00
    92  3.7319014196E-01  5.5312495029E-01  -1.7739091973E+00
    93  -4.3108038887E-01  1.6238509871E+00  -7.3303294179E-02
    94  4.1767806988E-01  1.6700495542E+00  1.0977669284E-01
    95  4.3108221597E-01  -1.6238537580E+00  7.3301611449E-02
    96  -4.1767804405E-01  -1.6700503529E+00  -1.0977707659E-01
  Stress tensor (eV/A^3):
  9.0427654042E-02  -6.2210344931E-03  1.9528393268E-02
  -6.2210344931E-03  8.8730555850E-02  -9.6392368170E-04
  1.9528393268E-02  -9.6392368170E-04  9.2000578473E-02
