  Invoking FHI-aims ...
  | Number of atoms                   :  96
  ...scf iterations...
  | Total energy corrected        :   -8.165929242543E+01 eV
  ...
  Total atomic forces (unitary forces cleaned)
     1  -2.5791061862E-01  6.1329130027E-01  1.8623156992E-01
     2  2.0426403624E-01  5.7034877973E-01  -1.9495072210E-01
     3  2.5791077104E-01  -6.1329120740E-01  -1.8623147857E-01
     4  -2.0426392080E-01  -5.7034849231E-01  1.9495076472E-01
     5  -7.7271054851E-01  1.6095837397E+00  2.6939538454E-01
     6  7.8020389973E-01  1.5914454557E+00  -5.1187590410E-01
     7  7.7271055862E-01  -1.6095835997E+00  -2.6939526854E-01
     8  -7.8020439127E-01  -1.5914455639E+00  5.1187618437E-01
     9  -3.1556228811E-01  2.3214309449E-01  -1.7514846450E-01
    10  7.7747927133E-01  6.3962406650E-01  1.5924639494E-01
    11  3.1556210284E-01  -2.3214244090E-01  1.7514833573E-01
    12  -7.7747969123E-01  -6.3962462260E-01  -1.5924583736E-01
    13  -4.8210867791E-01  -9.4770468266E-01  -1.0485856974E+00
    14  2.0396167230E-02  -1.3764346791E+00  1.0840489041E+00
    15  4.8210815881E-01  9.4770468061E-01  1.0485853868E+00
    16  -2.0396293671E-02  1.3764352560E+00  -1.0840480833E+00
    17  5.0895469378E-01  -7.1953538391E-01  -6.4431505420E-02
    18  -3.6291672782E-01  -9.2681845359E-01  4.9279645399E-01
    19  -5.0895379314E-01  7.1953547311E-01  6.4432094920E-02
    20  3.6291627935E-01  9.2681849804E-01  -4.9279692679E-01
    21  5.1078229062E-01  -1.0042905427E+00  -2.1639823324E-01
    22  -5.2858889477E-01  -1.0624889206E+00  2.4194350409E-01
    23  -5.1078236943E-01  1.0042910850E+00  2.1639774304E-01
    24  5.2858857442E-01  1.0624891103E+00  -2.4194376708E-01
    25  7.6476039005E-01  -8.9820919224E-03  6.9388765116E-01
    26  -9.0355794601E-01  2.2482694673E-01  -1.1281916704E+00
    27  -7.6476020280E-01  8.9815837716E-03  -6.9388781364E-01
    28  9.0355923951E-01  -2.2482698195E-01  1.1281912722E+00
    29  4.7856068930E-01  4.5482365494E-01  7.1101225081E-01
    30  -4.7087284613E-01  4.7557699308E-01  -7.2312626954E-01
    31  -4.7856074622E-01  -4.5482358925E-01  -7.1101208625E-01
    32  4.7087274609E-01  -4.7557701909E-01  7.2312596625E-01
    33  1.1008412239E-01  8.8443100022E-01  7.5065328820E-01
    34  -8.0374634557E-02  9.1576197826E-01  -7.1405848971E-01
    35  -1.1008418395E-01  -8.8443151755E-01  -7.5065296502E-01
    36  8.0375026405E-02  -9.1576231815E-01  7.1405837878E-01
    37  -7.5036214277E-01  6.8821457846E-01  -1.8067616884E-01
    38  7.6175052610E-01  7.1045583825E-01  1.7073422879E-01
    39  7.5036221999E-01  -6.8821481080E-01  1.8067616227E-01
    40  -7.6175062540E-01  -7.1045580436E-01  -1.7073394767E-01
    41  -7.1682273754E-01  1.0103331421E+00  5.4686727565E-02
    42  7.2109286232E-01  1.0125912676E+00  -5.7783255653E-02
    43  7.1682271561E-01  -1.0103332127E+00  -5.4686398450E-02
    44  -7.2109272542E-01  -1.0125910733E+00  5.7783469674E-02
    45  -1.0863345881E+00  1.1048598252E-01  -7.4177994864E-01
    46  1.3202344173E+00  6.6760177017E-01  6.5002246783E-01
    47  1.0863311051E+00  -1.1048540863E-01  7.4177860768E-01
    48  -1.3202347717E+00  -6.6760230943E-01  -6.5002226476E-01
    49  9.6866046706E-02  4.8207135724E-01  1.5345394504E+00
    50  -7.1755428374E-01  6.0626786394E+00  -3.3065451248E+00
    51  -9.6864259249E-02  -4.8206977824E-01  -1.5345384233E+00
    52  7.1755666378E-01  -6.0626777529E+00  3.3065430087E+00
    53  -1.0677863140E+00  -5.2749786407E-01  4.6931570421E-01
    54  7.5889697811E-01  -4.8479667460E-01  -3.1821264061E-01
    55  1.0677845121E+00  5.2749959448E-01  -4.6931416418E-01
    56  -7.5889619887E-01  4.8479636317E-01  3.1821286908E-01
    57  6.1783545289E-01  -1.5071019470E-01  4.4368000797E-01
    58  1.4904062082E+00  1.5657099607E-01  1.3602595538E+00
    59  -6.1783599884E-01  1.5070937613E-01  -4.4367989524E-01
    60  -1.4904080266E+00  -1.5657140320E-01  -1.3602591686E+00
    61  -8.3366486938E-02  1.2243316215E+00  -2.7052486202E-02
    62  -1.1450459717E+00  -4.6500160841E+00  6.8752383216E-03
    63  8.3368608512E-02  -1.2243307466E+00  2.7050840860E-02
    64  1.1450459145E+00  4.6500156708E+00  -6.8738388674E-03
    65  6.7554564792E-01  -1.4512468267E+00  4.6229994232E-01
    66  6.1315091835E-02  -8.2960551157E-01  -1.2672536111E+00
    67  -6.7554669467E-01  1.4512460494E+00  -4.6229826462E-01
    68  -6.1314543150E-02  8.2960523686E-01  1.2672541353E+00
    69  -9.4970119853E-01  -5.1289605671E-01  4.9476750736E-01
    70  1.1076572593E+00  -6.1567444960E-01  -5.5120981583E-01
    71  9.4969970424E-01  5.1289678790E-01  -4.9476609699E-01
    72  -1.1076568682E+00  6.1567408060E-01  5.5121049975E-01
    73  4.2337557602E-01  -4.3650456157E-01  -1.0063918409E+00
    74  -7.8920788402E-01  -1.4370915949E+00  2.2781485204E+00
    75  -4.2337606423E-01  4.3650160843E-01  1.0063913330E+00
    76  7.8920625196E-01  1.4370921251E+00  -2.2781488694E+00
    77  5.6868461981E-01  -7.1239486582E-02  4.3128273456E-01
    78  -1.2765213324E+00  -2.8924397179E-01  -9.7836307455E-01
    79  -5.6868366174E-01  7.1239018320E-02  -4.3128265436E-01
    80  1.2765217307E+00  2.8924401025E-01  9.7836219142E-01
    81  1.4472436248E+00  6.4317870804E-01  -4.2231586741E-01
    82  -1.4614829249E+00  6.6988754288E-01  4.4252507213E-01
    83  -1.4472412588E+00  -6.4317973845E-01  4.2231513311E-01
    84  1.4614828319E+00  -6.6988683517E-01  -4.4252524800E-01
    85  5.6123957674E-01  -6.2757490027E-02  3.9370855640E-01
    86  -5.6783813590E-01  -6.4347955028E-02  -3.8087678569E-01
    87  -5.6123920372E-01  6.2757837093E-02  -3.9370827958E-01
    88  5.6783782450E-01  6.4347833191E-02  3.8087680746E-01
    89  1.5966678954E-01  -5.3044536838E-01  -1.0782740668E+00
    90  -1.6110079477E-01  -5.2170834314E-01  1.0911800665E+00
    91  -1.5966680909E-01  5.3044345404E-01  1.0782732530E+00
    92  1.6110037703E-01  5.2170891836E-01  -1.0911799523E+00
    93  -3.2945717950E-01  1.1439186855E+00  -1.0761782073E-01
    94  3.2570864892E-01  1.1610223698E+00  1.2344118664E-01
    95  3.2945809712E-01  -1.1439171666E+00  1.0761572343E-01
    96  -3.2570844190E-01  -1.1610225790E+00  -1.2344137139E-01
  Stress tensor (eV/A^3):
  7.6124084596E-02  -1.1550452593E-03  2.0404778685E-02
  -1.1550452593E-03  8.1249472395E-02  -2.8732227191E-03
  2.0404778685E-02  -2.8732227191E-03  7.7238965744E-02
