  Invoking FHI-aims ...
  | Number of atoms                   :  96
  ...scf iterations...
  | Total energy corrected        :   -7.041389020325E+01 eV
  ...
  Total atomic forces (unitary forces cleaned)
     1  -2.0396245598E-01  5.9219993921E-01  2.0659068189E-01
     2  2.0395048890E-01  5.9219032948E-01  -2.0660234112E-01
     3  2.0396260966E-01  -5.9219984687E-01  -2.0659058614E-01
     4  -2.0395038736E-01  -5.9219005298E-01  2.0660238443E-01
     5  -8.0624278533E-01  1.1861715263E+00  5.3063614574E-02
     6  8.0629331889E-01  1.1861760858E+00  -5.3065206253E-02
     7  8.0624277908E-01  -1.1861714028E+00  -5.3063520650E-02
     8  -8.0629376127E-01  -1.1861761848E+00  5.3065513753E-02
     9  -1.6799744680E-01  1.7225296232E-01  -8.5898420375E-02
    10  1.6796381424E-01  1.7218763285E-01  8.5917032018E-02
    11  1.6799730370E-01  -1.7225237499E-01  8.5898277126E-02
    12  -1.6796422322E-01  -1.7218803022E-01  -8.5916787004E-02
    13  -3.5876480292E-01  -8.4162346603E-01  -8.6694443529E-01
    14  3.5876613735E-01  -8.4158174674E-01  8.6691019468E-01
    15  3.5876429684E-01  8.4162338114E-01  8.6694411304E-01
    16  -3.5876631765E-01  8.4158218445E-01  -8.6690942625E-01
    17  2.5606661788E+00  -3.8913719750E+00  -3.4825966217E-01
    18  -2.5605192247E+00  -3.8909395583E+00  3.4832752939E-01
    19  -2.5606710042E+00  3.8913812277E+00  3.4825981092E-01
    20  2.5605190639E+00  3.8909403840E+00  -3.4832870424E-01
    21  -1.6596821665E+00  2.3123010463E+00  6.7906365196E-02
    22  1.6595174451E+00  2.3118954594E+00  -6.7895344407E-02
    23  1.6596876767E+00  -2.3123097816E+00  -6.7906587012E-02
    24  -1.6595176856E+00  -2.3118961859E+00  6.7895878584E-02
    25  4.4091460219E-01  -1.5449955332E-02  4.2111283606E-01
    26  -4.4090773346E-01  -1.5395153895E-02  -4.2113307527E-01
    27  -4.4091447329E-01  1.5449707647E-02  -4.2111286752E-01
    28  4.4090849513E-01  1.5395127039E-02  4.2113288334E-01
    29  1.0412551927E+00  3.1352423945E+00  3.1442248225E+00
    30  -1.0412712855E+00  3.1353819154E+00  -3.1443223357E+00
    31  -1.0412567726E+00  -3.1352468889E+00  -3.1442274842E+00
    32  1.0412735399E+00  -3.1353858353E+00  3.1443245698E+00
    33  -6.1239859670E-01  -1.8595277070E+00  -1.8969142367E+00
    34  6.1244967712E-01  -1.8596963060E+00  1.8970339950E+00
    35  6.1240002940E-01  1.8595317623E+00  1.8969173435E+00
    36  -6.1245160278E-01  1.8596999760E+00  -1.8970365326E+00
    37  -2.7056189799E+00  3.7091018794E+00  2.5417497646E-01
    38  2.7053608768E+00  3.7086106720E+00  -2.5419435190E-01
    39  2.7056178955E+00  -3.7091006177E+00  -2.5417383034E-01
    40  -2.7053591919E+00  -3.7086082415E+00  2.5419503021E-01
    41  1.4624467160E+00  -2.1315763307E+00  -2.5878734446E-01
    42  -1.4621825527E+00  -2.1310908059E+00  2.5874546643E-01
    43  -1.4624456170E+00  2.1315748201E+00  2.5878650835E-01
    44  1.4621810238E+00  2.1310885748E+00  -2.5874569592E-01
    45  -5.3415840403E-01  5.7634182858E-02  -3.3052352314E-01
    46  5.3418123190E-01  5.7598030369E-02  3.3050506630E-01
    47  5.3415638582E-01  -5.7633948952E-02  3.3052287202E-01
    48  -5.3418141634E-01  -5.7598295679E-02  -3.3050523708E-01
    49  -8.1573652123E+00  6.2522603523E+00  6.3132725696E+00
    50  8.1588118206E+00  6.2491474787E+00  -6.3143215911E+00
    51  8.1573335189E+00  -6.2521980228E+00  -6.3132691653E+00
    52  -8.1588218092E+00  -6.2491418889E+00  6.3143224492E+00
    53  7.3277283936E+00  3.3883864858E+00  -3.9392135195E+00
    54  -7.3295640700E+00  3.3892749408E+00  3.9400960525E+00
    55  -7.3276933881E+00  -3.3883897661E+00  3.9391942064E+00
    56  7.3295700727E+00  -3.3892782634E+00  -3.9401036006E+00
    57  -8.2550690913E-01  1.4306664491E-01  -7.0049538131E-01
    58  8.2577442616E-01  1.4314039759E-01  7.0069118651E-01
    59  8.2551445098E-01  -1.4306783579E-01  7.0050135298E-01
    60  -8.2576902595E-01  -1.4313931842E-01  -7.0068615730E-01
    61  1.3053891848E+00  -8.9724463131E+00  2.4639872872E-01
    62  -1.3052671601E+00  -8.9703079331E+00  -2.4642050689E-01
    63  -1.3053988239E+00  8.9723910807E+00  -2.4638839079E-01
    64  1.3052667193E+00  8.9703042998E+00  2.4642229201E-01
    65  -2.2369189617E+00  -8.9315900151E+00  -2.2354458126E+00
    66  2.2373025802E+00  -8.9308958335E+00  2.2346060267E+00
    67  2.2369000111E+00  8.9315640210E+00  2.2354419663E+00
    68  -2.2372992905E+00  8.9308879890E+00  -2.2346052349E+00
    69  5.2575613997E+00  3.9188610581E+00  -2.5812739949E+00
    70  -5.2574341269E+00  3.9187433484E+00  2.5810547752E+00
    71  -5.2575424668E+00  -3.9188570560E+00  2.5812590123E+00
    72  5.2574249694E+00  -3.9187364842E+00  -2.5810537755E+00
    73  -1.5992844702E+00  2.9215645997E+00  5.7903126334E+00
    74  1.5989638682E+00  2.9210123858E+00  -5.7891351700E+00
    75  1.5992842319E+00  -2.9215448506E+00  -5.7902908452E+00
    76  -1.5989588833E+00  -2.9210115776E+00  5.7891320509E+00
    77  -8.0043674954E-01  7.1048821210E-02  -6.5596541365E-01
    78  8.0025533227E-01  7.1055703443E-02  6.5583304997E-01
    79  8.0043520850E-01  -7.1048781482E-02  6.5596454133E-01
    80  -8.0025470464E-01  -7.1055676134E-02  -6.5583177793E-01
    81  1.8790476286E+00  6.6893726507E+00  -8.4456950292E+00
    82  -1.8791832311E+00  6.6882322258E+00  8.4455229489E+00
    83  -1.8790437127E+00  -6.6893690832E+00  8.4456384517E+00
    84  1.8791862640E+00  -6.6882153152E+00  -8.4455415432E+00
    85  -7.9073786986E-01  2.4439608545E-02  -4.6982424265E-01
    86  7.9043550042E-01  2.4421528933E-02  4.6964502590E-01
    87  7.9074147866E-01  -2.4439636304E-02  4.6982629930E-01
    88  -7.9043479292E-01  -2.4421704242E-02  -4.6964393342E-01
    89  -1.4356021414E+00  2.6496191821E+00  6.9369732759E+00
    90  1.4357898409E+00  2.6496475011E+00  -6.9366170805E+00
    91  1.4355960979E+00  -2.6495915232E+00  -6.9369379554E+00
    92  -1.4357912899E+00  -2.6496562483E+00  6.9366314500E+00
    93  1.8153876568E+00  -8.3740536474E+00  1.0117570975E+00
    94  -1.8151780883E+00  -8.3729106892E+00  -1.0117505232E+00
    95  -1.8153866150E+00  8.3740211299E+00  -1.0117405112E+00
    96  1.8151752461E+00  8.3729035204E+00  1.0117534833E+00
  Stress tensor (eV/A^3):
  -1.8010161694E-02  3.2305198023E-06  4.9564461687E-02
  3.2305198023E-06  -7.3001591798E-02  -1.9435698568E-06
  4.9564461687E-02  -1.9435698568E-06  -2.6059060205E-02
