  Invoking FHI-aims ...
  | Number of atoms                   :  96
  ...scf iterations...
  | Total energy corrected        :   -9.931878076147E+01 eV
  ...
  Total atomic forces (unitary forces cleaned)
     1  -3.0202321626E-01  6.1616028235E-01  1.9347414499E-01
     2  2.3086715105E-01  5.8457961916E-01  -1.8531225592E-01
     3  3.0202326504E-01  -6.1616017925E-01  -1.9347408234E-01
     4  -2.3086699465E-01  -5.8457943186E-01  1.8531230831E-01
     5  -7.6496062010E-01  1.0139648150E+00  -1.3371045933E-01
     6  1.0600587412E+00  -1.7299072151E+00  2.5074428812E+00
     7  7.6496103650E-01  -1.0139646628E+00  1.3371091155E-01
     8  -1.0600589606E+00  1.7299070882E+00  -2.5074425685E+00
     9  -4.6253657481E-01  3.2794650075E-01  -2.0591552000E-01
    10  -2.8743009186E-01  -7.6151440793E-01  1.9549791631E-01
    11  4.6253609518E-01  -3.2794633611E-01  2.0591510130E-01
    12  2.8743125325E-01  7.6151573544E-01  -1.9549798432E-01
    13  -5.7055977644E-01  -1.0804553209E+00  -1.1663367133E+00
    14  1.2536888470E+00  -9.8867032464E-02  1.2269813357E+00
    15  5.7055910955E-01  1.0804555148E+00  1.1663363979E+00
    16  -1.2536905542E+00  9.8865893668E-02  -1.2269804431E+00
    17  4.4943403117E-01  -6.0317946879E-01  -4.2155249640E-02
    18  -9.9555460344E-01  4.4350777930E-01  -9.8280492138E-01
    19  -4.4943315909E-01  6.0317946396E-01  4.2155834657E-02
    20  9.9555523033E-01  -4.4350855034E-01  9.8280513854E-01
    21  6.9264317262E-01  -1.2941272431E+00  -2.4985832378E-01
    22  -6.3314256986E-01  -1.3443274779E+00  3.7244080222E-01
    23  -6.9264380748E-01  1.2941276667E+00  2.4985781490E-01
    24  6.3314241598E-01  1.3443276277E+00  -3.7244101150E-01
    25  1.0134358939E+00  7.0512358606E-02  8.5936650058E-01
    26  -3.8451871033E-01  -1.1050679679E+00  2.8569633583E-01
    27  -1.0134382799E+00  -7.0512685749E-02  -8.5936839351E-01
    28  3.8451925632E-01  1.1050691116E+00  -2.8569716139E-01
    29  5.3832896886E-01  3.2936177347E-01  6.5137375516E-01
    30  -4.5680332762E-01  4.4488212357E-01  -6.8084787939E-01
    31  -5.3832878867E-01  -3.2936177390E-01  -6.5137379569E-01
    32  4.5680276809E-01  -4.4488235610E-01  6.8084750735E-01
    33  2.3525190523E-01  1.1101414665E+00  1.0041628901E+00
    34  -1.9694870671E-01  1.2031080128E+00  -9.5944571241E-01
    35  -2.3525177882E-01  -1.1101418219E+00  -1.0041626413E+00
    36  1.9694903444E-01  -1.2031084345E+00  9.5944553649E-01
    37  -7.5757821047E-01  4.7142171444E-01  -2.8713510896E-01
    38  7.9003976136E-01  5.6588478081E-01  2.1802065112E-01
    39  7.5757826710E-01  -4.7142195005E-01  2.8713512846E-01
    40  -7.9003975984E-01  -5.6588511403E-01  -2.1802016768E-01
    41  -9.3868649048E-01  1.2430875358E+00  7.9150434882E-02
    42  9.5798240666E-01  1.2721444493E+00  -8.1521853921E-02
    43  9.3868640068E-01  -1.2430873777E+00  -7.9150171315E-02
    44  -9.5798211512E-01  -1.2721441315E+00  8.1522054671E-02
    45  5.6057647707E-01  1.4603278732E-01  6.5816950146E-01
    46  -3.9253125079E+00  -2.0160551767E+00  -2.8342446865E+00
    47  -5.6053916694E-01  -1.4603059401E-01  -6.5814023648E-01
    48  3.9253121789E+00  2.0160540434E+00  2.8342424231E+00
    49  -1.1502591778E+00  2.8096986031E-01  3.6955059503E-01
    50  1.3773258917E+00  2.6562501355E+00  -3.7536338427E+00
    51  1.1502356766E+00  -2.8096210958E-01  -3.6955372542E-01
    52  -1.3773252986E+00  -2.6562511352E+00  3.7536332315E+00
    53  -7.2784625504E-01  -1.2128545459E+00  7.5211481281E-02
    54  1.2019045300E+00  -1.6986423686E+00  -5.4279739883E-01
    55  7.2785651964E-01  1.2128489696E+00  -7.5219690434E-02
    56  -1.2019030143E+00  1.6986438983E+00  5.4279797431E-01
    57  1.0181012375E+00  -1.8240877582E-01  9.0131965736E-01
    58  1.7474989120E+00  3.4530731574E-02  2.7165540237E+00
    59  -1.0181043705E+00  1.8240782618E-01  -9.0132525919E-01
    60  -1.7475004802E+00  -3.4530707035E-02  -2.7165527209E+00
    61  -6.7788091629E-02  1.4192115646E+00  -4.3392934502E-02
    62  -3.1720673936E+00  -1.7496463760E+00  2.1091543247E+00
    63  6.7803711170E-02  -1.4192141625E+00  4.3381424601E-02
    64  3.1720672372E+00  1.7496446916E+00  -2.1091534225E+00
    65  -1.0798389209E-01  -2.3095331874E-01  1.0061704034E-02
    66  4.0882221645E+00  2.7039012864E+00  -1.2967693114E+00
    67  1.0797272202E-01  2.3095246859E-01  -1.0068410448E-02
    68  -4.0882213285E+00  -2.7039023918E+00  1.2967723588E+00
    69  -1.0030938992E+00  -9.8874982171E-01  6.7786731545E-01
    70  9.7080811459E-01  -6.5767270103E-01  -8.4515043507E-01
    71  1.0030994545E+00  9.8876105295E-01  -6.7786493334E-01
    72  -9.7080776941E-01  6.5767286735E-01  8.4515019203E-01
    73  7.4560329384E-01  -1.6171055549E-01  -1.6221901689E+00
    74  -1.1704386155E+00  -9.8270415718E-01  2.9483385894E+00
    75  -7.4560426290E-01  1.6171461943E-01  1.6221989771E+00
    76  1.1704371212E+00  9.8270661848E-01  -2.9483410318E+00
    77  9.3280648310E-01  -3.1590058567E-01  5.4686294634E-01
    78  -1.2918861404E+00  -4.8750154990E-01  -8.5482399332E-01
    79  -9.3281241800E-01  3.1590117768E-01  -5.4686788605E-01
    80  1.2918868765E+00  4.8750177397E-01  8.5482360943E-01
    81  -2.1925118633E-01  6.8167537300E-01  -3.4664115070E-01
    82  5.9712219145E-02  1.1861853963E+00  6.6517337077E-01
    83  2.1923845314E-01  -6.8166757416E-01  3.4662731343E-01
    84  -5.9711633836E-02  -1.1861855499E+00  -6.6517610579E-01
    85  1.0560791255E+00  3.8415636031E-02  5.2835753129E-01
    86  -1.0377099542E+00  8.1938285788E-02  -3.6338523285E-01
    87  -1.0560879905E+00  -3.8416965889E-02  -5.2836104624E-01
    88  1.0377093745E+00  -8.1938336822E-02  3.6338514331E-01
    89  3.8545338379E-01  -4.6400892937E-01  -1.4937111119E+00
    90  -4.3760866366E-01  -3.9050510660E-01  1.6451332034E+00
    91  -3.8545467738E-01  4.6399934769E-01  1.4937223282E+00
    92  4.3760797941E-01  3.9050684444E-01  -1.6451309959E+00
    93  -5.0855622004E-01  9.2380767128E-01  4.4735460250E-01
    94  4.7445547375E-01  1.1842557803E+00  -3.7376392958E-01
    95  5.0855768160E-01  -9.2382086876E-01  -4.4734773718E-01
    96  -4.7445579921E-01  -1.1842567179E+00  3.7376461192E-01
  Stress tensor (eV/A^3):
  7.3401992212E-02  -1.0944302125E-02  2.5683616208E-02
  -1.0944302125E-02  7.3618336538E-02  9.4623435167E-03
  2.5683616208E-02  9.4623435167E-03  6.4052218273E-02
