  Invoking FHI-aims ...
  | Number of atoms                   :  96
  ...scf iterations...
  | Total energy corrected        :   -8.015510407676E+01 eV
  ...
  Total atomic forces (unitary forces cleaned)
     1  -2.4145349753E-01  6.0445183616E-01  1.8742504199E-01
     2  2.0398865496E-01  5.7233428471E-01  -1.9478609469E-01
     3  2.4145365296E-01  -6.0445174488E-01  -1.8742494726E-01
     4  -2.0398853911E-01  -5.7233399951E-01  1.9478613873E-01
     5  -7.9199950212E-01  1.4718617712E+00  2.1610355449E-01
     6  7.9760496099E-01  1.5665073921E+00  -3.9935901191E-01
     7  7.9199950723E-01  -1.4718616343E+00  -2.1610344523E-01
     8  -7.9760543662E-01  -1.5665074977E+00  3.9935930451E-01
     9  -2.7963094809E-01  2.0670524104E-01  -1.6020704306E-01
    10  5.2154334366E-01  4.3846998901E-01  1.4826090858E-01
    11  2.7963077245E-01  -2.0670460637E-01  1.6020690583E-01
    12  -5.2154381025E-01  -4.3847056249E-01  -1.4826045319E-01
    13  -4.5737513462E-01  -9.2247798743E-01  -1.0087065686E+00
    14  2.2117112789E-01  -1.1639739150E+00  1.0349866218E+00
    15  4.5737463251E-01  9.2247796804E-01  1.0087062690E+00
    16  -2.2117123410E-01  1.1639745097E+00  -1.0349857850E+00
    17  6.1001472611E-01  -8.8189591850E-01  -8.2878120425E-02
    18  -5.3533861882E-01  -1.0280610854E+00  3.2518100548E-01
    19  -6.1001404822E-01  8.8189630494E-01  8.2878633235E-02
    20  5.3533828148E-01  1.0280611401E+00  -3.2518154379E-01
    21  3.7172075390E-01  -8.1051882529E-01  -1.9542143164E-01
    22  -3.7935266079E-01  -8.2937742177E-01  2.1067243883E-01
    23  -3.7172065646E-01  8.1051907349E-01  1.9542095356E-01
    24  3.7935236478E-01  8.2937757163E-01  -2.1067265171E-01
    25  6.8978541925E-01  -1.3544929434E-02  6.2907117840E-01
    26  -7.6837982871E-01  1.3913264252E-01  -8.7662322597E-01
    27  -6.8978527341E-01  1.3544490556E-02  -6.2907132902E-01
    28  7.6838096397E-01  -1.3913267630E-01  8.7662291801E-01
    29  4.8800152748E-01  6.0793733659E-01  8.2937932632E-01
    30  -4.8261235610E-01  6.1931314737E-01  -8.3418468963E-01
    31  -4.8800164620E-01  -6.0793744727E-01  -8.2937924495E-01
    32  4.8261236941E-01  -6.1931329246E-01  8.3418446851E-01
    33  6.7291370511E-02  7.2690128666E-01  5.7873180151E-01
    34  -4.8249260580E-02  7.3944199903E-01  -5.6099367078E-01
    35  -6.7291382837E-02  -7.2690165267E-01  -5.7873138780E-01
    36  4.8249546846E-02  -7.3944218746E-01  5.6099349760E-01
    37  -8.3675034377E-01  8.6005827676E-01  -1.3288481222E-01
    38  8.4093636076E-01  8.7204262393E-01  1.2644208247E-01
    39  8.3675038895E-01  -8.6005846251E-01  1.3288488117E-01
    40  -8.4093637416E-01  -8.7204251010E-01  -1.2644178029E-01
    41  -5.8095141029E-01  8.1572545391E-01  3.8136605988E-02
    42  5.8263755862E-01  8.1630292898E-01  -3.9949055822E-02
    43  5.8095142539E-01  -8.1572556277E-01  -3.8136344721E-02
    44  -5.8263748045E-01  -8.1630282252E-01  3.9949233060E-02
    45  -9.7521252518E-01  9.8973792499E-02  -6.5994479469E-01
    46  1.1112860501E+00  4.4906144837E-01  6.0166785687E-01
    47  9.7520928220E-01  -9.8973261648E-02  6.5994354500E-01
    48  -1.1112863350E+00  -4.4906171625E-01  -6.0166774116E-01
    49  -2.1706344931E-01  7.3906111047E-01  1.8463202820E+00
    50  -3.7300348011E-01  5.4234795186E+00  -3.3227498801E+00
    51  2.1706412083E-01  -7.3905708116E-01  -1.8463192562E+00
    52  3.7300516939E-01  -5.4234786682E+00  3.3227481812E+00
    53  -6.4340529945E-01  -3.6230236250E-01  2.1914560941E-01
    54  4.5120344382E-01  -3.3618423348E-01  -1.1269117539E-01
    55  6.4340476641E-01  3.6230339493E-01  -2.1914487167E-01
    56  -4.5120262528E-01  3.3618391164E-01  1.1269118136E-01
    57  4.5384341138E-01  -1.2249807971E-01  2.9841669836E-01
    58  1.2726713708E+00  1.8528460700E-01  1.1824277424E+00
    59  -4.5384357204E-01  1.2249732982E-01  -2.9841629873E-01
    60  -1.2726726752E+00  -1.8528493667E-01  -1.1824272590E+00
    61  -3.9191131403E-03  7.2689800225E-01  -4.4559545703E-02
    62  -9.7087587859E-01  -4.2588675362E+00  3.9281047795E-02
    63  3.9206205432E-03  -7.2689908515E-01  4.4558323398E-02
    64  9.7087588451E-01  4.2588670710E+00  -3.9279867787E-02
    65  6.1922455975E-01  -1.8544913105E+00  3.8526922571E-01
    66  -1.8721525650E-02  -1.3602233616E+00  -1.2980535467E+00
    67  -6.1922631794E-01  1.8544895293E+00  -3.8526756918E-01
    68  1.8722193279E-02  1.3602226185E+00  1.2980539335E+00
    69  -6.2538905694E-01  -2.5978181181E-01  3.3297767862E-01
    70  6.9704936675E-01  -3.1168336815E-01  -3.5451277399E-01
    71  6.2538831636E-01  2.5978254142E-01  -3.3297697238E-01
    72  -6.9704930776E-01  3.1168329840E-01  3.5451332933E-01
    73  3.1705955380E-01  -2.2813835609E-01  -6.4092014990E-01
    74  -6.6824470457E-01  -1.0112388225E+00  1.8278251855E+00
    75  -3.1705980838E-01  2.2813653425E-01  6.4092024333E-01
    76  6.6824342631E-01  1.0112393338E+00  -1.8278255947E+00
    77  3.9380515061E-01  -4.0427696401E-02  2.9435468615E-01
    78  -8.2451799159E-01  -1.2757192521E-01  -6.2399408341E-01
    79  -3.9380433499E-01  4.0427310454E-02  -2.9435460262E-01
    80  8.2451821313E-01  1.2757195168E-01  6.2399348724E-01
    81  1.5750023550E+00  9.4037913229E-01  -7.6682179601E-01
    82  -1.5825732190E+00  9.5247661083E-01  7.7762538646E-01
    83  -1.5749998640E+00  -9.4038015563E-01  7.6681895451E-01
    84  1.5825732512E+00  -9.5247523807E-01  -7.7762630131E-01
    85  3.7499132197E-01  -5.8069705514E-02  2.8578465509E-01
    86  -3.7825512812E-01  -5.9731521994E-02  -2.7781460119E-01
    87  -3.7499081395E-01  5.8070031385E-02  -2.8578431516E-01
    88  3.7825485733E-01  5.9731374960E-02  2.7781469997E-01
    89  6.1069712480E-02  -3.8307210154E-01  -6.5364689743E-01
    90  -6.1853695175E-02  -3.7871685354E-01  6.5993116140E-01
    91  -6.1069966678E-02  3.8307129635E-01  6.5364729128E-01
    92  6.1853264603E-02  3.7871706556E-01  -6.5993055955E-01
    93  -2.4740538523E-01  6.5820784540E-01  -2.4270811701E-02
    94  2.4765224991E-01  6.6740413299E-01  2.4789832795E-02
    95  2.4740606023E-01  -6.5820747714E-01  2.4269754539E-02
    96  -2.4765216622E-01  -6.6740465387E-01  -2.4789838749E-02
  Stress tensor (eV/A^3):
  6.7634793118E-02  -1.4820526613E-03  2.0996524903E-02
  -1.4820526613E-03  7.0249396850E-02  -2.4602050907E-03
  2.0996524903E-02  -2.4602050907E-03  6.8422536331E-02
