  Invoking FHI-aims ...
  | Number of atoms                   :  96
  ...scf iterations...
  | Total energy corrected        :   -8.511940012671E+01 eV
  ...
  Total atomic forces (unitary forces cleaned)
     1  -2.5630213238E-01  6.0777294926E-01  1.8388613313E-01
     2  2.0566945360E-01  5.6686162437E-01  -1.9334275749E-01
     3  2.5630226268E-01  -6.0777285765E-01  -1.8388605255E-01
     4  -2.0566932471E-01  -5.6686136853E-01  1.9334281121E-01
     5  -7.9262332367E-01  1.5868466943E+00  2.7292189560E-01
     6  8.0032452243E-01  1.6074082862E+00  -5.0951600596E-01
     7  7.9262343065E-01  -1.5868465563E+00  -2.7292169988E-01
     8  -8.0032491347E-01  -1.6074084009E+00  5.0951630294E-01
     9  -3.2235550526E-01  2.2753570752E-01  -1.7428374385E-01
    10  7.3387026602E-01  5.8309376237E-01  1.5479613464E-01
    11  3.2235524929E-01  -2.2753519899E-01  1.7428354555E-01
    12  -7.3387070759E-01  -5.8309424294E-01  -1.5479570460E-01
    13  -4.9098926114E-01  -9.6201717117E-01  -1.0504581510E+00
    14  8.8482560135E-02  -1.3354649587E+00  1.0950545118E+00
    15  4.9098872192E-01  9.6201721253E-01  1.0504578507E+00
    16  -8.8482637536E-02  1.3354654969E+00  -1.0950537410E+00
    17  4.7989525570E-01  -6.6937774839E-01  -5.9127419752E-02
    18  -3.6452502200E-01  -8.6824934132E-01  4.3993544933E-01
    19  -4.7989439294E-01  6.6937780541E-01  5.9127976929E-02
    20  3.6452464752E-01  8.6824936191E-01  -4.3993592737E-01
    21  5.3285400591E-01  -1.0637233381E+00  -2.3551171591E-01
    22  -5.3851054145E-01  -1.1077672835E+00  2.5830363956E-01
    23  -5.3285435830E-01  1.0637238351E+00  2.3551115146E-01
    24  5.3851030289E-01  1.1077674712E+00  -2.5830395330E-01
    25  7.9746374248E-01  1.7873067154E-03  7.0037576751E-01
    26  -9.1714369679E-01  2.1192841516E-01  -1.0882245457E+00
    27  -7.9746358008E-01  -1.7877988925E-03  -7.0037590907E-01
    28  9.1714486493E-01  -2.1192836375E-01  1.0882241992E+00
    29  4.6640564538E-01  4.2592419634E-01  6.7781411454E-01
    30  -4.5545717196E-01  4.4886081479E-01  -6.8759471484E-01
    31  -4.6640560963E-01  -4.2592413913E-01  -6.7781400944E-01
    32  4.5545692859E-01  -4.4886086553E-01  6.8759437392E-01
    33  1.3615244115E-01  9.3948657599E-01  7.9962253611E-01
    34  -1.1496485767E-01  9.6869724303E-01  -7.6669622897E-01
    35  -1.3615253341E-01  -9.3948703132E-01  -7.9962229824E-01
    36  1.1496522272E-01  -9.6869759846E-01  7.6669609077E-01
    37  -7.3347598654E-01  6.3320291011E-01  -1.8644763599E-01
    38  7.4102462272E-01  6.5551678103E-01  1.7366397423E-01
    39  7.3347605289E-01  -6.3320313956E-01  1.8644763907E-01
    40  -7.4102464587E-01  -6.5551682864E-01  -1.7366363406E-01
    41  -7.6236286830E-01  1.0572565685E+00  6.0722402810E-02
    42  7.6571827876E-01  1.0589323962E+00  -6.3955863228E-02
    43  7.6236283264E-01  -1.0572565789E+00  -6.0722097421E-02
    44  -7.6571810417E-01  -1.0589321719E+00  6.3956064552E-02
    45  -1.7418113024E+00  1.7514954637E-01  -1.1658623344E+00
    46  1.7236558061E+00  -1.5954442809E-01  1.0609876466E+00
    47  1.7418063770E+00  -1.7514888367E-01  1.1658600174E+00
    48  -1.7236570937E+00  1.5954272652E-01  -1.0609871805E+00
    49  -7.9722021581E-01  8.5232239194E-01  2.1405592772E+00
    50  1.1733390678E+00  7.7528009221E+00  -5.0158975957E+00
    51  7.9720724079E-01  -8.5230827849E-01  -2.1405512013E+00
    52  -1.1733380175E+00  -7.7528001731E+00  5.0158966929E+00
    53  -7.6203716344E-01  -5.2243596208E-01  2.6664053111E-01
    54  5.5546979212E-01  -5.8189742753E-01  -1.6260060525E-01
    55  7.6204412684E-01  5.2244017578E-01  -2.6664415429E-01
    56  -5.5546732935E-01  5.8189626777E-01  1.6259973964E-01
    57  9.3811468833E-01  -1.7632759652E-01  7.9331231418E-01
    58  1.2177261640E+00  1.1022227831E-01  1.2493350562E+00
    59  -9.3811310449E-01  1.7632628986E-01  -7.9331012358E-01
    60  -1.2177281555E+00  -1.1022277473E-01  -1.2493352123E+00
    61  -8.9229324525E-02  9.5160649916E-01  1.4949725347E-02
    62  -2.2581857184E+00  -6.0260302873E+00  7.6774904587E-01
    63  8.9234582458E-02  -9.5161868553E-01  -1.4952745685E-02
    64  2.2581857263E+00  6.0260307855E+00  -7.6774718198E-01
    65  7.0646626475E-01  -1.9588759055E+00  3.0258077831E-01
    66  2.9462984809E-01  -7.3111140139E-01  -1.1369135336E+00
    67  -7.0647065635E-01  1.9588692863E+00  -3.0258151716E-01
    68  -2.9462828061E-01  7.3111179358E-01  1.1369144365E+00
    69  -9.5680057502E-01  -6.8731002160E-01  5.3447873540E-01
    70  1.0484014618E+00  -7.3865860433E-01  -5.5980792004E-01
    71  9.5680166701E-01  6.8731295762E-01  -5.3447824198E-01
    72  -1.0484015884E+00  7.3865878388E-01  5.5980865740E-01
    73  5.3688200019E-01  -4.3146847247E-01  -1.2002443877E+00
    74  -9.1355647773E-01  -1.3147025565E+00  2.4840916675E+00
    75  -5.3688281075E-01  4.3146712398E-01  1.2002464959E+00
    76  9.1355485694E-01  1.3147032328E+00  -2.4840921965E+00
    77  8.3484991176E-01  -1.9632921721E-01  5.9106331003E-01
    78  -1.4700275950E+00  -4.2206636368E-01  -1.0713327532E+00
    79  -8.3484738499E-01  1.9632806753E-01  -5.9106216628E-01
    80  1.4700277923E+00  4.2206631266E-01  1.0713317976E+00
    81  1.5113961104E+00  1.4663994031E+00  -8.6859445123E-01
    82  -1.5428505592E+00  1.5103657093E+00  9.0631539873E-01
    83  -1.5113941750E+00  -1.4663916129E+00  8.6858224029E-01
    84  1.5428514100E+00  -1.5103635116E+00  -9.0631835746E-01
    85  9.5234615434E-01  -3.5776913279E-02  5.4240768978E-01
    86  -9.6396894165E-01  -3.5589978068E-02  -5.2303648069E-01
    87  -9.5234325478E-01  3.5777203413E-02  -5.4240623761E-01
    88  9.6396873801E-01  3.5589881708E-02  5.2303646289E-01
    89  2.1645840558E-01  -4.5845739142E-01  -1.1551085315E+00
    90  -2.2914817224E-01  -4.4352224180E-01  1.1776094525E+00
    91  -2.1645969484E-01  4.5845668522E-01  1.1551142778E+00
    92  2.2914727013E-01  4.4352239293E-01  -1.1776070215E+00
    93  -2.9839566679E-01  9.0053423798E-01  2.6076173916E-02
    94  2.9021493400E-01  9.2940027990E-01  -1.3309619144E-03
    95  2.9839781348E-01  -9.0054143981E-01  -2.6076151991E-02
    96  -2.9021508785E-01  -9.2940153905E-01  1.3308683686E-03
  Stress tensor (eV/A^3):
  8.1353836577E-02  -4.2587907278E-03  2.1822951056E-02
  -4.2587907278E-03  7.9363477438E-02  -1.4137433693E-03
  2.1822951056E-02  -1.4137433693E-03  8.2669707349E-02
