64 
Energy: 2.8670802109483997e+00 
Mg	  0.000000000000 	  0.000000000000 	  0.000000000000 	
Mg	  1.000000000000 	  0.000000000000 	  2.980000000000 	
Mg	  0.000000000000 	  3.980000000000 	  0.000000000000 	
Mg	  1.000000000000 	  3.980000000000 	  2.980000000000 	
Mg	  3.980000000000 	  0.000000000000 	  0.000000000000 	
Mg	  4.980000000000 	  0.000000000000 	  2.980000000000 	
Mg	  3.980000000000 	  3.980000000000 	  0.000000000000 	
Mg	  4.980000000000 	  3.980000000000 	  2.980000000000 	
Mg	  1.704948861120 	  1.799965907413 	  0.000000000000 	
Mg	  2.704948861120 	  1.799965907413 	  2.980000000000 	
Mg	  1.704948861120 	  5.779965907413 	  0.000000000000 	
Mg	  2.704948861120 	  5.779965907413 	  2.980000000000 	
Mg	  5.684948861120 	  1.799965907413 	  0.000000000000 	
Mg	  6.684948861120 	  1.799965907413 	  2.980000000000 	
Mg	  5.684948861120 	  5.779965907413 	  0.000000000000 	
Mg	  6.684948861120 	  5.779965907413 	  2.980000000000 	
Mg	  2.465085231467 	  0.000000000000 	  1.514914768533 	
Mg	  3.465085231467 	  0.000000000000 	  4.494914768533 	
Mg	  2.465085231467 	  3.980000000000 	  1.514914768533 	
Mg	  3.465085231467 	  3.980000000000 	  4.494914768533 	
Mg	  6.445085231467 	  0.000000000000 	  1.514914768533 	
Mg	  7.445085231467 	  0.000000000000 	  4.494914768533 	
Mg	  6.445085231467 	  3.980000000000 	  1.514914768533 	
Mg	  7.445085231467 	  3.980000000000 	  4.494914768533 	
Mg	  0.475085231467 	  1.990000000000 	  1.514914768533 	
Mg	  1.475085231467 	  1.990000000000 	  4.494914768533 	
Mg	  0.475085231467 	  5.970000000000 	  1.514914768533 	
Mg	  1.475085231467 	  5.970000000000 	  4.494914768533 	
Mg	  4.455085231467 	  1.990000000000 	  1.514914768533 	
Mg	  5.455085231467 	  1.990000000000 	  4.494914768533 	
Mg	  4.455085231467 	  5.970000000000 	  1.514914768533 	
Mg	  5.455085231467 	  5.970000000000 	  4.494914768533 	
O	  1.990000000000 	  0.000000000000 	  0.000000000000 	
O	  2.990000000000 	  0.000000000000 	  2.980000000000 	
O	  1.990000000000 	  3.980000000000 	  0.000000000000 	
O	  2.990000000000 	  3.980000000000 	  2.980000000000 	
O	  5.970000000000 	  0.000000000000 	  0.000000000000 	
O	  6.970000000000 	  0.000000000000 	  2.980000000000 	
O	  5.970000000000 	  3.980000000000 	  0.000000000000 	
O	  6.970000000000 	  3.980000000000 	  2.980000000000 	
O	  0.000000000000 	  1.990000000000 	  0.000000000000 	
O	  1.000000000000 	  1.990000000000 	  2.980000000000 	
O	  0.000000000000 	  5.970000000000 	  0.000000000000 	
O	  1.000000000000 	  5.970000000000 	  2.980000000000 	
O	  3.980000000000 	  1.990000000000 	  0.000000000000 	
O	  4.980000000000 	  1.990000000000 	  2.980000000000 	
O	  3.980000000000 	  5.970000000000 	  0.000000000000 	
O	  4.980000000000 	  5.970000000000 	  2.980000000000 	
O	  0.475085231467 	  0.000000000000 	  1.514914768533 	
O	  1.475085231467 	  0.000000000000 	  4.494914768533 	
O	  0.475085231467 	  3.980000000000 	  1.514914768533 	
O	  1.475085231467 	  3.980000000000 	  4.494914768533 	
O	  4.455085231467 	  0.000000000000 	  1.514914768533 	
O	  5.455085231467 	  0.000000000000 	  4.494914768533 	
O	  4.455085231467 	  3.980000000000 	  1.514914768533 	
O	  5.455085231467 	  3.980000000000 	  4.494914768533 	
O	  2.845153416640 	  1.365738005853 	  1.514914768533 	
O	  3.845153416640 	  1.365738005853 	  4.494914768533 	
O	  2.845153416640 	  5.345738005853 	  1.514914768533 	
O	  3.845153416640 	  5.345738005853 	  4.494914768533 	
O	  6.825153416640 	  1.365738005853 	  1.514914768533 	
O	  7.825153416640 	  1.365738005853 	  4.494914768533 	
O	  6.825153416640 	  5.345738005853 	  1.514914768533 	
O	  7.825153416640 	  5.345738005853 	  4.494914768533 	
64 
Energy: 2.8429229109019620e+00 
Mg	  0.000000000000 	  0.000000000000 	  0.000000000000 	
Mg	  1.000000000000 	  0.000000000000 	  2.980000000000 	
Mg	  0.000000000000 	  3.980000000000 	  0.000000000000 	
Mg	  1.000000000000 	  3.980000000000 	  2.980000000000 	
Mg	  3.980000000000 	  0.000000000000 	  0.000000000000 	
Mg	  4.980000000000 	  0.000000000000 	  2.980000000000 	
Mg	  3.980000000000 	  3.980000000000 	  0.000000000000 	
Mg	  4.980000000000 	  3.980000000000 	  2.980000000000 	
Mg	  1.731044947599 	  1.820188647546 	  0.000000000000 	
Mg	  2.731044947599 	  1.820188647546 	  2.980000000000 	
Mg	  1.731044947599 	  5.800188647546 	  0.000000000000 	
Mg	  2.731044947599 	  5.800188647546 	  2.980000000000 	
Mg	  5.711044947599 	  1.820188647546 	  0.000000000000 	
Mg	  6.711044947599 	  1.820188647546 	  2.980000000000 	
Mg	  5.711044947599 	  5.800188647546 	  0.000000000000 	
Mg	  6.711044947599 	  5.800188647546 	  2.980000000000 	
Mg	  2.444194547177 	  0.000000000000 	  1.552757547705 	
Mg	  3.444194547177 	  0.000000000000 	  4.532757547705 	
Mg	  2.444194547177 	  3.980000000000 	  1.552757547705 	
Mg	  3.444194547177 	  3.980000000000 	  4.532757547705 	
Mg	  6.424194547177 	  0.000000000000 	  1.552757547705 	
Mg	  7.424194547177 	  0.000000000000 	  4.532757547705 	
Mg	  6.424194547177 	  3.980000000000 	  1.552757547705 	
Mg	  7.424194547177 	  3.980000000000 	  4.532757547705 	
Mg	  0.445718499736 	  1.998476047441 	  1.552757547705 	
Mg	  1.445718499736 	  1.998476047441 	  4.532757547705 	
Mg	  0.445718499736 	  5.978476047441 	  1.552757547705 	
Mg	  1.445718499736 	  5.978476047441 	  4.532757547705 	
Mg	  4.425718499736 	  1.998476047441 	  1.552757547705 	
Mg	  5.425718499736 	  1.998476047441 	  4.532757547705 	
Mg	  4.425718499736 	  5.978476047441 	  1.552757547705 	
Mg	  5.425718499736 	  5.978476047441 	  4.532757547705 	
O	  1.998476047441 	  0.000000000000 	  0.000000000000 	
O	  2.998476047441 	  0.000000000000 	  2.980000000000 	
O	  1.998476047441 	  3.980000000000 	  0.000000000000 	
O	  2.998476047441 	  3.980000000000 	  2.980000000000 	
O	  5.978476047441 	  0.000000000000 	  0.000000000000 	
O	  6.978476047441 	  0.000000000000 	  2.980000000000 	
O	  5.978476047441 	  3.980000000000 	  0.000000000000 	
O	  6.978476047441 	  3.980000000000 	  2.980000000000 	
O	  0.000000000000 	  1.998476047441 	  0.000000000000 	
O	  1.000000000000 	  1.998476047441 	  2.980000000000 	
O	  0.000000000000 	  5.978476047441 	  0.000000000000 	
O	  1.000000000000 	  5.978476047441 	  2.980000000000 	
O	  3.980000000000 	  1.998476047441 	  0.000000000000 	
O	  4.980000000000 	  1.998476047441 	  2.980000000000 	
O	  3.980000000000 	  5.978476047441 	  0.000000000000 	
O	  4.980000000000 	  5.978476047441 	  2.980000000000 	
O	  0.445718499736 	  0.000000000000 	  1.552757547705 	
O	  1.445718499736 	  0.000000000000 	  4.532757547705 	
O	  0.445718499736 	  3.980000000000 	  1.552757547705 	
O	  1.445718499736 	  3.980000000000 	  4.532757547705 	
O	  4.425718499736 	  0.000000000000 	  1.552757547705 	
O	  5.425718499736 	  0.000000000000 	  4.532757547705 	
O	  4.425718499736 	  3.980000000000 	  1.552757547705 	
O	  5.425718499736 	  3.980000000000 	  4.532757547705 	
O	  2.800769346967 	  1.412801938787 	  1.552757547705 	
O	  3.800769346967 	  1.412801938787 	  4.532757547705 	
O	  2.800769346967 	  5.392801938787 	  1.552757547705 	
O	  3.800769346967 	  5.392801938787 	  4.532757547705 	
O	  6.780769346967 	  1.412801938787 	  1.552757547705 	
O	  7.780769346967 	  1.412801938787 	  4.532757547705 	
O	  6.780769346967 	  5.392801938787 	  1.552757547705 	
O	  7.780769346967 	  5.392801938787 	  4.532757547705 	
64 
Energy: 3.2426179531714858e+00 
Mg	  0.000000000000 	  0.000000000000 	  0.000000000000 	
Mg	  1.000000000000 	  0.000000000000 	  2.980000000000 	
Mg	  0.000000000000 	  3.980000000000 	  0.000000000000 	
Mg	  1.000000000000 	  3.980000000000 	  2.980000000000 	
Mg	  3.980000000000 	  0.000000000000 	  0.000000000000 	
Mg	  4.980000000000 	  0.000000000000 	  2.980000000000 	
Mg	  3.980000000000 	  3.980000000000 	  0.000000000000 	
Mg	  4.980000000000 	  3.980000000000 	  2.980000000000 	
Mg	  1.757264554993 	  1.840472479244 	  0.000000000000 	
Mg	  2.757264554993 	  1.840472479244 	  2.980000000000 	
Mg	  1.757264554993 	  5.820472479244 	  0.000000000000 	
Mg	  2.757264554993 	  5.820472479244 	  2.980000000000 	
Mg	  5.737264554993 	  1.840472479244 	  0.000000000000 	
Mg	  6.737264554993 	  1.840472479244 	  2.980000000000 	
Mg	  5.737264554993 	  5.820472479244 	  0.000000000000 	
Mg	  6.737264554993 	  5.820472479244 	  2.980000000000 	
Mg	  2.422927949001 	  0.000000000000 	  1.590848706491 	
Mg	  3.422927949001 	  0.000000000000 	  4.570848706491 	
Mg	  2.422927949001 	  3.980000000000 	  1.590848706491 	
Mg	  3.422927949001 	  3.980000000000 	  4.570848706491 	
Mg	  6.402927949001 	  0.000000000000 	  1.590848706491 	
Mg	  7.402927949001 	  0.000000000000 	  4.570848706491 	
Mg	  6.402927949001 	  3.980000000000 	  1.590848706491 	
Mg	  7.402927949001 	  3.980000000000 	  4.570848706491 	
Mg	  0.416039621255 	  2.006888327746 	  1.590848706491 	
Mg	  1.416039621255 	  2.006888327746 	  4.570848706491 	
Mg	  0.416039621255 	  5.986888327746 	  1.590848706491 	
Mg	  1.416039621255 	  5.986888327746 	  4.570848706491 	
Mg	  4.396039621255 	  2.006888327746 	  1.590848706491 	
Mg	  5.396039621255 	  2.006888327746 	  4.570848706491 	
Mg	  4.396039621255 	  5.986888327746 	  1.590848706491 	
Mg	  5.396039621255 	  5.986888327746 	  4.570848706491 	
O	  2.006888327746 	  0.000000000000 	  0.000000000000 	
O	  3.006888327746 	  0.000000000000 	  2.980000000000 	
O	  2.006888327746 	  3.980000000000 	  0.000000000000 	
O	  3.006888327746 	  3.980000000000 	  2.980000000000 	
O	  5.986888327746 	  0.000000000000 	  0.000000000000 	
O	  6.986888327746 	  0.000000000000 	  2.980000000000 	
O	  5.986888327746 	  3.980000000000 	  0.000000000000 	
O	  6.986888327746 	  3.980000000000 	  2.980000000000 	
O	  0.000000000000 	  2.006888327746 	  0.000000000000 	
O	  1.000000000000 	  2.006888327746 	  2.980000000000 	
O	  0.000000000000 	  5.986888327746 	  0.000000000000 	
O	  1.000000000000 	  5.986888327746 	  2.980000000000 	
O	  3.980000000000 	  2.006888327746 	  0.000000000000 	
O	  4.980000000000 	  2.006888327746 	  2.980000000000 	
O	  3.980000000000 	  5.986888327746 	  0.000000000000 	
O	  4.980000000000 	  5.986888327746 	  2.980000000000 	
O	  0.416039621255 	  0.000000000000 	  1.590848706491 	
O	  1.416039621255 	  0.000000000000 	  4.570848706491 	
O	  0.416039621255 	  3.980000000000 	  1.590848706491 	
O	  1.416039621255 	  3.980000000000 	  4.570848706491 	
O	  4.396039621255 	  0.000000000000 	  1.590848706491 	
O	  5.396039621255 	  0.000000000000 	  4.570848706491 	
O	  4.396039621255 	  3.980000000000 	  1.590848706491 	
O	  5.396039621255 	  3.980000000000 	  4.570848706491 	
O	  2.755759646005 	  1.460212265417 	  1.590848706491 	
O	  3.755759646005 	  1.460212265417 	  4.570848706491 	
O	  2.755759646005 	  5.440212265417 	  1.590848706491 	
O	  3.755759646005 	  5.440212265417 	  4.570848706491 	
O	  6.735759646005 	  1.460212265417 	  1.590848706491 	
O	  7.735759646005 	  1.460212265417 	  4.570848706491 	
O	  6.735759646005 	  5.440212265417 	  1.590848706491 	
O	  7.735759646005 	  5.440212265417 	  4.570848706491 	
64 
Energy: 3.8575703232605441e+00 
Mg	  0.000000000000 	  0.000000000000 	  0.000000000000 	
Mg	  1.000000000000 	  0.000000000000 	  2.980000000000 	
Mg	  0.000000000000 	  3.980000000000 	  0.000000000000 	
Mg	  1.000000000000 	  3.980000000000 	  2.980000000000 	
Mg	  3.980000000000 	  0.000000000000 	  0.000000000000 	
Mg	  4.980000000000 	  0.000000000000 	  2.980000000000 	
Mg	  3.980000000000 	  3.980000000000 	  0.000000000000 	
Mg	  4.980000000000 	  3.980000000000 	  2.980000000000 	
Mg	  1.783508083985 	  1.860777232667 	  0.000000000000 	
Mg	  2.783508083985 	  1.860777232667 	  2.980000000000 	
Mg	  1.783508083985 	  5.840777232667 	  0.000000000000 	
Mg	  2.783508083985 	  5.840777232667 	  2.980000000000 	
Mg	  5.763508083985 	  1.860777232667 	  0.000000000000 	
Mg	  6.763508083985 	  1.860777232667 	  2.980000000000 	
Mg	  5.763508083985 	  5.840777232667 	  0.000000000000 	
Mg	  6.763508083985 	  5.840777232667 	  2.980000000000 	
Mg	  2.401661273441 	  0.000000000000 	  1.628969786620 	
Mg	  3.401661273441 	  0.000000000000 	  4.608969786620 	
Mg	  2.401661273441 	  3.980000000000 	  1.628969786620 	
Mg	  3.401661273441 	  3.980000000000 	  4.608969786620 	
Mg	  6.381661273441 	  0.000000000000 	  1.628969786620 	
Mg	  7.381661273441 	  0.000000000000 	  4.608969786620 	
Mg	  6.381661273441 	  3.980000000000 	  1.628969786620 	
Mg	  7.381661273441 	  3.980000000000 	  4.608969786620 	
Mg	  0.386345743410 	  2.015315530031 	  1.628969786620 	
Mg	  1.386345743410 	  2.015315530031 	  4.608969786620 	
Mg	  0.386345743410 	  5.995315530031 	  1.628969786620 	
Mg	  1.386345743410 	  5.995315530031 	  4.608969786620 	
Mg	  4.366345743410 	  2.015315530031 	  1.628969786620 	
Mg	  5.366345743410 	  2.015315530031 	  4.608969786620 	
Mg	  4.366345743410 	  5.995315530031 	  1.628969786620 	
Mg	  5.366345743410 	  5.995315530031 	  4.608969786620 	
O	  2.015315530031 	  0.000000000000 	  0.000000000000 	
O	  3.015315530031 	  0.000000000000 	  2.980000000000 	
O	  2.015315530031 	  3.980000000000 	  0.000000000000 	
O	  3.015315530031 	  3.980000000000 	  2.980000000000 	
O	  5.995315530031 	  0.000000000000 	  0.000000000000 	
O	  6.995315530031 	  0.000000000000 	  2.980000000000 	
O	  5.995315530031 	  3.980000000000 	  0.000000000000 	
O	  6.995315530031 	  3.980000000000 	  2.980000000000 	
O	  0.000000000000 	  2.015315530031 	  0.000000000000 	
O	  1.000000000000 	  2.015315530031 	  2.980000000000 	
O	  0.000000000000 	  5.995315530031 	  0.000000000000 	
O	  1.000000000000 	  5.995315530031 	  2.980000000000 	
O	  3.980000000000 	  2.015315530031 	  0.000000000000 	
O	  4.980000000000 	  2.015315530031 	  2.980000000000 	
O	  3.980000000000 	  5.995315530031 	  0.000000000000 	
O	  4.980000000000 	  5.995315530031 	  2.980000000000 	
O	  0.386345743410 	  0.000000000000 	  1.628969786620 	
O	  1.386345743410 	  0.000000000000 	  4.608969786620 	
O	  0.386345743410 	  3.980000000000 	  1.628969786620 	
O	  1.386345743410 	  3.980000000000 	  4.608969786620 	
O	  4.366345743410 	  0.000000000000 	  1.628969786620 	
O	  5.366345743410 	  0.000000000000 	  4.608969786620 	
O	  4.366345743410 	  3.980000000000 	  1.628969786620 	
O	  5.366345743410 	  3.980000000000 	  4.608969786620 	
O	  2.710737868170 	  1.507657223189 	  1.628969786620 	
O	  3.710737868170 	  1.507657223189 	  4.608969786620 	
O	  2.710737868170 	  5.487657223189 	  1.628969786620 	
O	  3.710737868170 	  5.487657223189 	  4.608969786620 	
O	  6.690737868170 	  1.507657223189 	  1.628969786620 	
O	  7.690737868170 	  1.507657223189 	  4.608969786620 	
O	  6.690737868170 	  5.487657223189 	  1.628969786620 	
O	  7.690737868170 	  5.487657223189 	  4.608969786620 	
64 
Energy: 4.5227189417931291e+00 
Mg	  0.000000000000 	  0.000000000000 	  0.000000000000 	
Mg	  1.000000000000 	  0.000000000000 	  2.980000000000 	
Mg	  0.000000000000 	  3.980000000000 	  0.000000000000 	
Mg	  1.000000000000 	  3.980000000000 	  2.980000000000 	
Mg	  3.980000000000 	  0.000000000000 	  0.000000000000 	
Mg	  4.980000000000 	  0.000000000000 	  2.980000000000 	
Mg	  3.980000000000 	  3.980000000000 	  0.000000000000 	
Mg	  4.980000000000 	  3.980000000000 	  2.980000000000 	
Mg	  1.809774899868 	  1.881100080622 	  0.000000000000 	
Mg	  2.809774899868 	  1.881100080622 	  2.980000000000 	
Mg	  1.809774899868 	  5.861100080622 	  0.000000000000 	
Mg	  2.809774899868 	  5.861100080622 	  2.980000000000 	
Mg	  5.789774899868 	  1.881100080622 	  0.000000000000 	
Mg	  6.789774899868 	  1.881100080622 	  2.980000000000 	
Mg	  5.789774899868 	  5.861100080622 	  0.000000000000 	
Mg	  6.789774899868 	  5.861100080622 	  2.980000000000 	
Mg	  2.380376345895 	  0.000000000000 	  1.667124538362 	
Mg	  3.380376345895 	  0.000000000000 	  4.647124538362 	
Mg	  2.380376345895 	  3.980000000000 	  1.667124538362 	
Mg	  3.380376345895 	  3.980000000000 	  4.647124538362 	
Mg	  6.360376345895 	  0.000000000000 	  1.667124538362 	
Mg	  7.360376345895 	  0.000000000000 	  4.647124538362 	
Mg	  6.360376345895 	  3.980000000000 	  1.667124538362 	
Mg	  7.360376345895 	  3.980000000000 	  4.647124538362 	
Mg	  0.356625903767 	  2.023750442128 	  1.667124538362 	
Mg	  1.356625903767 	  2.023750442128 	  4.647124538362 	
Mg	  0.356625903767 	  6.003750442128 	  1.667124538362 	
Mg	  1.356625903767 	  6.003750442128 	  4.647124538362 	
Mg	  4.336625903767 	  2.023750442128 	  1.667124538362 	
Mg	  5.336625903767 	  2.023750442128 	  4.647124538362 	
Mg	  4.336625903767 	  6.003750442128 	  1.667124538362 	
Mg	  5.336625903767 	  6.003750442128 	  4.647124538362 	
O	  2.023750442128 	  0.000000000000 	  0.000000000000 	
O	  3.023750442128 	  0.000000000000 	  2.980000000000 	
O	  2.023750442128 	  3.980000000000 	  0.000000000000 	
O	  3.023750442128 	  3.980000000000 	  2.980000000000 	
O	  6.003750442128 	  0.000000000000 	  0.000000000000 	
O	  7.003750442128 	  0.000000000000 	  2.980000000000 	
O	  6.003750442128 	  3.980000000000 	  0.000000000000 	
O	  7.003750442128 	  3.980000000000 	  2.980000000000 	
O	  0.000000000000 	  2.023750442128 	  0.000000000000 	
O	  1.000000000000 	  2.023750442128 	  2.980000000000 	
O	  0.000000000000 	  6.003750442128 	  0.000000000000 	
O	  1.000000000000 	  6.003750442128 	  2.980000000000 	
O	  3.980000000000 	  2.023750442128 	  0.000000000000 	
O	  4.980000000000 	  2.023750442128 	  2.980000000000 	
O	  3.980000000000 	  6.003750442128 	  0.000000000000 	
O	  4.980000000000 	  6.003750442128 	  2.980000000000 	
O	  0.356625903767 	  0.000000000000 	  1.667124538362 	
O	  1.356625903767 	  0.000000000000 	  4.647124538362 	
O	  0.356625903767 	  3.980000000000 	  1.667124538362 	
O	  1.356625903767 	  3.980000000000 	  4.647124538362 	
O	  4.336625903767 	  0.000000000000 	  1.667124538362 	
O	  5.336625903767 	  0.000000000000 	  4.647124538362 	
O	  4.336625903767 	  3.980000000000 	  1.667124538362 	
O	  5.336625903767 	  3.980000000000 	  4.647124538362 	
O	  2.665677068909 	  1.555144004579 	  1.667124538362 	
O	  3.665677068909 	  1.555144004579 	  4.647124538362 	
O	  2.665677068909 	  5.535144004579 	  1.667124538362 	
O	  3.665677068909 	  5.535144004579 	  4.647124538362 	
O	  6.645677068909 	  1.555144004579 	  1.667124538362 	
O	  7.645677068909 	  1.555144004579 	  4.647124538362 	
O	  6.645677068909 	  5.535144004579 	  1.667124538362 	
O	  7.645677068909 	  5.535144004579 	  4.647124538362 	
64 
Energy: 5.1163883102587580e+00 
Mg	  0.000000000000 	  0.000000000000 	  0.000000000000 	
Mg	  1.000000000000 	  0.000000000000 	  2.980000000000 	
Mg	  0.000000000000 	  3.980000000000 	  0.000000000000 	
Mg	  1.000000000000 	  3.980000000000 	  2.980000000000 	
Mg	  3.980000000000 	  0.000000000000 	  0.000000000000 	
Mg	  4.980000000000 	  0.000000000000 	  2.980000000000 	
Mg	  3.980000000000 	  3.980000000000 	  0.000000000000 	
Mg	  4.980000000000 	  3.980000000000 	  2.980000000000 	
Mg	  1.836056935402 	  1.901435352955 	  0.000000000000 	
Mg	  2.836056935402 	  1.901435352955 	  2.980000000000 	
Mg	  1.836056935402 	  5.881435352955 	  0.000000000000 	
Mg	  2.836056935402 	  5.881435352955 	  2.980000000000 	
Mg	  5.816056935402 	  1.901435352955 	  0.000000000000 	
Mg	  6.816056935402 	  1.901435352955 	  2.980000000000 	
Mg	  5.816056935402 	  5.881435352955 	  0.000000000000 	
Mg	  6.816056935402 	  5.881435352955 	  2.980000000000 	
Mg	  2.359084275828 	  0.000000000000 	  1.705300100296 	
Mg	  3.359084275828 	  0.000000000000 	  4.685300100296 	
Mg	  2.359084275828 	  3.980000000000 	  1.705300100296 	
Mg	  3.359084275828 	  3.980000000000 	  4.685300100296 	
Mg	  6.339084275828 	  0.000000000000 	  1.705300100296 	
Mg	  7.339084275828 	  0.000000000000 	  4.685300100296 	
Mg	  6.339084275828 	  3.980000000000 	  1.705300100296 	
Mg	  7.339084275828 	  3.980000000000 	  4.685300100296 	
Mg	  0.326892087766 	  2.032192188062 	  1.705300100296 	
Mg	  1.326892087766 	  2.032192188062 	  4.685300100296 	
Mg	  0.326892087766 	  6.012192188062 	  1.705300100296 	
Mg	  1.326892087766 	  6.012192188062 	  4.685300100296 	
Mg	  4.306892087766 	  2.032192188062 	  1.705300100296 	
Mg	  5.306892087766 	  2.032192188062 	  4.685300100296 	
Mg	  4.306892087766 	  6.012192188062 	  1.705300100296 	
Mg	  5.306892087766 	  6.012192188062 	  4.685300100296 	
O	  2.032192188062 	  0.000000000000 	  0.000000000000 	
O	  3.032192188062 	  0.000000000000 	  2.980000000000 	
O	  2.032192188062 	  3.980000000000 	  0.000000000000 	
O	  3.032192188062 	  3.980000000000 	  2.980000000000 	
O	  6.012192188062 	  0.000000000000 	  0.000000000000 	
O	  7.012192188062 	  0.000000000000 	  2.980000000000 	
O	  6.012192188062 	  3.980000000000 	  0.000000000000 	
O	  7.012192188062 	  3.980000000000 	  2.980000000000 	
O	  0.000000000000 	  2.032192188062 	  0.000000000000 	
O	  1.000000000000 	  2.032192188062 	  2.980000000000 	
O	  0.000000000000 	  6.012192188062 	  0.000000000000 	
O	  1.000000000000 	  6.012192188062 	  2.980000000000 	
O	  3.980000000000 	  2.032192188062 	  0.000000000000 	
O	  4.980000000000 	  2.032192188062 	  2.980000000000 	
O	  3.980000000000 	  6.012192188062 	  0.000000000000 	
O	  4.980000000000 	  6.012192188062 	  2.980000000000 	
O	  0.326892087766 	  0.000000000000 	  1.705300100296 	
O	  1.326892087766 	  0.000000000000 	  4.685300100296 	
O	  0.326892087766 	  3.980000000000 	  1.705300100296 	
O	  1.326892087766 	  3.980000000000 	  4.685300100296 	
O	  4.306892087766 	  0.000000000000 	  1.705300100296 	
O	  5.306892087766 	  0.000000000000 	  4.685300100296 	
O	  4.306892087766 	  3.980000000000 	  1.705300100296 	
O	  5.306892087766 	  3.980000000000 	  4.685300100296 	
O	  2.620597946041 	  1.602655984737 	  1.705300100296 	
O	  3.620597946041 	  1.602655984737 	  4.685300100296 	
O	  2.620597946041 	  5.582655984737 	  1.705300100296 	
O	  3.620597946041 	  5.582655984737 	  4.685300100296 	
O	  6.600597946041 	  1.602655984737 	  1.705300100296 	
O	  7.600597946041 	  1.602655984737 	  4.685300100296 	
O	  6.600597946041 	  5.582655984737 	  1.705300100296 	
O	  7.600597946041 	  5.582655984737 	  4.685300100296 	
64 
Energy: 5.5497139415139971e+00 
Mg	  0.000000000000 	  0.000000000000 	  0.000000000000 	
Mg	  1.000000000000 	  0.000000000000 	  2.980000000000 	
Mg	  0.000000000000 	  3.980000000000 	  0.000000000000 	
Mg	  1.000000000000 	  3.980000000000 	  2.980000000000 	
Mg	  3.980000000000 	  0.000000000000 	  0.000000000000 	
Mg	  4.980000000000 	  0.000000000000 	  2.980000000000 	
Mg	  3.980000000000 	  3.980000000000 	  0.000000000000 	
Mg	  4.980000000000 	  3.980000000000 	  2.980000000000 	
Mg	  1.862349694142 	  1.921779180818 	  0.000000000000 	
Mg	  2.862349694142 	  1.921779180818 	  2.980000000000 	
Mg	  1.862349694142 	  5.901779180818 	  0.000000000000 	
Mg	  2.862349694142 	  5.901779180818 	  2.980000000000 	
Mg	  5.842349694142 	  1.921779180818 	  0.000000000000 	
Mg	  6.842349694142 	  1.921779180818 	  2.980000000000 	
Mg	  5.842349694142 	  5.901779180818 	  0.000000000000 	
Mg	  6.842349694142 	  5.901779180818 	  2.980000000000 	
Mg	  2.337785587549 	  0.000000000000 	  1.743490720790 	
Mg	  3.337785587549 	  0.000000000000 	  4.723490720790 	
Mg	  2.337785587549 	  3.980000000000 	  1.743490720790 	
Mg	  3.337785587549 	  3.980000000000 	  4.723490720790 	
Mg	  6.317785587549 	  0.000000000000 	  1.743490720790 	
Mg	  7.317785587549 	  0.000000000000 	  4.723490720790 	
Mg	  6.317785587549 	  3.980000000000 	  1.743490720790 	
Mg	  7.317785587549 	  3.980000000000 	  4.723490720790 	
Mg	  0.297147433380 	  2.040638154170 	  1.743490720790 	
Mg	  1.297147433380 	  2.040638154170 	  4.723490720790 	
Mg	  0.297147433380 	  6.020638154170 	  1.743490720790 	
Mg	  1.297147433380 	  6.020638154170 	  4.723490720790 	
Mg	  4.277147433380 	  2.040638154170 	  1.743490720790 	
Mg	  5.277147433380 	  2.040638154170 	  4.723490720790 	
Mg	  4.277147433380 	  6.020638154170 	  1.743490720790 	
Mg	  5.277147433380 	  6.020638154170 	  4.723490720790 	
O	  2.040638154170 	  0.000000000000 	  0.000000000000 	
O	  3.040638154170 	  0.000000000000 	  2.980000000000 	
O	  2.040638154170 	  3.980000000000 	  0.000000000000 	
O	  3.040638154170 	  3.980000000000 	  2.980000000000 	
O	  6.020638154170 	  0.000000000000 	  0.000000000000 	
O	  7.020638154170 	  0.000000000000 	  2.980000000000 	
O	  6.020638154170 	  3.980000000000 	  0.000000000000 	
O	  7.020638154170 	  3.980000000000 	  2.980000000000 	
O	  0.000000000000 	  2.040638154170 	  0.000000000000 	
O	  1.000000000000 	  2.040638154170 	  2.980000000000 	
O	  0.000000000000 	  6.020638154170 	  0.000000000000 	
O	  1.000000000000 	  6.020638154170 	  2.980000000000 	
O	  3.980000000000 	  2.040638154170 	  0.000000000000 	
O	  4.980000000000 	  2.040638154170 	  2.980000000000 	
O	  3.980000000000 	  6.020638154170 	  0.000000000000 	
O	  4.980000000000 	  6.020638154170 	  2.980000000000 	
O	  0.297147433380 	  0.000000000000 	  1.743490720790 	
O	  1.297147433380 	  0.000000000000 	  4.723490720790 	
O	  0.297147433380 	  3.980000000000 	  1.743490720790 	
O	  1.297147433380 	  3.980000000000 	  4.723490720790 	
O	  4.277147433380 	  0.000000000000 	  1.743490720790 	
O	  5.277147433380 	  0.000000000000 	  4.723490720790 	
O	  4.277147433380 	  3.980000000000 	  1.743490720790 	
O	  5.277147433380 	  3.980000000000 	  4.723490720790 	
O	  2.575503534253 	  1.650186426709 	  1.743490720790 	
O	  3.575503534253 	  1.650186426709 	  4.723490720790 	
O	  2.575503534253 	  5.630186426709 	  1.743490720790 	
O	  3.575503534253 	  5.630186426709 	  4.723490720790 	
O	  6.555503534253 	  1.650186426709 	  1.743490720790 	
O	  7.555503534253 	  1.650186426709 	  4.723490720790 	
O	  6.555503534253 	  5.630186426709 	  1.743490720790 	
O	  7.555503534253 	  5.630186426709 	  4.723490720790 	
64 
Energy: 5.7621228587762330e+00 
Mg	  0.000000000000 	  0.000000000000 	  0.000000000000 	
Mg	  1.000000000000 	  0.000000000000 	  2.980000000000 	
Mg	  0.000000000000 	  3.980000000000 	  0.000000000000 	
Mg	  1.000000000000 	  3.980000000000 	  2.980000000000 	
Mg	  3.980000000000 	  0.000000000000 	  0.000000000000 	
Mg	  4.980000000000 	  0.000000000000 	  2.980000000000 	
Mg	  3.980000000000 	  3.980000000000 	  0.000000000000 	
Mg	  4.980000000000 	  3.980000000000 	  2.980000000000 	
Mg	  1.888648088838 	  1.942127582251 	  0.000000000000 	
Mg	  2.888648088838 	  1.942127582251 	  2.980000000000 	
Mg	  1.888648088838 	  5.922127582251 	  0.000000000000 	
Mg	  2.888648088838 	  5.922127582251 	  2.980000000000 	
Mg	  5.868648088838 	  1.942127582251 	  0.000000000000 	
Mg	  6.868648088838 	  1.942127582251 	  2.980000000000 	
Mg	  5.868648088838 	  5.922127582251 	  0.000000000000 	
Mg	  6.868648088838 	  5.922127582251 	  2.980000000000 	
Mg	  2.316484036145 	  0.000000000000 	  1.781689102011 	
Mg	  3.316484036145 	  0.000000000000 	  4.761689102011 	
Mg	  2.316484036145 	  3.980000000000 	  1.781689102011 	
Mg	  3.316484036145 	  3.980000000000 	  4.761689102011 	
Mg	  6.296484036145 	  0.000000000000 	  1.781689102011 	
Mg	  7.296484036145 	  0.000000000000 	  4.761689102011 	
Mg	  6.296484036145 	  3.980000000000 	  1.781689102011 	
Mg	  7.296484036145 	  3.980000000000 	  4.761689102011 	
Mg	  0.267397467067 	  2.049086569078 	  1.781689102011 	
Mg	  1.267397467067 	  2.049086569078 	  4.761689102011 	
Mg	  0.267397467067 	  6.029086569078 	  1.781689102011 	
Mg	  1.267397467067 	  6.029086569078 	  4.761689102011 	
Mg	  4.247397467067 	  2.049086569078 	  1.781689102011 	
Mg	  5.247397467067 	  2.049086569078 	  4.761689102011 	
Mg	  4.247397467067 	  6.029086569078 	  1.781689102011 	
Mg	  5.247397467067 	  6.029086569078 	  4.761689102011 	
O	  2.049086569078 	  0.000000000000 	  0.000000000000 	
O	  3.049086569078 	  0.000000000000 	  2.980000000000 	
O	  2.049086569078 	  3.980000000000 	  0.000000000000 	
O	  3.049086569078 	  3.980000000000 	  2.980000000000 	
O	  6.029086569078 	  0.000000000000 	  0.000000000000 	
O	  7.029086569078 	  0.000000000000 	  2.980000000000 	
O	  6.029086569078 	  3.980000000000 	  0.000000000000 	
O	  7.029086569078 	  3.980000000000 	  2.980000000000 	
O	  0.000000000000 	  2.049086569078 	  0.000000000000 	
O	  1.000000000000 	  2.049086569078 	  2.980000000000 	
O	  0.000000000000 	  6.029086569078 	  0.000000000000 	
O	  1.000000000000 	  6.029086569078 	  2.980000000000 	
O	  3.980000000000 	  2.049086569078 	  0.000000000000 	
O	  4.980000000000 	  2.049086569078 	  2.980000000000 	
O	  3.980000000000 	  6.029086569078 	  0.000000000000 	
O	  4.980000000000 	  6.029086569078 	  2.980000000000 	
O	  0.267397467067 	  0.000000000000 	  1.781689102011 	
O	  1.267397467067 	  0.000000000000 	  4.761689102011 	
O	  0.267397467067 	  3.980000000000 	  1.781689102011 	
O	  1.267397467067 	  3.980000000000 	  4.761689102011 	
O	  4.247397467067 	  0.000000000000 	  1.781689102011 	
O	  5.247397467067 	  0.000000000000 	  4.761689102011 	
O	  4.247397467067 	  3.980000000000 	  1.781689102011 	
O	  5.247397467067 	  3.980000000000 	  4.761689102011 	
O	  2.530402009798 	  1.697726297352 	  1.781689102011 	
O	  3.530402009798 	  1.697726297352 	  4.761689102011 	
O	  2.530402009798 	  5.677726297352 	  1.781689102011 	
O	  3.530402009798 	  5.677726297352 	  4.761689102011 	
O	  6.510402009798 	  1.697726297352 	  1.781689102011 	
O	  7.510402009798 	  1.697726297352 	  4.761689102011 	
O	  6.510402009798 	  5.677726297352 	  1.781689102011 	
O	  7.510402009798 	  5.677726297352 	  4.761689102011 	
64 
Energy: 5.7173566380338272e+00 
Mg	  0.000000000000 	  0.000000000000 	  0.000000000000 	
Mg	  1.000000000000 	  0.000000000000 	  2.980000000000 	
Mg	  0.000000000000 	  3.980000000000 	  0.000000000000 	
Mg	  1.000000000000 	  3.980000000000 	  2.980000000000 	
Mg	  3.980000000000 	  0.000000000000 	  0.000000000000 	
Mg	  4.980000000000 	  0.000000000000 	  2.980000000000 	
Mg	  3.980000000000 	  3.980000000000 	  0.000000000000 	
Mg	  4.980000000000 	  3.980000000000 	  2.980000000000 	
Mg	  1.914947830017 	  1.962477030134 	  0.000000000000 	
Mg	  2.914947830017 	  1.962477030134 	  2.980000000000 	
Mg	  1.914947830017 	  5.942477030134 	  0.000000000000 	
Mg	  2.914947830017 	  5.942477030134 	  2.980000000000 	
Mg	  5.894947830017 	  1.962477030134 	  0.000000000000 	
Mg	  6.894947830017 	  1.962477030134 	  2.980000000000 	
Mg	  5.894947830017 	  5.942477030134 	  0.000000000000 	
Mg	  6.894947830017 	  5.942477030134 	  2.980000000000 	
Mg	  2.295181430954 	  0.000000000000 	  1.819889429783 	
Mg	  3.295181430954 	  0.000000000000 	  4.799889429783 	
Mg	  2.295181430954 	  3.980000000000 	  1.819889429783 	
Mg	  3.295181430954 	  3.980000000000 	  4.799889429783 	
Mg	  6.275181430954 	  0.000000000000 	  1.819889429783 	
Mg	  7.275181430954 	  0.000000000000 	  4.799889429783 	
Mg	  6.275181430954 	  3.980000000000 	  1.819889429783 	
Mg	  7.275181430954 	  3.980000000000 	  4.799889429783 	
Mg	  0.237646000585 	  2.057535430368 	  1.819889429783 	
Mg	  1.237646000585 	  2.057535430368 	  4.799889429783 	
Mg	  0.237646000585 	  6.037535430368 	  1.819889429783 	
Mg	  1.237646000585 	  6.037535430368 	  4.799889429783 	
Mg	  4.217646000585 	  2.057535430368 	  1.819889429783 	
Mg	  5.217646000585 	  2.057535430368 	  4.799889429783 	
Mg	  4.217646000585 	  6.037535430368 	  1.819889429783 	
Mg	  5.217646000585 	  6.037535430368 	  4.799889429783 	
O	  2.057535430368 	  0.000000000000 	  0.000000000000 	
O	  3.057535430368 	  0.000000000000 	  2.980000000000 	
O	  2.057535430368 	  3.980000000000 	  0.000000000000 	
O	  3.057535430368 	  3.980000000000 	  2.980000000000 	
O	  6.037535430368 	  0.000000000000 	  0.000000000000 	
O	  7.037535430368 	  0.000000000000 	  2.980000000000 	
O	  6.037535430368 	  3.980000000000 	  0.000000000000 	
O	  7.037535430368 	  3.980000000000 	  2.980000000000 	
O	  0.000000000000 	  2.057535430368 	  0.000000000000 	
O	  1.000000000000 	  2.057535430368 	  2.980000000000 	
O	  0.000000000000 	  6.037535430368 	  0.000000000000 	
O	  1.000000000000 	  6.037535430368 	  2.980000000000 	
O	  3.980000000000 	  2.057535430368 	  0.000000000000 	
O	  4.980000000000 	  2.057535430368 	  2.980000000000 	
O	  3.980000000000 	  6.037535430368 	  0.000000000000 	
O	  4.980000000000 	  6.037535430368 	  2.980000000000 	
O	  0.237646000585 	  0.000000000000 	  1.819889429783 	
O	  1.237646000585 	  0.000000000000 	  4.799889429783 	
O	  0.237646000585 	  3.980000000000 	  1.819889429783 	
O	  1.237646000585 	  3.980000000000 	  4.799889429783 	
O	  4.217646000585 	  0.000000000000 	  1.819889429783 	
O	  5.217646000585 	  0.000000000000 	  4.799889429783 	
O	  4.217646000585 	  3.980000000000 	  1.819889429783 	
O	  5.217646000585 	  3.980000000000 	  4.799889429783 	
O	  2.485298231422 	  1.745268585599 	  1.819889429783 	
O	  3.485298231422 	  1.745268585599 	  4.799889429783 	
O	  2.485298231422 	  5.725268585599 	  1.819889429783 	
O	  3.485298231422 	  5.725268585599 	  4.799889429783 	
O	  6.465298231422 	  1.745268585599 	  1.819889429783 	
O	  7.465298231422 	  1.745268585599 	  4.799889429783 	
O	  6.465298231422 	  5.725268585599 	  1.819889429783 	
O	  7.465298231422 	  5.725268585599 	  4.799889429783 	
64 
Energy: 5.4024510266709411e+00 
Mg	  0.000000000000 	  0.000000000000 	  0.000000000000 	
Mg	  1.000000000000 	  0.000000000000 	  2.980000000000 	
Mg	  0.000000000000 	  3.980000000000 	  0.000000000000 	
Mg	  1.000000000000 	  3.980000000000 	  2.980000000000 	
Mg	  3.980000000000 	  0.000000000000 	  0.000000000000 	
Mg	  4.980000000000 	  0.000000000000 	  2.980000000000 	
Mg	  3.980000000000 	  3.980000000000 	  0.000000000000 	
Mg	  4.980000000000 	  3.980000000000 	  2.980000000000 	
Mg	  1.941245107803 	  1.982824594399 	  0.000000000000 	
Mg	  2.941245107803 	  1.982824594399 	  2.980000000000 	
Mg	  1.941245107803 	  5.962824594399 	  0.000000000000 	
Mg	  2.941245107803 	  5.962824594399 	  2.980000000000 	
Mg	  5.921245107803 	  1.982824594399 	  0.000000000000 	
Mg	  6.921245107803 	  1.982824594399 	  2.980000000000 	
Mg	  5.921245107803 	  5.962824594399 	  0.000000000000 	
Mg	  6.921245107803 	  5.962824594399 	  2.980000000000 	
Mg	  2.273881000573 	  0.000000000000 	  1.858086134610 	
Mg	  3.273881000573 	  0.000000000000 	  4.838086134610 	
Mg	  2.273881000573 	  3.980000000000 	  1.858086134610 	
Mg	  3.273881000573 	  3.980000000000 	  4.838086134610 	
Mg	  6.253881000573 	  0.000000000000 	  1.858086134610 	
Mg	  7.253881000573 	  0.000000000000 	  4.838086134610 	
Mg	  6.253881000573 	  3.980000000000 	  1.858086134610 	
Mg	  7.253881000573 	  3.980000000000 	  4.838086134610 	
Mg	  0.207897432981 	  2.065983567591 	  1.858086134610 	
Mg	  1.207897432981 	  2.065983567591 	  4.838086134610 	
Mg	  0.207897432981 	  6.045983567591 	  1.858086134610 	
Mg	  1.207897432981 	  6.045983567591 	  4.838086134610 	
Mg	  4.187897432981 	  2.065983567591 	  1.858086134610 	
Mg	  5.187897432981 	  2.065983567591 	  4.838086134610 	
Mg	  4.187897432981 	  6.045983567591 	  1.858086134610 	
Mg	  5.187897432981 	  6.045983567591 	  4.838086134610 	
O	  2.065983567591 	  0.000000000000 	  0.000000000000 	
O	  3.065983567591 	  0.000000000000 	  2.980000000000 	
O	  2.065983567591 	  3.980000000000 	  0.000000000000 	
O	  3.065983567591 	  3.980000000000 	  2.980000000000 	
O	  6.045983567591 	  0.000000000000 	  0.000000000000 	
O	  7.045983567591 	  0.000000000000 	  2.980000000000 	
O	  6.045983567591 	  3.980000000000 	  0.000000000000 	
O	  7.045983567591 	  3.980000000000 	  2.980000000000 	
O	  0.000000000000 	  2.065983567591 	  0.000000000000 	
O	  1.000000000000 	  2.065983567591 	  2.980000000000 	
O	  0.000000000000 	  6.045983567591 	  0.000000000000 	
O	  1.000000000000 	  6.045983567591 	  2.980000000000 	
O	  3.980000000000 	  2.065983567591 	  0.000000000000 	
O	  4.980000000000 	  2.065983567591 	  2.980000000000 	
O	  3.980000000000 	  6.045983567591 	  0.000000000000 	
O	  4.980000000000 	  6.045983567591 	  2.980000000000 	
O	  0.207897432981 	  0.000000000000 	  1.858086134610 	
O	  1.207897432981 	  0.000000000000 	  4.838086134610 	
O	  0.207897432981 	  3.980000000000 	  1.858086134610 	
O	  1.207897432981 	  3.980000000000 	  4.838086134610 	
O	  4.187897432981 	  0.000000000000 	  1.858086134610 	
O	  5.187897432981 	  0.000000000000 	  4.838086134610 	
O	  4.187897432981 	  3.980000000000 	  1.858086134610 	
O	  5.187897432981 	  3.980000000000 	  4.838086134610 	
O	  2.440198946957 	  1.792806340654 	  1.858086134610 	
O	  3.440198946957 	  1.792806340654 	  4.838086134610 	
O	  2.440198946957 	  5.772806340654 	  1.858086134610 	
O	  3.440198946957 	  5.772806340654 	  4.838086134610 	
O	  6.420198946957 	  1.792806340654 	  1.858086134610 	
O	  7.420198946957 	  1.792806340654 	  4.838086134610 	
O	  6.420198946957 	  5.772806340654 	  1.858086134610 	
O	  7.420198946957 	  5.772806340654 	  4.838086134610 	
64 
Energy: 4.8274119112126215e+00 
Mg	  0.000000000000 	  0.000000000000 	  0.000000000000 	
Mg	  1.000000000000 	  0.000000000000 	  2.980000000000 	
Mg	  0.000000000000 	  3.980000000000 	  0.000000000000 	
Mg	  1.000000000000 	  3.980000000000 	  2.980000000000 	
Mg	  3.980000000000 	  0.000000000000 	  0.000000000000 	
Mg	  4.980000000000 	  0.000000000000 	  2.980000000000 	
Mg	  3.980000000000 	  3.980000000000 	  0.000000000000 	
Mg	  4.980000000000 	  3.980000000000 	  2.980000000000 	
Mg	  1.967536401187 	  2.003167515136 	  0.000000000000 	
Mg	  2.967536401187 	  2.003167515136 	  2.980000000000 	
Mg	  1.967536401187 	  5.983167515136 	  0.000000000000 	
Mg	  2.967536401187 	  5.983167515136 	  2.980000000000 	
Mg	  5.947536401187 	  2.003167515136 	  0.000000000000 	
Mg	  6.947536401187 	  2.003167515136 	  2.980000000000 	
Mg	  5.947536401187 	  5.983167515136 	  0.000000000000 	
Mg	  6.947536401187 	  5.983167515136 	  2.980000000000 	
Mg	  2.252585312778 	  0.000000000000 	  1.896274173290 	
Mg	  3.252585312778 	  0.000000000000 	  4.876274173290 	
Mg	  2.252585312778 	  3.980000000000 	  1.896274173290 	
Mg	  3.252585312778 	  3.980000000000 	  4.876274173290 	
Mg	  6.232585312778 	  0.000000000000 	  1.896274173290 	
Mg	  7.232585312778 	  0.000000000000 	  4.876274173290 	
Mg	  6.232585312778 	  3.980000000000 	  1.896274173290 	
Mg	  7.232585312778 	  3.980000000000 	  4.876274173290 	
Mg	  0.178155569744 	  2.074429743034 	  1.896274173290 	
Mg	  1.178155569744 	  2.074429743034 	  4.876274173290 	
Mg	  0.178155569744 	  6.054429743034 	  1.896274173290 	
Mg	  1.178155569744 	  6.054429743034 	  4.876274173290 	
Mg	  4.158155569744 	  2.074429743034 	  1.896274173290 	
Mg	  5.158155569744 	  2.074429743034 	  4.876274173290 	
Mg	  4.158155569744 	  6.054429743034 	  1.896274173290 	
Mg	  5.158155569744 	  6.054429743034 	  4.876274173290 	
O	  2.074429743034 	  0.000000000000 	  0.000000000000 	
O	  3.074429743034 	  0.000000000000 	  2.980000000000 	
O	  2.074429743034 	  3.980000000000 	  0.000000000000 	
O	  3.074429743034 	  3.980000000000 	  2.980000000000 	
O	  6.054429743034 	  0.000000000000 	  0.000000000000 	
O	  7.054429743034 	  0.000000000000 	  2.980000000000 	
O	  6.054429743034 	  3.980000000000 	  0.000000000000 	
O	  7.054429743034 	  3.980000000000 	  2.980000000000 	
O	  0.000000000000 	  2.074429743034 	  0.000000000000 	
O	  1.000000000000 	  2.074429743034 	  2.980000000000 	
O	  0.000000000000 	  6.054429743034 	  0.000000000000 	
O	  1.000000000000 	  6.054429743034 	  2.980000000000 	
O	  3.980000000000 	  2.074429743034 	  0.000000000000 	
O	  4.980000000000 	  2.074429743034 	  2.980000000000 	
O	  3.980000000000 	  6.054429743034 	  0.000000000000 	
O	  4.980000000000 	  6.054429743034 	  2.980000000000 	
O	  0.178155569744 	  0.000000000000 	  1.896274173290 	
O	  1.178155569744 	  0.000000000000 	  4.876274173290 	
O	  0.178155569744 	  3.980000000000 	  1.896274173290 	
O	  1.178155569744 	  3.980000000000 	  4.876274173290 	
O	  4.158155569744 	  0.000000000000 	  1.896274173290 	
O	  5.158155569744 	  0.000000000000 	  4.876274173290 	
O	  4.158155569744 	  3.980000000000 	  1.896274173290 	
O	  5.158155569744 	  3.980000000000 	  4.876274173290 	
O	  2.395109768574 	  1.840333324390 	  1.896274173290 	
O	  3.395109768574 	  1.840333324390 	  4.876274173290 	
O	  2.395109768574 	  5.820333324390 	  1.896274173290 	
O	  3.395109768574 	  5.820333324390 	  4.876274173290 	
O	  6.375109768574 	  1.840333324390 	  1.896274173290 	
O	  7.375109768574 	  1.840333324390 	  4.876274173290 	
O	  6.375109768574 	  5.820333324390 	  1.896274173290 	
O	  7.375109768574 	  5.820333324390 	  4.876274173290 	
64 
Energy: 4.0268741720047885e+00 
Mg	  0.000000000000 	  0.000000000000 	  0.000000000000 	
Mg	  1.000000000000 	  0.000000000000 	  2.980000000000 	
Mg	  0.000000000000 	  3.980000000000 	  0.000000000000 	
Mg	  1.000000000000 	  3.980000000000 	  2.980000000000 	
Mg	  3.980000000000 	  0.000000000000 	  0.000000000000 	
Mg	  4.980000000000 	  0.000000000000 	  2.980000000000 	
Mg	  3.980000000000 	  3.980000000000 	  0.000000000000 	
Mg	  4.980000000000 	  3.980000000000 	  2.980000000000 	
Mg	  1.993818463974 	  2.023503211519 	  0.000000000000 	
Mg	  2.993818463974 	  2.023503211519 	  2.980000000000 	
Mg	  1.993818463974 	  6.003503211519 	  0.000000000000 	
Mg	  2.993818463974 	  6.003503211519 	  2.980000000000 	
Mg	  5.973818463974 	  2.023503211519 	  0.000000000000 	
Mg	  6.973818463974 	  2.023503211519 	  2.980000000000 	
Mg	  5.973818463974 	  6.003503211519 	  0.000000000000 	
Mg	  6.973818463974 	  6.003503211519 	  2.980000000000 	
Mg	  2.231296444329 	  0.000000000000 	  1.934448968886 	
Mg	  3.231296444329 	  0.000000000000 	  4.914448968886 	
Mg	  2.231296444329 	  3.980000000000 	  1.934448968886 	
Mg	  3.231296444329 	  3.980000000000 	  4.914448968886 	
Mg	  6.211296444329 	  0.000000000000 	  1.934448968886 	
Mg	  7.211296444329 	  0.000000000000 	  4.914448968886 	
Mg	  6.211296444329 	  3.980000000000 	  1.934448968886 	
Mg	  7.211296444329 	  3.980000000000 	  4.914448968886 	
Mg	  0.148423737722 	  2.082872706607 	  1.934448968886 	
Mg	  1.148423737722 	  2.082872706607 	  4.914448968886 	
Mg	  0.148423737722 	  6.062872706607 	  1.934448968886 	
Mg	  1.148423737722 	  6.062872706607 	  4.914448968886 	
Mg	  4.128423737722 	  2.082872706607 	  1.934448968886 	
Mg	  5.128423737722 	  2.082872706607 	  4.914448968886 	
Mg	  4.128423737722 	  6.062872706607 	  1.934448968886 	
Mg	  5.128423737722 	  6.062872706607 	  4.914448968886 	
O	  2.082872706607 	  0.000000000000 	  0.000000000000 	
O	  3.082872706607 	  0.000000000000 	  2.980000000000 	
O	  2.082872706607 	  3.980000000000 	  0.000000000000 	
O	  3.082872706607 	  3.980000000000 	  2.980000000000 	
O	  6.062872706607 	  0.000000000000 	  0.000000000000 	
O	  7.062872706607 	  0.000000000000 	  2.980000000000 	
O	  6.062872706607 	  3.980000000000 	  0.000000000000 	
O	  7.062872706607 	  3.980000000000 	  2.980000000000 	
O	  0.000000000000 	  2.082872706607 	  0.000000000000 	
O	  1.000000000000 	  2.082872706607 	  2.980000000000 	
O	  0.000000000000 	  6.062872706607 	  0.000000000000 	
O	  1.000000000000 	  6.062872706607 	  2.980000000000 	
O	  3.980000000000 	  2.082872706607 	  0.000000000000 	
O	  4.980000000000 	  2.082872706607 	  2.980000000000 	
O	  3.980000000000 	  6.062872706607 	  0.000000000000 	
O	  4.980000000000 	  6.062872706607 	  2.980000000000 	
O	  0.148423737722 	  0.000000000000 	  1.934448968886 	
O	  1.148423737722 	  0.000000000000 	  4.914448968886 	
O	  0.148423737722 	  3.980000000000 	  1.934448968886 	
O	  1.148423737722 	  3.980000000000 	  4.914448968886 	
O	  4.128423737722 	  0.000000000000 	  1.934448968886 	
O	  5.128423737722 	  0.000000000000 	  4.914448968886 	
O	  4.128423737722 	  3.980000000000 	  1.934448968886 	
O	  5.128423737722 	  3.980000000000 	  4.914448968886 	
O	  2.350035434507 	  1.887843915241 	  1.934448968886 	
O	  3.350035434507 	  1.887843915241 	  4.914448968886 	
O	  2.350035434507 	  5.867843915241 	  1.934448968886 	
O	  3.350035434507 	  5.867843915241 	  4.914448968886 	
O	  6.330035434507 	  1.887843915241 	  1.934448968886 	
O	  7.330035434507 	  1.887843915241 	  4.914448968886 	
O	  6.330035434507 	  5.867843915241 	  1.934448968886 	
O	  7.330035434507 	  5.867843915241 	  4.914448968886 	
64 
Energy: 3.0628993786044076e+00 
Mg	  0.000000000000 	  0.000000000000 	  0.000000000000 	
Mg	  1.000000000000 	  0.000000000000 	  2.980000000000 	
Mg	  0.000000000000 	  3.980000000000 	  0.000000000000 	
Mg	  1.000000000000 	  3.980000000000 	  2.980000000000 	
Mg	  3.980000000000 	  0.000000000000 	  0.000000000000 	
Mg	  4.980000000000 	  0.000000000000 	  2.980000000000 	
Mg	  3.980000000000 	  3.980000000000 	  0.000000000000 	
Mg	  4.980000000000 	  3.980000000000 	  2.980000000000 	
Mg	  2.020088397161 	  2.043829357626 	  0.000000000000 	
Mg	  3.020088397161 	  2.043829357626 	  2.980000000000 	
Mg	  2.020088397161 	  6.023829357626 	  0.000000000000 	
Mg	  3.020088397161 	  6.023829357626 	  2.980000000000 	
Mg	  6.000088397161 	  2.043829357626 	  0.000000000000 	
Mg	  7.000088397161 	  2.043829357626 	  2.980000000000 	
Mg	  6.000088397161 	  6.023829357626 	  0.000000000000 	
Mg	  7.000088397161 	  6.023829357626 	  2.980000000000 	
Mg	  2.210016080883 	  0.000000000000 	  1.972606476230 	
Mg	  3.210016080883 	  0.000000000000 	  4.952606476230 	
Mg	  2.210016080883 	  3.980000000000 	  1.972606476230 	
Mg	  3.210016080883 	  3.980000000000 	  4.952606476230 	
Mg	  6.190016080883 	  0.000000000000 	  1.972606476230 	
Mg	  7.190016080883 	  0.000000000000 	  4.952606476230 	
Mg	  6.190016080883 	  3.980000000000 	  1.972606476230 	
Mg	  7.190016080883 	  3.980000000000 	  4.952606476230 	
Mg	  0.118704802327 	  2.091311278557 	  1.972606476230 	
Mg	  1.118704802327 	  2.091311278557 	  4.952606476230 	
Mg	  0.118704802327 	  6.071311278557 	  1.972606476230 	
Mg	  1.118704802327 	  6.071311278557 	  4.952606476230 	
Mg	  4.098704802327 	  2.091311278557 	  1.972606476230 	
Mg	  5.098704802327 	  2.091311278557 	  4.952606476230 	
Mg	  4.098704802327 	  6.071311278557 	  1.972606476230 	
Mg	  5.098704802327 	  6.071311278557 	  4.952606476230 	
O	  2.091311278557 	  0.000000000000 	  0.000000000000 	
O	  3.091311278557 	  0.000000000000 	  2.980000000000 	
O	  2.091311278557 	  3.980000000000 	  0.000000000000 	
O	  3.091311278557 	  3.980000000000 	  2.980000000000 	
O	  6.071311278557 	  0.000000000000 	  0.000000000000 	
O	  7.071311278557 	  0.000000000000 	  2.980000000000 	
O	  6.071311278557 	  3.980000000000 	  0.000000000000 	
O	  7.071311278557 	  3.980000000000 	  2.980000000000 	
O	  0.000000000000 	  2.091311278557 	  0.000000000000 	
O	  1.000000000000 	  2.091311278557 	  2.980000000000 	
O	  0.000000000000 	  6.071311278557 	  0.000000000000 	
O	  1.000000000000 	  6.071311278557 	  2.980000000000 	
O	  3.980000000000 	  2.091311278557 	  0.000000000000 	
O	  4.980000000000 	  2.091311278557 	  2.980000000000 	
O	  3.980000000000 	  6.071311278557 	  0.000000000000 	
O	  4.980000000000 	  6.071311278557 	  2.980000000000 	
O	  0.118704802327 	  0.000000000000 	  1.972606476230 	
O	  1.118704802327 	  0.000000000000 	  4.952606476230 	
O	  0.118704802327 	  3.980000000000 	  1.972606476230 	
O	  1.118704802327 	  3.980000000000 	  4.952606476230 	
O	  4.098704802327 	  0.000000000000 	  1.972606476230 	
O	  5.098704802327 	  0.000000000000 	  4.952606476230 	
O	  4.098704802327 	  3.980000000000 	  1.972606476230 	
O	  5.098704802327 	  3.980000000000 	  4.952606476230 	
O	  2.304979922745 	  1.935333168300 	  1.972606476230 	
O	  3.304979922745 	  1.935333168300 	  4.952606476230 	
O	  2.304979922745 	  5.915333168300 	  1.972606476230 	
O	  3.304979922745 	  5.915333168300 	  4.952606476230 	
O	  6.284979922745 	  1.935333168300 	  1.972606476230 	
O	  7.284979922745 	  1.935333168300 	  4.952606476230 	
O	  6.284979922745 	  5.915333168300 	  1.972606476230 	
O	  7.284979922745 	  5.915333168300 	  4.952606476230 	
64 
Energy: 2.0286855547573874e+00 
Mg	  0.000000000000 	  0.000000000000 	  0.000000000000 	
Mg	  1.000000000000 	  0.000000000000 	  2.980000000000 	
Mg	  0.000000000000 	  3.980000000000 	  0.000000000000 	
Mg	  1.000000000000 	  3.980000000000 	  2.980000000000 	
Mg	  3.980000000000 	  0.000000000000 	  0.000000000000 	
Mg	  4.980000000000 	  0.000000000000 	  2.980000000000 	
Mg	  3.980000000000 	  3.980000000000 	  0.000000000000 	
Mg	  4.980000000000 	  3.980000000000 	  2.980000000000 	
Mg	  2.046343616136 	  2.064143857740 	  0.000000000000 	
Mg	  3.046343616136 	  2.064143857740 	  2.980000000000 	
Mg	  2.046343616136 	  6.044143857740 	  0.000000000000 	
Mg	  3.046343616136 	  6.044143857740 	  2.980000000000 	
Mg	  6.026343616136 	  2.064143857740 	  0.000000000000 	
Mg	  7.026343616136 	  2.064143857740 	  2.980000000000 	
Mg	  6.026343616136 	  6.044143857740 	  0.000000000000 	
Mg	  7.026343616136 	  6.044143857740 	  2.980000000000 	
Mg	  2.188745548965 	  0.000000000000 	  2.010743132929 	
Mg	  3.188745548965 	  0.000000000000 	  4.990743132929 	
Mg	  2.188745548965 	  3.980000000000 	  2.010743132929 	
Mg	  3.188745548965 	  3.980000000000 	  4.990743132929 	
Mg	  6.168745548965 	  0.000000000000 	  2.010743132929 	
Mg	  7.168745548965 	  0.000000000000 	  4.990743132929 	
Mg	  6.168745548965 	  3.980000000000 	  2.010743132929 	
Mg	  7.168745548965 	  3.980000000000 	  4.990743132929 	
Mg	  0.089001208018 	  2.099744340947 	  2.010743132929 	
Mg	  1.089001208018 	  2.099744340947 	  4.990743132929 	
Mg	  0.089001208018 	  6.079744340947 	  2.010743132929 	
Mg	  1.089001208018 	  6.079744340947 	  4.990743132929 	
Mg	  4.069001208018 	  2.099744340947 	  2.010743132929 	
Mg	  5.069001208018 	  2.099744340947 	  4.990743132929 	
Mg	  4.069001208018 	  6.079744340947 	  2.010743132929 	
Mg	  5.069001208018 	  6.079744340947 	  4.990743132929 	
O	  2.099744340947 	  0.000000000000 	  0.000000000000 	
O	  3.099744340947 	  0.000000000000 	  2.980000000000 	
O	  2.099744340947 	  3.980000000000 	  0.000000000000 	
O	  3.099744340947 	  3.980000000000 	  2.980000000000 	
O	  6.079744340947 	  0.000000000000 	  0.000000000000 	
O	  7.079744340947 	  0.000000000000 	  2.980000000000 	
O	  6.079744340947 	  3.980000000000 	  0.000000000000 	
O	  7.079744340947 	  3.980000000000 	  2.980000000000 	
O	  0.000000000000 	  2.099744340947 	  0.000000000000 	
O	  1.000000000000 	  2.099744340947 	  2.980000000000 	
O	  0.000000000000 	  6.079744340947 	  0.000000000000 	
O	  1.000000000000 	  6.079744340947 	  2.980000000000 	
O	  3.980000000000 	  2.099744340947 	  0.000000000000 	
O	  4.980000000000 	  2.099744340947 	  2.980000000000 	
O	  3.980000000000 	  6.079744340947 	  0.000000000000 	
O	  4.980000000000 	  6.079744340947 	  2.980000000000 	
O	  0.089001208018 	  0.000000000000 	  2.010743132929 	
O	  1.089001208018 	  0.000000000000 	  4.990743132929 	
O	  0.089001208018 	  3.980000000000 	  2.010743132929 	
O	  1.089001208018 	  3.980000000000 	  4.990743132929 	
O	  4.069001208018 	  0.000000000000 	  2.010743132929 	
O	  5.069001208018 	  0.000000000000 	  4.990743132929 	
O	  4.069001208018 	  3.980000000000 	  2.010743132929 	
O	  5.069001208018 	  3.980000000000 	  4.990743132929 	
O	  2.259946515380 	  1.982796753612 	  2.010743132929 	
O	  3.259946515380 	  1.982796753612 	  4.990743132929 	
O	  2.259946515380 	  5.962796753612 	  2.010743132929 	
O	  3.259946515380 	  5.962796753612 	  4.990743132929 	
O	  6.239946515380 	  1.982796753612 	  2.010743132929 	
O	  7.239946515380 	  1.982796753612 	  4.990743132929 	
O	  6.239946515380 	  5.962796753612 	  2.010743132929 	
O	  7.239946515380 	  5.962796753612 	  4.990743132929 	
64 
Energy: 1.0530217513066469e+00 
Mg	  0.000000000000 	  0.000000000000 	  0.000000000000 	
Mg	  1.000000000000 	  0.000000000000 	  2.980000000000 	
Mg	  0.000000000000 	  3.980000000000 	  0.000000000000 	
Mg	  1.000000000000 	  3.980000000000 	  2.980000000000 	
Mg	  3.980000000000 	  0.000000000000 	  0.000000000000 	
Mg	  4.980000000000 	  0.000000000000 	  2.980000000000 	
Mg	  3.980000000000 	  3.980000000000 	  0.000000000000 	
Mg	  4.980000000000 	  3.980000000000 	  2.980000000000 	
Mg	  2.072581852236 	  2.084444843103 	  0.000000000000 	
Mg	  3.072581852236 	  2.084444843103 	  2.980000000000 	
Mg	  2.072581852236 	  6.064444843103 	  0.000000000000 	
Mg	  3.072581852236 	  6.064444843103 	  2.980000000000 	
Mg	  6.052581852236 	  2.084444843103 	  0.000000000000 	
Mg	  7.052581852236 	  2.084444843103 	  2.980000000000 	
Mg	  6.052581852236 	  6.064444843103 	  0.000000000000 	
Mg	  7.052581852236 	  6.064444843103 	  2.980000000000 	
Mg	  2.167485779175 	  0.000000000000 	  2.048855870501 	
Mg	  3.167485779175 	  0.000000000000 	  5.028855870501 	
Mg	  2.167485779175 	  3.980000000000 	  2.048855870501 	
Mg	  3.167485779175 	  3.980000000000 	  5.028855870501 	
Mg	  6.147485779175 	  0.000000000000 	  2.048855870501 	
Mg	  7.147485779175 	  0.000000000000 	  5.028855870501 	
Mg	  6.147485779175 	  3.980000000000 	  2.048855870501 	
Mg	  7.147485779175 	  3.980000000000 	  5.028855870501 	
Mg	  0.059314954337 	  2.108170824838 	  2.048855870501 	
Mg	  1.059314954337 	  2.108170824838 	  5.028855870501 	
Mg	  0.059314954337 	  6.088170824838 	  2.048855870501 	
Mg	  1.059314954337 	  6.088170824838 	  5.028855870501 	
Mg	  4.039314954337 	  2.108170824838 	  2.048855870501 	
Mg	  5.039314954337 	  2.108170824838 	  5.028855870501 	
Mg	  4.039314954337 	  6.088170824838 	  2.048855870501 	
Mg	  5.039314954337 	  6.088170824838 	  5.028855870501 	
O	  2.108170824838 	  0.000000000000 	  0.000000000000 	
O	  3.108170824838 	  0.000000000000 	  2.980000000000 	
O	  2.108170824838 	  3.980000000000 	  0.000000000000 	
O	  3.108170824838 	  3.980000000000 	  2.980000000000 	
O	  6.088170824838 	  0.000000000000 	  0.000000000000 	
O	  7.088170824838 	  0.000000000000 	  2.980000000000 	
O	  6.088170824838 	  3.980000000000 	  0.000000000000 	
O	  7.088170824838 	  3.980000000000 	  2.980000000000 	
O	  0.000000000000 	  2.108170824838 	  0.000000000000 	
O	  1.000000000000 	  2.108170824838 	  2.980000000000 	
O	  0.000000000000 	  6.088170824838 	  0.000000000000 	
O	  1.000000000000 	  6.088170824838 	  2.980000000000 	
O	  3.980000000000 	  2.108170824838 	  0.000000000000 	
O	  4.980000000000 	  2.108170824838 	  2.980000000000 	
O	  3.980000000000 	  6.088170824838 	  0.000000000000 	
O	  4.980000000000 	  6.088170824838 	  2.980000000000 	
O	  0.059314954337 	  0.000000000000 	  2.048855870501 	
O	  1.059314954337 	  0.000000000000 	  5.028855870501 	
O	  0.059314954337 	  3.980000000000 	  2.048855870501 	
O	  1.059314954337 	  3.980000000000 	  5.028855870501 	
O	  4.039314954337 	  0.000000000000 	  2.048855870501 	
O	  5.039314954337 	  0.000000000000 	  5.028855870501 	
O	  4.039314954337 	  3.980000000000 	  2.048855870501 	
O	  5.039314954337 	  3.980000000000 	  5.028855870501 	
O	  2.214937742645 	  2.030230974839 	  2.048855870501 	
O	  3.214937742645 	  2.030230974839 	  5.028855870501 	
O	  2.214937742645 	  6.010230974839 	  2.048855870501 	
O	  3.214937742645 	  6.010230974839 	  5.028855870501 	
O	  6.194937742645 	  2.030230974839 	  2.048855870501 	
O	  7.194937742645 	  2.030230974839 	  5.028855870501 	
O	  6.194937742645 	  6.010230974839 	  2.048855870501 	
O	  7.194937742645 	  6.010230974839 	  5.028855870501 	
64 
Energy: 3.0520220612049609e-01 
Mg	  0.000000000000 	  0.000000000000 	  0.000000000000 	
Mg	  1.000000000000 	  0.000000000000 	  2.980000000000 	
Mg	  0.000000000000 	  3.980000000000 	  0.000000000000 	
Mg	  1.000000000000 	  3.980000000000 	  2.980000000000 	
Mg	  3.980000000000 	  0.000000000000 	  0.000000000000 	
Mg	  4.980000000000 	  0.000000000000 	  2.980000000000 	
Mg	  3.980000000000 	  3.980000000000 	  0.000000000000 	
Mg	  4.980000000000 	  3.980000000000 	  2.980000000000 	
Mg	  2.098801171474 	  2.104730682696 	  0.000000000000 	
Mg	  3.098801171474 	  2.104730682696 	  2.980000000000 	
Mg	  2.098801171474 	  6.084730682696 	  0.000000000000 	
Mg	  3.098801171474 	  6.084730682696 	  2.980000000000 	
Mg	  6.078801171474 	  2.104730682696 	  0.000000000000 	
Mg	  7.078801171474 	  2.104730682696 	  2.980000000000 	
Mg	  6.078801171474 	  6.084730682696 	  0.000000000000 	
Mg	  7.078801171474 	  6.084730682696 	  2.980000000000 	
Mg	  2.146237261249 	  0.000000000000 	  2.086942149030 	
Mg	  3.146237261249 	  0.000000000000 	  5.066942149030 	
Mg	  2.146237261249 	  3.980000000000 	  2.086942149030 	
Mg	  3.146237261249 	  3.980000000000 	  5.066942149030 	
Mg	  6.126237261249 	  0.000000000000 	  2.086942149030 	
Mg	  7.126237261249 	  0.000000000000 	  5.066942149030 	
Mg	  6.126237261249 	  3.980000000000 	  2.086942149030 	
Mg	  7.126237261249 	  3.980000000000 	  5.066942149030 	
Mg	  0.029647556110 	  2.116589705139 	  2.086942149030 	
Mg	  1.029647556110 	  2.116589705139 	  5.066942149030 	
Mg	  0.029647556110 	  6.096589705139 	  2.086942149030 	
Mg	  1.029647556110 	  6.096589705139 	  5.066942149030 	
Mg	  4.009647556110 	  2.116589705139 	  2.086942149030 	
Mg	  5.009647556110 	  2.116589705139 	  5.066942149030 	
Mg	  4.009647556110 	  6.096589705139 	  2.086942149030 	
Mg	  5.009647556110 	  6.096589705139 	  5.066942149030 	
O	  2.116589705139 	  0.000000000000 	  0.000000000000 	
O	  3.116589705139 	  0.000000000000 	  2.980000000000 	
O	  2.116589705139 	  3.980000000000 	  0.000000000000 	
O	  3.116589705139 	  3.980000000000 	  2.980000000000 	
O	  6.096589705139 	  0.000000000000 	  0.000000000000 	
O	  7.096589705139 	  0.000000000000 	  2.980000000000 	
O	  6.096589705139 	  3.980000000000 	  0.000000000000 	
O	  7.096589705139 	  3.980000000000 	  2.980000000000 	
O	  0.000000000000 	  2.116589705139 	  0.000000000000 	
O	  1.000000000000 	  2.116589705139 	  2.980000000000 	
O	  0.000000000000 	  6.096589705139 	  0.000000000000 	
O	  1.000000000000 	  6.096589705139 	  2.980000000000 	
O	  3.980000000000 	  2.116589705139 	  0.000000000000 	
O	  4.980000000000 	  2.116589705139 	  2.980000000000 	
O	  3.980000000000 	  6.096589705139 	  0.000000000000 	
O	  4.980000000000 	  6.096589705139 	  2.980000000000 	
O	  0.029647556110 	  0.000000000000 	  2.086942149030 	
O	  1.029647556110 	  0.000000000000 	  5.066942149030 	
O	  0.029647556110 	  3.980000000000 	  2.086942149030 	
O	  1.029647556110 	  3.980000000000 	  5.066942149030 	
O	  4.009647556110 	  0.000000000000 	  2.086942149030 	
O	  5.009647556110 	  0.000000000000 	  5.066942149030 	
O	  4.009647556110 	  3.980000000000 	  2.086942149030 	
O	  5.009647556110 	  3.980000000000 	  5.066942149030 	
O	  2.169955306137 	  2.077632816411 	  2.086942149030 	
O	  3.169955306137 	  2.077632816411 	  5.066942149030 	
O	  2.169955306137 	  6.057632816411 	  2.086942149030 	
O	  3.169955306137 	  6.057632816411 	  5.066942149030 	
O	  6.149955306137 	  2.077632816411 	  2.086942149030 	
O	  7.149955306137 	  2.077632816411 	  5.066942149030 	
O	  6.149955306137 	  6.057632816411 	  2.086942149030 	
O	  7.149955306137 	  6.057632816411 	  5.066942149030 	
64 
Energy: 0.0000000000000000e+00 
Mg	  0.000000000000 	  0.000000000000 	  0.000000000000 	
Mg	  1.000000000000 	  0.000000000000 	  2.980000000000 	
Mg	  0.000000000000 	  3.980000000000 	  0.000000000000 	
Mg	  1.000000000000 	  3.980000000000 	  2.980000000000 	
Mg	  3.980000000000 	  0.000000000000 	  0.000000000000 	
Mg	  4.980000000000 	  0.000000000000 	  2.980000000000 	
Mg	  3.980000000000 	  3.980000000000 	  0.000000000000 	
Mg	  4.980000000000 	  3.980000000000 	  2.980000000000 	
Mg	  2.125000000000 	  2.125000000000 	  0.000000000000 	
Mg	  3.125000000000 	  2.125000000000 	  2.980000000000 	
Mg	  2.125000000000 	  6.105000000000 	  0.000000000000 	
Mg	  3.125000000000 	  6.105000000000 	  2.980000000000 	
Mg	  6.105000000000 	  2.125000000000 	  0.000000000000 	
Mg	  7.105000000000 	  2.125000000000 	  2.980000000000 	
Mg	  6.105000000000 	  6.105000000000 	  0.000000000000 	
Mg	  7.105000000000 	  6.105000000000 	  2.980000000000 	
Mg	  2.125000000000 	  0.000000000000 	  2.125000000000 	
Mg	  3.125000000000 	  0.000000000000 	  5.105000000000 	
Mg	  2.125000000000 	  3.980000000000 	  2.125000000000 	
Mg	  3.125000000000 	  3.980000000000 	  5.105000000000 	
Mg	  6.105000000000 	  0.000000000000 	  2.125000000000 	
Mg	  7.105000000000 	  0.000000000000 	  5.105000000000 	
Mg	  6.105000000000 	  3.980000000000 	  2.125000000000 	
Mg	  7.105000000000 	  3.980000000000 	  5.105000000000 	
Mg	  0.000000000000 	  2.125000000000 	  2.125000000000 	
Mg	  1.000000000000 	  2.125000000000 	  5.105000000000 	
Mg	  0.000000000000 	  6.105000000000 	  2.125000000000 	
Mg	  1.000000000000 	  6.105000000000 	  5.105000000000 	
Mg	  3.980000000000 	  2.125000000000 	  2.125000000000 	
Mg	  4.980000000000 	  2.125000000000 	  5.105000000000 	
Mg	  3.980000000000 	  6.105000000000 	  2.125000000000 	
Mg	  4.980000000000 	  6.105000000000 	  5.105000000000 	
O	  2.125000000000 	  0.000000000000 	  0.000000000000 	
O	  3.125000000000 	  0.000000000000 	  2.980000000000 	
O	  2.125000000000 	  3.980000000000 	  0.000000000000 	
O	  3.125000000000 	  3.980000000000 	  2.980000000000 	
O	  6.105000000000 	  0.000000000000 	  0.000000000000 	
O	  7.105000000000 	  0.000000000000 	  2.980000000000 	
O	  6.105000000000 	  3.980000000000 	  0.000000000000 	
O	  7.105000000000 	  3.980000000000 	  2.980000000000 	
O	  0.000000000000 	  2.125000000000 	  0.000000000000 	
O	  1.000000000000 	  2.125000000000 	  2.980000000000 	
O	  0.000000000000 	  6.105000000000 	  0.000000000000 	
O	  1.000000000000 	  6.105000000000 	  2.980000000000 	
O	  3.980000000000 	  2.125000000000 	  0.000000000000 	
O	  4.980000000000 	  2.125000000000 	  2.980000000000 	
O	  3.980000000000 	  6.105000000000 	  0.000000000000 	
O	  4.980000000000 	  6.105000000000 	  2.980000000000 	
O	  0.000000000000 	  0.000000000000 	  2.125000000000 	
O	  1.000000000000 	  0.000000000000 	  5.105000000000 	
O	  0.000000000000 	  3.980000000000 	  2.125000000000 	
O	  1.000000000000 	  3.980000000000 	  5.105000000000 	
O	  3.980000000000 	  0.000000000000 	  2.125000000000 	
O	  4.980000000000 	  0.000000000000 	  5.105000000000 	
O	  3.980000000000 	  3.980000000000 	  2.125000000000 	
O	  4.980000000000 	  3.980000000000 	  5.105000000000 	
O	  2.125000000000 	  2.125000000000 	  2.125000000000 	
O	  3.125000000000 	  2.125000000000 	  5.105000000000 	
O	  2.125000000000 	  6.105000000000 	  2.125000000000 	
O	  3.125000000000 	  6.105000000000 	  5.105000000000 	
O	  6.105000000000 	  2.125000000000 	  2.125000000000 	
O	  7.105000000000 	  2.125000000000 	  5.105000000000 	
O	  6.105000000000 	  6.105000000000 	  2.125000000000 	
O	  7.105000000000 	  6.105000000000 	  5.105000000000 	
