64 
Energy: 3.0701001561187429e+00 
Mg	  0.000000000000 	  0.000000000000 	  0.000000000000 	
Mg	  1.000000000000 	  0.000000000000 	  2.980000000000 	
Mg	  0.000000000000 	  3.980000000000 	  0.000000000000 	
Mg	  1.000000000000 	  3.980000000000 	  2.980000000000 	
Mg	  3.980000000000 	  0.000000000000 	  0.000000000000 	
Mg	  4.980000000000 	  0.000000000000 	  2.980000000000 	
Mg	  3.980000000000 	  3.980000000000 	  0.000000000000 	
Mg	  4.980000000000 	  3.980000000000 	  2.980000000000 	
Mg	  1.694943648753 	  1.793295765836 	  0.000000000000 	
Mg	  2.694943648753 	  1.793295765836 	  2.980000000000 	
Mg	  1.694943648753 	  5.773295765836 	  0.000000000000 	
Mg	  2.694943648753 	  5.773295765836 	  2.980000000000 	
Mg	  5.674943648753 	  1.793295765836 	  0.000000000000 	
Mg	  6.674943648753 	  1.793295765836 	  2.980000000000 	
Mg	  5.674943648753 	  5.773295765836 	  0.000000000000 	
Mg	  6.674943648753 	  5.773295765836 	  2.980000000000 	
Mg	  2.481760585411 	  0.000000000000 	  1.498239414589 	
Mg	  3.481760585411 	  0.000000000000 	  4.478239414589 	
Mg	  2.481760585411 	  3.980000000000 	  1.498239414589 	
Mg	  3.481760585411 	  3.980000000000 	  4.478239414589 	
Mg	  6.461760585411 	  0.000000000000 	  1.498239414589 	
Mg	  7.461760585411 	  0.000000000000 	  4.478239414589 	
Mg	  6.461760585411 	  3.980000000000 	  1.498239414589 	
Mg	  7.461760585411 	  3.980000000000 	  4.478239414589 	
Mg	  0.491760585411 	  1.990000000000 	  1.498239414589 	
Mg	  1.491760585411 	  1.990000000000 	  4.478239414589 	
Mg	  0.491760585411 	  5.970000000000 	  1.498239414589 	
Mg	  1.491760585411 	  5.970000000000 	  4.478239414589 	
Mg	  4.471760585411 	  1.990000000000 	  1.498239414589 	
Mg	  5.471760585411 	  1.990000000000 	  4.478239414589 	
Mg	  4.471760585411 	  5.970000000000 	  1.498239414589 	
Mg	  5.471760585411 	  5.970000000000 	  4.478239414589 	
O	  1.990000000000 	  0.000000000000 	  0.000000000000 	
O	  2.990000000000 	  0.000000000000 	  2.980000000000 	
O	  1.990000000000 	  3.980000000000 	  0.000000000000 	
O	  2.990000000000 	  3.980000000000 	  2.980000000000 	
O	  5.970000000000 	  0.000000000000 	  0.000000000000 	
O	  6.970000000000 	  0.000000000000 	  2.980000000000 	
O	  5.970000000000 	  3.980000000000 	  0.000000000000 	
O	  6.970000000000 	  3.980000000000 	  2.980000000000 	
O	  0.000000000000 	  1.990000000000 	  0.000000000000 	
O	  1.000000000000 	  1.990000000000 	  2.980000000000 	
O	  0.000000000000 	  5.970000000000 	  0.000000000000 	
O	  1.000000000000 	  5.970000000000 	  2.980000000000 	
O	  3.980000000000 	  1.990000000000 	  0.000000000000 	
O	  4.980000000000 	  1.990000000000 	  2.980000000000 	
O	  3.980000000000 	  5.970000000000 	  0.000000000000 	
O	  4.980000000000 	  5.970000000000 	  2.980000000000 	
O	  0.491760585411 	  0.000000000000 	  1.498239414589 	
O	  1.491760585411 	  0.000000000000 	  4.478239414589 	
O	  0.491760585411 	  3.980000000000 	  1.498239414589 	
O	  1.491760585411 	  3.980000000000 	  4.478239414589 	
O	  4.471760585411 	  0.000000000000 	  1.498239414589 	
O	  5.471760585411 	  0.000000000000 	  4.478239414589 	
O	  4.471760585411 	  3.980000000000 	  1.498239414589 	
O	  5.471760585411 	  3.980000000000 	  4.478239414589 	
O	  2.875169053740 	  1.343826590770 	  1.498239414589 	
O	  3.875169053740 	  1.343826590770 	  4.478239414589 	
O	  2.875169053740 	  5.323826590770 	  1.498239414589 	
O	  3.875169053740 	  5.323826590770 	  4.478239414589 	
O	  6.855169053740 	  1.343826590770 	  1.498239414589 	
O	  7.855169053740 	  1.343826590770 	  4.478239414589 	
O	  6.855169053740 	  5.323826590770 	  1.498239414589 	
O	  7.855169053740 	  5.323826590770 	  4.478239414589 	
64 
Energy: 2.9825301877356307e+00 
Mg	  0.000000000000 	  0.000000000000 	  0.000000000000 	
Mg	  1.000000000000 	  0.000000000000 	  2.980000000000 	
Mg	  0.000000000000 	  3.980000000000 	  0.000000000000 	
Mg	  1.000000000000 	  3.980000000000 	  2.980000000000 	
Mg	  3.980000000000 	  0.000000000000 	  0.000000000000 	
Mg	  4.980000000000 	  0.000000000000 	  2.980000000000 	
Mg	  3.980000000000 	  3.980000000000 	  0.000000000000 	
Mg	  4.980000000000 	  3.980000000000 	  2.980000000000 	
Mg	  1.721773839835 	  1.813997353830 	  0.000000000000 	
Mg	  2.721773839835 	  1.813997353830 	  2.980000000000 	
Mg	  1.721773839835 	  5.793997353830 	  0.000000000000 	
Mg	  2.721773839835 	  5.793997353830 	  2.980000000000 	
Mg	  5.701773839835 	  1.813997353830 	  0.000000000000 	
Mg	  6.701773839835 	  1.813997353830 	  2.980000000000 	
Mg	  5.701773839835 	  5.793997353830 	  0.000000000000 	
Mg	  6.701773839835 	  5.793997353830 	  2.980000000000 	
Mg	  2.459561951793 	  0.000000000000 	  1.537326811845 	
Mg	  3.459561951793 	  0.000000000000 	  4.517326811845 	
Mg	  2.459561951793 	  3.980000000000 	  1.537326811845 	
Mg	  3.459561951793 	  3.980000000000 	  4.517326811845 	
Mg	  6.439561951793 	  0.000000000000 	  1.537326811845 	
Mg	  7.439561951793 	  0.000000000000 	  4.517326811845 	
Mg	  6.439561951793 	  3.980000000000 	  1.537326811845 	
Mg	  7.439561951793 	  3.980000000000 	  4.517326811845 	
Mg	  0.461117569974 	  1.998444381819 	  1.537326811845 	
Mg	  1.461117569974 	  1.998444381819 	  4.517326811845 	
Mg	  0.461117569974 	  5.978444381819 	  1.537326811845 	
Mg	  1.461117569974 	  5.978444381819 	  4.517326811845 	
Mg	  4.441117569974 	  1.998444381819 	  1.537326811845 	
Mg	  5.441117569974 	  1.998444381819 	  4.517326811845 	
Mg	  4.441117569974 	  5.978444381819 	  1.537326811845 	
Mg	  5.441117569974 	  5.978444381819 	  4.517326811845 	
O	  1.998444381819 	  0.000000000000 	  0.000000000000 	
O	  2.998444381819 	  0.000000000000 	  2.980000000000 	
O	  1.998444381819 	  3.980000000000 	  0.000000000000 	
O	  2.998444381819 	  3.980000000000 	  2.980000000000 	
O	  5.978444381819 	  0.000000000000 	  0.000000000000 	
O	  6.978444381819 	  0.000000000000 	  2.980000000000 	
O	  5.978444381819 	  3.980000000000 	  0.000000000000 	
O	  6.978444381819 	  3.980000000000 	  2.980000000000 	
O	  0.000000000000 	  1.998444381819 	  0.000000000000 	
O	  1.000000000000 	  1.998444381819 	  2.980000000000 	
O	  0.000000000000 	  5.978444381819 	  0.000000000000 	
O	  1.000000000000 	  5.978444381819 	  2.980000000000 	
O	  3.980000000000 	  1.998444381819 	  0.000000000000 	
O	  4.980000000000 	  1.998444381819 	  2.980000000000 	
O	  3.980000000000 	  5.978444381819 	  0.000000000000 	
O	  4.980000000000 	  5.978444381819 	  2.980000000000 	
O	  0.461117569974 	  0.000000000000 	  1.537326811845 	
O	  1.461117569974 	  0.000000000000 	  4.517326811845 	
O	  0.461117569974 	  3.980000000000 	  1.537326811845 	
O	  1.461117569974 	  3.980000000000 	  4.517326811845 	
O	  4.441117569974 	  0.000000000000 	  1.537326811845 	
O	  5.441117569974 	  0.000000000000 	  4.517326811845 	
O	  4.441117569974 	  3.980000000000 	  1.537326811845 	
O	  5.441117569974 	  3.980000000000 	  4.517326811845 	
O	  2.828456007773 	  1.392535894873 	  1.537326811845 	
O	  3.828456007773 	  1.392535894873 	  4.517326811845 	
O	  2.828456007773 	  5.372535894873 	  1.537326811845 	
O	  3.828456007773 	  5.372535894873 	  4.517326811845 	
O	  6.808456007773 	  1.392535894873 	  1.537326811845 	
O	  7.808456007773 	  1.392535894873 	  4.517326811845 	
O	  6.808456007773 	  5.372535894873 	  1.537326811845 	
O	  7.808456007773 	  5.372535894873 	  4.517326811845 	
64 
Energy: 3.3252123292314160e+00 
Mg	  0.000000000000 	  0.000000000000 	  0.000000000000 	
Mg	  1.000000000000 	  0.000000000000 	  2.980000000000 	
Mg	  0.000000000000 	  3.980000000000 	  0.000000000000 	
Mg	  1.000000000000 	  3.980000000000 	  2.980000000000 	
Mg	  3.980000000000 	  0.000000000000 	  0.000000000000 	
Mg	  4.980000000000 	  0.000000000000 	  2.980000000000 	
Mg	  3.980000000000 	  3.980000000000 	  0.000000000000 	
Mg	  4.980000000000 	  3.980000000000 	  2.980000000000 	
Mg	  1.748639762634 	  1.834717922223 	  0.000000000000 	
Mg	  2.748639762634 	  1.834717922223 	  2.980000000000 	
Mg	  1.748639762634 	  5.814717922223 	  0.000000000000 	
Mg	  2.748639762634 	  5.814717922223 	  2.980000000000 	
Mg	  5.728639762634 	  1.834717922223 	  0.000000000000 	
Mg	  6.728639762634 	  1.834717922223 	  2.980000000000 	
Mg	  5.728639762634 	  5.814717922223 	  0.000000000000 	
Mg	  6.728639762634 	  5.814717922223 	  2.980000000000 	
Mg	  2.437265039342 	  0.000000000000 	  1.576483443458 	
Mg	  3.437265039342 	  0.000000000000 	  4.556483443458 	
Mg	  2.437265039342 	  3.980000000000 	  1.576483443458 	
Mg	  3.437265039342 	  3.980000000000 	  4.556483443458 	
Mg	  6.417265039342 	  0.000000000000 	  1.576483443458 	
Mg	  7.417265039342 	  0.000000000000 	  4.556483443458 	
Mg	  6.417265039342 	  3.980000000000 	  1.576483443458 	
Mg	  7.417265039342 	  3.980000000000 	  4.556483443458 	
Mg	  0.430390797942 	  2.006874241400 	  1.576483443458 	
Mg	  1.430390797942 	  2.006874241400 	  4.556483443458 	
Mg	  0.430390797942 	  5.986874241400 	  1.576483443458 	
Mg	  1.430390797942 	  5.986874241400 	  4.556483443458 	
Mg	  4.410390797942 	  2.006874241400 	  1.576483443458 	
Mg	  5.410390797942 	  2.006874241400 	  4.556483443458 	
Mg	  4.410390797942 	  5.986874241400 	  1.576483443458 	
Mg	  5.410390797942 	  5.986874241400 	  4.556483443458 	
O	  2.006874241400 	  0.000000000000 	  0.000000000000 	
O	  3.006874241400 	  0.000000000000 	  2.980000000000 	
O	  2.006874241400 	  3.980000000000 	  0.000000000000 	
O	  3.006874241400 	  3.980000000000 	  2.980000000000 	
O	  5.986874241400 	  0.000000000000 	  0.000000000000 	
O	  6.986874241400 	  0.000000000000 	  2.980000000000 	
O	  5.986874241400 	  3.980000000000 	  0.000000000000 	
O	  6.986874241400 	  3.980000000000 	  2.980000000000 	
O	  0.000000000000 	  2.006874241400 	  0.000000000000 	
O	  1.000000000000 	  2.006874241400 	  2.980000000000 	
O	  0.000000000000 	  5.986874241400 	  0.000000000000 	
O	  1.000000000000 	  5.986874241400 	  2.980000000000 	
O	  3.980000000000 	  2.006874241400 	  0.000000000000 	
O	  4.980000000000 	  2.006874241400 	  2.980000000000 	
O	  3.980000000000 	  5.986874241400 	  0.000000000000 	
O	  4.980000000000 	  5.986874241400 	  2.980000000000 	
O	  0.430390797942 	  0.000000000000 	  1.576483443458 	
O	  1.430390797942 	  0.000000000000 	  4.556483443458 	
O	  0.430390797942 	  3.980000000000 	  1.576483443458 	
O	  1.430390797942 	  3.980000000000 	  4.556483443458 	
O	  4.410390797942 	  0.000000000000 	  1.576483443458 	
O	  5.410390797942 	  0.000000000000 	  4.556483443458 	
O	  4.410390797942 	  3.980000000000 	  1.576483443458 	
O	  5.410390797942 	  3.980000000000 	  4.556483443458 	
O	  2.781577677695 	  1.441340732904 	  1.576483443458 	
O	  3.781577677695 	  1.441340732904 	  4.556483443458 	
O	  2.781577677695 	  5.421340732904 	  1.576483443458 	
O	  3.781577677695 	  5.421340732904 	  4.556483443458 	
O	  6.761577677695 	  1.441340732904 	  1.576483443458 	
O	  7.761577677695 	  1.441340732904 	  4.556483443458 	
O	  6.761577677695 	  5.421340732904 	  1.576483443458 	
O	  7.761577677695 	  5.421340732904 	  4.556483443458 	
64 
Energy: 3.9046045046686633e+00 
Mg	  0.000000000000 	  0.000000000000 	  0.000000000000 	
Mg	  1.000000000000 	  0.000000000000 	  2.980000000000 	
Mg	  0.000000000000 	  3.980000000000 	  0.000000000000 	
Mg	  1.000000000000 	  3.980000000000 	  2.980000000000 	
Mg	  3.980000000000 	  0.000000000000 	  0.000000000000 	
Mg	  4.980000000000 	  0.000000000000 	  2.980000000000 	
Mg	  3.980000000000 	  3.980000000000 	  0.000000000000 	
Mg	  4.980000000000 	  3.980000000000 	  2.980000000000 	
Mg	  1.775514707594 	  1.855445910274 	  0.000000000000 	
Mg	  2.775514707594 	  1.855445910274 	  2.980000000000 	
Mg	  1.775514707594 	  5.835445910274 	  0.000000000000 	
Mg	  2.775514707594 	  5.835445910274 	  2.980000000000 	
Mg	  5.755514707594 	  1.855445910274 	  0.000000000000 	
Mg	  6.755514707594 	  1.855445910274 	  2.980000000000 	
Mg	  5.755514707594 	  5.835445910274 	  0.000000000000 	
Mg	  6.755514707594 	  5.835445910274 	  2.980000000000 	
Mg	  2.414964329035 	  0.000000000000 	  1.615652302234 	
Mg	  3.414964329035 	  0.000000000000 	  4.595652302234 	
Mg	  2.414964329035 	  3.980000000000 	  1.615652302234 	
Mg	  3.414964329035 	  3.980000000000 	  4.595652302234 	
Mg	  6.394964329035 	  0.000000000000 	  1.615652302234 	
Mg	  7.394964329035 	  0.000000000000 	  4.595652302234 	
Mg	  6.394964329035 	  3.980000000000 	  1.615652302234 	
Mg	  7.394964329035 	  3.980000000000 	  4.595652302234 	
Mg	  0.399656013401 	  2.015308315634 	  1.615652302234 	
Mg	  1.399656013401 	  2.015308315634 	  4.595652302234 	
Mg	  0.399656013401 	  5.995308315634 	  1.615652302234 	
Mg	  1.399656013401 	  5.995308315634 	  4.595652302234 	
Mg	  4.379656013401 	  2.015308315634 	  1.615652302234 	
Mg	  5.379656013401 	  2.015308315634 	  4.595652302234 	
Mg	  4.379656013401 	  5.995308315634 	  1.615652302234 	
Mg	  5.379656013401 	  5.995308315634 	  4.595652302234 	
O	  2.015308315634 	  0.000000000000 	  0.000000000000 	
O	  3.015308315634 	  0.000000000000 	  2.980000000000 	
O	  2.015308315634 	  3.980000000000 	  0.000000000000 	
O	  3.015308315634 	  3.980000000000 	  2.980000000000 	
O	  5.995308315634 	  0.000000000000 	  0.000000000000 	
O	  6.995308315634 	  0.000000000000 	  2.980000000000 	
O	  5.995308315634 	  3.980000000000 	  0.000000000000 	
O	  6.995308315634 	  3.980000000000 	  2.980000000000 	
O	  0.000000000000 	  2.015308315634 	  0.000000000000 	
O	  1.000000000000 	  2.015308315634 	  2.980000000000 	
O	  0.000000000000 	  5.995308315634 	  0.000000000000 	
O	  1.000000000000 	  5.995308315634 	  2.980000000000 	
O	  3.980000000000 	  2.015308315634 	  0.000000000000 	
O	  4.980000000000 	  2.015308315634 	  2.980000000000 	
O	  3.980000000000 	  5.995308315634 	  0.000000000000 	
O	  4.980000000000 	  5.995308315634 	  2.980000000000 	
O	  0.399656013401 	  0.000000000000 	  1.615652302234 	
O	  1.399656013401 	  0.000000000000 	  4.595652302234 	
O	  0.399656013401 	  3.980000000000 	  1.615652302234 	
O	  1.399656013401 	  3.980000000000 	  4.595652302234 	
O	  4.379656013401 	  0.000000000000 	  1.615652302234 	
O	  5.379656013401 	  0.000000000000 	  4.595652302234 	
O	  4.379656013401 	  3.980000000000 	  1.615652302234 	
O	  5.379656013401 	  3.980000000000 	  4.595652302234 	
O	  2.734689139756 	  1.490160314026 	  1.615652302234 	
O	  3.734689139756 	  1.490160314026 	  4.595652302234 	
O	  2.734689139756 	  5.470160314026 	  1.615652302234 	
O	  3.734689139756 	  5.470160314026 	  4.595652302234 	
O	  6.714689139756 	  1.490160314026 	  1.615652302234 	
O	  7.714689139756 	  1.490160314026 	  4.595652302234 	
O	  6.714689139756 	  5.470160314026 	  1.615652302234 	
O	  7.714689139756 	  5.470160314026 	  4.595652302234 	
64 
Energy: 4.5586911145834170e+00 
Mg	  0.000000000000 	  0.000000000000 	  0.000000000000 	
Mg	  1.000000000000 	  0.000000000000 	  2.980000000000 	
Mg	  0.000000000000 	  3.980000000000 	  0.000000000000 	
Mg	  1.000000000000 	  3.980000000000 	  2.980000000000 	
Mg	  3.980000000000 	  0.000000000000 	  0.000000000000 	
Mg	  4.980000000000 	  0.000000000000 	  2.980000000000 	
Mg	  3.980000000000 	  3.980000000000 	  0.000000000000 	
Mg	  4.980000000000 	  3.980000000000 	  2.980000000000 	
Mg	  1.802397216985 	  1.876179965245 	  0.000000000000 	
Mg	  2.802397216985 	  1.876179965245 	  2.980000000000 	
Mg	  1.802397216985 	  5.856179965245 	  0.000000000000 	
Mg	  2.802397216985 	  5.856179965245 	  2.980000000000 	
Mg	  5.782397216985 	  1.876179965245 	  0.000000000000 	
Mg	  6.782397216985 	  1.876179965245 	  2.980000000000 	
Mg	  5.782397216985 	  5.856179965245 	  0.000000000000 	
Mg	  6.782397216985 	  5.856179965245 	  2.980000000000 	
Mg	  2.392659203066 	  0.000000000000 	  1.654831720465 	
Mg	  3.392659203066 	  0.000000000000 	  4.634831720465 	
Mg	  2.392659203066 	  3.980000000000 	  1.654831720465 	
Mg	  3.392659203066 	  3.980000000000 	  4.634831720465 	
Mg	  6.372659203066 	  0.000000000000 	  1.654831720465 	
Mg	  7.372659203066 	  0.000000000000 	  4.634831720465 	
Mg	  6.372659203066 	  3.980000000000 	  1.654831720465 	
Mg	  7.372659203066 	  3.980000000000 	  4.634831720465 	
Mg	  0.368913741300 	  2.023745461766 	  1.654831720465 	
Mg	  1.368913741300 	  2.023745461766 	  4.634831720465 	
Mg	  0.368913741300 	  6.003745461766 	  1.654831720465 	
Mg	  1.368913741300 	  6.003745461766 	  4.634831720465 	
Mg	  4.348913741300 	  2.023745461766 	  1.654831720465 	
Mg	  5.348913741300 	  2.023745461766 	  4.634831720465 	
Mg	  4.348913741300 	  6.003745461766 	  1.654831720465 	
Mg	  5.348913741300 	  6.003745461766 	  4.634831720465 	
O	  2.023745461766 	  0.000000000000 	  0.000000000000 	
O	  3.023745461766 	  0.000000000000 	  2.980000000000 	
O	  2.023745461766 	  3.980000000000 	  0.000000000000 	
O	  3.023745461766 	  3.980000000000 	  2.980000000000 	
O	  6.003745461766 	  0.000000000000 	  0.000000000000 	
O	  7.003745461766 	  0.000000000000 	  2.980000000000 	
O	  6.003745461766 	  3.980000000000 	  0.000000000000 	
O	  7.003745461766 	  3.980000000000 	  2.980000000000 	
O	  0.000000000000 	  2.023745461766 	  0.000000000000 	
O	  1.000000000000 	  2.023745461766 	  2.980000000000 	
O	  0.000000000000 	  6.003745461766 	  0.000000000000 	
O	  1.000000000000 	  6.003745461766 	  2.980000000000 	
O	  3.980000000000 	  2.023745461766 	  0.000000000000 	
O	  4.980000000000 	  2.023745461766 	  2.980000000000 	
O	  3.980000000000 	  6.003745461766 	  0.000000000000 	
O	  4.980000000000 	  6.003745461766 	  2.980000000000 	
O	  0.368913741300 	  0.000000000000 	  1.654831720465 	
O	  1.368913741300 	  0.000000000000 	  4.634831720465 	
O	  0.368913741300 	  3.980000000000 	  1.654831720465 	
O	  1.368913741300 	  3.980000000000 	  4.634831720465 	
O	  4.348913741300 	  0.000000000000 	  1.654831720465 	
O	  5.348913741300 	  0.000000000000 	  4.634831720465 	
O	  4.348913741300 	  3.980000000000 	  1.654831720465 	
O	  5.348913741300 	  3.980000000000 	  4.634831720465 	
O	  2.687790196106 	  1.538992805697 	  1.654831720465 	
O	  3.687790196106 	  1.538992805697 	  4.634831720465 	
O	  2.687790196106 	  5.518992805697 	  1.654831720465 	
O	  3.687790196106 	  5.518992805697 	  4.634831720465 	
O	  6.667790196106 	  1.538992805697 	  1.654831720465 	
O	  7.667790196106 	  1.538992805697 	  4.634831720465 	
O	  6.667790196106 	  5.518992805697 	  1.654831720465 	
O	  7.667790196106 	  5.518992805697 	  4.634831720465 	
64 
Energy: 5.1573789624802577e+00 
Mg	  0.000000000000 	  0.000000000000 	  0.000000000000 	
Mg	  1.000000000000 	  0.000000000000 	  2.980000000000 	
Mg	  0.000000000000 	  3.980000000000 	  0.000000000000 	
Mg	  1.000000000000 	  3.980000000000 	  2.980000000000 	
Mg	  3.980000000000 	  0.000000000000 	  0.000000000000 	
Mg	  4.980000000000 	  0.000000000000 	  2.980000000000 	
Mg	  3.980000000000 	  3.980000000000 	  0.000000000000 	
Mg	  4.980000000000 	  3.980000000000 	  2.980000000000 	
Mg	  1.829285176405 	  1.896918450490 	  0.000000000000 	
Mg	  2.829285176405 	  1.896918450490 	  2.980000000000 	
Mg	  1.829285176405 	  5.876918450490 	  0.000000000000 	
Mg	  2.829285176405 	  5.876918450490 	  2.980000000000 	
Mg	  5.809285176405 	  1.896918450490 	  0.000000000000 	
Mg	  6.809285176405 	  1.896918450490 	  2.980000000000 	
Mg	  5.809285176405 	  5.876918450490 	  0.000000000000 	
Mg	  6.809285176405 	  5.876918450490 	  2.980000000000 	
Mg	  2.370351369081 	  0.000000000000 	  1.694018628236 	
Mg	  3.370351369081 	  0.000000000000 	  4.674018628236 	
Mg	  2.370351369081 	  3.980000000000 	  1.694018628236 	
Mg	  3.370351369081 	  3.980000000000 	  4.674018628236 	
Mg	  6.350351369081 	  0.000000000000 	  1.694018628236 	
Mg	  7.350351369081 	  0.000000000000 	  4.674018628236 	
Mg	  6.350351369081 	  3.980000000000 	  1.694018628236 	
Mg	  7.350351369081 	  3.980000000000 	  4.674018628236 	
Mg	  0.338166370422 	  2.032184998658 	  1.694018628236 	
Mg	  1.338166370422 	  2.032184998658 	  4.674018628236 	
Mg	  0.338166370422 	  6.012184998658 	  1.694018628236 	
Mg	  1.338166370422 	  6.012184998658 	  4.674018628236 	
Mg	  4.318166370422 	  2.032184998658 	  1.694018628236 	
Mg	  5.318166370422 	  2.032184998658 	  4.674018628236 	
Mg	  4.318166370422 	  6.012184998658 	  1.694018628236 	
Mg	  5.318166370422 	  6.012184998658 	  4.674018628236 	
O	  2.032184998658 	  0.000000000000 	  0.000000000000 	
O	  3.032184998658 	  0.000000000000 	  2.980000000000 	
O	  2.032184998658 	  3.980000000000 	  0.000000000000 	
O	  3.032184998658 	  3.980000000000 	  2.980000000000 	
O	  6.012184998658 	  0.000000000000 	  0.000000000000 	
O	  7.012184998658 	  0.000000000000 	  2.980000000000 	
O	  6.012184998658 	  3.980000000000 	  0.000000000000 	
O	  7.012184998658 	  3.980000000000 	  2.980000000000 	
O	  0.000000000000 	  2.032184998658 	  0.000000000000 	
O	  1.000000000000 	  2.032184998658 	  2.980000000000 	
O	  0.000000000000 	  6.012184998658 	  0.000000000000 	
O	  1.000000000000 	  6.012184998658 	  2.980000000000 	
O	  3.980000000000 	  2.032184998658 	  0.000000000000 	
O	  4.980000000000 	  2.032184998658 	  2.980000000000 	
O	  3.980000000000 	  6.012184998658 	  0.000000000000 	
O	  4.980000000000 	  6.012184998658 	  2.980000000000 	
O	  0.338166370422 	  0.000000000000 	  1.694018628236 	
O	  1.338166370422 	  0.000000000000 	  4.674018628236 	
O	  0.338166370422 	  3.980000000000 	  1.694018628236 	
O	  1.338166370422 	  3.980000000000 	  4.674018628236 	
O	  4.318166370422 	  0.000000000000 	  1.694018628236 	
O	  5.318166370422 	  0.000000000000 	  4.674018628236 	
O	  4.318166370422 	  3.980000000000 	  1.694018628236 	
O	  5.318166370422 	  3.980000000000 	  4.674018628236 	
O	  2.640884465418 	  1.587834387924 	  1.694018628236 	
O	  3.640884465418 	  1.587834387924 	  4.674018628236 	
O	  2.640884465418 	  5.567834387924 	  1.694018628236 	
O	  3.640884465418 	  5.567834387924 	  4.674018628236 	
O	  6.620884465418 	  1.587834387924 	  1.694018628236 	
O	  7.620884465418 	  1.587834387924 	  4.674018628236 	
O	  6.620884465418 	  5.567834387924 	  1.694018628236 	
O	  7.620884465418 	  5.567834387924 	  4.674018628236 	
64 
Energy: 5.6008410503920549e+00 
Mg	  0.000000000000 	  0.000000000000 	  0.000000000000 	
Mg	  1.000000000000 	  0.000000000000 	  2.980000000000 	
Mg	  0.000000000000 	  3.980000000000 	  0.000000000000 	
Mg	  1.000000000000 	  3.980000000000 	  2.980000000000 	
Mg	  3.980000000000 	  0.000000000000 	  0.000000000000 	
Mg	  4.980000000000 	  0.000000000000 	  2.980000000000 	
Mg	  3.980000000000 	  3.980000000000 	  0.000000000000 	
Mg	  4.980000000000 	  3.980000000000 	  2.980000000000 	
Mg	  1.856176861561 	  1.917659944863 	  0.000000000000 	
Mg	  2.856176861561 	  1.917659944863 	  2.980000000000 	
Mg	  1.856176861561 	  5.897659944863 	  0.000000000000 	
Mg	  2.856176861561 	  5.897659944863 	  2.980000000000 	
Mg	  5.836176861561 	  1.917659944863 	  0.000000000000 	
Mg	  6.836176861561 	  1.917659944863 	  2.980000000000 	
Mg	  5.836176861561 	  5.897659944863 	  0.000000000000 	
Mg	  6.836176861561 	  5.897659944863 	  2.980000000000 	
Mg	  2.348041527975 	  0.000000000000 	  1.733210694957 	
Mg	  3.348041527975 	  0.000000000000 	  4.713210694957 	
Mg	  2.348041527975 	  3.980000000000 	  1.733210694957 	
Mg	  3.348041527975 	  3.980000000000 	  4.713210694957 	
Mg	  6.328041527975 	  0.000000000000 	  1.733210694957 	
Mg	  7.328041527975 	  0.000000000000 	  4.713210694957 	
Mg	  6.328041527975 	  3.980000000000 	  1.733210694957 	
Mg	  7.328041527975 	  3.980000000000 	  4.713210694957 	
Mg	  0.307415416509 	  2.040626111466 	  1.733210694957 	
Mg	  1.307415416509 	  2.040626111466 	  4.713210694957 	
Mg	  0.307415416509 	  6.020626111466 	  1.733210694957 	
Mg	  1.307415416509 	  6.020626111466 	  4.713210694957 	
Mg	  4.287415416509 	  2.040626111466 	  1.733210694957 	
Mg	  5.287415416509 	  2.040626111466 	  4.713210694957 	
Mg	  4.287415416509 	  6.020626111466 	  1.733210694957 	
Mg	  5.287415416509 	  6.020626111466 	  4.713210694957 	
O	  2.040626111466 	  0.000000000000 	  0.000000000000 	
O	  3.040626111466 	  0.000000000000 	  2.980000000000 	
O	  2.040626111466 	  3.980000000000 	  0.000000000000 	
O	  3.040626111466 	  3.980000000000 	  2.980000000000 	
O	  6.020626111466 	  0.000000000000 	  0.000000000000 	
O	  7.020626111466 	  0.000000000000 	  2.980000000000 	
O	  6.020626111466 	  3.980000000000 	  0.000000000000 	
O	  7.020626111466 	  3.980000000000 	  2.980000000000 	
O	  0.000000000000 	  2.040626111466 	  0.000000000000 	
O	  1.000000000000 	  2.040626111466 	  2.980000000000 	
O	  0.000000000000 	  6.020626111466 	  0.000000000000 	
O	  1.000000000000 	  6.020626111466 	  2.980000000000 	
O	  3.980000000000 	  2.040626111466 	  0.000000000000 	
O	  4.980000000000 	  2.040626111466 	  2.980000000000 	
O	  3.980000000000 	  6.020626111466 	  0.000000000000 	
O	  4.980000000000 	  6.020626111466 	  2.980000000000 	
O	  0.307415416509 	  0.000000000000 	  1.733210694957 	
O	  1.307415416509 	  0.000000000000 	  4.713210694957 	
O	  0.307415416509 	  3.980000000000 	  1.733210694957 	
O	  1.307415416509 	  3.980000000000 	  4.713210694957 	
O	  4.287415416509 	  0.000000000000 	  1.733210694957 	
O	  5.287415416509 	  0.000000000000 	  4.713210694957 	
O	  4.287415416509 	  3.980000000000 	  1.733210694957 	
O	  5.287415416509 	  3.980000000000 	  4.713210694957 	
O	  2.593973861182 	  1.636682254174 	  1.733210694957 	
O	  3.593973861182 	  1.636682254174 	  4.713210694957 	
O	  2.593973861182 	  5.616682254174 	  1.733210694957 	
O	  3.593973861182 	  5.616682254174 	  4.713210694957 	
O	  6.573973861182 	  1.636682254174 	  1.733210694957 	
O	  7.573973861182 	  1.636682254174 	  4.713210694957 	
O	  6.573973861182 	  5.616682254174 	  1.733210694957 	
O	  7.573973861182 	  5.616682254174 	  4.713210694957 	
64 
Energy: 5.8183896531625230e+00 
Mg	  0.000000000000 	  0.000000000000 	  0.000000000000 	
Mg	  1.000000000000 	  0.000000000000 	  2.980000000000 	
Mg	  0.000000000000 	  3.980000000000 	  0.000000000000 	
Mg	  1.000000000000 	  3.980000000000 	  2.980000000000 	
Mg	  3.980000000000 	  0.000000000000 	  0.000000000000 	
Mg	  4.980000000000 	  0.000000000000 	  2.980000000000 	
Mg	  3.980000000000 	  3.980000000000 	  0.000000000000 	
Mg	  4.980000000000 	  3.980000000000 	  2.980000000000 	
Mg	  1.883070572416 	  1.938403085026 	  0.000000000000 	
Mg	  2.883070572416 	  1.938403085026 	  2.980000000000 	
Mg	  1.883070572416 	  5.918403085026 	  0.000000000000 	
Mg	  2.883070572416 	  5.918403085026 	  2.980000000000 	
Mg	  5.863070572416 	  1.938403085026 	  0.000000000000 	
Mg	  6.863070572416 	  1.938403085026 	  2.980000000000 	
Mg	  5.863070572416 	  5.918403085026 	  0.000000000000 	
Mg	  6.863070572416 	  5.918403085026 	  2.980000000000 	
Mg	  2.325730673303 	  0.000000000000 	  1.772405547194 	
Mg	  3.325730673303 	  0.000000000000 	  4.752405547194 	
Mg	  2.325730673303 	  3.980000000000 	  1.772405547194 	
Mg	  3.325730673303 	  3.980000000000 	  4.752405547194 	
Mg	  6.305730673303 	  0.000000000000 	  1.772405547194 	
Mg	  7.305730673303 	  0.000000000000 	  4.752405547194 	
Mg	  6.305730673303 	  3.980000000000 	  1.772405547194 	
Mg	  7.305730673303 	  3.980000000000 	  4.752405547194 	
Mg	  0.276662563055 	  2.049068110248 	  1.772405547194 	
Mg	  1.276662563055 	  2.049068110248 	  4.752405547194 	
Mg	  0.276662563055 	  6.029068110248 	  1.772405547194 	
Mg	  1.276662563055 	  6.029068110248 	  4.752405547194 	
Mg	  4.256662563055 	  2.049068110248 	  1.772405547194 	
Mg	  5.256662563055 	  2.049068110248 	  4.752405547194 	
Mg	  4.256662563055 	  6.029068110248 	  1.772405547194 	
Mg	  5.256662563055 	  6.029068110248 	  4.752405547194 	
O	  2.049068110248 	  0.000000000000 	  0.000000000000 	
O	  3.049068110248 	  0.000000000000 	  2.980000000000 	
O	  2.049068110248 	  3.980000000000 	  0.000000000000 	
O	  3.049068110248 	  3.980000000000 	  2.980000000000 	
O	  6.029068110248 	  0.000000000000 	  0.000000000000 	
O	  7.029068110248 	  0.000000000000 	  2.980000000000 	
O	  6.029068110248 	  3.980000000000 	  0.000000000000 	
O	  7.029068110248 	  3.980000000000 	  2.980000000000 	
O	  0.000000000000 	  2.049068110248 	  0.000000000000 	
O	  1.000000000000 	  2.049068110248 	  2.980000000000 	
O	  0.000000000000 	  6.029068110248 	  0.000000000000 	
O	  1.000000000000 	  6.029068110248 	  2.980000000000 	
O	  3.980000000000 	  2.049068110248 	  0.000000000000 	
O	  4.980000000000 	  2.049068110248 	  2.980000000000 	
O	  3.980000000000 	  6.029068110248 	  0.000000000000 	
O	  4.980000000000 	  6.029068110248 	  2.980000000000 	
O	  0.276662563055 	  0.000000000000 	  1.772405547194 	
O	  1.276662563055 	  0.000000000000 	  4.752405547194 	
O	  0.276662563055 	  3.980000000000 	  1.772405547194 	
O	  1.276662563055 	  3.980000000000 	  4.752405547194 	
O	  4.256662563055 	  0.000000000000 	  1.772405547194 	
O	  5.256662563055 	  0.000000000000 	  4.752405547194 	
O	  4.256662563055 	  3.980000000000 	  1.772405547194 	
O	  5.256662563055 	  3.980000000000 	  4.752405547194 	
O	  2.547060723747 	  1.685533502394 	  1.772405547194 	
O	  3.547060723747 	  1.685533502394 	  4.752405547194 	
O	  2.547060723747 	  5.665533502394 	  1.772405547194 	
O	  3.547060723747 	  5.665533502394 	  4.752405547194 	
O	  6.527060723747 	  1.685533502394 	  1.772405547194 	
O	  7.527060723747 	  1.685533502394 	  4.752405547194 	
O	  6.527060723747 	  5.665533502394 	  1.772405547194 	
O	  7.527060723747 	  5.665533502394 	  4.752405547194 	
64 
Energy: 5.7676613732532402e+00 
Mg	  0.000000000000 	  0.000000000000 	  0.000000000000 	
Mg	  1.000000000000 	  0.000000000000 	  2.980000000000 	
Mg	  0.000000000000 	  3.980000000000 	  0.000000000000 	
Mg	  1.000000000000 	  3.980000000000 	  2.980000000000 	
Mg	  3.980000000000 	  0.000000000000 	  0.000000000000 	
Mg	  4.980000000000 	  0.000000000000 	  2.980000000000 	
Mg	  3.980000000000 	  3.980000000000 	  0.000000000000 	
Mg	  4.980000000000 	  3.980000000000 	  2.980000000000 	
Mg	  1.909964855130 	  1.959146683689 	  0.000000000000 	
Mg	  2.909964855130 	  1.959146683689 	  2.980000000000 	
Mg	  1.909964855130 	  5.939146683689 	  0.000000000000 	
Mg	  2.909964855130 	  5.939146683689 	  2.980000000000 	
Mg	  5.889964855130 	  1.959146683689 	  0.000000000000 	
Mg	  6.889964855130 	  1.959146683689 	  2.980000000000 	
Mg	  5.889964855130 	  5.939146683689 	  0.000000000000 	
Mg	  6.889964855130 	  5.939146683689 	  2.980000000000 	
Mg	  2.303419483607 	  0.000000000000 	  1.811601198010 	
Mg	  3.303419483607 	  0.000000000000 	  4.791601198010 	
Mg	  2.303419483607 	  3.980000000000 	  1.811601198010 	
Mg	  3.303419483607 	  3.980000000000 	  4.791601198010 	
Mg	  6.283419483607 	  0.000000000000 	  1.811601198010 	
Mg	  7.283419483607 	  0.000000000000 	  4.791601198010 	
Mg	  6.283419483607 	  3.980000000000 	  1.811601198010 	
Mg	  7.283419483607 	  3.980000000000 	  4.791601198010 	
Mg	  0.245909142798 	  2.057510340809 	  1.811601198010 	
Mg	  1.245909142798 	  2.057510340809 	  4.791601198010 	
Mg	  0.245909142798 	  6.037510340809 	  1.811601198010 	
Mg	  1.245909142798 	  6.037510340809 	  4.791601198010 	
Mg	  4.225909142798 	  2.057510340809 	  1.811601198010 	
Mg	  5.225909142798 	  2.057510340809 	  4.791601198010 	
Mg	  4.225909142798 	  6.037510340809 	  1.811601198010 	
Mg	  5.225909142798 	  6.037510340809 	  4.791601198010 	
O	  2.057510340809 	  0.000000000000 	  0.000000000000 	
O	  3.057510340809 	  0.000000000000 	  2.980000000000 	
O	  2.057510340809 	  3.980000000000 	  0.000000000000 	
O	  3.057510340809 	  3.980000000000 	  2.980000000000 	
O	  6.037510340809 	  0.000000000000 	  0.000000000000 	
O	  7.037510340809 	  0.000000000000 	  2.980000000000 	
O	  6.037510340809 	  3.980000000000 	  0.000000000000 	
O	  7.037510340809 	  3.980000000000 	  2.980000000000 	
O	  0.000000000000 	  2.057510340809 	  0.000000000000 	
O	  1.000000000000 	  2.057510340809 	  2.980000000000 	
O	  0.000000000000 	  6.037510340809 	  0.000000000000 	
O	  1.000000000000 	  6.037510340809 	  2.980000000000 	
O	  3.980000000000 	  2.057510340809 	  0.000000000000 	
O	  4.980000000000 	  2.057510340809 	  2.980000000000 	
O	  3.980000000000 	  6.037510340809 	  0.000000000000 	
O	  4.980000000000 	  6.037510340809 	  2.980000000000 	
O	  0.245909142798 	  0.000000000000 	  1.811601198010 	
O	  1.245909142798 	  0.000000000000 	  4.791601198010 	
O	  0.245909142798 	  3.980000000000 	  1.811601198010 	
O	  1.245909142798 	  3.980000000000 	  4.791601198010 	
O	  4.225909142798 	  0.000000000000 	  1.811601198010 	
O	  5.225909142798 	  0.000000000000 	  4.791601198010 	
O	  4.225909142798 	  3.980000000000 	  1.811601198010 	
O	  5.225909142798 	  3.980000000000 	  4.791601198010 	
O	  2.500146797845 	  1.734385727172 	  1.811601198010 	
O	  3.500146797845 	  1.734385727172 	  4.791601198010 	
O	  2.500146797845 	  5.714385727172 	  1.811601198010 	
O	  3.500146797845 	  5.714385727172 	  4.791601198010 	
O	  6.480146797845 	  1.734385727172 	  1.811601198010 	
O	  7.480146797845 	  1.734385727172 	  4.791601198010 	
O	  6.480146797845 	  5.714385727172 	  1.811601198010 	
O	  7.480146797845 	  5.714385727172 	  4.791601198010 	
64 
Energy: 5.4343777291799364e+00 
Mg	  0.000000000000 	  0.000000000000 	  0.000000000000 	
Mg	  1.000000000000 	  0.000000000000 	  2.980000000000 	
Mg	  0.000000000000 	  3.980000000000 	  0.000000000000 	
Mg	  1.000000000000 	  3.980000000000 	  2.980000000000 	
Mg	  3.980000000000 	  0.000000000000 	  0.000000000000 	
Mg	  4.980000000000 	  0.000000000000 	  2.980000000000 	
Mg	  3.980000000000 	  3.980000000000 	  0.000000000000 	
Mg	  4.980000000000 	  3.980000000000 	  2.980000000000 	
Mg	  1.936858289634 	  1.979889613182 	  0.000000000000 	
Mg	  2.936858289634 	  1.979889613182 	  2.980000000000 	
Mg	  1.936858289634 	  5.959889613182 	  0.000000000000 	
Mg	  2.936858289634 	  5.959889613182 	  2.980000000000 	
Mg	  5.916858289634 	  1.979889613182 	  0.000000000000 	
Mg	  6.916858289634 	  1.979889613182 	  2.980000000000 	
Mg	  5.916858289634 	  5.959889613182 	  0.000000000000 	
Mg	  6.916858289634 	  5.959889613182 	  2.980000000000 	
Mg	  2.281108878019 	  0.000000000000 	  1.850795642538 	
Mg	  3.281108878019 	  0.000000000000 	  4.830795642538 	
Mg	  2.281108878019 	  3.980000000000 	  1.850795642538 	
Mg	  3.281108878019 	  3.980000000000 	  4.830795642538 	
Mg	  6.261108878019 	  0.000000000000 	  1.850795642538 	
Mg	  7.261108878019 	  0.000000000000 	  4.830795642538 	
Mg	  6.261108878019 	  3.980000000000 	  1.850795642538 	
Mg	  7.261108878019 	  3.980000000000 	  4.830795642538 	
Mg	  0.215156617740 	  2.065952260278 	  1.850795642538 	
Mg	  1.215156617740 	  2.065952260278 	  4.830795642538 	
Mg	  0.215156617740 	  6.045952260278 	  1.850795642538 	
Mg	  1.215156617740 	  6.045952260278 	  4.830795642538 	
Mg	  4.195156617740 	  2.065952260278 	  1.850795642538 	
Mg	  5.195156617740 	  2.065952260278 	  4.830795642538 	
Mg	  4.195156617740 	  6.045952260278 	  1.850795642538 	
Mg	  5.195156617740 	  6.045952260278 	  4.830795642538 	
O	  2.065952260278 	  0.000000000000 	  0.000000000000 	
O	  3.065952260278 	  0.000000000000 	  2.980000000000 	
O	  2.065952260278 	  3.980000000000 	  0.000000000000 	
O	  3.065952260278 	  3.980000000000 	  2.980000000000 	
O	  6.045952260278 	  0.000000000000 	  0.000000000000 	
O	  7.045952260278 	  0.000000000000 	  2.980000000000 	
O	  6.045952260278 	  3.980000000000 	  0.000000000000 	
O	  7.045952260278 	  3.980000000000 	  2.980000000000 	
O	  0.000000000000 	  2.065952260278 	  0.000000000000 	
O	  1.000000000000 	  2.065952260278 	  2.980000000000 	
O	  0.000000000000 	  6.045952260278 	  0.000000000000 	
O	  1.000000000000 	  6.045952260278 	  2.980000000000 	
O	  3.980000000000 	  2.065952260278 	  0.000000000000 	
O	  4.980000000000 	  2.065952260278 	  2.980000000000 	
O	  3.980000000000 	  6.045952260278 	  0.000000000000 	
O	  4.980000000000 	  6.045952260278 	  2.980000000000 	
O	  0.215156617740 	  0.000000000000 	  1.850795642538 	
O	  1.215156617740 	  0.000000000000 	  4.830795642538 	
O	  0.215156617740 	  3.980000000000 	  1.850795642538 	
O	  1.215156617740 	  3.980000000000 	  4.830795642538 	
O	  4.195156617740 	  0.000000000000 	  1.850795642538 	
O	  5.195156617740 	  0.000000000000 	  4.830795642538 	
O	  4.195156617740 	  3.980000000000 	  1.850795642538 	
O	  5.195156617740 	  3.980000000000 	  4.830795642538 	
O	  2.453234172211 	  1.783236464567 	  1.850795642538 	
O	  3.453234172211 	  1.783236464567 	  4.830795642538 	
O	  2.453234172211 	  5.763236464567 	  1.850795642538 	
O	  3.453234172211 	  5.763236464567 	  4.830795642538 	
O	  6.433234172211 	  1.783236464567 	  1.850795642538 	
O	  7.433234172211 	  1.783236464567 	  4.830795642538 	
O	  6.433234172211 	  5.763236464567 	  1.850795642538 	
O	  7.433234172211 	  5.763236464567 	  4.830795642538 	
64 
Energy: 4.8322151241182931e+00 
Mg	  0.000000000000 	  0.000000000000 	  0.000000000000 	
Mg	  1.000000000000 	  0.000000000000 	  2.980000000000 	
Mg	  0.000000000000 	  3.980000000000 	  0.000000000000 	
Mg	  1.000000000000 	  3.980000000000 	  2.980000000000 	
Mg	  3.980000000000 	  0.000000000000 	  0.000000000000 	
Mg	  4.980000000000 	  0.000000000000 	  2.980000000000 	
Mg	  3.980000000000 	  3.980000000000 	  0.000000000000 	
Mg	  4.980000000000 	  3.980000000000 	  2.980000000000 	
Mg	  1.963749604524 	  2.000630857893 	  0.000000000000 	
Mg	  2.963749604524 	  2.000630857893 	  2.980000000000 	
Mg	  1.963749604524 	  5.980630857893 	  0.000000000000 	
Mg	  2.963749604524 	  5.980630857893 	  2.980000000000 	
Mg	  5.943749604524 	  2.000630857893 	  0.000000000000 	
Mg	  6.943749604524 	  2.000630857893 	  2.980000000000 	
Mg	  5.943749604524 	  5.980630857893 	  0.000000000000 	
Mg	  6.943749604524 	  5.980630857893 	  2.980000000000 	
Mg	  2.258799631474 	  0.000000000000 	  1.889987097787 	
Mg	  3.258799631474 	  0.000000000000 	  4.869987097787 	
Mg	  2.258799631474 	  3.980000000000 	  1.889987097787 	
Mg	  3.258799631474 	  3.980000000000 	  4.869987097787 	
Mg	  6.238799631474 	  0.000000000000 	  1.889987097787 	
Mg	  7.238799631474 	  0.000000000000 	  4.869987097787 	
Mg	  6.238799631474 	  3.980000000000 	  1.889987097787 	
Mg	  7.238799631474 	  3.980000000000 	  4.869987097787 	
Mg	  0.184406266844 	  2.074393364630 	  1.889987097787 	
Mg	  1.184406266844 	  2.074393364630 	  4.869987097787 	
Mg	  0.184406266844 	  6.054393364630 	  1.889987097787 	
Mg	  1.184406266844 	  6.054393364630 	  4.869987097787 	
Mg	  4.164406266844 	  2.074393364630 	  1.889987097787 	
Mg	  5.164406266844 	  2.074393364630 	  4.869987097787 	
Mg	  4.164406266844 	  6.054393364630 	  1.889987097787 	
Mg	  5.164406266844 	  6.054393364630 	  4.869987097787 	
O	  2.074393364630 	  0.000000000000 	  0.000000000000 	
O	  3.074393364630 	  0.000000000000 	  2.980000000000 	
O	  2.074393364630 	  3.980000000000 	  0.000000000000 	
O	  3.074393364630 	  3.980000000000 	  2.980000000000 	
O	  6.054393364630 	  0.000000000000 	  0.000000000000 	
O	  7.054393364630 	  0.000000000000 	  2.980000000000 	
O	  6.054393364630 	  3.980000000000 	  0.000000000000 	
O	  7.054393364630 	  3.980000000000 	  2.980000000000 	
O	  0.000000000000 	  2.074393364630 	  0.000000000000 	
O	  1.000000000000 	  2.074393364630 	  2.980000000000 	
O	  0.000000000000 	  6.054393364630 	  0.000000000000 	
O	  1.000000000000 	  6.054393364630 	  2.980000000000 	
O	  3.980000000000 	  2.074393364630 	  0.000000000000 	
O	  4.980000000000 	  2.074393364630 	  2.980000000000 	
O	  3.980000000000 	  6.054393364630 	  0.000000000000 	
O	  4.980000000000 	  6.054393364630 	  2.980000000000 	
O	  0.184406266844 	  0.000000000000 	  1.889987097787 	
O	  1.184406266844 	  0.000000000000 	  4.869987097787 	
O	  0.184406266844 	  3.980000000000 	  1.889987097787 	
O	  1.184406266844 	  3.980000000000 	  4.869987097787 	
O	  4.164406266844 	  0.000000000000 	  1.889987097787 	
O	  5.164406266844 	  0.000000000000 	  4.869987097787 	
O	  4.164406266844 	  3.980000000000 	  1.889987097787 	
O	  5.164406266844 	  3.980000000000 	  4.869987097787 	
O	  2.406324644949 	  1.832083529998 	  1.889987097787 	
O	  3.406324644949 	  1.832083529998 	  4.869987097787 	
O	  2.406324644949 	  5.812083529998 	  1.889987097787 	
O	  3.406324644949 	  5.812083529998 	  4.869987097787 	
O	  6.386324644949 	  1.832083529998 	  1.889987097787 	
O	  7.386324644949 	  1.832083529998 	  4.869987097787 	
O	  6.386324644949 	  5.812083529998 	  1.889987097787 	
O	  7.386324644949 	  5.812083529998 	  4.869987097787 	
64 
Energy: 4.0032064324037773e+00 
Mg	  0.000000000000 	  0.000000000000 	  0.000000000000 	
Mg	  1.000000000000 	  0.000000000000 	  2.980000000000 	
Mg	  0.000000000000 	  3.980000000000 	  0.000000000000 	
Mg	  1.000000000000 	  3.980000000000 	  2.980000000000 	
Mg	  3.980000000000 	  0.000000000000 	  0.000000000000 	
Mg	  4.980000000000 	  0.000000000000 	  2.980000000000 	
Mg	  3.980000000000 	  3.980000000000 	  0.000000000000 	
Mg	  4.980000000000 	  3.980000000000 	  2.980000000000 	
Mg	  1.990637685866 	  2.021369520474 	  0.000000000000 	
Mg	  2.990637685866 	  2.021369520474 	  2.980000000000 	
Mg	  1.990637685866 	  6.001369520474 	  0.000000000000 	
Mg	  2.990637685866 	  6.001369520474 	  2.980000000000 	
Mg	  5.970637685866 	  2.021369520474 	  0.000000000000 	
Mg	  6.970637685866 	  2.021369520474 	  2.980000000000 	
Mg	  5.970637685866 	  6.001369520474 	  0.000000000000 	
Mg	  6.970637685866 	  6.001369520474 	  2.980000000000 	
Mg	  2.236492362734 	  0.000000000000 	  1.929174016649 	
Mg	  3.236492362734 	  0.000000000000 	  4.909174016649 	
Mg	  2.236492362734 	  3.980000000000 	  1.929174016649 	
Mg	  3.236492362734 	  3.980000000000 	  4.909174016649 	
Mg	  6.216492362734 	  0.000000000000 	  1.929174016649 	
Mg	  7.216492362734 	  0.000000000000 	  4.909174016649 	
Mg	  6.216492362734 	  3.980000000000 	  1.929174016649 	
Mg	  7.216492362734 	  3.980000000000 	  4.909174016649 	
Mg	  0.153659173042 	  2.082833189691 	  1.929174016649 	
Mg	  1.153659173042 	  2.082833189691 	  4.909174016649 	
Mg	  0.153659173042 	  6.062833189691 	  1.929174016649 	
Mg	  1.153659173042 	  6.062833189691 	  4.909174016649 	
Mg	  4.133659173042 	  2.082833189691 	  1.929174016649 	
Mg	  5.133659173042 	  2.082833189691 	  4.909174016649 	
Mg	  4.133659173042 	  6.062833189691 	  1.929174016649 	
Mg	  5.133659173042 	  6.062833189691 	  4.909174016649 	
O	  2.082833189691 	  0.000000000000 	  0.000000000000 	
O	  3.082833189691 	  0.000000000000 	  2.980000000000 	
O	  2.082833189691 	  3.980000000000 	  0.000000000000 	
O	  3.082833189691 	  3.980000000000 	  2.980000000000 	
O	  6.062833189691 	  0.000000000000 	  0.000000000000 	
O	  7.062833189691 	  0.000000000000 	  2.980000000000 	
O	  6.062833189691 	  3.980000000000 	  0.000000000000 	
O	  7.062833189691 	  3.980000000000 	  2.980000000000 	
O	  0.000000000000 	  2.082833189691 	  0.000000000000 	
O	  1.000000000000 	  2.082833189691 	  2.980000000000 	
O	  0.000000000000 	  6.062833189691 	  0.000000000000 	
O	  1.000000000000 	  6.062833189691 	  2.980000000000 	
O	  3.980000000000 	  2.082833189691 	  0.000000000000 	
O	  4.980000000000 	  2.082833189691 	  2.980000000000 	
O	  3.980000000000 	  6.062833189691 	  0.000000000000 	
O	  4.980000000000 	  6.062833189691 	  2.980000000000 	
O	  0.153659173042 	  0.000000000000 	  1.929174016649 	
O	  1.153659173042 	  0.000000000000 	  4.909174016649 	
O	  0.153659173042 	  3.980000000000 	  1.929174016649 	
O	  1.153659173042 	  3.980000000000 	  4.909174016649 	
O	  4.133659173042 	  0.000000000000 	  1.929174016649 	
O	  5.133659173042 	  0.000000000000 	  4.909174016649 	
O	  4.133659173042 	  3.980000000000 	  1.929174016649 	
O	  5.133659173042 	  3.980000000000 	  4.909174016649 	
O	  2.359419701168 	  1.880925036314 	  1.929174016649 	
O	  3.359419701168 	  1.880925036314 	  4.909174016649 	
O	  2.359419701168 	  5.860925036314 	  1.929174016649 	
O	  3.359419701168 	  5.860925036314 	  4.909174016649 	
O	  6.339419701168 	  1.880925036314 	  1.929174016649 	
O	  7.339419701168 	  1.880925036314 	  4.909174016649 	
O	  6.339419701168 	  5.860925036314 	  1.929174016649 	
O	  7.339419701168 	  5.860925036314 	  4.909174016649 	
64 
Energy: 3.0183616801541233e+00 
Mg	  0.000000000000 	  0.000000000000 	  0.000000000000 	
Mg	  1.000000000000 	  0.000000000000 	  2.980000000000 	
Mg	  0.000000000000 	  3.980000000000 	  0.000000000000 	
Mg	  1.000000000000 	  3.980000000000 	  2.980000000000 	
Mg	  3.980000000000 	  0.000000000000 	  0.000000000000 	
Mg	  4.980000000000 	  0.000000000000 	  2.980000000000 	
Mg	  3.980000000000 	  3.980000000000 	  0.000000000000 	
Mg	  4.980000000000 	  3.980000000000 	  2.980000000000 	
Mg	  2.017521558775 	  2.042104812189 	  0.000000000000 	
Mg	  3.017521558775 	  2.042104812189 	  2.980000000000 	
Mg	  2.017521558775 	  6.022104812189 	  0.000000000000 	
Mg	  3.017521558775 	  6.022104812189 	  2.980000000000 	
Mg	  5.997521558775 	  2.042104812189 	  0.000000000000 	
Mg	  6.997521558775 	  2.042104812189 	  2.980000000000 	
Mg	  5.997521558775 	  6.022104812189 	  0.000000000000 	
Mg	  6.997521558775 	  6.022104812189 	  2.980000000000 	
Mg	  2.214187586089 	  0.000000000000 	  1.968355051946 	
Mg	  3.214187586089 	  0.000000000000 	  4.948355051946 	
Mg	  2.214187586089 	  3.980000000000 	  1.968355051946 	
Mg	  3.214187586089 	  3.980000000000 	  4.948355051946 	
Mg	  6.194187586089 	  0.000000000000 	  1.968355051946 	
Mg	  7.194187586089 	  0.000000000000 	  4.948355051946 	
Mg	  6.194187586089 	  3.980000000000 	  1.968355051946 	
Mg	  7.194187586089 	  3.980000000000 	  4.948355051946 	
Mg	  0.122916267071 	  2.091271319018 	  1.968355051946 	
Mg	  1.122916267071 	  2.091271319018 	  4.948355051946 	
Mg	  0.122916267071 	  6.071271319018 	  1.968355051946 	
Mg	  1.122916267071 	  6.071271319018 	  4.948355051946 	
Mg	  4.102916267071 	  2.091271319018 	  1.968355051946 	
Mg	  5.102916267071 	  2.091271319018 	  4.948355051946 	
Mg	  4.102916267071 	  6.071271319018 	  1.968355051946 	
Mg	  5.102916267071 	  6.071271319018 	  4.948355051946 	
O	  2.091271319018 	  0.000000000000 	  0.000000000000 	
O	  3.091271319018 	  0.000000000000 	  2.980000000000 	
O	  2.091271319018 	  3.980000000000 	  0.000000000000 	
O	  3.091271319018 	  3.980000000000 	  2.980000000000 	
O	  6.071271319018 	  0.000000000000 	  0.000000000000 	
O	  7.071271319018 	  0.000000000000 	  2.980000000000 	
O	  6.071271319018 	  3.980000000000 	  0.000000000000 	
O	  7.071271319018 	  3.980000000000 	  2.980000000000 	
O	  0.000000000000 	  2.091271319018 	  0.000000000000 	
O	  1.000000000000 	  2.091271319018 	  2.980000000000 	
O	  0.000000000000 	  6.071271319018 	  0.000000000000 	
O	  1.000000000000 	  6.071271319018 	  2.980000000000 	
O	  3.980000000000 	  2.091271319018 	  0.000000000000 	
O	  4.980000000000 	  2.091271319018 	  2.980000000000 	
O	  3.980000000000 	  6.071271319018 	  0.000000000000 	
O	  4.980000000000 	  6.071271319018 	  2.980000000000 	
O	  0.122916267071 	  0.000000000000 	  1.968355051946 	
O	  1.122916267071 	  0.000000000000 	  4.948355051946 	
O	  0.122916267071 	  3.980000000000 	  1.968355051946 	
O	  1.122916267071 	  3.980000000000 	  4.948355051946 	
O	  4.102916267071 	  0.000000000000 	  1.968355051946 	
O	  5.102916267071 	  0.000000000000 	  4.948355051946 	
O	  4.102916267071 	  3.980000000000 	  1.968355051946 	
O	  5.102916267071 	  3.980000000000 	  4.948355051946 	
O	  2.312520599746 	  1.929759344086 	  1.968355051946 	
O	  3.312520599746 	  1.929759344086 	  4.948355051946 	
O	  2.312520599746 	  5.909759344086 	  1.968355051946 	
O	  3.312520599746 	  5.909759344086 	  4.948355051946 	
O	  6.292520599746 	  1.929759344086 	  1.968355051946 	
O	  7.292520599746 	  1.929759344086 	  4.948355051946 	
O	  6.292520599746 	  5.909759344086 	  1.968355051946 	
O	  7.292520599746 	  5.909759344086 	  4.948355051946 	
64 
Energy: 1.9784396814595051e+00 
Mg	  0.000000000000 	  0.000000000000 	  0.000000000000 	
Mg	  1.000000000000 	  0.000000000000 	  2.980000000000 	
Mg	  0.000000000000 	  3.980000000000 	  0.000000000000 	
Mg	  1.000000000000 	  3.980000000000 	  2.980000000000 	
Mg	  3.980000000000 	  0.000000000000 	  0.000000000000 	
Mg	  4.980000000000 	  0.000000000000 	  2.980000000000 	
Mg	  3.980000000000 	  3.980000000000 	  0.000000000000 	
Mg	  4.980000000000 	  3.980000000000 	  2.980000000000 	
Mg	  2.044400378706 	  2.062836045483 	  0.000000000000 	
Mg	  3.044400378706 	  2.062836045483 	  2.980000000000 	
Mg	  2.044400378706 	  6.042836045483 	  0.000000000000 	
Mg	  3.044400378706 	  6.042836045483 	  2.980000000000 	
Mg	  6.024400378706 	  2.062836045483 	  0.000000000000 	
Mg	  7.024400378706 	  2.062836045483 	  2.980000000000 	
Mg	  6.024400378706 	  6.042836045483 	  0.000000000000 	
Mg	  7.024400378706 	  6.042836045483 	  2.980000000000 	
Mg	  2.191885712923 	  0.000000000000 	  2.007529045152 	
Mg	  3.191885712923 	  0.000000000000 	  4.987529045152 	
Mg	  2.191885712923 	  3.980000000000 	  2.007529045152 	
Mg	  3.191885712923 	  3.980000000000 	  4.987529045152 	
Mg	  6.171885712923 	  0.000000000000 	  2.007529045152 	
Mg	  7.171885712923 	  0.000000000000 	  4.987529045152 	
Mg	  6.171885712923 	  3.980000000000 	  2.007529045152 	
Mg	  7.171885712923 	  3.980000000000 	  4.987529045152 	
Mg	  0.092178333886 	  2.099707379038 	  2.007529045152 	
Mg	  1.092178333886 	  2.099707379038 	  4.987529045152 	
Mg	  0.092178333886 	  6.079707379038 	  2.007529045152 	
Mg	  1.092178333886 	  6.079707379038 	  4.987529045152 	
Mg	  4.072178333886 	  2.099707379038 	  2.007529045152 	
Mg	  5.072178333886 	  2.099707379038 	  4.987529045152 	
Mg	  4.072178333886 	  6.079707379038 	  2.007529045152 	
Mg	  5.072178333886 	  6.079707379038 	  4.987529045152 	
O	  2.099707379038 	  0.000000000000 	  0.000000000000 	
O	  3.099707379038 	  0.000000000000 	  2.980000000000 	
O	  2.099707379038 	  3.980000000000 	  0.000000000000 	
O	  3.099707379038 	  3.980000000000 	  2.980000000000 	
O	  6.079707379038 	  0.000000000000 	  0.000000000000 	
O	  7.079707379038 	  0.000000000000 	  2.980000000000 	
O	  6.079707379038 	  3.980000000000 	  0.000000000000 	
O	  7.079707379038 	  3.980000000000 	  2.980000000000 	
O	  0.000000000000 	  2.099707379038 	  0.000000000000 	
O	  1.000000000000 	  2.099707379038 	  2.980000000000 	
O	  0.000000000000 	  6.079707379038 	  0.000000000000 	
O	  1.000000000000 	  6.079707379038 	  2.980000000000 	
O	  3.980000000000 	  2.099707379038 	  0.000000000000 	
O	  4.980000000000 	  2.099707379038 	  2.980000000000 	
O	  3.980000000000 	  6.079707379038 	  0.000000000000 	
O	  4.980000000000 	  6.079707379038 	  2.980000000000 	
O	  0.092178333886 	  0.000000000000 	  2.007529045152 	
O	  1.092178333886 	  0.000000000000 	  4.987529045152 	
O	  0.092178333886 	  3.980000000000 	  2.007529045152 	
O	  1.092178333886 	  3.980000000000 	  4.987529045152 	
O	  4.072178333886 	  0.000000000000 	  2.007529045152 	
O	  5.072178333886 	  0.000000000000 	  4.987529045152 	
O	  4.072178333886 	  3.980000000000 	  2.007529045152 	
O	  5.072178333886 	  3.980000000000 	  4.987529045152 	
O	  2.265628380032 	  1.978585048312 	  2.007529045152 	
O	  3.265628380032 	  1.978585048312 	  4.987529045152 	
O	  2.265628380032 	  5.958585048312 	  2.007529045152 	
O	  3.265628380032 	  5.958585048312 	  4.987529045152 	
O	  6.245628380032 	  1.978585048312 	  2.007529045152 	
O	  7.245628380032 	  1.978585048312 	  4.987529045152 	
O	  6.245628380032 	  5.958585048312 	  2.007529045152 	
O	  7.245628380032 	  5.958585048312 	  4.987529045152 	
64 
Energy: 1.0148082587546525e+00 
Mg	  0.000000000000 	  0.000000000000 	  0.000000000000 	
Mg	  1.000000000000 	  0.000000000000 	  2.980000000000 	
Mg	  0.000000000000 	  3.980000000000 	  0.000000000000 	
Mg	  1.000000000000 	  3.980000000000 	  2.980000000000 	
Mg	  3.980000000000 	  0.000000000000 	  0.000000000000 	
Mg	  4.980000000000 	  0.000000000000 	  2.980000000000 	
Mg	  3.980000000000 	  3.980000000000 	  0.000000000000 	
Mg	  4.980000000000 	  3.980000000000 	  2.980000000000 	
Mg	  2.071273429611 	  2.083562631864 	  0.000000000000 	
Mg	  3.071273429611 	  2.083562631864 	  2.980000000000 	
Mg	  2.071273429611 	  6.063562631864 	  0.000000000000 	
Mg	  3.071273429611 	  6.063562631864 	  2.980000000000 	
Mg	  6.051273429611 	  2.083562631864 	  0.000000000000 	
Mg	  7.051273429611 	  2.083562631864 	  2.980000000000 	
Mg	  6.051273429611 	  6.063562631864 	  0.000000000000 	
Mg	  7.051273429611 	  6.063562631864 	  2.980000000000 	
Mg	  2.169587047633 	  0.000000000000 	  2.046695025106 	
Mg	  3.169587047633 	  0.000000000000 	  5.026695025106 	
Mg	  2.169587047633 	  3.980000000000 	  2.046695025106 	
Mg	  3.169587047633 	  3.980000000000 	  5.026695025106 	
Mg	  6.149587047633 	  0.000000000000 	  2.046695025106 	
Mg	  7.149587047633 	  0.000000000000 	  5.026695025106 	
Mg	  6.149587047633 	  3.980000000000 	  2.046695025106 	
Mg	  7.149587047633 	  3.980000000000 	  5.026695025106 	
Mg	  0.061446011263 	  2.108141036369 	  2.046695025106 	
Mg	  1.061446011263 	  2.108141036369 	  5.026695025106 	
Mg	  0.061446011263 	  6.088141036369 	  2.046695025106 	
Mg	  1.061446011263 	  6.088141036369 	  5.026695025106 	
Mg	  4.041446011263 	  2.108141036369 	  2.046695025106 	
Mg	  5.041446011263 	  2.108141036369 	  5.026695025106 	
Mg	  4.041446011263 	  6.088141036369 	  2.046695025106 	
Mg	  5.041446011263 	  6.088141036369 	  5.026695025106 	
O	  2.108141036369 	  0.000000000000 	  0.000000000000 	
O	  3.108141036369 	  0.000000000000 	  2.980000000000 	
O	  2.108141036369 	  3.980000000000 	  0.000000000000 	
O	  3.108141036369 	  3.980000000000 	  2.980000000000 	
O	  6.088141036369 	  0.000000000000 	  0.000000000000 	
O	  7.088141036369 	  0.000000000000 	  2.980000000000 	
O	  6.088141036369 	  3.980000000000 	  0.000000000000 	
O	  7.088141036369 	  3.980000000000 	  2.980000000000 	
O	  0.000000000000 	  2.108141036369 	  0.000000000000 	
O	  1.000000000000 	  2.108141036369 	  2.980000000000 	
O	  0.000000000000 	  6.088141036369 	  0.000000000000 	
O	  1.000000000000 	  6.088141036369 	  2.980000000000 	
O	  3.980000000000 	  2.108141036369 	  0.000000000000 	
O	  4.980000000000 	  2.108141036369 	  2.980000000000 	
O	  3.980000000000 	  6.088141036369 	  0.000000000000 	
O	  4.980000000000 	  6.088141036369 	  2.980000000000 	
O	  0.061446011263 	  0.000000000000 	  2.046695025106 	
O	  1.061446011263 	  0.000000000000 	  5.026695025106 	
O	  0.061446011263 	  3.980000000000 	  2.046695025106 	
O	  1.061446011263 	  3.980000000000 	  5.026695025106 	
O	  4.041446011263 	  0.000000000000 	  2.046695025106 	
O	  5.041446011263 	  0.000000000000 	  5.026695025106 	
O	  4.041446011263 	  3.980000000000 	  2.046695025106 	
O	  5.041446011263 	  3.980000000000 	  5.026695025106 	
O	  2.218743856643 	  2.027400977569 	  2.046695025106 	
O	  3.218743856643 	  2.027400977569 	  5.026695025106 	
O	  2.218743856643 	  6.007400977569 	  2.046695025106 	
O	  3.218743856643 	  6.007400977569 	  5.026695025106 	
O	  6.198743856643 	  2.027400977569 	  2.046695025106 	
O	  7.198743856643 	  2.027400977569 	  5.026695025106 	
O	  6.198743856643 	  6.007400977569 	  2.046695025106 	
O	  7.198743856643 	  6.007400977569 	  5.026695025106 	
64 
Energy: 2.9030455842576952e-01 
Mg	  0.000000000000 	  0.000000000000 	  0.000000000000 	
Mg	  1.000000000000 	  0.000000000000 	  2.980000000000 	
Mg	  0.000000000000 	  3.980000000000 	  0.000000000000 	
Mg	  1.000000000000 	  3.980000000000 	  2.980000000000 	
Mg	  3.980000000000 	  0.000000000000 	  0.000000000000 	
Mg	  4.980000000000 	  0.000000000000 	  2.980000000000 	
Mg	  3.980000000000 	  3.980000000000 	  0.000000000000 	
Mg	  4.980000000000 	  3.980000000000 	  2.980000000000 	
Mg	  2.098140123439 	  2.104284080962 	  0.000000000000 	
Mg	  3.098140123439 	  2.104284080962 	  2.980000000000 	
Mg	  2.098140123439 	  6.084284080962 	  0.000000000000 	
Mg	  3.098140123439 	  6.084284080962 	  2.980000000000 	
Mg	  6.078140123439 	  2.104284080962 	  0.000000000000 	
Mg	  7.078140123439 	  2.104284080962 	  2.980000000000 	
Mg	  6.078140123439 	  6.084284080962 	  0.000000000000 	
Mg	  7.078140123439 	  6.084284080962 	  2.980000000000 	
Mg	  2.147291783627 	  0.000000000000 	  2.085852208391 	
Mg	  3.147291783627 	  0.000000000000 	  5.065852208391 	
Mg	  2.147291783627 	  3.980000000000 	  2.085852208391 	
Mg	  3.147291783627 	  3.980000000000 	  5.065852208391 	
Mg	  6.127291783627 	  0.000000000000 	  2.085852208391 	
Mg	  7.127291783627 	  0.000000000000 	  5.065852208391 	
Mg	  6.127291783627 	  3.980000000000 	  2.085852208391 	
Mg	  7.127291783627 	  3.980000000000 	  5.065852208391 	
Mg	  0.030719787618 	  2.116571996009 	  2.085852208391 	
Mg	  1.030719787618 	  2.116571996009 	  5.065852208391 	
Mg	  0.030719787618 	  6.096571996009 	  2.085852208391 	
Mg	  1.030719787618 	  6.096571996009 	  5.065852208391 	
Mg	  4.010719787618 	  2.116571996009 	  2.085852208391 	
Mg	  5.010719787618 	  2.116571996009 	  5.065852208391 	
Mg	  4.010719787618 	  6.096571996009 	  2.085852208391 	
Mg	  5.010719787618 	  6.096571996009 	  5.065852208391 	
O	  2.116571996009 	  0.000000000000 	  0.000000000000 	
O	  3.116571996009 	  0.000000000000 	  2.980000000000 	
O	  2.116571996009 	  3.980000000000 	  0.000000000000 	
O	  3.116571996009 	  3.980000000000 	  2.980000000000 	
O	  6.096571996009 	  0.000000000000 	  0.000000000000 	
O	  7.096571996009 	  0.000000000000 	  2.980000000000 	
O	  6.096571996009 	  3.980000000000 	  0.000000000000 	
O	  7.096571996009 	  3.980000000000 	  2.980000000000 	
O	  0.000000000000 	  2.116571996009 	  0.000000000000 	
O	  1.000000000000 	  2.116571996009 	  2.980000000000 	
O	  0.000000000000 	  6.096571996009 	  0.000000000000 	
O	  1.000000000000 	  6.096571996009 	  2.980000000000 	
O	  3.980000000000 	  2.116571996009 	  0.000000000000 	
O	  4.980000000000 	  2.116571996009 	  2.980000000000 	
O	  3.980000000000 	  6.096571996009 	  0.000000000000 	
O	  4.980000000000 	  6.096571996009 	  2.980000000000 	
O	  0.030719787618 	  0.000000000000 	  2.085852208391 	
O	  1.030719787618 	  0.000000000000 	  5.065852208391 	
O	  0.030719787618 	  3.980000000000 	  2.085852208391 	
O	  1.030719787618 	  3.980000000000 	  5.065852208391 	
O	  4.010719787618 	  0.000000000000 	  2.085852208391 	
O	  5.010719787618 	  0.000000000000 	  5.065852208391 	
O	  4.010719787618 	  3.980000000000 	  2.085852208391 	
O	  5.010719787618 	  3.980000000000 	  5.065852208391 	
O	  2.171867613721 	  2.076206195079 	  2.085852208391 	
O	  3.171867613721 	  2.076206195079 	  5.065852208391 	
O	  2.171867613721 	  6.056206195079 	  2.085852208391 	
O	  3.171867613721 	  6.056206195079 	  5.065852208391 	
O	  6.151867613721 	  2.076206195079 	  2.085852208391 	
O	  7.151867613721 	  2.076206195079 	  5.065852208391 	
O	  6.151867613721 	  6.056206195079 	  2.085852208391 	
O	  7.151867613721 	  6.056206195079 	  5.065852208391 	
64 
Energy: 0.0000000000000000e+00 
Mg	  0.000000000000 	  0.000000000000 	  0.000000000000 	
Mg	  1.000000000000 	  0.000000000000 	  2.980000000000 	
Mg	  0.000000000000 	  3.980000000000 	  0.000000000000 	
Mg	  1.000000000000 	  3.980000000000 	  2.980000000000 	
Mg	  3.980000000000 	  0.000000000000 	  0.000000000000 	
Mg	  4.980000000000 	  0.000000000000 	  2.980000000000 	
Mg	  3.980000000000 	  3.980000000000 	  0.000000000000 	
Mg	  4.980000000000 	  3.980000000000 	  2.980000000000 	
Mg	  2.125000000000 	  2.125000000000 	  0.000000000000 	
Mg	  3.125000000000 	  2.125000000000 	  2.980000000000 	
Mg	  2.125000000000 	  6.105000000000 	  0.000000000000 	
Mg	  3.125000000000 	  6.105000000000 	  2.980000000000 	
Mg	  6.105000000000 	  2.125000000000 	  0.000000000000 	
Mg	  7.105000000000 	  2.125000000000 	  2.980000000000 	
Mg	  6.105000000000 	  6.105000000000 	  0.000000000000 	
Mg	  7.105000000000 	  6.105000000000 	  2.980000000000 	
Mg	  2.125000000000 	  0.000000000000 	  2.125000000000 	
Mg	  3.125000000000 	  0.000000000000 	  5.105000000000 	
Mg	  2.125000000000 	  3.980000000000 	  2.125000000000 	
Mg	  3.125000000000 	  3.980000000000 	  5.105000000000 	
Mg	  6.105000000000 	  0.000000000000 	  2.125000000000 	
Mg	  7.105000000000 	  0.000000000000 	  5.105000000000 	
Mg	  6.105000000000 	  3.980000000000 	  2.125000000000 	
Mg	  7.105000000000 	  3.980000000000 	  5.105000000000 	
Mg	  0.000000000000 	  2.125000000000 	  2.125000000000 	
Mg	  1.000000000000 	  2.125000000000 	  5.105000000000 	
Mg	  0.000000000000 	  6.105000000000 	  2.125000000000 	
Mg	  1.000000000000 	  6.105000000000 	  5.105000000000 	
Mg	  3.980000000000 	  2.125000000000 	  2.125000000000 	
Mg	  4.980000000000 	  2.125000000000 	  5.105000000000 	
Mg	  3.980000000000 	  6.105000000000 	  2.125000000000 	
Mg	  4.980000000000 	  6.105000000000 	  5.105000000000 	
O	  2.125000000000 	  0.000000000000 	  0.000000000000 	
O	  3.125000000000 	  0.000000000000 	  2.980000000000 	
O	  2.125000000000 	  3.980000000000 	  0.000000000000 	
O	  3.125000000000 	  3.980000000000 	  2.980000000000 	
O	  6.105000000000 	  0.000000000000 	  0.000000000000 	
O	  7.105000000000 	  0.000000000000 	  2.980000000000 	
O	  6.105000000000 	  3.980000000000 	  0.000000000000 	
O	  7.105000000000 	  3.980000000000 	  2.980000000000 	
O	  0.000000000000 	  2.125000000000 	  0.000000000000 	
O	  1.000000000000 	  2.125000000000 	  2.980000000000 	
O	  0.000000000000 	  6.105000000000 	  0.000000000000 	
O	  1.000000000000 	  6.105000000000 	  2.980000000000 	
O	  3.980000000000 	  2.125000000000 	  0.000000000000 	
O	  4.980000000000 	  2.125000000000 	  2.980000000000 	
O	  3.980000000000 	  6.105000000000 	  0.000000000000 	
O	  4.980000000000 	  6.105000000000 	  2.980000000000 	
O	  0.000000000000 	  0.000000000000 	  2.125000000000 	
O	  1.000000000000 	  0.000000000000 	  5.105000000000 	
O	  0.000000000000 	  3.980000000000 	  2.125000000000 	
O	  1.000000000000 	  3.980000000000 	  5.105000000000 	
O	  3.980000000000 	  0.000000000000 	  2.125000000000 	
O	  4.980000000000 	  0.000000000000 	  5.105000000000 	
O	  3.980000000000 	  3.980000000000 	  2.125000000000 	
O	  4.980000000000 	  3.980000000000 	  5.105000000000 	
O	  2.125000000000 	  2.125000000000 	  2.125000000000 	
O	  3.125000000000 	  2.125000000000 	  5.105000000000 	
O	  2.125000000000 	  6.105000000000 	  2.125000000000 	
O	  3.125000000000 	  6.105000000000 	  5.105000000000 	
O	  6.105000000000 	  2.125000000000 	  2.125000000000 	
O	  7.105000000000 	  2.125000000000 	  5.105000000000 	
O	  6.105000000000 	  6.105000000000 	  2.125000000000 	
O	  7.105000000000 	  6.105000000000 	  5.105000000000 	
