  Invoking FHI-aims ...
  | Number of atoms                   :  96
  ...scf iterations...
  | Total energy corrected        :   -1.033170757322E+02 eV
  ...
  Total atomic forces (unitary forces cleaned)
     1  -3.2134842375E-01  6.0881036000E-01  1.9345145076E-01
     2  2.5263285001E-01  5.9449811804E-01  -1.8355722580E-01
     3  3.2134836691E-01  -6.0881022586E-01  -1.9345142091E-01
     4  -2.5263273817E-01  -5.9449806640E-01  1.8355730989E-01
     5  -7.5339008029E-01  1.0571478804E-01  -6.3057261580E-01
     6  1.2460601307E+00  -1.9357058930E+00  2.9771760602E+00
     7  7.5339099243E-01  -1.0571459343E-01  6.3057344670E-01
     8  -1.2460599595E+00  1.9357057204E+00  -2.9771756724E+00
     9  -5.1543788179E-01  3.4628917077E-01  -2.0085900857E-01
    10  -1.7573125030E+00  -1.7955015339E+00  1.7950953214E-01
    11  5.1543708138E-01  -3.4628963789E-01  2.0085821121E-01
    12  1.7573124125E+00  1.7955022584E+00  -1.7951016440E-01
    13  -5.9246074419E-01  -1.1517276344E+00  -1.1606241286E+00
    14  2.7757841513E+00  8.3709799085E-01  1.2654195295E+00
    15  5.9245987488E-01  1.1517279835E+00  1.1606237795E+00
    16  -2.7757847953E+00  -8.3709830636E-01  -1.2654189802E+00
    17  5.7717120585E-01  -7.5964405815E-01  -4.6968960390E-02
    18  -1.7920643624E+00  8.4409182947E-01  -2.1036897558E+00
    19  -5.7717057315E-01  7.5964436988E-01  4.6969568323E-02
    20  1.7920648742E+00  -8.4409206582E-01  2.1036895269E+00
    21  6.2003532695E-01  -1.1475923293E+00  -1.9874995497E-01
    22  -4.4071238598E-01  -1.1360507334E+00  3.8091212593E-01
    23  -6.2003561897E-01  1.1475924382E+00  1.9874970466E-01
    24  4.4071246933E-01  1.1360506629E+00  -3.8091205447E-01
    25  1.0882354319E+00  1.3244670502E-01  8.5259406110E-01
    26  1.3749591007E-01  -1.7993504741E+00  1.4795434444E+00
    27  -1.0882387918E+00  -1.3244715813E-01  -8.5259653487E-01
    28  -1.3749521325E-01  1.7993514343E+00  -1.4795436463E+00
    29  5.7882882759E-01  4.9956940512E-01  7.6667949281E-01
    30  -4.3657765110E-01  6.7280562200E-01  -8.1929532035E-01
    31  -5.7882860787E-01  -4.9956948129E-01  -7.6667976636E-01
    32  4.3657687340E-01  -6.7280615693E-01  8.1929511982E-01
    33  1.9133079551E-01  1.0153501686E+00  8.8769535908E-01
    34  -1.6691295736E-01  1.1133321487E+00  -9.0162227615E-01
    35  -1.9133052220E-01  -1.0153502313E+00  -8.8769512290E-01
    36  1.6691309474E-01  -1.1133323738E+00  9.0162219693E-01
    37  -9.1140516411E-01  5.8038683480E-01  -2.7200013325E-01
    38  9.3054388123E-01  7.2149561385E-01  1.4287530712E-01
    39  9.1140524443E-01  -5.8038693298E-01  2.7200040336E-01
    40  -9.3054368412E-01  -7.2149614914E-01  -1.4287473860E-01
    41  -8.7524253409E-01  1.0936042318E+00  6.5408598310E-02
    42  9.1437801184E-01  1.1539324738E+00  -7.9593165834E-02
    43  8.7524245355E-01  -1.0936039668E+00  -6.5408488339E-02
    44  -9.1437775217E-01  -1.1539322918E+00  7.9593284723E-02
    45  6.8090671527E-01  9.2829952733E-02  7.0315934523E-01
    46  -3.4972711600E+00  -3.9035000669E-02  -2.9783515237E+00
    47  -6.8087722228E-01  -9.2829755574E-02  -7.0313709216E-01
    48  3.4972710559E+00  3.9033896387E-02  2.9783495562E+00
    49  -9.2027930710E-01  -1.9020766425E-01  9.1083457371E-01
    50  1.3022402076E-01  -1.3157620644E+00  -2.6120600080E+00
    51  9.2026866729E-01  1.9020699799E-01  -9.1082985096E-01
    52  -1.3022414232E-01  1.3157608867E+00  2.6120611833E+00
    53  -3.3767849312E-01  -1.3597051746E+00  -3.4429380087E-01
    54  1.5961206362E+00  2.0709263327E+00  -8.3509601901E-01
    55  3.3768411238E-01  1.3596956910E+00  3.4428685185E-01
    56  -1.5961212819E+00  -2.0709273075E+00  8.3509514275E-01
    57  6.2789849479E-01  -8.4316244558E-02  3.7103817758E-01
    58  2.0311478772E+00  5.0385175785E-01  2.3487804494E+00
    59  -6.2790438265E-01  8.4317257025E-02  -3.7104838646E-01
    60  -2.0311478678E+00  -5.0385176132E-01  -2.3487797274E+00
    61  -4.1235027386E-01  1.3511935727E+00  2.5588536250E-01
    62  -1.8684752428E+00  -3.1284058114E+00  1.3816934041E+00
    63  4.1235774318E-01  -1.3511817093E+00  -2.5588886811E-01
    64  1.8684757208E+00  3.1284070967E+00  -1.3816915307E+00
    65  3.0646665166E-01  -6.5803242489E-01  -4.6475126428E-01
    66  3.2084575523E+00  -9.7393983061E-01  2.9840310160E-01
    67  -3.0646999532E-01  6.5802842012E-01  4.6474553358E-01
    68  -3.2084581753E+00  9.7393959639E-01  -2.9840108579E-01
    69  -4.9697740741E-01  -9.5935589855E-01  4.3355308780E-01
    70  1.2996734085E+00  -1.7049941731E+00  -1.1970692068E+00
    71  4.9697898617E-01  9.5936296729E-01  -4.3354805186E-01
    72  -1.2996735096E+00  1.7049935592E+00  1.1970692665E+00
    73  4.5955047113E-01  4.8514866776E-01  -1.1655858166E+00
    74  -1.3110444058E+00  8.2356361986E-01  2.5339893233E+00
    75  -4.5955082545E-01  -4.8514535282E-01  1.1655925705E+00
    76  1.3110439791E+00  -8.2356174192E-01  -2.5339919077E+00
    77  6.0818696548E-01  -1.6975958665E-01  2.9591070410E-01
    78  -1.6881739421E+00  -4.8399934783E-01  -1.0302665162E+00
    79  -6.0819577968E-01  1.6976046750E-01  -2.9591641962E-01
    80  1.6881751236E+00  4.8399959907E-01  1.0302667541E+00
    81  1.3851708397E-01  1.0564075260E+00  -2.2602455307E-01
    82  -6.4446818358E-01  2.5752141110E+00  5.9884278917E-01
    83  -1.3851948158E-01  -1.0563995938E+00  2.2601804679E-01
    84  6.4446846395E-01  -2.5752145609E+00  -5.9884407065E-01
    85  6.0136227563E-01  2.7814136129E-03  3.4744346232E-01
    86  -8.3062419849E-01  2.5583353071E-01  -2.4834829163E-01
    87  -6.0137395741E-01  -2.7841401612E-03  -3.4744852865E-01
    88  8.3062346103E-01  -2.5583344663E-01  2.4834815234E-01
    89  3.4620702302E-01  -1.0921784200E-01  -1.2735903550E+00
    90  -4.5225644990E-01  2.6700639468E-01  1.7199681099E+00
    91  -3.4620412819E-01  1.0920876069E-01  1.2735905019E+00
    92  4.5225680732E-01  -2.6700488609E-01  -1.7199683487E+00
    93  -6.5978386456E-01  5.2696092578E-01  8.4200336568E-01
    94  7.1862707471E-01  1.1796085239E+00  -7.8008409154E-01
    95  6.5978335164E-01  -5.2696749473E-01  -8.4199684674E-01
    96  -7.1862736111E-01  -1.1796087455E+00  7.8008496787E-01
  Stress tensor (eV/A^3):
  7.4925936495E-02  -9.5899193291E-03  2.2732664044E-02
  -9.5899193291E-03  7.2927335465E-02  1.1595358870E-02
  2.2732664044E-02  1.1595358870E-02  5.7592610386E-02
