  Invoking FHI-aims ...
  | Number of atoms                   :  96
  ...scf iterations...
  | Total energy corrected        :   -6.885539919254E+01 eV
  ...
  Total atomic forces (unitary forces cleaned)
     1  -2.3211562756E-01  5.8233954610E-01  1.8727704482E-01
     2  2.2574094882E-01  5.7561811490E-01  -1.9145560803E-01
     3  2.3211563268E-01  -5.8233946869E-01  -1.8727702087E-01
     4  -2.2574083638E-01  -5.7561805076E-01  1.9145570437E-01
     5  -8.7193727794E-01  1.1661206572E+00  8.6862447668E-02
     6  8.6662871125E-01  1.1210337280E+00  -1.9717515203E-02
     7  8.7193776355E-01  -1.1661205105E+00  -8.6861978854E-02
     8  -8.6662868499E-01  -1.1210338837E+00  1.9717761872E-02
     9  -2.2856453820E-01  1.4750810162E-01  -1.1409430597E-01
    10  1.5570045933E-01  7.5326312709E-02  1.1901014971E-01
    11  2.2856404262E-01  -1.4750821111E-01  1.1409396438E-01
    12  -1.5570075889E-01  -7.5326215733E-02  -1.1901027668E-01
    13  -4.1433248625E-01  -9.2993791455E-01  -8.9526176339E-01
    14  4.9337377787E-01  -8.5607278850E-01  8.9386320873E-01
    15  4.1433193975E-01  9.2993809235E-01  8.9526154048E-01
    16  -4.9337389193E-01  8.5607288707E-01  -8.9386288958E-01
    17  1.1856103165E+00  -1.6507912491E+00  -1.5184514605E-01
    18  -1.2333511235E+00  -1.6059235811E+00  7.2851473993E-02
    19  -1.1856102436E+00  1.6507919552E+00  1.5184546615E-01
    20  1.2333512882E+00  1.6059240074E+00  -7.2851963793E-02
    21  -2.6130380620E-01  2.2772536925E-02  -1.2029156628E-01
    22  2.7449469326E-01  4.9425901011E-02  1.1278051805E-01
    23  2.6130403509E-01  -2.2773083333E-02  1.2029143745E-01
    24  -2.7449471848E-01  -4.9426259337E-02  -1.1278041938E-01
    25  5.6603077144E-01  4.4707221207E-02  4.1573871492E-01
    26  -5.3910571694E-01  -2.4696580946E-02  -3.3852639120E-01
    27  -5.6603120310E-01  -4.4707573760E-02  -4.1573906760E-01
    28  5.3910607003E-01  2.4696902049E-02  3.3852627582E-01
    29  6.0126237789E-01  1.3960153296E+00  1.4054026629E+00
    30  -5.9924659821E-01  1.3968835649E+00  -1.4041136834E+00
    31  -6.0126217276E-01  -1.3960150229E+00  -1.4054025325E+00
    32  5.9924623984E-01  -1.3968840485E+00  1.4041135012E+00
    33  -1.0873001545E-01  -2.0168679019E-02  -6.0237460266E-02
    34  1.0901130401E-01  -2.1971198067E-02  6.1256057205E-02
    35  1.0873018202E-01  2.0168375267E-02  6.0237276820E-02
    36  -1.0901138228E-01  2.1971323207E-02  -6.1256163830E-02
    37  -1.4279481380E+00  1.5901954825E+00  3.0691979328E-02
    38  1.4256204030E+00  1.5905998835E+00  -3.2169608689E-02
    39  1.4279477838E+00  -1.5901950524E+00  -3.0691711900E-02
    40  -1.4256196025E+00  -1.5905995279E+00  3.2170035435E-02
    41  5.2124938039E-03  -3.2281257418E-02  -4.4325886406E-02
    42  -6.7894653438E-03  -3.3552411006E-02  4.4757909530E-02
    43  -5.2121482786E-03  3.2280788922E-02  4.4325836079E-02
    44  6.7891595333E-03  3.3551962895E-02  -4.4757858834E-02
    45  -1.8872844741E+00  9.9064193334E-02  -1.2238924427E+00
    46  1.8030832380E+00  4.6160097373E-02  1.1602268979E+00
    47  1.8872797087E+00  -9.9064601277E-02  1.2238887243E+00
    48  -1.8030832220E+00  -4.6159427125E-02  -1.1602270436E+00
    49  -2.8916803152E+01  -3.5909036486E+00  1.4778131308E+01
    50  3.0325040615E+01  -1.2855573367E+01  -1.3873297046E+01
    51  2.8916398028E+01  3.5909564495E+00  -1.4777938354E+01
    52  -3.0325057789E+01  1.2855581664E+01  1.3873307446E+01
    53  1.3632625437E+01  1.8661639160E+01  -2.5676057394E+00
    54  -1.7999815484E+01  2.5424240201E+01  3.0968945103E+00
    55  -1.3632446569E+01  -1.8661425173E+01  2.5675720222E+00
    56  1.7999826022E+01  -2.5424257658E+01  -3.0969048426E+00
    57  5.3734153536E-01  -8.5104850694E-02  3.9950908605E-01
    58  -2.3123475727E-01  -3.8507722311E-02  -1.2959145495E-01
    59  -5.3733579538E-01  8.5103511833E-02  -3.9950430113E-01
    60  2.3123541894E-01  3.8507444331E-02  1.2959221691E-01
    61  1.3614982210E+01  -1.5668891063E+01  -9.0854318416E+00
    62  -1.0988906041E+01  -1.3225107389E+01  7.5019116551E+00
    63  -1.3614764321E+01  1.5668624504E+01  9.0852766078E+00
    64  1.0988912395E+01  1.3225115887E+01  -7.5019121174E+00
    65  -9.2975319492E-02  -1.1183711177E+01  -7.6304252644E+00
    66  -1.2016700619E-01  -1.1089955379E+01  9.8684683578E+00
    67  9.2912841463E-02  1.1183548363E+01  7.6303040550E+00
    68  1.2014692574E-01  1.1089976652E+01  -9.8684252316E+00
    69  4.0016089304E+00  8.5812286637E+00  4.7048094133E-01
    70  -4.3569613442E+00  9.1399424259E+00  -3.6584295288E-01
    71  -4.0015322684E+00  -8.5810664511E+00  -4.7047965264E-01
    72  4.3569694863E+00  -9.1399580440E+00  3.6583958459E-01
    73  -1.4052810118E+00  -1.7201107030E-01  6.0951749330E+00
    74  2.0221034285E+00  -6.8121866499E-01  -8.5102873899E+00
    75  1.4052574233E+00  1.7200641678E-01  -6.0950652940E+00
    76  -2.0220918297E+00  6.8121312649E-01  8.5102486348E+00
    77  -9.0966052251E-02  -9.5151107654E-02  -1.4727304323E-01
    78  1.3599665861E-01  -1.2380563853E-01  1.7555880568E-01
    79  9.0978461460E-02  9.5149731242E-02  1.4728041815E-01
    80  -1.3599754601E-01  1.2380542801E-01  -1.7555922480E-01
    81  -6.9201018739E+00  2.3102609129E+01  -5.7491612114E+00
    82  6.9334622037E+00  2.3077266384E+01  5.7457600443E+00
    83  6.9200041938E+00  -2.3102292137E+01  5.7489538641E+00
    84  -6.9334631468E+00  -2.3077290306E+01  -5.7458033974E+00
    85  4.0660721925E-01  4.1704128248E-02  2.0757654348E-01
    86  -4.0081548869E-01  3.4183796585E-02  -2.1194555844E-01
    87  -4.0659525236E-01  -4.1703769345E-02  -2.0756992282E-01
    88  4.0081653221E-01  -3.4183872148E-02  2.1194634058E-01
    89  -1.9116393999E+00  -3.8605407940E+00  1.1943442645E+01
    90  1.9136702835E+00  -3.8628875868E+00  -1.1957582593E+01
    91  1.9115930296E+00  3.8604535585E+00  -1.1943158645E+01
    92  -1.9136766752E+00  3.8628969617E+00  1.1957622936E+01
    93  1.0338594458E+01  -1.5857938776E+01  -6.6326749404E+00
    94  -1.0346330539E+01  -1.5874784262E+01  6.6348882929E+00
    95  -1.0338457631E+01  1.5857716655E+01  6.6325894736E+00
    96  1.0346337349E+01  1.5874799297E+01  -6.6348869863E+00
  Stress tensor (eV/A^3):
  -4.0038513734E-02  1.1576961594E-02  7.8596036307E-02
  1.1576961594E-02  -1.5394666161E-01  -3.9606424461E-03
  7.8596036307E-02  -3.9606424461E-03  -5.2558239356E-02
