  Invoking FHI-aims ...
  | Number of atoms                   :  96
  ...scf iterations...
  | Total energy corrected        :   -7.669927770095E+01 eV
  ...
  Total atomic forces (unitary forces cleaned)
     1  -2.3885090833E-01  5.8403094765E-01  1.8540284003E-01
     2  2.2353535785E-01  5.7117024091E-01  -1.9023009839E-01
     3  2.3885091059E-01  -5.8403086717E-01  -1.8540281638E-01
     4  -2.2353524755E-01  -5.7117017785E-01  1.9023019410E-01
     5  -8.6783743915E-01  1.2306456547E+00  1.1725879806E-01
     6  8.6939282950E-01  1.2024690505E+00  -8.0734015349E-02
     7  8.6783794898E-01  -1.2306455055E+00  -1.1725830808E-01
     8  -8.6939279559E-01  -1.2024692070E+00  8.0734269638E-02
     9  -2.5264745447E-01  1.5321575554E-01  -1.2839650479E-01
    10  2.1877887603E-01  1.1983226735E-01  1.2996547372E-01
    11  2.5264693661E-01  -1.5321588388E-01  1.2839613418E-01
    12  -2.1877918117E-01  -1.1983217018E-01  -1.2996560011E-01
    13  -4.3590640985E-01  -9.4931363107E-01  -9.2408335036E-01
    14  4.8067712479E-01  -9.1584452247E-01  9.3067352732E-01
    15  4.3590583857E-01  9.4931382023E-01  9.2408311730E-01
    16  -4.8067724339E-01  9.1584462949E-01  -9.3067320579E-01
    17  8.5218752241E-01  -1.1828530413E+00  -1.0584556403E-01
    18  -8.9066729289E-01  -1.1691138486E+00  6.2492282372E-02
    19  -8.5218721328E-01  1.1828534389E+00  1.0584591503E-01
    20  8.9066735148E-01  1.1691140008E+00  -6.2492716490E-02
    21  9.1516743138E-02  -4.6662867594E-01  -1.6198898319E-01
    22  -7.8972488620E-02  -4.4385320064E-01  1.5919056848E-01
    23  -9.1516733670E-02  4.6662846498E-01  1.6198884403E-01
    24  7.8972561867E-02  4.4385310919E-01  -1.5919052263E-01
    25  6.3192529141E-01  4.7776581361E-02  4.6622462648E-01
    26  -6.1758124612E-01  8.2480912785E-03  -4.2585323061E-01
    27  -6.3192566364E-01  -4.7776964425E-02  -4.6622495659E-01
    28  6.1758164148E-01  -8.2477491345E-03  4.2585311351E-01
    29  5.2101966307E-01  9.7006192117E-01  1.0511775841E+00
    30  -5.1671245857E-01  9.7403624384E-01  -1.0501376228E+00
    31  -5.2101946821E-01  -9.7006178686E-01  -1.0511776631E+00
    32  5.1671195035E-01  -9.7403660720E-01  1.0501373825E+00
    33  1.6879023624E-03  4.2185579142E-01  3.2753913420E-01
    34  -9.4647943008E-04  4.2063621885E-01  -3.2618822917E-01
    35  -1.6877135193E-03  -4.2185592754E-01  -3.2753911552E-01
    36  9.4651168394E-04  -4.2063623279E-01  3.2618815661E-01
    37  -1.1083582877E+00  1.1361753594E+00  -3.8507921636E-02
    38  1.1055289163E+00  1.1392232110E+00  3.4809057519E-02
    39  1.1083581403E+00  -1.1361752720E+00  3.8508131867E-02
    40  -1.1055283836E+00  -1.1392232201E+00  -3.4808607377E-02
    41  -3.5394893477E-01  4.3993000797E-01  7.2874761769E-03
    42  3.5256850907E-01  4.3878563396E-01  -7.2588278715E-03
    43  3.5394906734E-01  -4.3993012098E-01  -7.2874586827E-03
    44  -3.5256852955E-01  -4.3878572922E-01  7.2588815330E-03
    45  -1.9915634905E+00  1.0151314477E-01  -1.3202354238E+00
    46  1.9519209037E+00  5.1116950545E-02  1.2930555067E+00
    47  1.9915589562E+00  -1.0151289773E-01  1.3202319508E+00
    48  -1.9519211448E+00  -5.1116430310E-02  -1.2930556676E+00
    49  -1.8412062840E+01  -2.7988894683E+00  1.0590606403E+01
    50  1.9269480902E+01  5.0005988510E+00  -1.3722594987E+01
    51  1.8411945806E+01  2.7988507979E+00  -1.0590545368E+01
    52  -1.9269479571E+01  -5.0005916585E+00  1.3722592954E+01
    53  8.3008289003E+00  1.0779329484E+01  -2.0752787705E+00
    54  -5.8122365376E+00  7.8100586184E+00  1.4088022881E+00
    55  -8.3007497663E+00  -1.0779254649E+01  2.0752556817E+00
    56  5.8122398512E+00  -7.8100635271E+00  -1.4088056348E+00
    57  9.3066120965E-01  -1.3822289918E-01  7.4135515472E-01
    58  1.3515642112E-01  2.2547227447E-02  1.9439191616E-01
    59  -9.3066066216E-01  1.3822202541E-01  -7.4135427368E-01
    60  -1.3515761555E-01  -2.2547729990E-02  -1.9439264898E-01
    61  8.0016788609E+00  -8.5542654935E+00  -5.5657459858E+00
    62  -1.2429276383E+01  -1.3521916018E+01  8.4846443266E+00
    63  -8.0016438009E+00  8.5542288827E+00  5.5657156610E+00
    64  1.2429273370E+01  1.3521913301E+01  -8.4846378195E+00
    65  -1.9975680951E-01  -9.8787107948E+00  -7.4546037001E+00
    66  1.4292233099E-01  -1.0034453821E+01  8.4775777550E+00
    67  1.9972441071E-01  9.8785937785E+00  7.4544902676E+00
    68  -1.4293510398E-01  1.0034465267E+01  -8.4775497683E+00
    69  3.1146465326E+00  7.0646640083E+00  5.2806893152E-01
    70  -3.4280023650E+00  7.5366190370E+00  -4.6008997172E-01
    71  -3.1145961232E+00  -7.0645505739E+00  -5.2806608851E-01
    72  3.4280067162E+00  -7.5366272610E+00  4.6008702322E-01
    73  -1.2461340631E+00  8.4956535127E-03  5.2154025585E+00
    74  1.5600745085E+00  -2.6344833235E-01  -6.3941253209E+00
    75  1.2461105788E+00  -8.4971386633E-03  -5.2152992202E+00
    76  -1.5600667252E+00  2.6344535583E-01  6.3941012410E+00
    77  7.9889442061E-01  -1.5772380711E-01  4.2556962977E-01
    78  -6.9765019317E-01  -1.5702225008E-01  -3.6682574939E-01
    79  -7.9888622380E-01  1.5772250431E-01  -4.2556552118E-01
    80  6.9764972172E-01  1.5702206342E-01  3.6682532905E-01
    81  -3.8396066660E+00  1.7318737607E+01  -6.3259913812E+00
    82  3.8434466567E+00  1.7312809131E+01  6.3328081401E+00
    83  3.8395692332E+00  -1.7318574141E+01  6.3258913691E+00
    84  -3.8434454426E+00  -1.7312820653E+01  -6.3328306265E+00
    85  1.0531816802E+00  5.9650827845E-02  5.6494930239E-01
    86  -1.0499931793E+00  5.6454331983E-02  -5.6533905851E-01
    87  -1.0531777251E+00  -5.9650262337E-02  -5.6494718318E-01
    88  1.0499927614E+00  -5.6454347752E-02  5.6533898005E-01
    89  -1.5818543164E+00  -3.4608706571E+00  9.4936511906E+00
    90  1.5839223595E+00  -3.4617631445E+00  -9.5108335769E+00
    91  1.5818336246E+00  3.4608232941E+00  -9.4935238966E+00
    92  -1.5839252493E+00  3.4617675125E+00  9.5108525433E+00
    93  6.3414226948E+00  -1.0368214113E+01  -3.9837217260E+00
    94  -6.3509753998E+00  -1.0376359333E+01  3.9894392588E+00
    95  -6.3413641198E+00  1.0368104729E+01  3.9836903782E+00
    96  6.3509780841E+00  1.0376366919E+01  -3.9894365619E+00
  Stress tensor (eV/A^3):
  5.7787437557E-03  -1.0190040105E-02  6.8985180740E-02
  -1.0190040105E-02  -6.9040798595E-02  4.4314999122E-03
  6.8985180740E-02  4.4314999122E-03  -2.5289882987E-02
