  Invoking FHI-aims ...
  | Number of atoms                   :  96
  ...scf iterations...
  | Total energy corrected        :   -9.679387763069E+01 eV
  ...
  Total atomic forces (unitary forces cleaned)
     1  -3.1498321846E-01  6.0177279583E-01  1.9330184196E-01
     2  2.4100948769E-01  5.8491058373E-01  -1.8205401890E-01
     3  3.1498314365E-01  -6.0177267397E-01  -1.9330182525E-01
     4  -2.4100939292E-01  -5.8491056750E-01  1.8205411562E-01
     5  -8.0040324634E-01  1.3524236741E+00  6.1875131768E-02
     6  1.0638225128E+00  -2.4271186969E+00  3.0486864876E+00
     7  8.0040416667E-01  -1.3524234749E+00  -6.1874311171E-02
     8  -1.0638222875E+00  2.4271185127E+00  -3.0486861548E+00
     9  -4.6949544437E-01  2.7990845842E-01  -1.9953338496E-01
    10  -1.0861041003E-01  -6.0430729946E-01  1.8364256234E-01
    11  4.6949464100E-01  -2.7990899543E-01  1.9953263587E-01
    12  1.0860988825E-01  6.0430754445E-01  -1.8364298164E-01
    13  -5.7121302231E-01  -1.1182202273E+00  -1.1039381639E+00
    14  1.0812018777E+00  -3.3412871669E-01  1.1629371569E+00
    15  5.7121214707E-01  1.1182205698E+00  1.1039378160E+00
    16  -1.0812019443E+00  3.3412887183E-01  -1.1629369373E+00
    17  4.0613768538E-01  -5.1648918050E-01  -2.0040055191E-02
    18  -1.0581989446E+00  8.0555528904E-01  -1.2573190128E+00
    19  -4.0613700449E-01  5.1648939140E-01  2.0040642038E-02
    20  1.0581991577E+00  -8.0555576583E-01  1.2573190304E+00
    21  7.4384709512E-01  -1.3084969615E+00  -2.0139719316E-01
    22  -6.9305855631E-01  -1.4151471944E+00  3.3287945800E-01
    23  -7.4384729336E-01  1.3084971174E+00  2.0139708103E-01
    24  6.9305875108E-01  1.4151474144E+00  -3.3287950546E-01
    25  1.1095963321E+00  1.1489709970E-01  8.1813974788E-01
    26  -4.3734582713E-01  -1.3023186217E+00  5.3624204798E-01
    27  -1.1095970119E+00  -1.1489777372E-01  -8.1814053661E-01
    28  4.3734631301E-01  1.3023195782E+00  -5.3624248056E-01
    29  5.0356106988E-01  3.0915781323E-01  5.6896586380E-01
    30  -4.4522328526E-01  4.1962491447E-01  -6.2595362988E-01
    31  -5.0356092443E-01  -3.0915790927E-01  -5.6896632649E-01
    32  4.4522237012E-01  -4.1962535986E-01  6.2595338331E-01
    33  2.0065437051E-01  1.1907911978E+00  1.0073720957E+00
    34  -1.8667534895E-01  1.2439130269E+00  -1.0083877054E+00
    35  -2.0065412994E-01  -1.1907909875E+00  -1.0073717657E+00
    36  1.8667542556E-01  -1.2439132175E+00  1.0083876500E+00
    37  -7.3070434541E-01  3.8492676995E-01  -2.5134137378E-01
    38  7.7035559414E-01  4.8024842937E-01  1.8820234455E-01
    39  7.3070451285E-01  -3.8492705264E-01  2.5134164505E-01
    40  -7.7035540427E-01  -4.8024913143E-01  -1.8820175300E-01
    41  -1.0151722915E+00  1.2615731589E+00  9.2646888260E-02
    42  1.0317682557E+00  1.2863902033E+00  -9.4074723992E-02
    43  1.0151721207E+00  -1.2615727028E+00  -9.2646805867E-02
    44  -1.0317678632E+00  -1.2863898689E+00  9.4074797810E-02
    45  -8.9132880224E-01  1.4615528007E-01  -6.0354017835E-01
    46  -2.6163543157E+00  -1.9797835949E+00  -2.6470536005E+00
    47  8.9135005712E-01  -1.4615188068E-01  6.0355928198E-01
    48  2.6163534993E+00  1.9797821207E+00  2.6470522082E+00
    49  -2.9303947697E-01  -2.7967358900E-01  6.5966067090E-01
    50  6.6915807873E-01  3.2495192250E-02  -2.1905744299E+00
    51  2.9302531035E-01  2.7967518195E-01  -6.5967195660E-01
    52  -6.6915895337E-01  -3.2493754552E-02  2.1905771014E+00
    53  -8.2000846738E-01  -1.6761128351E+00  -1.0121074099E-01
    54  1.4694125166E-01  -2.6289197343E+00  4.7580069767E-01
    55  8.2001551894E-01  1.6761206309E+00  1.0120729198E-01
    56  -1.4694053707E-01  2.6289188655E+00  -4.7580013913E-01
    57  1.2167844868E+00  -2.0058867191E-01  1.1028865117E+00
    58  2.2731167124E+00  4.8116941691E-01  2.2907046549E+00
    59  -1.2167842110E+00  2.0058783394E-01  -1.1028867396E+00
    60  -2.2731170493E+00  -4.8116964648E-01  -2.2907049005E+00
    61  -1.2098583064E+00  1.3203648258E+00  8.7151907728E-01
    62  -2.4120766362E+00  1.1774037059E+00  1.3560209801E+00
    63  1.2098677469E+00  -1.3203676623E+00  -8.7152521876E-01
    64  2.4120763902E+00  -1.1774037542E+00  -1.3560207478E+00
    65  5.0280691305E-01  -2.0847779360E-01  1.3794186389E-01
    66  3.6988528429E+00  1.3394258180E+00  -6.0117894978E-01
    67  -5.0281808096E-01  2.0848222957E-01  -1.3794099069E-01
    68  -3.6988532911E+00  -1.3394254303E+00  6.0118135409E-01
    69  -5.8454067079E-01  -2.0163250928E+00  4.8769157955E-02
    70  1.0994425894E+00  -2.1595265106E+00  -6.1210205593E-01
    71  5.8454183682E-01  2.0163301928E+00  -4.8767074928E-02
    72  -1.0994424984E+00  2.1595248829E+00  6.1210209347E-01
    73  6.4015492485E-01  5.0914532512E-01  -2.1436629507E+00
    74  -8.7099338798E-01  8.9578696072E-01  2.0378672877E+00
    75  -6.4015609463E-01  -5.0914480999E-01  2.1436659161E+00
    76  8.7099375853E-01  -8.9578500992E-01  -2.0378710367E+00
    77  1.2740466335E+00  -2.1408570137E-01  6.5253793541E-01
    78  -1.9842694645E+00  -5.0770263506E-01  -1.1186499458E+00
    79  -1.2740470531E+00  2.1408531560E-01  -6.5253932671E-01
    80  1.9842703425E+00  5.0770281613E-01  1.1186501282E+00
    81  2.6035794715E-01  4.9597360635E-01  3.1139324139E-01
    82  -1.6007503038E-01  7.5556179779E-01  -1.4782417434E-01
    83  -2.6037419005E-01  -4.9597696197E-01  -3.1139445132E-01
    84  1.6007540330E-01  -7.5556296085E-01  1.4782356450E-01
    85  1.3997265129E+00  1.6229350132E-01  7.4903626829E-01
    86  -1.4585761082E+00  3.1238495301E-01  -6.6738875142E-01
    87  -1.3997279475E+00  -1.6229370669E-01  -7.4903706390E-01
    88  1.4585754656E+00  -3.1238482620E-01  6.6738851506E-01
    89  3.8658892125E-01  7.3456555035E-01  -1.9946313476E+00
    90  -4.0948761489E-01  8.8480444693E-01  2.0879392060E+00
    91  -3.8658871395E-01  -7.3456950191E-01  1.9946344636E+00
    92  4.0948774571E-01  -8.8480319659E-01  -2.0879388321E+00
    93  -9.6040895561E-01  1.2256609668E+00  9.5699175934E-01
    94  9.5442971683E-01  1.4454290501E+00  -9.2215005184E-01
    95  9.6041486929E-01  -1.2256724220E+00  -9.5699517132E-01
    96  -9.5442934003E-01  -1.4454288195E+00  9.2214981818E-01
  Stress tensor (eV/A^3):
  8.2895232724E-02  -6.7218928840E-03  2.7723415708E-02
  -6.7218928840E-03  9.9277515645E-02  8.2051624864E-03
  2.7723415708E-02  8.2051624864E-03  6.4217578668E-02
