  Invoking FHI-aims ...
  | Number of atoms                   :  96
  ...scf iterations...
  | Total energy corrected        :   -7.300380950450E+01 eV
  ...
  Total atomic forces (unitary forces cleaned)
     1  -2.3554929314E-01  5.8378087321E-01  1.8657977410E-01
     2  2.3041541630E-01  5.7704599411E-01  -1.9133408730E-01
     3  2.3554927217E-01  -5.8378080303E-01  -1.8657976032E-01
     4  -2.3041531057E-01  -5.7704596171E-01  1.9133419229E-01
     5  -8.7978919601E-01  1.1026459219E+00  6.0721917707E-02
     6  8.6480201463E-01  1.0141346934E+00  5.5505621806E-02
     7  8.7978974302E-01  -1.1026457670E+00  -6.0721410858E-02
     8  -8.6480193068E-01  -1.0141348591E+00  -5.5505407866E-02
     9  -2.0818699245E-01  1.4144704815E-01  -9.6628750683E-02
    10  7.7491952489E-02  1.6147108201E-02  1.0944038186E-01
    11  2.0818646776E-01  -1.4144724756E-01  9.6628423990E-02
    12  -7.7492219492E-02  -1.6146919425E-02  -1.0944057130E-01
    13  -3.9027031544E-01  -9.1934580828E-01  -8.5794892163E-01
    14  5.2337031941E-01  -7.9126245597E-01  8.4441161240E-01
    15  3.9026977738E-01  9.1934601210E-01  8.5794871397E-01
    16  -5.2337044758E-01  7.9126248779E-01  -8.4441139760E-01
    17  1.7412117290E+00  -2.3883008498E+00  -2.1996056967E-01
    18  -1.7972416366E+00  -2.2824742308E+00  8.0733715282E-02
    19  -1.7412119417E+00  2.3883019005E+00  2.1996093774E-01
    20  1.7972422100E+00  2.2824753854E+00  -8.0734260656E-02
    21  -8.3322182292E-01  7.9451082623E-01  -2.6137436428E-02
    22  8.4235710052E-01  8.1938939212E-01  1.5057209371E-02
    23  8.3322229521E-01  -7.9451168101E-01  2.6137266178E-02
    24  -8.4235747334E-01  -8.1939045925E-01  -1.5057072492E-02
    25  5.2623334363E-01  5.2426656212E-02  3.6641335059E-01
    26  -4.8331403455E-01  -7.1721091027E-02  -2.2665482292E-01
    27  -5.2623374511E-01  -5.2427006507E-02  -3.6641369559E-01
    28  4.8331426771E-01  7.1721420422E-02  2.2665470824E-01
    29  7.4118485044E-01  2.0843688205E+00  1.9591473874E+00
    30  -7.4152800921E-01  2.0806923248E+00  -1.9565091171E+00
    31  -7.4118445986E-01  -2.0843676978E+00  -1.9591466487E+00
    32  7.4152772067E-01  -2.0806929726E+00  1.9565090445E+00
    33  -3.0820067964E-01  -7.1740151868E-01  -6.6544450310E-01
    34  3.0800744049E-01  -7.1902765109E-01  6.6525362201E-01
    35  3.0820063883E-01  7.1740049302E-01  6.6544361041E-01
    36  -3.0800767216E-01  7.1902794869E-01  -6.6525377766E-01
    37  -1.9633484432E+00  2.2885890421E+00  1.3530577087E-01
    38  1.9609120190E+00  2.2850883628E+00  -1.3394854493E-01
    39  1.9633474876E+00  -2.2885876663E+00  -1.3530541494E-01
    40  -1.9609105093E+00  -2.2850871845E+00  1.3394886952E-01
    41  5.6779622886E-01  -7.6270041576E-01  -1.2552664736E-01
    42  -5.6946374619E-01  -7.6376924199E-01  1.2669902470E-01
    43  -5.6779526531E-01  7.6269901268E-01  1.2552648129E-01
    44  5.6946273649E-01  7.6376792187E-01  -1.2669892348E-01
    45  -1.5614595921E+00  7.0628214655E-02  -9.7855486712E-01
    46  1.4125062769E+00  -6.2389391910E-02  8.7678502395E-01
    47  1.5614546648E+00  -7.0628470438E-02  9.7855162729E-01
    48  -1.4125060032E+00  6.2389930586E-02  -8.7678535488E-01
    49  -1.3316774524E+01  -4.5706097166E+00  8.9330808401E+00
    50  1.8178773926E+01  1.7003789471E+00  -1.1374000563E+01
    51  1.3316555845E+01  4.5705624731E+00  -8.9330088942E+00
    52  -1.8178783034E+01  -1.7003598301E+00  1.1373995031E+01
    53  6.3393807437E+00  1.0420144674E+01  -2.5728626639E-01
    54  -5.5346526312E+00  9.7571954047E+00  8.3269494094E-02
    55  -6.3392809865E+00  -1.0419989460E+01  2.5728640019E-01
    56  5.5346620258E+00  -9.7572129959E+00  -8.3272287655E-02
    57  -1.1691658915E+00  1.1713197620E-01  -9.6313288270E-01
    58  3.1897929386E-01  4.2684668835E-02  3.1534474729E-01
    59  1.1691761687E+00  -1.1713283848E-01  9.6314145706E-01
    60  -3.1897561758E-01  -4.2684434173E-02  -3.1534169387E-01
    61  7.2348167374E+00  -6.8663293415E+00  -4.7775550823E+00
    62  -1.2081313111E+01  -1.2356781820E+01  8.2542224739E+00
    63  -7.2347100001E+00  6.8662200057E+00  4.7774806714E+00
    64  1.2081309217E+01  1.2356779376E+01  -8.2542168039E+00
    65  2.4465701464E+00  -7.8611925946E+00  -6.6123548649E+00
    66  -2.2158629368E+00  -7.2252434352E+00  7.2718236055E+00
    67  -2.4465850539E+00  7.8611392873E+00  6.6123131381E+00
    68  2.2158524503E+00  7.2252579467E+00  -7.2718050150E+00
    69  2.6658666443E+00  6.5198541212E+00  7.2465790700E-01
    70  -2.7616799405E+00  6.6491469572E+00  -6.4798526943E-01
    71  -2.6658442711E+00  -6.5198006723E+00  -7.2465369268E-01
    72  2.7616841491E+00  -6.6491559653E+00  6.4798333328E-01
    73  -1.2753746378E+00  -8.6219485033E-01  5.7294933247E+00
    74  1.4770102427E+00  -1.3708922357E+00  -6.4506560986E+00
    75  1.2753703711E+00  8.6219026429E-01  -5.7294593407E+00
    76  -1.4770054140E+00  1.3708869062E+00  6.4506393707E+00
    77  -1.5454652625E+00  -1.6287606586E-02  -1.0704491960E+00
    78  1.3802122942E+00  -1.3102178503E-01  9.5986669433E-01
    79  1.5454658416E+00  1.6287361857E-02  1.0704498020E+00
    80  -1.3802119345E+00  1.3102158654E-01  -9.5986607829E-01
    81  -2.5930957732E+00  1.3925808728E+01  -1.4535109016E+00
    82  2.5990098758E+00  1.3904575261E+01  1.4501307952E+00
    83  2.5929974902E+00  -1.3925652492E+01  1.4535246444E+00
    84  -2.5990136833E+00  -1.3904584805E+01  -1.4501426050E+00
    85  -1.3717582821E+00  3.2318052541E-02  -7.6441316102E-01
    86  1.3789863019E+00  1.9609121350E-02  7.5886966248E-01
    87  1.3717662692E+00  -3.2317873677E-02  7.6441795293E-01
    88  -1.3789846665E+00  -1.9609285409E-02  -7.5886853729E-01
    89  -9.4230819364E-01  -2.9390708688E+00  6.9211870410E+00
    90  9.4294870719E-01  -2.9465537053E+00  -6.9295132131E+00
    91  9.4230120917E-01  2.9390490514E+00  -6.9211337585E+00
    92  -9.4295016878E-01  2.9465559218E+00  6.9295229886E+00
    93  6.4503235166E+00  -7.9811921655E+00  -4.5858792454E+00
    94  -6.4510541816E+00  -7.9939871029E+00  4.5828616673E+00
    95  -6.4502228535E+00  7.9810644929E+00  4.5858075082E+00
    96  6.4510583497E+00  7.9939948550E+00  -4.5828614224E+00
  Stress tensor (eV/A^3):
  -2.0149734803E-02  -7.8910321447E-03  4.8699176472E-02
  -7.8910321447E-03  -7.3657941621E-02  4.7812336984E-03
  4.8699176472E-02  4.7812336984E-03  -3.4264539921E-02
