  Invoking FHI-aims ...
  | Number of atoms                   :  96
  ...scf iterations...
  | Total energy corrected        :   -1.014578015356E+02 eV
  ...
  Total atomic forces (unitary forces cleaned)
     1  -3.2728510336E-01  6.0406978521E-01  1.9917385558E-01
     2  2.6334523791E-01  6.0651610561E-01  -1.8690986736E-01
     3  3.2728501212E-01  -6.0406964477E-01  -1.9917383425E-01
     4  -2.6334514468E-01  -6.0651609326E-01  1.8690996953E-01
     5  -7.4867736895E-01  1.5124106129E-02  -6.8436457310E-01
     6  1.3393763073E+00  -2.2438427375E+00  3.4782036192E+00
     7  7.4867843208E-01  -1.5123890485E-02  6.8436550823E-01
     8  -1.3393760096E+00  2.2438425400E+00  -3.4782032203E+00
     9  -5.1794128487E-01  3.3775197838E-01  -1.9855193386E-01
    10  -2.4432559538E+00  -2.1395392193E+00  1.6395966971E-01
    11  5.1794038994E-01  -3.3775264217E-01  1.9855103647E-01
    12  2.4432556135E+00  2.1395399370E+00  -1.6396044516E-01
    13  -5.9130987180E-01  -1.1623138437E+00  -1.1476099539E+00
    14  3.4487461873E+00  1.1485926079E+00  1.2708344072E+00
    15  5.9130892308E-01  1.1623142287E+00  1.1476095838E+00
    16  -3.4487466302E+00  -1.1485928437E+00  -1.2708340050E+00
    17  5.7883250279E-01  -7.4739734777E-01  -3.4964022622E-02
    18  -2.1341788858E+00  1.0970243271E+00  -2.7022124915E+00
    19  -5.7883185772E-01  7.4739766975E-01  3.4964640215E-02
    20  2.1341792004E+00  -1.0970243619E+00  2.7022121354E+00
    21  6.2987716246E-01  -1.1383136662E+00  -1.7233929618E-01
    22  -4.2116895819E-01  -1.1083603650E+00  3.7505014977E-01
    23  -6.2987732252E-01  1.1383137471E+00  1.7233915501E-01
    24  4.2116904861E-01  1.1083603117E+00  -3.7505011215E-01
    25  1.1978493126E+00  1.4118870494E-01  8.9706025914E-01
    26  1.7753424606E-01  -2.1161858147E+00  1.9466662740E+00
    27  -1.1978503861E+00  -1.4118941924E-01  -8.9706134326E-01
    28  -1.7753350960E-01  2.1161866757E+00  -1.9466663741E+00
    29  5.7449423702E-01  5.0612755750E-01  7.5387113000E-01
    30  -4.0494168669E-01  7.1106763083E-01  -8.1794851542E-01
    31  -5.7449408790E-01  -5.0612753417E-01  -7.5387148519E-01
    32  4.0494081335E-01  -7.1106819924E-01  8.1794834128E-01
    33  1.7081304197E-01  1.0243221692E+00  8.7165069132E-01
    34  -1.4982464853E-01  1.1259849781E+00  -8.9566615122E-01
    35  -1.7081285119E-01  -1.0243220883E+00  -8.7165049644E-01
    36  1.4982469115E-01  -1.1259851673E+00  8.9566609746E-01
    37  -9.1796626401E-01  5.7170481385E-01  -2.6217450089E-01
    38  9.2771118682E-01  7.4515586172E-01  1.0919376920E-01
    39  9.1796637517E-01  -5.7170489557E-01  2.6217484211E-01
    40  -9.2771093698E-01  -7.4515648780E-01  -1.0919318243E-01
    41  -8.7294330199E-01  1.0785968644E+00  6.4221016549E-02
    42  9.2526756778E-01  1.1516982676E+00  -8.3723297351E-02
    43  8.7294320871E-01  -1.0785965364E+00  -6.4220943830E-02
    44  -9.2526730224E-01  -1.1516981026E+00  8.3723387225E-02
    45  -6.0411689282E-01  1.2035545248E-01  -3.1435162473E-01
    46  -2.7144508417E+00  -3.2044410358E-01  -3.1847710614E+00
    47  6.0413650657E-01  -1.2035378519E-01  3.1436982643E-01
    48  2.7144508059E+00  3.2044311735E-01  3.1847690105E+00
    49  -5.3777698164E-01  -3.5770301817E-01  1.0319925770E+00
    50  7.8958272140E-02  -1.8524490521E+00  -1.9785056965E+00
    51  5.3777136051E-01  3.5770468517E-01  -1.0319996016E+00
    52  -7.8958493052E-02  1.8524484357E+00  1.9785073095E+00
    53  -5.7247565116E-01  -1.3585686119E+00  -2.1485929815E-01
    54  7.0938055824E-01  4.4955059912E-02  -2.7872758644E-01
    55  5.7248098984E-01  1.3585726463E+00  2.1485600035E-01
    56  -7.0938213805E-01  -4.4958094304E-02  2.7872849765E-01
    57  9.1976109771E-01  -1.3715275835E-01  7.5029222653E-01
    58  2.5919474084E+00  5.0028665405E-01  2.3568158882E+00
    59  -9.1976533961E-01  1.3715300685E-01  -7.5029760155E-01
    60  -2.5919468040E+00  -5.0028679769E-01  -2.3568153784E+00
    61  -8.7198828373E-01  1.1176327126E+00  5.7692661342E-01
    62  -2.1498877134E+00  -6.6175657821E-01  1.3640610308E+00
    63  8.7199543517E-01  -1.1176330985E+00  -5.7693113668E-01
    64  2.1498882181E+00  6.6176013843E-01  -1.3640608227E+00
    65  6.5213561598E-01  -6.2602764657E-01  -3.9858306861E-01
    66  3.6166069307E+00  -6.1606454642E-01  3.4727698424E-01
    67  -6.5214270918E-01  6.2603039596E-01  3.9858323443E-01
    68  -3.6166077109E+00  6.1606419172E-01  -3.4727495772E-01
    69  -4.6757524470E-01  -1.4187027778E+00  1.5896100583E-01
    70  1.3064854255E+00  -1.8295668479E+00  -9.8739941686E-01
    71  4.6757649015E-01  1.4187082179E+00  -1.5895848410E-01
    72  -1.3064858090E+00  1.8295661961E+00  9.8739974652E-01
    73  4.4737763607E-01  5.2362977152E-01  -1.5089698706E+00
    74  -1.1587675567E+00  1.1630923923E+00  2.4075602690E+00
    75  -4.4737896184E-01  -5.2362895410E-01  1.5089747094E+00
    76  1.1587677078E+00  -1.1630907048E+00  -2.4075632111E+00
    77  9.7195327562E-01  -1.6249896982E-01  5.1430803983E-01
    78  -2.2724793244E+00  -6.9033663681E-01  -1.3875000077E+00
    79  -9.7195705191E-01  1.6249909520E-01  -5.1431097386E-01
    80  2.2724803647E+00  6.9033688350E-01  1.3875002064E+00
    81  3.6471462734E-01  1.0363551099E+00  8.7218129729E-02
    82  -4.6533883082E-01  1.9988729526E+00  1.5999070232E-01
    83  -3.6472202662E-01  -1.0363572392E+00  -8.7220024660E-02
    84  4.6533907902E-01  -1.9988735670E+00  -1.5999153132E-01
    85  1.0375604636E+00  7.8357439832E-02  5.7262301408E-01
    86  -1.1390726248E+00  3.5266914133E-01  -4.2548508613E-01
    87  -1.0375667808E+00  -7.8358603656E-02  -5.7262613834E-01
    88  1.1390721733E+00  -3.5266906598E-01  4.2548501267E-01
    89  2.8849932361E-01  3.6128260897E-01  -1.4883943603E+00
    90  -3.3813390360E-01  6.9668738333E-01  1.7132856666E+00
    91  -2.8849921003E-01  -3.6128777191E-01  1.4883984722E+00
    92  3.3813412276E-01  -6.9668635803E-01  -1.7132856445E+00
    93  -7.8892918131E-01  8.1970597005E-01  8.3805043814E-01
    94  7.9825386766E-01  1.2880245241E+00  -7.7848542512E-01
    95  7.8893266216E-01  -8.1971407571E-01  -8.3805158253E-01
    96  -7.9825368416E-01  -1.2880244869E+00  7.7848548696E-01
  Stress tensor (eV/A^3):
  7.8876009203E-02  -7.9019832385E-03  2.5810683373E-02
  -7.9019832385E-03  8.5587730309E-02  1.1607085528E-02
  2.5810683373E-02  1.1607085528E-02  5.9296439701E-02
