  Invoking FHI-aims ...
  | Number of atoms                   :  96
  ...scf iterations...
  | Total energy corrected        :   -7.384629746965E+01 eV
  ...
  Total atomic forces (unitary forces cleaned)
     1  -2.0883719445E-01  5.9244438387E-01  1.9982268665E-01
     2  2.0882497758E-01  5.9243316361E-01  -1.9983794776E-01
     3  2.0883737066E-01  -5.9244428829E-01  -1.9982257715E-01
     4  -2.0882487989E-01  -5.9243285476E-01  1.9983797950E-01
     5  -7.9513128493E-01  1.1916528460E+00  5.3556519528E-02
     6  7.9519082101E-01  1.1916576146E+00  -5.3557484692E-02
     7  7.9513120557E-01  -1.1916527182E+00  -5.3556486801E-02
     8  -7.9519135067E-01  -1.1916577073E+00  5.3557788942E-02
     9  -1.6713047119E-01  1.7509472087E-01  -8.9085840953E-02
    10  1.6709253392E-01  1.7501823552E-01  8.9104534938E-02
    11  1.6713038140E-01  -1.7509401837E-01  8.9085734261E-02
    12  -1.6709294921E-01  -1.7501871225E-01  -8.9104215687E-02
    13  -3.5502727039E-01  -8.3280960179E-01  -8.6955658138E-01
    14  3.5502921232E-01  -8.3275968970E-01  8.6952190905E-01
    15  3.5502676590E-01  8.3280947671E-01  8.6955624018E-01
    16  -3.5502943880E-01  8.3276018101E-01  -8.6952108685E-01
    17  2.5172405961E+00  -3.8809697893E+00  -3.3276020856E-01
    18  -2.5170730302E+00  -3.8804546143E+00  3.3283734023E-01
    19  -2.5172458117E+00  3.8809799315E+00  3.3276030589E-01
    20  2.5170726892E+00  3.8804551558E+00  -3.3283856104E-01
    21  -1.6013506409E+00  2.3014168782E+00  7.0823327698E-02
    22  1.6011509999E+00  2.3009323185E+00  -7.0815511972E-02
    23  1.6013567609E+00  -2.3014264607E+00  -7.0823384277E-02
    24  -1.6011511254E+00  -2.3009327394E+00  7.0816083757E-02
    25  4.5648678043E-01  -2.6761624612E-02  4.4705673725E-01
    26  -4.5647721976E-01  -2.6699460316E-02  -4.4708116031E-01
    27  -4.5648650905E-01  2.6761334501E-02  -4.4705671001E-01
    28  4.5647805772E-01  2.6699377713E-02  4.4708093957E-01
    29  1.0329441212E+00  3.0824141973E+00  3.1377733320E+00
    30  -1.0329633119E+00  3.0825773408E+00  -3.1378983653E+00
    31  -1.0329460929E+00  -3.0824197894E+00  -3.1377769084E+00
    32  1.0329659162E+00  -3.0825817104E+00  3.1379010380E+00
    33  -6.1162646166E-01  -1.8328221973E+00  -1.9050012293E+00
    34  6.1168369156E-01  -1.8330223363E+00  1.9051463606E+00
    35  6.1162822828E-01  1.8328273365E+00  1.9050054351E+00
    36  -6.1168584188E-01  1.8330264765E+00  -1.9051492738E+00
    37  -2.6506580243E+00  3.6988645900E+00  2.4812315113E-01
    38  2.6503641435E+00  3.6982805110E+00  -2.4814537001E-01
    39  2.6506570603E+00  -3.6988635780E+00  -2.4812192416E-01
    40  -2.6503627293E+00  -3.6982782821E+00  2.4814608745E-01
    41  1.4280886755E+00  -2.1129460107E+00  -2.5365397313E-01
    42  -1.4277812984E+00  -2.1123694534E+00  2.5360618672E-01
    43  -1.4280876862E+00  2.1129447084E+00  2.5365307685E-01
    44  1.4277799574E+00  2.1123674558E+00  -2.5360648560E-01
    45  -1.9753100493E-01  1.0233466393E-02  -1.1792870688E-01
    46  1.9755913818E-01  1.0204149330E-02  1.1790592029E-01
    47  1.9753034469E-01  -1.0233367224E-02  1.1792870316E-01
    48  -1.9755922455E-01  -1.0204604860E-02  -1.1790635665E-01
    49  -4.3477178314E-01  1.5696880768E+00  2.8002383454E+00
    50  4.3539926089E-01  1.5683981608E+00  -2.8010391600E+00
    51  4.3476967233E-01  -1.5696780210E+00  -2.8002487070E+00
    52  -4.3540576512E-01  -1.5683969931E+00  2.8010362308E+00
    53  9.3072151128E-01  2.9812868981E-01  -6.5971987797E-01
    54  -9.3166803281E-01  2.9847672027E-01  6.6023863509E-01
    55  -9.3072388211E-01  -2.9813241883E-01  6.5972134216E-01
    56  9.3167064288E-01  -2.9847769361E-01  -6.6024052898E-01
    57  -8.5668607015E-01  1.4808969233E-01  -7.5097192630E-01
    58  8.5699504422E-01  1.4817723954E-01  7.5120689166E-01
    59  8.5669443900E-01  -1.4809114127E-01  7.5097842050E-01
    60  -8.5699029170E-01  -1.4817610816E-01  -7.5120218107E-01
    61  1.7944815389E-01  -1.3193233683E+00  6.7353831277E-02
    62  -1.7944173207E-01  -1.3184780008E+00  -6.7300307266E-02
    63  -1.7945061764E-01  1.3193198028E+00  -6.7352784937E-02
    64  1.7944170374E-01  1.3184764608E+00  6.7300513949E-02
    65  6.3630288660E-01  -3.0255438078E+00  4.9960523400E-01
    66  -6.3580773973E-01  -3.0252751328E+00  -4.9999689172E-01
    67  -6.3630122199E-01  3.0255444962E+00  -4.9960275303E-01
    68  6.3581165502E-01  3.0252717334E+00  4.9999377791E-01
    69  8.1144951138E-01  7.0974311008E-01  -4.8114898118E-01
    70  -8.1154846464E-01  7.0980868605E-01  4.8116735183E-01
    71  -8.1145204623E-01  -7.0974594729E-01  4.8114912844E-01
    72  8.1154324135E-01  -7.0980548304E-01  -4.8116495314E-01
    73  -2.5060611708E-01  6.9788223149E-01  1.0074168437E+00
    74  2.5043937076E-01  6.9756825566E-01  -1.0068916502E+00
    75  2.5060716417E-01  -6.9788084061E-01  -1.0074166879E+00
    76  -2.5043844450E-01  -6.9756800559E-01  1.0068912253E+00
    77  -8.0761531945E-01  1.2501178540E-01  -6.5200462459E-01
    78  8.0739460477E-01  1.2501521684E-01  6.5184168571E-01
    79  8.0761315579E-01  -1.2501152634E-01  6.5200326745E-01
    80  -8.0739430335E-01  -1.2501516522E-01  -6.5184054910E-01
    81  2.2062173458E+00  1.3886863054E+00  -1.5497669019E+00
    82  -2.2059920578E+00  1.3882583817E+00  1.5495763911E+00
    83  -2.2062183494E+00  -1.3886945391E+00  1.5497593775E+00
    84  2.2059931632E+00  -1.3882499717E+00  -1.5495828502E+00
    85  -8.6935370916E-01  4.1326632428E-02  -4.7854481092E-01
    86  8.6902130058E-01  4.1302498021E-02  4.7835081840E-01
    87  8.6935722189E-01  -4.1326564476E-02  4.7854690384E-01
    88  -8.6902112514E-01  -4.1302698497E-02  -4.7834995458E-01
    89  -3.1475835416E-01  4.0031214379E-01  9.8085495830E-01
    90  3.1474118757E-01  4.0020063222E-01  -9.8054761905E-01
    91  3.1475770535E-01  -4.0030819903E-01  -9.8085221747E-01
    92  -3.1474228803E-01  -4.0020387587E-01  9.8055325111E-01
    93  6.5234896437E-02  -1.2105340731E+00  2.7105849973E-01
    94  -6.5152691830E-02  -1.2099607813E+00  -2.7096743135E-01
    95  -6.5235969796E-02  1.2105366819E+00  -2.7105714990E-01
    96  6.5151961138E-02  1.2099564815E+00  2.7096750626E-01
  Stress tensor (eV/A^3):
  2.3098204459E-02  2.3753827368E-06  2.1254301116E-02
  2.3753827368E-06  1.1660621498E-02  -1.2449851984E-06
  2.1254301116E-02  -1.2449851984E-06  2.5529091255E-02
