  Invoking FHI-aims ...
  | Number of atoms                   :  96
  ...scf iterations...
  | Total energy corrected        :   -1.016632674857E+02 eV
  ...
  Total atomic forces (unitary forces cleaned)
     1  -3.0372600728E-01  6.1562834745E-01  1.8730982444E-01
     2  2.3403314095E-01  5.8409546115E-01  -1.8423322072E-01
     3  3.0372602800E-01  -6.1562823819E-01  -1.8730977449E-01
     4  -2.3403297552E-01  -5.8409531282E-01  1.8423328122E-01
     5  -7.9210520021E-01  1.1124033167E+00  -3.6876480220E-02
     6  1.0517193811E+00  -1.4581553172E+00  2.2060790374E+00
     7  7.9210574642E-01  -1.1124031563E+00  3.6877035038E-02
     8  -1.0517194780E+00  1.4581551779E+00  -2.2060787058E+00
     9  -4.6967114410E-01  3.1861480397E-01  -2.0426837757E-01
    10  -2.3649934957E-01  -7.1193555855E-01  1.8739453938E-01
    11  4.6967057906E-01  -3.1861482434E-01  2.0426785946E-01
    12  2.3649999824E-01  7.1193653152E-01  -1.8739470962E-01
    13  -5.7307669360E-01  -1.0920195176E+00  -1.1571863362E+00
    14  1.2069317294E+00  -1.6809599004E-01  1.2231561270E+00
    15  5.7307598000E-01  1.0920197548E+00  1.1571860200E+00
    16  -1.2069329350E+00  1.6809526272E-01  -1.2231553974E+00
    17  4.4767899624E-01  -5.9636718233E-01  -3.9173318687E-02
    18  -9.5962013442E-01  3.6537523191E-01  -8.5500242841E-01
    19  -4.4767823202E-01  5.9636726205E-01  3.9173889506E-02
    20  9.5962059862E-01  -3.6537584546E-01  8.5500249549E-01
    21  6.9888378775E-01  -1.2964243707E+00  -2.4967856034E-01
    22  -6.2263902605E-01  -1.3442506746E+00  3.7707651019E-01
    23  -6.9888439702E-01  1.2964246952E+00  2.4967812281E-01
    24  6.2263898443E-01  1.3442508060E+00  -3.7707666369E-01
    25  9.4820979852E-01  9.1817468850E-02  7.9446577156E-01
    26  -2.9594540211E-01  -1.0020157855E+00  2.6517782405E-01
    27  -9.4821452229E-01  -9.1817550055E-02  -7.9446901380E-01
    28  2.9594601433E-01  1.0020168059E+00  -2.6517840870E-01
    29  5.4110006408E-01  3.3869297867E-01  6.4874832378E-01
    30  -4.6328078658E-01  4.5183990877E-01  -6.9025793687E-01
    31  -5.4109981853E-01  -3.3869308447E-01  -6.4874845852E-01
    32  4.6328013454E-01  -4.5184021701E-01  6.9025759501E-01
    33  2.3206875796E-01  1.1204437352E+00  1.0078352298E+00
    34  -2.1826608505E-01  1.2050095485E+00  -9.8786625563E-01
    35  -2.3206839962E-01  -1.1204440258E+00  -1.0078348936E+00
    36  2.1826638857E-01  -1.2050099117E+00  9.8786609372E-01
    37  -7.6551831070E-01  4.6189825783E-01  -2.8083478328E-01
    38  7.9561721350E-01  5.5656805297E-01  2.0905850658E-01
    39  7.6551838696E-01  -4.6189849238E-01  2.8083486964E-01
    40  -7.9561715045E-01  -5.5656847554E-01  -2.0905798275E-01
    41  -9.4983994629E-01  1.2368621785E+00  8.0542341240E-02
    42  9.7014364050E-01  1.2673003428E+00  -8.3585131775E-02
    43  9.4983984168E-01  -1.2368619544E+00  -8.0542123904E-02
    44  -9.7014332619E-01  -1.2673000261E+00  8.3585303704E-02
    45  1.4804685352E+00  1.2641553943E-01  1.3818174078E+00
    46  -4.3947071700E+00  -9.5887060665E-01  -2.9303538559E+00
    47  -1.4804236342E+00  -1.2641366141E-01  -1.3817805462E+00
    48  4.3947042671E+00  9.5886413563E-01  2.9303651447E+00
    49  -1.8115599394E+00  1.9419223723E-01  3.4916973236E-01
    50  5.7813261877E-01  5.0233689410E-01  -3.4672295939E+00
    51  1.8115175204E+00  -1.9418305295E-01  -3.4916381113E-01
    52  -5.7812761749E-01  -5.0232726342E-01  3.4672093386E+00
    53  -3.1831808282E-01  -1.4456870910E+00  -2.9205247051E-01
    54  1.7355679012E+00  2.2185593421E+00  -7.1077088494E-01
    55  3.1832871052E-01  1.4456675246E+00  2.9203926095E-01
    56  -1.7355595914E+00  -2.2185517406E+00  7.1076404494E-01
    57  9.9119580846E-01  -1.7629895343E-01  7.8789211339E-01
    58  1.3756814985E+00  4.3309616840E-01  2.6783204132E+00
    59  -9.9119149169E-01  1.7629720096E-01  -7.8789336468E-01
    60  -1.3756811594E+00  -4.3309370907E-01  -2.6783168389E+00
    61  9.2141676824E-02  1.5403562422E+00  -1.4767868183E-01
    62  -1.9554743105E+00  -4.3634293137E+00  1.6598829387E+00
    63  -9.2120880147E-02  -1.5403434774E+00  1.4766249548E-01
    64  1.9554619384E+00  4.3634105413E+00  -1.6598708307E+00
    65  -3.0708546438E-01  -3.2210518234E-01  -2.3400125111E-01
    66  3.7441566249E+00  8.6872288469E-01  -6.6278719700E-01
    67  3.0707624093E-01  3.2209563683E-01  2.3398963634E-01
    68  -3.7441537156E+00  -8.6872090596E-01  6.6279054952E-01
    69  -7.6404050353E-01  -8.0194992210E-01  6.6592761336E-01
    70  1.0651782132E+00  -9.3448575914E-01  -1.0822220633E+00
    71  7.6404531712E-01  8.0196251521E-01  -6.6592199359E-01
    72  -1.0651773643E+00  9.3448501633E-01  1.0822215161E+00
    73  6.9359485252E-01  1.6975427953E-01  -1.4174017461E+00
    74  -1.2428043568E+00  -1.7693096288E-01  2.5713965406E+00
    75  -6.9359475680E-01  -1.6974838633E-01  1.4174114489E+00
    76  1.2428032924E+00  1.7693389468E-01  -2.5714000006E+00
    77  7.5312538210E-01  -2.6962662856E-01  3.8678217712E-01
    78  -1.1395701084E+00  -3.6840868953E-01  -6.9977355831E-01
    79  -7.5313468035E-01  2.6962783925E-01  -3.8678891462E-01
    80  1.1395707183E+00  3.6840874432E-01  6.9977328684E-01
    81  -5.5971104802E-01  9.7015728996E-01  -5.2181468525E-01
    82  -3.3337403168E-02  1.9829080836E+00  1.0327479646E+00
    83  5.5969707991E-01  -9.7013440824E-01  5.2180006415E-01
    84  3.3337046524E-02  -1.9829085459E+00  -1.0327501188E+00
    85  8.5232267284E-01  2.7622568712E-02  4.4886085303E-01
    86  -9.8882345165E-01  1.1918843235E-01  -3.4268080613E-01
    87  -8.5233292988E-01  -2.7625035023E-02  -4.4886430859E-01
    88  9.8882239577E-01  -1.1918837972E-01  3.4268061013E-01
    89  4.2451674863E-01  -4.9033302759E-01  -1.4195078858E+00
    90  -5.2948331599E-01  -3.3516932615E-01  1.7944421448E+00
    91  -4.2451291801E-01  4.9031861704E-01  1.4195055169E+00
    92  5.2948303986E-01  3.3517177900E-01  -1.7944404155E+00
    93  -5.1786522115E-01  4.2470990922E-01  7.6377802400E-01
    94  5.2858876389E-01  9.1841162419E-01  -6.6715593920E-01
    95  5.1786573772E-01  -4.2472908818E-01  -7.6376420716E-01
    96  -5.2858935710E-01  -9.1841224209E-01  6.6715749408E-01
  Stress tensor (eV/A^3):
  7.3521906883E-02  -9.3877265935E-03  2.4355156843E-02
  -9.3877265935E-03  6.5148297444E-02  8.9152025558E-03
  2.4355156843E-02  8.9152025558E-03  6.0155883681E-02
