  Invoking FHI-aims ...
  | Number of atoms                   :  96
  ...scf iterations...
  | Total energy corrected        :   -1.022463032959E+02 eV
  ...
  Total atomic forces (unitary forces cleaned)
     1  -3.1918303235E-01  6.0902353229E-01  1.9254869728E-01
     2  2.4850724340E-01  5.9120062137E-01  -1.8293194783E-01
     3  3.1918297950E-01  -6.0902340241E-01  -1.9254866838E-01
     4  -2.4850713152E-01  -5.9120056930E-01  1.8293203104E-01
     5  -7.6677489778E-01  5.1520361884E-01  -4.0196234161E-01
     6  1.2005620816E+00  -2.3046527318E+00  3.2633296724E+00
     7  7.6677577434E-01  -5.1520342751E-01  4.0196314365E-01
     8  -1.2005619232E+00  2.3046525600E+00  -3.2633292994E+00
     9  -5.0415161840E-01  3.3156982741E-01  -2.0197009589E-01
    10  -1.4827387826E+00  -1.6499215034E+00  1.9856013992E-01
    11  5.0415084218E-01  -3.3157026575E-01  2.0196933484E-01
    12  1.4827387987E+00  1.6499222702E+00  -1.9856071379E-01
    13  -5.8748152523E-01  -1.1394259322E+00  -1.1486778689E+00
    14  2.4920654259E+00  7.0925447740E-01  1.2200214625E+00
    15  5.8748066634E-01  1.1394262700E+00  1.1486775199E+00
    16  -2.4920661093E+00  -7.0925485283E-01  -1.2200209215E+00
    17  5.4029420465E-01  -7.0826380673E-01  -4.1802685328E-02
    18  -1.6407903387E+00  9.5771260220E-01  -2.0359167263E+00
    19  -5.4029354450E-01  7.0826406764E-01  4.1803284641E-02
    20  1.6407908146E+00  -9.5771295547E-01  2.0359165820E+00
    21  6.4211117929E-01  -1.1799560831E+00  -2.0438453620E-01
    22  -5.0556483809E-01  -1.2131289881E+00  3.7284635495E-01
    23  -6.4211148006E-01  1.1799562158E+00  2.0438429601E-01
    24  5.0556494307E-01  1.2131289839E+00  -3.7284630590E-01
    25  1.0723977823E+00  1.2504269947E-01  8.3620219182E-01
    26  7.7991566692E-02  -1.7946914107E+00  1.4107107543E+00
    27  -1.0724009280E+00  -1.2504315610E-01  -8.3620451473E-01
    28  -7.7990959722E-02  1.7946924014E+00  -1.4107110580E+00
    29  5.6473524855E-01  4.5935654214E-01  7.2866257794E-01
    30  -4.4735455596E-01  6.1536254955E-01  -7.8196749182E-01
    31  -5.6473503864E-01  -4.5935661852E-01  -7.2866286816E-01
    32  4.4735375712E-01  -6.1536305304E-01  7.8196726526E-01
    33  1.9672748804E-01  1.0475243851E+00  9.1393565330E-01
    34  -1.7461242165E-01  1.1352241687E+00  -9.2475023474E-01
    35  -1.9672720381E-01  -1.0475244236E+00  -9.1393538894E-01
    36  1.7461256919E-01  -1.1352243939E+00  9.2475015742E-01
    37  -8.7280994653E-01  5.4208850411E-01  -2.6896154009E-01
    38  9.0150611344E-01  6.6809440699E-01  1.6332086923E-01
    39  8.7281004106E-01  -5.4208864712E-01  2.6896179348E-01
    40  -9.0150592128E-01  -6.6809496273E-01  -1.6332029167E-01
    41  -9.0121886540E-01  1.1289253768E+00  7.1044693009E-02
    42  9.3009837185E-01  1.1711268677E+00  -7.8027643471E-02
    43  9.0121876634E-01  -1.1289250823E+00  -7.1044578966E-02
    44  -9.3009808183E-01  -1.1711266421E+00  7.8027757627E-02
    45  5.8107108731E-01  1.0308092011E-01  6.4638370275E-01
    46  -3.5641137809E+00  -3.6845820553E-01  -3.1133669231E+00
    47  -5.8104097234E-01  -1.0308049367E-01  -6.4636038636E-01
    48  3.5641137406E+00  3.6845697230E-01  3.1133653285E+00
    49  -9.7685762352E-01  -1.8778210433E-01  8.5798393773E-01
    50  2.5322744646E-01  -1.2114108829E+00  -2.9490660013E+00
    51  9.7684506469E-01  1.8778144526E-01  -8.5797868364E-01
    52  -2.5322802561E-01  1.2114099227E+00  2.9490665772E+00
    53  -3.4126464199E-01  -1.3315359694E+00  -3.2980876673E-01
    54  1.1382238975E+00  9.9759244154E-01  -5.0634433632E-01
    55  3.4127193917E-01  1.3315290204E+00  3.2980125318E-01
    56  -1.1382244633E+00  -9.9759423762E-01  5.0634407994E-01
    57  7.0054207317E-01  -9.9686994099E-02  4.6756512060E-01
    58  2.3243417786E+00  5.6105042170E-01  2.7347649452E+00
    59  -7.0054872814E-01  9.9688061773E-02  -4.6757592185E-01
    60  -2.3243414877E+00  -5.6105032356E-01  -2.7347638581E+00
    61  -4.2093777783E-01  1.3256522772E+00  2.6519960702E-01
    62  -2.0301609777E+00  -2.0409260987E+00  1.4541054742E+00
    63  4.2094697322E-01  -1.3256425518E+00  -2.6520461008E-01
    64  2.0301615080E+00  2.0409281590E+00  -1.4541042862E+00
    65  2.6607267382E-01  -6.0959162184E-01  -3.9611068975E-01
    66  3.3228744721E+00  -6.9991385662E-01  2.1678431689E-01
    67  -2.6607652130E-01  6.0958654609E-01  3.9610398655E-01
    68  -3.3228753613E+00  6.9991342071E-01  -2.1678180474E-01
    69  -5.1054949806E-01  -1.0443819809E+00  4.1788774318E-01
    70  1.1972017201E+00  -1.5722270561E+00  -1.1595986955E+00
    71  5.1055179016E-01  1.0443912960E+00  -4.1788263161E-01
    72  -1.1972015786E+00  1.5722261750E+00  1.1595984215E+00
    73  4.8713406501E-01  4.6231333835E-01  -1.2690633759E+00
    74  -1.2242131236E+00  8.6671922400E-01  2.3054561176E+00
    75  -4.8713508616E-01  -4.6231008771E-01  1.2690718462E+00
    76  1.2242127091E+00  -8.6671702363E-01  -2.3054590252E+00
    77  6.9432685655E-01  -1.8620420707E-01  3.3903298766E-01
    78  -1.5870195242E+00  -4.2139927953E-01  -9.4634739817E-01
    79  -6.9433594947E-01  1.8620512059E-01  -3.3903889480E-01
    80  1.5870207281E+00  4.2139955304E-01  9.4634769403E-01
    81  7.8766464760E-02  1.0547702122E+00  -1.9283872191E-01
    82  -5.2078537468E-01  2.3590899217E+00  5.2230202707E-01
    83  -7.8769385145E-02  -1.0547604054E+00  1.9283169537E-01
    84  5.2078577838E-01  -2.3590906072E+00  -5.2230349040E-01
    85  6.8781078856E-01  2.3573359126E-02  3.8716207233E-01
    86  -8.3606043842E-01  2.3867646494E-01  -2.7137577548E-01
    87  -6.8782352515E-01  -2.3576182785E-02  -3.8716772261E-01
    88  8.3605960600E-01  -2.3867636456E-01  2.7137557670E-01
    89  3.5281307673E-01  -6.1621476754E-02  -1.3232022192E+00
    90  -4.4095259632E-01  2.5000057362E-01  1.6798948674E+00
    91  -3.5281080542E-01  6.1611518240E-02  1.3232048045E+00
    92  4.4095287861E-01  -2.4999896649E-01  -1.6798947885E+00
    93  -6.4419141480E-01  5.3533951189E-01  8.1885075985E-01
    94  6.7962624419E-01  1.0724093033E+00  -7.5865982412E-01
    95  6.4419226513E-01  -5.3534879818E-01  -8.1884529007E-01
    96  -6.7962647816E-01  -1.0724094447E+00  7.5866066767E-01
  Stress tensor (eV/A^3):
  7.2642255082E-02  -9.2355613664E-03  2.3132768939E-02
  -9.2355613664E-03  7.4278119022E-02  1.1691109417E-02
  2.3132768939E-02  1.1691109417E-02  5.4691298796E-02
