  Invoking FHI-aims ...
  | Number of atoms                   :  96
  ...scf iterations...
  | Total energy corrected        :   -8.329455570094E+01 eV
  ...
  Total atomic forces (unitary forces cleaned)
     1  -2.7710005246E-01  6.1595068766E-01  1.9558594590E-01
     2  2.0779403915E-01  5.7190098782E-01  -1.9565188829E-01
     3  2.7710019597E-01  -6.1595060588E-01  -1.9558584228E-01
     4  -2.0779392420E-01  -5.7190069680E-01  1.9565192851E-01
     5  -7.4910838399E-01  1.7013815124E+00  2.8295867871E-01
     6  7.9047361478E-01  8.3757161241E-01  3.6344062708E-03
     7  7.4910839959E-01  -1.7013813702E+00  -2.8295855595E-01
     8  -7.9047412680E-01  -8.3757172280E-01  -3.6341433126E-03
     9  -3.5456675449E-01  2.6250013975E-01  -1.9025443365E-01
    10  9.5332698102E-01  6.9628830671E-01  1.7863455507E-01
    11  3.5456656017E-01  -2.6249946617E-01  1.9025431497E-01
    12  -9.5332702540E-01  -6.9628845368E-01  -1.7863392508E-01
    13  -5.0592662536E-01  -9.7422143995E-01  -1.0889178811E+00
    14  -1.0906987600E-01  -1.4494946326E+00  1.1228216854E+00
    15  5.0592609016E-01  9.7422145679E-01  1.0889175610E+00
    16  1.0906940491E-01  1.4494948021E+00  -1.1228208541E+00
    17  4.4700432514E-01  -6.1796122833E-01  -5.1638044460E-02
    18  -2.9298132252E-01  -7.2129805015E-01  5.0581601731E-01
    19  -4.4700326105E-01  6.1796112044E-01  5.1638697986E-02
    20  2.9298090454E-01  7.2129795508E-01  -5.0581633149E-01
    21  6.0973556941E-01  -1.1482835602E+00  -2.2561201866E-01
    22  -6.2747396279E-01  -1.2441133328E+00  2.7564931043E-01
    23  -6.0973575402E-01  1.1482843143E+00  2.2561151414E-01
    24  6.2747361788E-01  1.2441135378E+00  -2.7564960218E-01
    25  8.4258700263E-01  -3.2031574548E-03  7.6202649944E-01
    26  -9.7998857267E-01  1.3808125857E-01  -1.2187324644E+00
    27  -8.4258677024E-01  3.2025749705E-03  -7.6202667361E-01
    28  9.7998988188E-01  -1.3808114693E-01  1.2187318665E+00
    29  4.8067952976E-01  3.5110849361E-01  6.3882169469E-01
    30  -4.6540229726E-01  3.8930618023E-01  -6.5249318352E-01
    31  -4.8067954349E-01  -3.5110830636E-01  -6.3882146905E-01
    32  4.6540211647E-01  -3.8930613904E-01  6.5249282037E-01
    33  1.4336673452E-01  9.9998520936E-01  8.6990270090E-01
    34  -9.5773160607E-02  1.0451245081E+00  -8.1876436059E-01
    35  -1.4336683105E-01  -9.9998584016E-01  -8.6990242795E-01
    36  9.5773619474E-02  -1.0451249519E+00  8.1876429334E-01
    37  -7.0236665925E-01  5.7129571056E-01  -2.2334397762E-01
    38  7.2527652261E-01  6.0902197786E-01  2.0787044890E-01
    39  7.0236674992E-01  -5.7129597334E-01  2.2334390942E-01
    40  -7.2527668919E-01  -6.0902199915E-01  -2.0787017638E-01
    41  -8.1643371074E-01  1.1422004894E+00  7.3912459315E-02
    42  8.2211584341E-01  1.1538805640E+00  -6.9348644909E-02
    43  8.1643366858E-01  -1.1422005238E+00  -7.3912098194E-02
    44  -8.2211566732E-01  -1.1538803097E+00  6.9348887483E-02
    45  -1.1901765125E+00  1.2144825929E-01  -8.1861127606E-01
    46  1.3494495642E+00  3.1151969445E-01  6.0193631132E-01
    47  1.1901728504E+00  -1.2144765590E-01  8.1860988713E-01
    48  -1.3494502145E+00  -3.1152120392E-01  -6.0193609494E-01
    49  2.7767302839E-01  3.1863809954E-01  1.3005537685E+00
    50  -1.2102543540E+00  6.0594276431E+00  -3.3873287076E+00
    51  -2.7767068218E-01  -3.1863804572E-01  -1.3005528908E+00
    52  1.2102569475E+00  -6.0594271734E+00  3.3873260265E+00
    53  -1.3622962327E+00  -6.3318512782E-01  6.5238758622E-01
    54  9.7734724171E-01  -5.8813390417E-01  -5.0221690387E-01
    55  1.3622936285E+00  6.3318741690E-01  -6.5238550806E-01
    56  -9.7734633988E-01  5.8813352672E-01  5.0221721025E-01
    57  7.5738457729E-01  -1.7302705192E-01  5.7238027670E-01
    58  1.8252946436E+00  1.1636689280E-01  1.6350827802E+00
    59  -7.5738525278E-01  1.7302614118E-01  -5.7238023578E-01
    60  -1.8252967325E+00  -1.1636731847E-01  -1.6350821143E+00
    61  -1.3732762914E-01  1.5617473763E+00  -7.6922064738E-03
    62  -1.2077951267E+00  -4.4313173132E+00  -3.1545842627E-02
    63  1.3733020458E-01  -1.5617453319E+00  7.6903000263E-03
    64  1.2077950895E+00  4.4313174420E+00  3.1547355508E-02
    65  6.8361363771E-01  -1.1770579889E+00  4.9758890153E-01
    66  3.1450428892E-01  7.1479989575E-02  -1.0094301432E+00
    67  -6.8361429196E-01  1.1770579308E+00  -4.9758727243E-01
    68  -3.1450366535E-01  -7.1479244446E-02  1.0094308586E+00
    69  -1.1716438799E+00  -6.8583289741E-01  6.0763034132E-01
    70  1.3810909609E+00  -8.0988148413E-01  -6.7920038810E-01
    71  1.1716418775E+00  6.8583364847E-01  -6.0762845204E-01
    72  -1.3810903926E+00  8.0988095666E-01  6.7920118771E-01
    73  4.9654099883E-01  -5.8738544083E-01  -1.2611476683E+00
    74  -8.2030949104E-01  -1.7236981210E+00  2.4563509915E+00
    75  -4.9654169035E-01  5.8738165242E-01  1.2611468224E+00
    76  8.2030769986E-01  1.7236986493E+00  -2.4563512754E+00
    77  7.1682094219E-01  -1.0131758189E-01  5.4732118593E-01
    78  -1.6560642076E+00  -4.9655848502E-01  -1.2914909121E+00
    79  -7.1681983561E-01  1.0131702883E-01  -5.4732108329E-01
    80  1.6560647219E+00  4.9655852998E-01  1.2914898488E+00
    81  1.3277521984E+00  4.4316604163E-01  -2.1236500096E-01
    82  -1.3533724531E+00  4.9228866736E-01  2.4728067662E-01
    83  -1.3277500782E+00  -4.4316706146E-01  2.1236551487E-01
    84  1.3533722500E+00  -4.9228835903E-01  -2.4728041231E-01
    85  7.2073117731E-01  -7.4094709869E-02  4.8882687585E-01
    86  -7.3708199593E-01  -6.5501592962E-02  -4.6773411850E-01
    87  -7.2073071645E-01  7.4095135282E-02  -4.8882658887E-01
    88  7.3708169012E-01  6.5501496684E-02  4.6773409715E-01
    89  2.2432660273E-01  -6.3552904137E-01  -1.3646030172E+00
    90  -2.3850266508E-01  -5.9984291829E-01  1.3878079805E+00
    91  -2.2432640814E-01  6.3552644560E-01  1.3646014111E+00
    92  2.3850219752E-01  5.9984366747E-01  -1.3878081179E+00
    93  -3.7659880057E-01  1.4759167707E+00  -1.7291112674E-01
    94  3.6909725203E-01  1.4984357410E+00  1.9614160585E-01
    95  3.7659994299E-01  -1.4759145064E+00  1.7290828105E-01
    96  -3.6909696691E-01  -1.4984357774E+00  -1.9614192462E-01
  Stress tensor (eV/A^3):
  8.2909289817E-02  -9.4331771025E-04  1.9864146258E-02
  -9.4331771025E-04  8.8823367003E-02  -2.2862079860E-03
  1.9864146258E-02  -2.2862079860E-03  8.3355599921E-02
