  Invoking FHI-aims ...
  | Number of atoms                   :  96
  ...scf iterations...
  | Total energy corrected        :   -1.048836413746E+02 eV
  ...
  Total atomic forces (unitary forces cleaned)
     1  -3.2589288340E-01  6.1749863240E-01  1.8896816329E-01
     2  2.4730962883E-01  5.9044814685E-01  -1.8347559397E-01
     3  3.2589284910E-01  -6.1749850390E-01  -1.8896812544E-01
     4  -2.4730948073E-01  -5.9044804591E-01  1.8347566285E-01
     5  -7.5462236471E-01  1.0742764722E-01  -6.2657959195E-01
     6  1.2018501942E+00  -1.6606368772E+00  2.6385379247E+00
     7  7.5462312577E-01  -1.0742746899E-01  6.2658031458E-01
     8  -1.2018501548E+00  1.6606367253E+00  -2.6385375544E+00
     9  -5.1131165031E-01  3.5464418042E-01  -2.0222521261E-01
    10  -1.4297060380E+00  -1.6089087914E+00  1.8487063844E-01
    11  5.1131094632E-01  -3.5464444744E-01  2.0222452278E-01
    12  1.4297062109E+00  1.6089095703E+00  -1.8487113936E-01
    13  -5.8887525795E-01  -1.1368174945E+00  -1.1813780895E+00
    14  2.4482236951E+00  6.7492750475E-01  1.2722373042E+00
    15  5.8887446549E-01  1.1368178036E+00  1.1813777671E+00
    16  -2.4482245757E+00  -6.7492794438E-01  -1.2722366020E+00
    17  5.7290292880E-01  -7.6511567513E-01  -5.1352728902E-02
    18  -1.5873636550E+00  6.1354933618E-01  -1.7018806545E+00
    19  -5.7290232396E-01  7.6511602187E-01  5.1353339428E-02
    20  1.5873642875E+00  -6.1354969100E-01  1.7018804938E+00
    21  6.1215745624E-01  -1.1541893310E+00  -2.1560057559E-01
    22  -4.5115016503E-01  -1.1472113250E+00  3.9339026290E-01
    23  -6.1215791308E-01  1.1541894736E+00  2.1560020838E-01
    24  4.5115018720E-01  1.1472112714E+00  -3.9339026352E-01
    25  9.7703565710E-01  1.2845800936E-01  8.0811245535E-01
    26  1.4454424720E-01  -1.5374455258E+00  1.1717140914E+00
    27  -9.7704180260E-01  -1.2845808194E-01  -8.0811656914E-01
    28  -1.4454372088E-01  1.5374465308E+00  -1.1717144046E+00
    29  5.9335708065E-01  4.8508475833E-01  7.7869554894E-01
    30  -4.6137004050E-01  6.4670568930E-01  -8.2807803606E-01
    31  -5.9335678284E-01  -4.8508496752E-01  -7.7869574142E-01
    32  4.6136935974E-01  -6.4670617200E-01  8.2807779666E-01
    33  2.1159355503E-01  9.9886209675E-01  8.9813547012E-01
    34  -1.8656567976E-01  1.1089929021E+00  -9.0867557286E-01
    35  -2.1159315443E-01  -9.9886232375E-01  -8.9813519420E-01
    36  1.8656588460E-01  -1.1089931772E+00  9.0867544288E-01
    37  -9.0450445062E-01  5.8961883325E-01  -2.8175723040E-01
    38  9.2103746250E-01  7.2037743703E-01  1.6011835966E-01
    39  9.0450450397E-01  -5.8961895157E-01  2.8175742748E-01
    40  -9.2103731802E-01  -7.2037788356E-01  -1.6011781423E-01
    41  -8.6712682258E-01  1.1013837565E+00  6.3833846172E-02
    42  9.0481200548E-01  1.1600152574E+00  -7.7219101645E-02
    43  8.6712675452E-01  -1.1013835516E+00  -6.3833696109E-02
    44  -9.0481175463E-01  -1.1600150609E+00  7.7219249023E-02
    45  1.3468840960E+00  7.1042956621E-02  1.1849028541E+00
    46  -3.7609581501E+00  -1.2639388805E-01  -2.3248261593E+00
    47  -1.3468521813E+00  -7.1043339722E-02  -1.1848790285E+00
    48  3.7609574069E+00  1.2639352575E-01  2.3248229235E+00
    49  -1.1818884510E+00  -3.1099497906E-02  1.1303949303E+00
    50  -2.3469348198E-01  -6.7955704591E-01  -3.2890112980E+00
    51  1.1818733690E+00  3.1100302095E-02  -1.1303811762E+00
    52  2.3467855853E-01  6.7955155239E-01  3.2890177553E+00
    53  -3.8930783485E-01  -1.7458913506E+00  -3.6110950780E-01
    54  2.2486405541E+00  3.1534450850E+00  -1.0955033456E+00
    55  3.8930544942E-01  1.7458601016E+00  3.6110217025E-01
    56  -2.2486348098E+00  -3.1534435990E+00  1.0954974276E+00
    57  5.4198776950E-01  -7.9156994688E-02  1.6913614154E-01
    58  1.3622421355E+00  5.2576287607E-01  2.2428651926E+00
    59  -5.4198698017E-01  7.9156836793E-02  -1.6914449553E-01
    60  -1.3622403983E+00  -5.2576093666E-01  -2.2428608305E+00
    61  -1.4323427831E-01  1.8000799293E+00  5.9063257226E-02
    62  -1.1136344042E+00  -4.5149826476E+00  1.0225788021E+00
    63  1.4324110933E-01  -1.8000486676E+00  -5.9066923416E-02
    64  1.1136431357E+00  4.5149812779E+00  -1.0225804953E+00
    65  2.3554716988E-01  -8.5861252613E-01  -5.5324234129E-01
    66  3.0498741704E+00  -9.9972405550E-01  5.3294203719E-02
    67  -2.3554677862E-01  8.5860218145E-01  5.5323402121E-01
    68  -3.0498732781E+00  9.9972449947E-01  -5.3292406263E-02
    69  -5.9063160310E-01  -7.0456371156E-01  6.3588491173E-01
    70  1.3835984373E+00  -1.5683663633E+00  -1.3485913708E+00
    71  5.9063159376E-01  7.0456756960E-01  -6.3587780980E-01
    72  -1.3835982070E+00  1.5683658162E+00  1.3485913505E+00
    73  5.4846046932E-01  4.5695119922E-01  -1.0550433062E+00
    74  -1.4483741538E+00  3.4603209448E-01  2.7695620308E+00
    75  -5.4845797860E-01  -4.5694617113E-01  1.0550461717E+00
    76  1.4483731413E+00  -3.4603008780E-01  -2.7695642064E+00
    77  3.7640614718E-01  -1.6547179426E-01  1.5440602232E-01
    78  -1.3903056057E+00  -4.1991330774E-01  -8.5452406205E-01
    79  -3.7641645471E-01  1.6547305244E-01  -1.5441285469E-01
    80  1.3903064638E+00  4.1991337725E-01  8.5452401044E-01
    81  1.9535435049E-01  1.2103953150E+00  -5.0357432109E-01
    82  -9.4340720895E-01  2.7973245566E+00  1.0429324813E+00
    83  -1.9535140837E-01  -1.2103814735E+00  5.0356473439E-01
    84  9.4340639517E-01  -2.7973240793E+00  -1.0429333729E+00
    85  3.4081069649E-01  -5.6766179864E-02  2.3122421272E-01
    86  -7.5176868034E-01  1.7027480628E-01  -2.0259945552E-01
    87  -3.4082263888E-01  5.6762619968E-02  -2.3122800873E-01
    88  7.5176772156E-01  -1.7027470968E-01  2.0259936833E-01
    89  4.2572153674E-01  -4.6134074573E-01  -1.3144293326E+00
    90  -5.8653330948E-01  -8.0789013749E-02  1.9791027841E+00
    91  -4.2571439182E-01  4.6132811047E-01  1.3144171536E+00
    92  5.8653373467E-01  8.0791189019E-02  -1.9791031067E+00
    93  -6.8920312703E-01  5.4417976860E-01  9.7219587253E-01
    94  7.7004016763E-01  1.3744874710E+00  -8.6787624242E-01
    95  6.8919646920E-01  -5.4417795305E-01  -9.7218003248E-01
    96  -7.7004095094E-01  -1.3744882237E+00  8.6787790813E-01
  Stress tensor (eV/A^3):
  7.6557183219E-02  -9.6062734991E-03  1.9563046331E-02
  -9.6062734991E-03  6.9977212166E-02  9.9396732323E-03
  1.9563046331E-02  9.9396732323E-03  6.2684133849E-02
