64 
Energy: 2.7172836234672104e+00 
Mg	  0.000000000000 	  0.000000000000 	  0.000000000000 	
Mg	  1.000000000000 	  0.000000000000 	  2.980000000000 	
Mg	  0.000000000000 	  3.980000000000 	  0.000000000000 	
Mg	  1.000000000000 	  3.980000000000 	  2.980000000000 	
Mg	  3.980000000000 	  0.000000000000 	  0.000000000000 	
Mg	  4.980000000000 	  0.000000000000 	  2.980000000000 	
Mg	  3.980000000000 	  3.980000000000 	  0.000000000000 	
Mg	  4.980000000000 	  3.980000000000 	  2.980000000000 	
Mg	  1.707787500412 	  1.801858333608 	  0.000000000000 	
Mg	  2.707787500412 	  1.801858333608 	  2.980000000000 	
Mg	  1.707787500412 	  5.781858333608 	  0.000000000000 	
Mg	  2.707787500412 	  5.781858333608 	  2.980000000000 	
Mg	  5.687787500412 	  1.801858333608 	  0.000000000000 	
Mg	  6.687787500412 	  1.801858333608 	  2.980000000000 	
Mg	  5.687787500412 	  5.781858333608 	  0.000000000000 	
Mg	  6.687787500412 	  5.781858333608 	  2.980000000000 	
Mg	  2.460354165980 	  0.000000000000 	  1.519645834020 	
Mg	  3.460354165980 	  0.000000000000 	  4.499645834020 	
Mg	  2.460354165980 	  3.980000000000 	  1.519645834020 	
Mg	  3.460354165980 	  3.980000000000 	  4.499645834020 	
Mg	  6.440354165980 	  0.000000000000 	  1.519645834020 	
Mg	  7.440354165980 	  0.000000000000 	  4.499645834020 	
Mg	  6.440354165980 	  3.980000000000 	  1.519645834020 	
Mg	  7.440354165980 	  3.980000000000 	  4.499645834020 	
Mg	  0.470354165980 	  1.990000000000 	  1.519645834020 	
Mg	  1.470354165980 	  1.990000000000 	  4.499645834020 	
Mg	  0.470354165980 	  5.970000000000 	  1.519645834020 	
Mg	  1.470354165980 	  5.970000000000 	  4.499645834020 	
Mg	  4.450354165980 	  1.990000000000 	  1.519645834020 	
Mg	  5.450354165980 	  1.990000000000 	  4.499645834020 	
Mg	  4.450354165980 	  5.970000000000 	  1.519645834020 	
Mg	  5.450354165980 	  5.970000000000 	  4.499645834020 	
O	  1.990000000000 	  0.000000000000 	  0.000000000000 	
O	  2.990000000000 	  0.000000000000 	  2.980000000000 	
O	  1.990000000000 	  3.980000000000 	  0.000000000000 	
O	  2.990000000000 	  3.980000000000 	  2.980000000000 	
O	  5.970000000000 	  0.000000000000 	  0.000000000000 	
O	  6.970000000000 	  0.000000000000 	  2.980000000000 	
O	  5.970000000000 	  3.980000000000 	  0.000000000000 	
O	  6.970000000000 	  3.980000000000 	  2.980000000000 	
O	  0.000000000000 	  1.990000000000 	  0.000000000000 	
O	  1.000000000000 	  1.990000000000 	  2.980000000000 	
O	  0.000000000000 	  5.970000000000 	  0.000000000000 	
O	  1.000000000000 	  5.970000000000 	  2.980000000000 	
O	  3.980000000000 	  1.990000000000 	  0.000000000000 	
O	  4.980000000000 	  1.990000000000 	  2.980000000000 	
O	  3.980000000000 	  5.970000000000 	  0.000000000000 	
O	  4.980000000000 	  5.970000000000 	  2.980000000000 	
O	  0.470354165980 	  0.000000000000 	  1.519645834020 	
O	  1.470354165980 	  0.000000000000 	  4.499645834020 	
O	  0.470354165980 	  3.980000000000 	  1.519645834020 	
O	  1.470354165980 	  3.980000000000 	  4.499645834020 	
O	  4.450354165980 	  0.000000000000 	  1.519645834020 	
O	  5.450354165980 	  0.000000000000 	  4.499645834020 	
O	  4.450354165980 	  3.980000000000 	  1.519645834020 	
O	  5.450354165980 	  3.980000000000 	  4.499645834020 	
O	  2.836637498763 	  1.371954625903 	  1.519645834020 	
O	  3.836637498763 	  1.371954625903 	  4.499645834020 	
O	  2.836637498763 	  5.351954625903 	  1.519645834020 	
O	  3.836637498763 	  5.351954625903 	  4.499645834020 	
O	  6.816637498763 	  1.371954625903 	  1.519645834020 	
O	  7.816637498763 	  1.371954625903 	  4.499645834020 	
O	  6.816637498763 	  5.351954625903 	  1.519645834020 	
O	  7.816637498763 	  5.351954625903 	  4.499645834020 	
64 
Energy: 2.7434587975371323e+00 
Mg	  0.000000000000 	  0.000000000000 	  0.000000000000 	
Mg	  1.000000000000 	  0.000000000000 	  2.980000000000 	
Mg	  0.000000000000 	  3.980000000000 	  0.000000000000 	
Mg	  1.000000000000 	  3.980000000000 	  2.980000000000 	
Mg	  3.980000000000 	  0.000000000000 	  0.000000000000 	
Mg	  4.980000000000 	  0.000000000000 	  2.980000000000 	
Mg	  3.980000000000 	  3.980000000000 	  0.000000000000 	
Mg	  4.980000000000 	  3.980000000000 	  2.980000000000 	
Mg	  1.733613511682 	  1.821916883680 	  0.000000000000 	
Mg	  2.733613511682 	  1.821916883680 	  2.980000000000 	
Mg	  1.733613511682 	  5.801916883680 	  0.000000000000 	
Mg	  2.733613511682 	  5.801916883680 	  2.980000000000 	
Mg	  5.713613511682 	  1.821916883680 	  0.000000000000 	
Mg	  6.713613511682 	  1.821916883680 	  2.980000000000 	
Mg	  5.713613511682 	  5.801916883680 	  0.000000000000 	
Mg	  6.713613511682 	  5.801916883680 	  2.980000000000 	
Mg	  2.440040487662 	  0.000000000000 	  1.557006767688 	
Mg	  3.440040487662 	  0.000000000000 	  4.537006767688 	
Mg	  2.440040487662 	  3.980000000000 	  1.557006767688 	
Mg	  3.440040487662 	  3.980000000000 	  4.537006767688 	
Mg	  6.420040487662 	  0.000000000000 	  1.557006767688 	
Mg	  7.420040487662 	  0.000000000000 	  4.537006767688 	
Mg	  6.420040487662 	  3.980000000000 	  1.557006767688 	
Mg	  7.420040487662 	  3.980000000000 	  4.537006767688 	
Mg	  0.441516859987 	  1.998523627675 	  1.557006767688 	
Mg	  1.441516859987 	  1.998523627675 	  4.537006767688 	
Mg	  0.441516859987 	  5.978523627675 	  1.557006767688 	
Mg	  1.441516859987 	  5.978523627675 	  4.537006767688 	
Mg	  4.421516859987 	  1.998523627675 	  1.557006767688 	
Mg	  5.421516859987 	  1.998523627675 	  4.537006767688 	
Mg	  4.421516859987 	  5.978523627675 	  1.557006767688 	
Mg	  5.421516859987 	  5.978523627675 	  4.537006767688 	
O	  1.998523627675 	  0.000000000000 	  0.000000000000 	
O	  2.998523627675 	  0.000000000000 	  2.980000000000 	
O	  1.998523627675 	  3.980000000000 	  0.000000000000 	
O	  2.998523627675 	  3.980000000000 	  2.980000000000 	
O	  5.978523627675 	  0.000000000000 	  0.000000000000 	
O	  6.978523627675 	  0.000000000000 	  2.980000000000 	
O	  5.978523627675 	  3.980000000000 	  0.000000000000 	
O	  6.978523627675 	  3.980000000000 	  2.980000000000 	
O	  0.000000000000 	  1.998523627675 	  0.000000000000 	
O	  1.000000000000 	  1.998523627675 	  2.980000000000 	
O	  0.000000000000 	  5.978523627675 	  0.000000000000 	
O	  1.000000000000 	  5.978523627675 	  2.980000000000 	
O	  3.980000000000 	  1.998523627675 	  0.000000000000 	
O	  4.980000000000 	  1.998523627675 	  2.980000000000 	
O	  3.980000000000 	  5.978523627675 	  0.000000000000 	
O	  4.980000000000 	  5.978523627675 	  2.980000000000 	
O	  0.441516859987 	  0.000000000000 	  1.557006767688 	
O	  1.441516859987 	  0.000000000000 	  4.537006767688 	
O	  0.441516859987 	  3.980000000000 	  1.557006767688 	
O	  1.441516859987 	  3.980000000000 	  4.537006767688 	
O	  4.421516859987 	  0.000000000000 	  1.557006767688 	
O	  5.421516859987 	  0.000000000000 	  4.537006767688 	
O	  4.421516859987 	  3.980000000000 	  1.557006767688 	
O	  5.421516859987 	  3.980000000000 	  4.537006767688 	
O	  2.793253975652 	  1.418370473651 	  1.557006767688 	
O	  3.793253975652 	  1.418370473651 	  4.537006767688 	
O	  2.793253975652 	  5.398370473651 	  1.557006767688 	
O	  3.793253975652 	  5.398370473651 	  4.537006767688 	
O	  6.773253975652 	  1.418370473651 	  1.557006767688 	
O	  7.773253975652 	  1.418370473651 	  4.537006767688 	
O	  6.773253975652 	  5.398370473651 	  1.557006767688 	
O	  7.773253975652 	  5.398370473651 	  4.537006767688 	
64 
Energy: 3.1858975916773700e+00 
Mg	  0.000000000000 	  0.000000000000 	  0.000000000000 	
Mg	  1.000000000000 	  0.000000000000 	  2.980000000000 	
Mg	  0.000000000000 	  3.980000000000 	  0.000000000000 	
Mg	  1.000000000000 	  3.980000000000 	  2.980000000000 	
Mg	  3.980000000000 	  0.000000000000 	  0.000000000000 	
Mg	  4.980000000000 	  0.000000000000 	  2.980000000000 	
Mg	  3.980000000000 	  3.980000000000 	  0.000000000000 	
Mg	  4.980000000000 	  3.980000000000 	  2.980000000000 	
Mg	  1.759648533880 	  1.842073756916 	  0.000000000000 	
Mg	  2.759648533880 	  1.842073756916 	  2.980000000000 	
Mg	  1.759648533880 	  5.822073756916 	  0.000000000000 	
Mg	  2.759648533880 	  5.822073756916 	  2.980000000000 	
Mg	  5.739648533880 	  1.842073756916 	  0.000000000000 	
Mg	  6.739648533880 	  1.842073756916 	  2.980000000000 	
Mg	  5.739648533880 	  5.822073756916 	  0.000000000000 	
Mg	  6.739648533880 	  5.822073756916 	  2.980000000000 	
Mg	  2.419050318168 	  0.000000000000 	  1.594798087808 	
Mg	  3.419050318168 	  0.000000000000 	  4.574798087808 	
Mg	  2.419050318168 	  3.980000000000 	  1.594798087808 	
Mg	  3.419050318168 	  3.980000000000 	  4.574798087808 	
Mg	  6.399050318168 	  0.000000000000 	  1.594798087808 	
Mg	  7.399050318168 	  0.000000000000 	  4.574798087808 	
Mg	  6.399050318168 	  3.980000000000 	  1.594798087808 	
Mg	  7.399050318168 	  3.980000000000 	  4.574798087808 	
Mg	  0.412126115180 	  2.006924202988 	  1.594798087808 	
Mg	  1.412126115180 	  2.006924202988 	  4.574798087808 	
Mg	  0.412126115180 	  5.986924202988 	  1.594798087808 	
Mg	  1.412126115180 	  5.986924202988 	  4.574798087808 	
Mg	  4.392126115180 	  2.006924202988 	  1.594798087808 	
Mg	  5.392126115180 	  2.006924202988 	  4.574798087808 	
Mg	  4.392126115180 	  5.986924202988 	  1.594798087808 	
Mg	  5.392126115180 	  5.986924202988 	  4.574798087808 	
O	  2.006924202988 	  0.000000000000 	  0.000000000000 	
O	  3.006924202988 	  0.000000000000 	  2.980000000000 	
O	  2.006924202988 	  3.980000000000 	  0.000000000000 	
O	  3.006924202988 	  3.980000000000 	  2.980000000000 	
O	  5.986924202988 	  0.000000000000 	  0.000000000000 	
O	  6.986924202988 	  0.000000000000 	  2.980000000000 	
O	  5.986924202988 	  3.980000000000 	  0.000000000000 	
O	  6.986924202988 	  3.980000000000 	  2.980000000000 	
O	  0.000000000000 	  2.006924202988 	  0.000000000000 	
O	  1.000000000000 	  2.006924202988 	  2.980000000000 	
O	  0.000000000000 	  5.986924202988 	  0.000000000000 	
O	  1.000000000000 	  5.986924202988 	  2.980000000000 	
O	  3.980000000000 	  2.006924202988 	  0.000000000000 	
O	  4.980000000000 	  2.006924202988 	  2.980000000000 	
O	  3.980000000000 	  5.986924202988 	  0.000000000000 	
O	  4.980000000000 	  5.986924202988 	  2.980000000000 	
O	  0.412126115180 	  0.000000000000 	  1.594798087808 	
O	  1.412126115180 	  0.000000000000 	  4.574798087808 	
O	  0.412126115180 	  3.980000000000 	  1.594798087808 	
O	  1.412126115180 	  3.980000000000 	  4.574798087808 	
O	  4.392126115180 	  0.000000000000 	  1.594798087808 	
O	  5.392126115180 	  0.000000000000 	  4.574798087808 	
O	  4.392126115180 	  3.980000000000 	  1.594798087808 	
O	  5.392126115180 	  3.980000000000 	  4.574798087808 	
O	  2.748751210312 	  1.465390487642 	  1.594798087808 	
O	  3.748751210312 	  1.465390487642 	  4.574798087808 	
O	  2.748751210312 	  5.445390487642 	  1.594798087808 	
O	  3.748751210312 	  5.445390487642 	  4.574798087808 	
O	  6.728751210312 	  1.465390487642 	  1.594798087808 	
O	  7.728751210312 	  1.465390487642 	  4.574798087808 	
O	  6.728751210312 	  5.445390487642 	  1.594798087808 	
O	  7.728751210312 	  5.445390487642 	  4.574798087808 	
64 
Energy: 3.8268686213400263e+00 
Mg	  0.000000000000 	  0.000000000000 	  0.000000000000 	
Mg	  1.000000000000 	  0.000000000000 	  2.980000000000 	
Mg	  0.000000000000 	  3.980000000000 	  0.000000000000 	
Mg	  1.000000000000 	  3.980000000000 	  2.980000000000 	
Mg	  3.980000000000 	  0.000000000000 	  0.000000000000 	
Mg	  4.980000000000 	  0.000000000000 	  2.980000000000 	
Mg	  3.980000000000 	  3.980000000000 	  0.000000000000 	
Mg	  4.980000000000 	  3.980000000000 	  2.980000000000 	
Mg	  1.785717346639 	  1.862258533668 	  0.000000000000 	
Mg	  2.785717346639 	  1.862258533668 	  2.980000000000 	
Mg	  1.785717346639 	  5.842258533668 	  0.000000000000 	
Mg	  2.785717346639 	  5.842258533668 	  2.980000000000 	
Mg	  5.765717346639 	  1.862258533668 	  0.000000000000 	
Mg	  6.765717346639 	  1.862258533668 	  2.980000000000 	
Mg	  5.765717346639 	  5.842258533668 	  0.000000000000 	
Mg	  6.765717346639 	  5.842258533668 	  2.980000000000 	
Mg	  2.398046842869 	  0.000000000000 	  1.632634972581 	
Mg	  3.398046842869 	  0.000000000000 	  4.612634972581 	
Mg	  2.398046842869 	  3.980000000000 	  1.632634972581 	
Mg	  3.398046842869 	  3.980000000000 	  4.612634972581 	
Mg	  6.378046842869 	  0.000000000000 	  1.632634972581 	
Mg	  7.378046842869 	  0.000000000000 	  4.612634972581 	
Mg	  6.378046842869 	  3.980000000000 	  1.632634972581 	
Mg	  7.378046842869 	  3.980000000000 	  4.612634972581 	
Mg	  0.382705935144 	  2.015340907725 	  1.632634972581 	
Mg	  1.382705935144 	  2.015340907725 	  4.612634972581 	
Mg	  0.382705935144 	  5.995340907725 	  1.632634972581 	
Mg	  1.382705935144 	  5.995340907725 	  4.612634972581 	
Mg	  4.362705935144 	  2.015340907725 	  1.632634972581 	
Mg	  5.362705935144 	  2.015340907725 	  4.612634972581 	
Mg	  4.362705935144 	  5.995340907725 	  1.632634972581 	
Mg	  5.362705935144 	  5.995340907725 	  4.612634972581 	
O	  2.015340907725 	  0.000000000000 	  0.000000000000 	
O	  3.015340907725 	  0.000000000000 	  2.980000000000 	
O	  2.015340907725 	  3.980000000000 	  0.000000000000 	
O	  3.015340907725 	  3.980000000000 	  2.980000000000 	
O	  5.995340907725 	  0.000000000000 	  0.000000000000 	
O	  6.995340907725 	  0.000000000000 	  2.980000000000 	
O	  5.995340907725 	  3.980000000000 	  0.000000000000 	
O	  6.995340907725 	  3.980000000000 	  2.980000000000 	
O	  0.000000000000 	  2.015340907725 	  0.000000000000 	
O	  1.000000000000 	  2.015340907725 	  2.980000000000 	
O	  0.000000000000 	  5.995340907725 	  0.000000000000 	
O	  1.000000000000 	  5.995340907725 	  2.980000000000 	
O	  3.980000000000 	  2.015340907725 	  0.000000000000 	
O	  4.980000000000 	  2.015340907725 	  2.980000000000 	
O	  3.980000000000 	  5.995340907725 	  0.000000000000 	
O	  4.980000000000 	  5.995340907725 	  2.980000000000 	
O	  0.382705935144 	  0.000000000000 	  1.632634972581 	
O	  1.382705935144 	  0.000000000000 	  4.612634972581 	
O	  0.382705935144 	  3.980000000000 	  1.632634972581 	
O	  1.382705935144 	  3.980000000000 	  4.612634972581 	
O	  4.362705935144 	  0.000000000000 	  1.632634972581 	
O	  5.362705935144 	  0.000000000000 	  4.612634972581 	
O	  4.362705935144 	  3.980000000000 	  1.632634972581 	
O	  5.362705935144 	  3.980000000000 	  4.612634972581 	
O	  2.704211590984 	  1.512465308946 	  1.632634972581 	
O	  3.704211590984 	  1.512465308946 	  4.612634972581 	
O	  2.704211590984 	  5.492465308946 	  1.632634972581 	
O	  3.704211590984 	  5.492465308946 	  4.612634972581 	
O	  6.684211590984 	  1.512465308946 	  1.632634972581 	
O	  7.684211590984 	  1.512465308946 	  4.612634972581 	
O	  6.684211590984 	  5.492465308946 	  1.632634972581 	
O	  7.684211590984 	  5.492465308946 	  4.612634972581 	
64 
Energy: 4.4986419662664954e+00 
Mg	  0.000000000000 	  0.000000000000 	  0.000000000000 	
Mg	  1.000000000000 	  0.000000000000 	  2.980000000000 	
Mg	  0.000000000000 	  3.980000000000 	  0.000000000000 	
Mg	  1.000000000000 	  3.980000000000 	  2.980000000000 	
Mg	  3.980000000000 	  0.000000000000 	  0.000000000000 	
Mg	  4.980000000000 	  0.000000000000 	  2.980000000000 	
Mg	  3.980000000000 	  3.980000000000 	  0.000000000000 	
Mg	  4.980000000000 	  3.980000000000 	  2.980000000000 	
Mg	  1.811814662240 	  1.882467223712 	  0.000000000000 	
Mg	  2.811814662240 	  1.882467223712 	  2.980000000000 	
Mg	  1.811814662240 	  5.862467223712 	  0.000000000000 	
Mg	  2.811814662240 	  5.862467223712 	  2.980000000000 	
Mg	  5.791814662240 	  1.882467223712 	  0.000000000000 	
Mg	  6.791814662240 	  1.882467223712 	  2.980000000000 	
Mg	  5.791814662240 	  5.862467223712 	  0.000000000000 	
Mg	  6.791814662240 	  5.862467223712 	  2.980000000000 	
Mg	  2.377035154011 	  0.000000000000 	  1.670509539298 	
Mg	  3.377035154011 	  0.000000000000 	  4.650509539298 	
Mg	  2.377035154011 	  3.980000000000 	  1.670509539298 	
Mg	  3.377035154011 	  3.980000000000 	  4.650509539298 	
Mg	  6.357035154011 	  0.000000000000 	  1.670509539298 	
Mg	  7.357035154011 	  0.000000000000 	  4.650509539298 	
Mg	  6.357035154011 	  3.980000000000 	  1.670509539298 	
Mg	  7.357035154011 	  3.980000000000 	  4.650509539298 	
Mg	  0.353262807356 	  2.023772346654 	  1.670509539298 	
Mg	  1.353262807356 	  2.023772346654 	  4.650509539298 	
Mg	  0.353262807356 	  6.003772346654 	  1.670509539298 	
Mg	  1.353262807356 	  6.003772346654 	  4.650509539298 	
Mg	  4.333262807356 	  2.023772346654 	  1.670509539298 	
Mg	  5.333262807356 	  2.023772346654 	  4.650509539298 	
Mg	  4.333262807356 	  6.003772346654 	  1.670509539298 	
Mg	  5.333262807356 	  6.003772346654 	  4.650509539298 	
O	  2.023772346654 	  0.000000000000 	  0.000000000000 	
O	  3.023772346654 	  0.000000000000 	  2.980000000000 	
O	  2.023772346654 	  3.980000000000 	  0.000000000000 	
O	  3.023772346654 	  3.980000000000 	  2.980000000000 	
O	  6.003772346654 	  0.000000000000 	  0.000000000000 	
O	  7.003772346654 	  0.000000000000 	  2.980000000000 	
O	  6.003772346654 	  3.980000000000 	  0.000000000000 	
O	  7.003772346654 	  3.980000000000 	  2.980000000000 	
O	  0.000000000000 	  2.023772346654 	  0.000000000000 	
O	  1.000000000000 	  2.023772346654 	  2.980000000000 	
O	  0.000000000000 	  6.003772346654 	  0.000000000000 	
O	  1.000000000000 	  6.003772346654 	  2.980000000000 	
O	  3.980000000000 	  2.023772346654 	  0.000000000000 	
O	  4.980000000000 	  2.023772346654 	  2.980000000000 	
O	  3.980000000000 	  6.003772346654 	  0.000000000000 	
O	  4.980000000000 	  6.003772346654 	  2.980000000000 	
O	  0.353262807356 	  0.000000000000 	  1.670509539298 	
O	  1.353262807356 	  0.000000000000 	  4.650509539298 	
O	  0.353262807356 	  3.980000000000 	  1.670509539298 	
O	  1.353262807356 	  3.980000000000 	  4.650509539298 	
O	  4.333262807356 	  0.000000000000 	  1.670509539298 	
O	  5.333262807356 	  0.000000000000 	  4.650509539298 	
O	  4.333262807356 	  3.980000000000 	  1.670509539298 	
O	  5.333262807356 	  3.980000000000 	  4.650509539298 	
O	  2.659645399896 	  1.559585017788 	  1.670509539298 	
O	  3.659645399896 	  1.559585017788 	  4.650509539298 	
O	  2.659645399896 	  5.539585017788 	  1.670509539298 	
O	  3.659645399896 	  5.539585017788 	  4.650509539298 	
O	  6.639645399896 	  1.559585017788 	  1.670509539298 	
O	  7.639645399896 	  1.559585017788 	  4.650509539298 	
O	  6.639645399896 	  5.539585017788 	  1.670509539298 	
O	  7.639645399896 	  5.539585017788 	  4.650509539298 	
64 
Energy: 5.0873404463800167e+00 
Mg	  0.000000000000 	  0.000000000000 	  0.000000000000 	
Mg	  1.000000000000 	  0.000000000000 	  2.980000000000 	
Mg	  0.000000000000 	  3.980000000000 	  0.000000000000 	
Mg	  1.000000000000 	  3.980000000000 	  2.980000000000 	
Mg	  3.980000000000 	  0.000000000000 	  0.000000000000 	
Mg	  4.980000000000 	  0.000000000000 	  2.980000000000 	
Mg	  3.980000000000 	  3.980000000000 	  0.000000000000 	
Mg	  4.980000000000 	  3.980000000000 	  2.980000000000 	
Mg	  1.837931346213 	  1.902692477660 	  0.000000000000 	
Mg	  2.837931346213 	  1.902692477660 	  2.980000000000 	
Mg	  1.837931346213 	  5.882692477660 	  0.000000000000 	
Mg	  2.837931346213 	  5.882692477660 	  2.980000000000 	
Mg	  5.817931346213 	  1.902692477660 	  0.000000000000 	
Mg	  6.817931346213 	  1.902692477660 	  2.980000000000 	
Mg	  5.817931346213 	  5.882692477660 	  0.000000000000 	
Mg	  6.817931346213 	  5.882692477660 	  2.980000000000 	
Mg	  2.356020397786 	  0.000000000000 	  1.708409083320 	
Mg	  3.356020397786 	  0.000000000000 	  4.688409083320 	
Mg	  2.356020397786 	  3.980000000000 	  1.708409083320 	
Mg	  3.356020397786 	  3.980000000000 	  4.688409083320 	
Mg	  6.336020397786 	  0.000000000000 	  1.708409083320 	
Mg	  7.336020397786 	  0.000000000000 	  4.688409083320 	
Mg	  6.336020397786 	  3.980000000000 	  1.708409083320 	
Mg	  7.336020397786 	  3.980000000000 	  4.688409083320 	
Mg	  0.323805657233 	  2.032214740553 	  1.708409083320 	
Mg	  1.323805657233 	  2.032214740553 	  4.688409083320 	
Mg	  0.323805657233 	  6.012214740553 	  1.708409083320 	
Mg	  1.323805657233 	  6.012214740553 	  4.688409083320 	
Mg	  4.303805657233 	  2.032214740553 	  1.708409083320 	
Mg	  5.303805657233 	  2.032214740553 	  4.688409083320 	
Mg	  4.303805657233 	  6.012214740553 	  1.708409083320 	
Mg	  5.303805657233 	  6.012214740553 	  4.688409083320 	
O	  2.032214740553 	  0.000000000000 	  0.000000000000 	
O	  3.032214740553 	  0.000000000000 	  2.980000000000 	
O	  2.032214740553 	  3.980000000000 	  0.000000000000 	
O	  3.032214740553 	  3.980000000000 	  2.980000000000 	
O	  6.012214740553 	  0.000000000000 	  0.000000000000 	
O	  7.012214740553 	  0.000000000000 	  2.980000000000 	
O	  6.012214740553 	  3.980000000000 	  0.000000000000 	
O	  7.012214740553 	  3.980000000000 	  2.980000000000 	
O	  0.000000000000 	  2.032214740553 	  0.000000000000 	
O	  1.000000000000 	  2.032214740553 	  2.980000000000 	
O	  0.000000000000 	  6.012214740553 	  0.000000000000 	
O	  1.000000000000 	  6.012214740553 	  2.980000000000 	
O	  3.980000000000 	  2.032214740553 	  0.000000000000 	
O	  4.980000000000 	  2.032214740553 	  2.980000000000 	
O	  3.980000000000 	  6.012214740553 	  0.000000000000 	
O	  4.980000000000 	  6.012214740553 	  2.980000000000 	
O	  0.323805657233 	  0.000000000000 	  1.708409083320 	
O	  1.323805657233 	  0.000000000000 	  4.688409083320 	
O	  0.323805657233 	  3.980000000000 	  1.708409083320 	
O	  1.323805657233 	  3.980000000000 	  4.688409083320 	
O	  4.303805657233 	  0.000000000000 	  1.708409083320 	
O	  5.303805657233 	  0.000000000000 	  4.688409083320 	
O	  4.303805657233 	  3.980000000000 	  1.708409083320 	
O	  5.303805657233 	  3.980000000000 	  4.688409083320 	
O	  2.615064923572 	  1.606734106949 	  1.708409083320 	
O	  3.615064923572 	  1.606734106949 	  4.688409083320 	
O	  2.615064923572 	  5.586734106949 	  1.708409083320 	
O	  3.615064923572 	  5.586734106949 	  4.688409083320 	
O	  6.595064923572 	  1.606734106949 	  1.708409083320 	
O	  7.595064923572 	  1.606734106949 	  4.688409083320 	
O	  6.595064923572 	  5.586734106949 	  1.708409083320 	
O	  7.595064923572 	  5.586734106949 	  4.688409083320 	
64 
Energy: 5.5123715368263442e+00 
Mg	  0.000000000000 	  0.000000000000 	  0.000000000000 	
Mg	  1.000000000000 	  0.000000000000 	  2.980000000000 	
Mg	  0.000000000000 	  3.980000000000 	  0.000000000000 	
Mg	  1.000000000000 	  3.980000000000 	  2.980000000000 	
Mg	  3.980000000000 	  0.000000000000 	  0.000000000000 	
Mg	  4.980000000000 	  0.000000000000 	  2.980000000000 	
Mg	  3.980000000000 	  3.980000000000 	  0.000000000000 	
Mg	  4.980000000000 	  3.980000000000 	  2.980000000000 	
Mg	  1.864061788678 	  1.922929310746 	  0.000000000000 	
Mg	  2.864061788678 	  1.922929310746 	  2.980000000000 	
Mg	  1.864061788678 	  5.902929310746 	  0.000000000000 	
Mg	  2.864061788678 	  5.902929310746 	  2.980000000000 	
Mg	  5.844061788678 	  1.922929310746 	  0.000000000000 	
Mg	  6.844061788678 	  1.922929310746 	  2.980000000000 	
Mg	  5.844061788678 	  5.902929310746 	  0.000000000000 	
Mg	  6.844061788678 	  5.902929310746 	  2.980000000000 	
Mg	  2.335001965221 	  0.000000000000 	  1.746326744543 	
Mg	  3.335001965221 	  0.000000000000 	  4.726326744543 	
Mg	  2.335001965221 	  3.980000000000 	  1.746326744543 	
Mg	  3.335001965221 	  3.980000000000 	  4.726326744543 	
Mg	  6.315001965221 	  0.000000000000 	  1.746326744543 	
Mg	  7.315001965221 	  0.000000000000 	  4.726326744543 	
Mg	  6.315001965221 	  3.980000000000 	  1.746326744543 	
Mg	  7.315001965221 	  3.980000000000 	  4.726326744543 	
Mg	  0.294337610339 	  2.040664354882 	  1.746326744543 	
Mg	  1.294337610339 	  2.040664354882 	  4.726326744543 	
Mg	  0.294337610339 	  6.020664354882 	  1.746326744543 	
Mg	  1.294337610339 	  6.020664354882 	  4.726326744543 	
Mg	  4.274337610339 	  2.040664354882 	  1.746326744543 	
Mg	  5.274337610339 	  2.040664354882 	  4.726326744543 	
Mg	  4.274337610339 	  6.020664354882 	  1.746326744543 	
Mg	  5.274337610339 	  6.020664354882 	  4.726326744543 	
O	  2.040664354882 	  0.000000000000 	  0.000000000000 	
O	  3.040664354882 	  0.000000000000 	  2.980000000000 	
O	  2.040664354882 	  3.980000000000 	  0.000000000000 	
O	  3.040664354882 	  3.980000000000 	  2.980000000000 	
O	  6.020664354882 	  0.000000000000 	  0.000000000000 	
O	  7.020664354882 	  0.000000000000 	  2.980000000000 	
O	  6.020664354882 	  3.980000000000 	  0.000000000000 	
O	  7.020664354882 	  3.980000000000 	  2.980000000000 	
O	  0.000000000000 	  2.040664354882 	  0.000000000000 	
O	  1.000000000000 	  2.040664354882 	  2.980000000000 	
O	  0.000000000000 	  6.020664354882 	  0.000000000000 	
O	  1.000000000000 	  6.020664354882 	  2.980000000000 	
O	  3.980000000000 	  2.040664354882 	  0.000000000000 	
O	  4.980000000000 	  2.040664354882 	  2.980000000000 	
O	  3.980000000000 	  6.020664354882 	  0.000000000000 	
O	  4.980000000000 	  6.020664354882 	  2.980000000000 	
O	  0.294337610339 	  0.000000000000 	  1.746326744543 	
O	  1.294337610339 	  0.000000000000 	  4.726326744543 	
O	  0.294337610339 	  3.980000000000 	  1.746326744543 	
O	  1.294337610339 	  3.980000000000 	  4.726326744543 	
O	  4.274337610339 	  0.000000000000 	  1.746326744543 	
O	  5.274337610339 	  0.000000000000 	  4.726326744543 	
O	  4.274337610339 	  3.980000000000 	  1.746326744543 	
O	  5.274337610339 	  3.980000000000 	  4.726326744543 	
O	  2.570472053492 	  1.653904734896 	  1.746326744543 	
O	  3.570472053492 	  1.653904734896 	  4.726326744543 	
O	  2.570472053492 	  5.633904734896 	  1.746326744543 	
O	  3.570472053492 	  5.633904734896 	  4.726326744543 	
O	  6.550472053492 	  1.653904734896 	  1.746326744543 	
O	  7.550472053492 	  1.653904734896 	  4.726326744543 	
O	  6.550472053492 	  5.633904734896 	  1.746326744543 	
O	  7.550472053492 	  5.633904734896 	  4.726326744543 	
64 
Energy: 5.7206335454610118e+00 
Mg	  0.000000000000 	  0.000000000000 	  0.000000000000 	
Mg	  1.000000000000 	  0.000000000000 	  2.980000000000 	
Mg	  0.000000000000 	  3.980000000000 	  0.000000000000 	
Mg	  1.000000000000 	  3.980000000000 	  2.980000000000 	
Mg	  3.980000000000 	  0.000000000000 	  0.000000000000 	
Mg	  4.980000000000 	  0.000000000000 	  2.980000000000 	
Mg	  3.980000000000 	  3.980000000000 	  0.000000000000 	
Mg	  4.980000000000 	  3.980000000000 	  2.980000000000 	
Mg	  1.890199294604 	  1.943172202869 	  0.000000000000 	
Mg	  2.890199294604 	  1.943172202869 	  2.980000000000 	
Mg	  1.890199294604 	  5.923172202869 	  0.000000000000 	
Mg	  2.890199294604 	  5.923172202869 	  2.980000000000 	
Mg	  5.870199294604 	  1.943172202869 	  0.000000000000 	
Mg	  6.870199294604 	  1.943172202869 	  2.980000000000 	
Mg	  5.870199294604 	  5.923172202869 	  0.000000000000 	
Mg	  6.870199294604 	  5.923172202869 	  2.980000000000 	
Mg	  2.313982560723 	  0.000000000000 	  1.784253478074 	
Mg	  3.313982560723 	  0.000000000000 	  4.764253478074 	
Mg	  2.313982560723 	  3.980000000000 	  1.784253478074 	
Mg	  3.313982560723 	  3.980000000000 	  4.764253478074 	
Mg	  6.293982560723 	  0.000000000000 	  1.784253478074 	
Mg	  7.293982560723 	  0.000000000000 	  4.764253478074 	
Mg	  6.293982560723 	  3.980000000000 	  1.784253478074 	
Mg	  7.293982560723 	  3.980000000000 	  4.764253478074 	
Mg	  0.264864541324 	  2.049118019398 	  1.784253478074 	
Mg	  1.264864541324 	  2.049118019398 	  4.764253478074 	
Mg	  0.264864541324 	  6.029118019398 	  1.784253478074 	
Mg	  1.264864541324 	  6.029118019398 	  4.764253478074 	
Mg	  4.244864541324 	  2.049118019398 	  1.784253478074 	
Mg	  5.244864541324 	  2.049118019398 	  4.764253478074 	
Mg	  4.244864541324 	  6.029118019398 	  1.784253478074 	
Mg	  5.244864541324 	  6.029118019398 	  4.764253478074 	
O	  2.049118019398 	  0.000000000000 	  0.000000000000 	
O	  3.049118019398 	  0.000000000000 	  2.980000000000 	
O	  2.049118019398 	  3.980000000000 	  0.000000000000 	
O	  3.049118019398 	  3.980000000000 	  2.980000000000 	
O	  6.029118019398 	  0.000000000000 	  0.000000000000 	
O	  7.029118019398 	  0.000000000000 	  2.980000000000 	
O	  6.029118019398 	  3.980000000000 	  0.000000000000 	
O	  7.029118019398 	  3.980000000000 	  2.980000000000 	
O	  0.000000000000 	  2.049118019398 	  0.000000000000 	
O	  1.000000000000 	  2.049118019398 	  2.980000000000 	
O	  0.000000000000 	  6.029118019398 	  0.000000000000 	
O	  1.000000000000 	  6.029118019398 	  2.980000000000 	
O	  3.980000000000 	  2.049118019398 	  0.000000000000 	
O	  4.980000000000 	  2.049118019398 	  2.980000000000 	
O	  3.980000000000 	  6.029118019398 	  0.000000000000 	
O	  4.980000000000 	  6.029118019398 	  2.980000000000 	
O	  0.264864541324 	  0.000000000000 	  1.784253478074 	
O	  1.264864541324 	  0.000000000000 	  4.764253478074 	
O	  0.264864541324 	  3.980000000000 	  1.784253478074 	
O	  1.264864541324 	  3.980000000000 	  4.764253478074 	
O	  4.244864541324 	  0.000000000000 	  1.784253478074 	
O	  5.244864541324 	  0.000000000000 	  4.764253478074 	
O	  4.244864541324 	  3.980000000000 	  1.784253478074 	
O	  5.244864541324 	  3.980000000000 	  4.764253478074 	
O	  2.525874193782 	  1.701086012098 	  1.784253478074 	
O	  3.525874193782 	  1.701086012098 	  4.764253478074 	
O	  2.525874193782 	  5.681086012098 	  1.784253478074 	
O	  3.525874193782 	  5.681086012098 	  4.764253478074 	
O	  6.505874193782 	  1.701086012098 	  1.784253478074 	
O	  7.505874193782 	  1.701086012098 	  4.764253478074 	
O	  6.505874193782 	  5.681086012098 	  1.784253478074 	
O	  7.505874193782 	  5.681086012098 	  4.764253478074 	
64 
Energy: 5.6801902182086383e+00 
Mg	  0.000000000000 	  0.000000000000 	  0.000000000000 	
Mg	  1.000000000000 	  0.000000000000 	  2.980000000000 	
Mg	  0.000000000000 	  3.980000000000 	  0.000000000000 	
Mg	  1.000000000000 	  3.980000000000 	  2.980000000000 	
Mg	  3.980000000000 	  0.000000000000 	  0.000000000000 	
Mg	  4.980000000000 	  0.000000000000 	  2.980000000000 	
Mg	  3.980000000000 	  3.980000000000 	  0.000000000000 	
Mg	  4.980000000000 	  3.980000000000 	  2.980000000000 	
Mg	  1.916338474386 	  1.963416431124 	  0.000000000000 	
Mg	  2.916338474386 	  1.963416431124 	  2.980000000000 	
Mg	  1.916338474386 	  5.943416431124 	  0.000000000000 	
Mg	  2.916338474386 	  5.943416431124 	  2.980000000000 	
Mg	  5.896338474386 	  1.963416431124 	  0.000000000000 	
Mg	  6.896338474386 	  1.963416431124 	  2.980000000000 	
Mg	  5.896338474386 	  5.943416431124 	  0.000000000000 	
Mg	  6.896338474386 	  5.943416431124 	  2.980000000000 	
Mg	  2.292962128293 	  0.000000000000 	  1.822182560909 	
Mg	  3.292962128293 	  0.000000000000 	  4.802182560909 	
Mg	  2.292962128293 	  3.980000000000 	  1.822182560909 	
Mg	  3.292962128293 	  3.980000000000 	  4.802182560909 	
Mg	  6.272962128293 	  0.000000000000 	  1.822182560909 	
Mg	  7.272962128293 	  0.000000000000 	  4.802182560909 	
Mg	  6.272962128293 	  3.980000000000 	  1.822182560909 	
Mg	  7.272962128293 	  3.980000000000 	  4.802182560909 	
Mg	  0.235389783692 	  2.057572344601 	  1.822182560909 	
Mg	  1.235389783692 	  2.057572344601 	  4.802182560909 	
Mg	  0.235389783692 	  6.037572344601 	  1.822182560909 	
Mg	  1.235389783692 	  6.037572344601 	  4.802182560909 	
Mg	  4.215389783692 	  2.057572344601 	  1.822182560909 	
Mg	  5.215389783692 	  2.057572344601 	  4.802182560909 	
Mg	  4.215389783692 	  6.037572344601 	  1.822182560909 	
Mg	  5.215389783692 	  6.037572344601 	  4.802182560909 	
O	  2.057572344601 	  0.000000000000 	  0.000000000000 	
O	  3.057572344601 	  0.000000000000 	  2.980000000000 	
O	  2.057572344601 	  3.980000000000 	  0.000000000000 	
O	  3.057572344601 	  3.980000000000 	  2.980000000000 	
O	  6.037572344601 	  0.000000000000 	  0.000000000000 	
O	  7.037572344601 	  0.000000000000 	  2.980000000000 	
O	  6.037572344601 	  3.980000000000 	  0.000000000000 	
O	  7.037572344601 	  3.980000000000 	  2.980000000000 	
O	  0.000000000000 	  2.057572344601 	  0.000000000000 	
O	  1.000000000000 	  2.057572344601 	  2.980000000000 	
O	  0.000000000000 	  6.037572344601 	  0.000000000000 	
O	  1.000000000000 	  6.037572344601 	  2.980000000000 	
O	  3.980000000000 	  2.057572344601 	  0.000000000000 	
O	  4.980000000000 	  2.057572344601 	  2.980000000000 	
O	  3.980000000000 	  6.037572344601 	  0.000000000000 	
O	  4.980000000000 	  6.037572344601 	  2.980000000000 	
O	  0.235389783692 	  0.000000000000 	  1.822182560909 	
O	  1.235389783692 	  0.000000000000 	  4.802182560909 	
O	  0.235389783692 	  3.980000000000 	  1.822182560909 	
O	  1.235389783692 	  3.980000000000 	  4.802182560909 	
O	  4.215389783692 	  0.000000000000 	  1.822182560909 	
O	  5.215389783692 	  0.000000000000 	  4.802182560909 	
O	  4.215389783692 	  3.980000000000 	  1.822182560909 	
O	  5.215389783692 	  3.980000000000 	  4.802182560909 	
O	  2.481273955247 	  1.748270168829 	  1.822182560909 	
O	  3.481273955247 	  1.748270168829 	  4.802182560909 	
O	  2.481273955247 	  5.728270168829 	  1.822182560909 	
O	  3.481273955247 	  5.728270168829 	  4.802182560909 	
O	  6.461273955247 	  1.748270168829 	  1.822182560909 	
O	  7.461273955247 	  1.748270168829 	  4.802182560909 	
O	  6.461273955247 	  5.728270168829 	  1.822182560909 	
O	  7.461273955247 	  5.728270168829 	  4.802182560909 	
64 
Energy: 5.3789085537221490e+00 
Mg	  0.000000000000 	  0.000000000000 	  0.000000000000 	
Mg	  1.000000000000 	  0.000000000000 	  2.980000000000 	
Mg	  0.000000000000 	  3.980000000000 	  0.000000000000 	
Mg	  1.000000000000 	  3.980000000000 	  2.980000000000 	
Mg	  3.980000000000 	  0.000000000000 	  0.000000000000 	
Mg	  4.980000000000 	  0.000000000000 	  2.980000000000 	
Mg	  3.980000000000 	  3.980000000000 	  0.000000000000 	
Mg	  4.980000000000 	  3.980000000000 	  2.980000000000 	
Mg	  1.942474305844 	  1.983658059564 	  0.000000000000 	
Mg	  2.942474305844 	  1.983658059564 	  2.980000000000 	
Mg	  1.942474305844 	  5.963658059564 	  0.000000000000 	
Mg	  2.942474305844 	  5.963658059564 	  2.980000000000 	
Mg	  5.922474305844 	  1.983658059564 	  0.000000000000 	
Mg	  6.922474305844 	  1.983658059564 	  2.980000000000 	
Mg	  5.922474305844 	  5.963658059564 	  0.000000000000 	
Mg	  6.922474305844 	  5.963658059564 	  2.980000000000 	
Mg	  2.271944335608 	  0.000000000000 	  1.860106798403 	
Mg	  3.271944335608 	  0.000000000000 	  4.840106798403 	
Mg	  2.271944335608 	  3.980000000000 	  1.860106798403 	
Mg	  3.271944335608 	  3.980000000000 	  4.840106798403 	
Mg	  6.251944335608 	  0.000000000000 	  1.860106798403 	
Mg	  7.251944335608 	  0.000000000000 	  4.840106798403 	
Mg	  6.251944335608 	  3.980000000000 	  1.860106798403 	
Mg	  7.251944335608 	  3.980000000000 	  4.840106798403 	
Mg	  0.205918768602 	  2.066025567005 	  1.860106798403 	
Mg	  1.205918768602 	  2.066025567005 	  4.840106798403 	
Mg	  0.205918768602 	  6.046025567005 	  1.860106798403 	
Mg	  1.205918768602 	  6.046025567005 	  4.840106798403 	
Mg	  4.185918768602 	  2.066025567005 	  1.860106798403 	
Mg	  5.185918768602 	  2.066025567005 	  4.840106798403 	
Mg	  4.185918768602 	  6.046025567005 	  1.860106798403 	
Mg	  5.185918768602 	  6.046025567005 	  4.840106798403 	
O	  2.066025567005 	  0.000000000000 	  0.000000000000 	
O	  3.066025567005 	  0.000000000000 	  2.980000000000 	
O	  2.066025567005 	  3.980000000000 	  0.000000000000 	
O	  3.066025567005 	  3.980000000000 	  2.980000000000 	
O	  6.046025567005 	  0.000000000000 	  0.000000000000 	
O	  7.046025567005 	  0.000000000000 	  2.980000000000 	
O	  6.046025567005 	  3.980000000000 	  0.000000000000 	
O	  7.046025567005 	  3.980000000000 	  2.980000000000 	
O	  0.000000000000 	  2.066025567005 	  0.000000000000 	
O	  1.000000000000 	  2.066025567005 	  2.980000000000 	
O	  0.000000000000 	  6.046025567005 	  0.000000000000 	
O	  1.000000000000 	  6.046025567005 	  2.980000000000 	
O	  3.980000000000 	  2.066025567005 	  0.000000000000 	
O	  4.980000000000 	  2.066025567005 	  2.980000000000 	
O	  3.980000000000 	  6.046025567005 	  0.000000000000 	
O	  4.980000000000 	  6.046025567005 	  2.980000000000 	
O	  0.205918768602 	  0.000000000000 	  1.860106798403 	
O	  1.205918768602 	  0.000000000000 	  4.840106798403 	
O	  0.205918768602 	  3.980000000000 	  1.860106798403 	
O	  1.205918768602 	  3.980000000000 	  4.840106798403 	
O	  4.185918768602 	  0.000000000000 	  1.860106798403 	
O	  5.185918768602 	  0.000000000000 	  4.840106798403 	
O	  4.185918768602 	  3.980000000000 	  1.860106798403 	
O	  5.185918768602 	  3.980000000000 	  4.840106798403 	
O	  2.436679350489 	  1.795448305062 	  1.860106798403 	
O	  3.436679350489 	  1.795448305062 	  4.840106798403 	
O	  2.436679350489 	  5.775448305062 	  1.860106798403 	
O	  3.436679350489 	  5.775448305062 	  4.840106798403 	
O	  6.416679350489 	  1.795448305062 	  1.860106798403 	
O	  7.416679350489 	  1.795448305062 	  4.840106798403 	
O	  6.416679350489 	  5.775448305062 	  1.860106798403 	
O	  7.416679350489 	  5.775448305062 	  4.840106798403 	
64 
Energy: 4.8242150582098091e+00 
Mg	  0.000000000000 	  0.000000000000 	  0.000000000000 	
Mg	  1.000000000000 	  0.000000000000 	  2.980000000000 	
Mg	  0.000000000000 	  3.980000000000 	  0.000000000000 	
Mg	  1.000000000000 	  3.980000000000 	  2.980000000000 	
Mg	  3.980000000000 	  0.000000000000 	  0.000000000000 	
Mg	  4.980000000000 	  0.000000000000 	  2.980000000000 	
Mg	  3.980000000000 	  3.980000000000 	  0.000000000000 	
Mg	  4.980000000000 	  3.980000000000 	  2.980000000000 	
Mg	  1.968602153697 	  2.003893328864 	  0.000000000000 	
Mg	  2.968602153697 	  2.003893328864 	  2.980000000000 	
Mg	  1.968602153697 	  5.983893328864 	  0.000000000000 	
Mg	  2.968602153697 	  5.983893328864 	  2.980000000000 	
Mg	  5.948602153697 	  2.003893328864 	  0.000000000000 	
Mg	  6.948602153697 	  2.003893328864 	  2.980000000000 	
Mg	  5.948602153697 	  5.983893328864 	  0.000000000000 	
Mg	  6.948602153697 	  5.983893328864 	  2.980000000000 	
Mg	  2.250931555035 	  0.000000000000 	  1.898019803362 	
Mg	  3.250931555035 	  0.000000000000 	  4.878019803362 	
Mg	  2.250931555035 	  3.980000000000 	  1.898019803362 	
Mg	  3.250931555035 	  3.980000000000 	  4.878019803362 	
Mg	  6.230931555035 	  0.000000000000 	  1.898019803362 	
Mg	  7.230931555035 	  0.000000000000 	  4.878019803362 	
Mg	  6.230931555035 	  3.980000000000 	  1.898019803362 	
Mg	  7.230931555035 	  3.980000000000 	  4.878019803362 	
Mg	  0.176455875836 	  2.074475679199 	  1.898019803362 	
Mg	  1.176455875836 	  2.074475679199 	  4.878019803362 	
Mg	  0.176455875836 	  6.054475679199 	  1.898019803362 	
Mg	  1.176455875836 	  6.054475679199 	  4.878019803362 	
Mg	  4.156455875836 	  2.074475679199 	  1.898019803362 	
Mg	  5.156455875836 	  2.074475679199 	  4.878019803362 	
Mg	  4.156455875836 	  6.054475679199 	  1.898019803362 	
Mg	  5.156455875836 	  6.054475679199 	  4.878019803362 	
O	  2.074475679199 	  0.000000000000 	  0.000000000000 	
O	  3.074475679199 	  0.000000000000 	  2.980000000000 	
O	  2.074475679199 	  3.980000000000 	  0.000000000000 	
O	  3.074475679199 	  3.980000000000 	  2.980000000000 	
O	  6.054475679199 	  0.000000000000 	  0.000000000000 	
O	  7.054475679199 	  0.000000000000 	  2.980000000000 	
O	  6.054475679199 	  3.980000000000 	  0.000000000000 	
O	  7.054475679199 	  3.980000000000 	  2.980000000000 	
O	  0.000000000000 	  2.074475679199 	  0.000000000000 	
O	  1.000000000000 	  2.074475679199 	  2.980000000000 	
O	  0.000000000000 	  6.054475679199 	  0.000000000000 	
O	  1.000000000000 	  6.054475679199 	  2.980000000000 	
O	  3.980000000000 	  2.074475679199 	  0.000000000000 	
O	  4.980000000000 	  2.074475679199 	  2.980000000000 	
O	  3.980000000000 	  6.054475679199 	  0.000000000000 	
O	  4.980000000000 	  6.054475679199 	  2.980000000000 	
O	  0.176455875836 	  0.000000000000 	  1.898019803362 	
O	  1.176455875836 	  0.000000000000 	  4.878019803362 	
O	  0.176455875836 	  3.980000000000 	  1.898019803362 	
O	  1.176455875836 	  3.980000000000 	  4.878019803362 	
O	  4.156455875836 	  0.000000000000 	  1.898019803362 	
O	  5.156455875836 	  0.000000000000 	  4.878019803362 	
O	  4.156455875836 	  3.980000000000 	  1.898019803362 	
O	  5.156455875836 	  3.980000000000 	  4.878019803362 	
O	  2.392096255704 	  1.842612658350 	  1.898019803362 	
O	  3.392096255704 	  1.842612658350 	  4.878019803362 	
O	  2.392096255704 	  5.822612658350 	  1.898019803362 	
O	  3.392096255704 	  5.822612658350 	  4.878019803362 	
O	  6.372096255704 	  1.842612658350 	  1.898019803362 	
O	  7.372096255704 	  1.842612658350 	  4.878019803362 	
O	  6.372096255704 	  5.822612658350 	  1.898019803362 	
O	  7.372096255704 	  5.822612658350 	  4.878019803362 	
64 
Energy: 4.0454067710312138e+00 
Mg	  0.000000000000 	  0.000000000000 	  0.000000000000 	
Mg	  1.000000000000 	  0.000000000000 	  2.980000000000 	
Mg	  0.000000000000 	  3.980000000000 	  0.000000000000 	
Mg	  1.000000000000 	  3.980000000000 	  2.980000000000 	
Mg	  3.980000000000 	  0.000000000000 	  0.000000000000 	
Mg	  4.980000000000 	  0.000000000000 	  2.980000000000 	
Mg	  3.980000000000 	  3.980000000000 	  0.000000000000 	
Mg	  4.980000000000 	  3.980000000000 	  2.980000000000 	
Mg	  1.994717739998 	  2.024118688324 	  0.000000000000 	
Mg	  2.994717739998 	  2.024118688324 	  2.980000000000 	
Mg	  1.994717739998 	  6.004118688324 	  0.000000000000 	
Mg	  2.994717739998 	  6.004118688324 	  2.980000000000 	
Mg	  5.974717739998 	  2.024118688324 	  0.000000000000 	
Mg	  6.974717739998 	  2.024118688324 	  2.980000000000 	
Mg	  5.974717739998 	  6.004118688324 	  0.000000000000 	
Mg	  6.974717739998 	  6.004118688324 	  2.980000000000 	
Mg	  2.229925326606 	  0.000000000000 	  1.935915843346 	
Mg	  3.229925326606 	  0.000000000000 	  4.915915843346 	
Mg	  2.229925326606 	  3.980000000000 	  1.935915843346 	
Mg	  3.229925326606 	  3.980000000000 	  4.915915843346 	
Mg	  6.209925326606 	  0.000000000000 	  1.935915843346 	
Mg	  7.209925326606 	  0.000000000000 	  4.915915843346 	
Mg	  6.209925326606 	  3.980000000000 	  1.935915843346 	
Mg	  7.209925326606 	  3.980000000000 	  4.915915843346 	
Mg	  0.147004741630 	  2.082920584976 	  1.935915843346 	
Mg	  1.147004741630 	  2.082920584976 	  4.915915843346 	
Mg	  0.147004741630 	  6.062920584976 	  1.935915843346 	
Mg	  1.147004741630 	  6.062920584976 	  4.915915843346 	
Mg	  4.127004741630 	  2.082920584976 	  1.935915843346 	
Mg	  5.127004741630 	  2.082920584976 	  4.915915843346 	
Mg	  4.127004741630 	  6.062920584976 	  1.935915843346 	
Mg	  5.127004741630 	  6.062920584976 	  4.915915843346 	
O	  2.082920584976 	  0.000000000000 	  0.000000000000 	
O	  3.082920584976 	  0.000000000000 	  2.980000000000 	
O	  2.082920584976 	  3.980000000000 	  0.000000000000 	
O	  3.082920584976 	  3.980000000000 	  2.980000000000 	
O	  6.062920584976 	  0.000000000000 	  0.000000000000 	
O	  7.062920584976 	  0.000000000000 	  2.980000000000 	
O	  6.062920584976 	  3.980000000000 	  0.000000000000 	
O	  7.062920584976 	  3.980000000000 	  2.980000000000 	
O	  0.000000000000 	  2.082920584976 	  0.000000000000 	
O	  1.000000000000 	  2.082920584976 	  2.980000000000 	
O	  0.000000000000 	  6.062920584976 	  0.000000000000 	
O	  1.000000000000 	  6.062920584976 	  2.980000000000 	
O	  3.980000000000 	  2.082920584976 	  0.000000000000 	
O	  4.980000000000 	  2.082920584976 	  2.980000000000 	
O	  3.980000000000 	  6.062920584976 	  0.000000000000 	
O	  4.980000000000 	  6.062920584976 	  2.980000000000 	
O	  0.147004741630 	  0.000000000000 	  1.935915843346 	
O	  1.147004741630 	  0.000000000000 	  4.915915843346 	
O	  0.147004741630 	  3.980000000000 	  1.935915843346 	
O	  1.147004741630 	  3.980000000000 	  4.915915843346 	
O	  4.127004741630 	  0.000000000000 	  1.935915843346 	
O	  5.127004741630 	  0.000000000000 	  4.915915843346 	
O	  4.127004741630 	  3.980000000000 	  1.935915843346 	
O	  5.127004741630 	  3.980000000000 	  4.915915843346 	
O	  2.347529119910 	  1.889756354474 	  1.935915843346 	
O	  3.347529119910 	  1.889756354474 	  4.915915843346 	
O	  2.347529119910 	  5.869756354474 	  1.935915843346 	
O	  3.347529119910 	  5.869756354474 	  4.915915843346 	
O	  6.327529119910 	  1.889756354474 	  1.935915843346 	
O	  7.327529119910 	  1.889756354474 	  4.915915843346 	
O	  6.327529119910 	  5.869756354474 	  1.935915843346 	
O	  7.327529119910 	  5.869756354474 	  4.915915843346 	
64 
Energy: 3.0978140498208440e+00 
Mg	  0.000000000000 	  0.000000000000 	  0.000000000000 	
Mg	  1.000000000000 	  0.000000000000 	  2.980000000000 	
Mg	  0.000000000000 	  3.980000000000 	  0.000000000000 	
Mg	  1.000000000000 	  3.980000000000 	  2.980000000000 	
Mg	  3.980000000000 	  0.000000000000 	  0.000000000000 	
Mg	  4.980000000000 	  0.000000000000 	  2.980000000000 	
Mg	  3.980000000000 	  3.980000000000 	  0.000000000000 	
Mg	  4.980000000000 	  3.980000000000 	  2.980000000000 	
Mg	  2.020817323760 	  2.044330976145 	  0.000000000000 	
Mg	  3.020817323760 	  2.044330976145 	  2.980000000000 	
Mg	  2.020817323760 	  6.024330976145 	  0.000000000000 	
Mg	  3.020817323760 	  6.024330976145 	  2.980000000000 	
Mg	  6.000817323760 	  2.044330976145 	  0.000000000000 	
Mg	  7.000817323760 	  2.044330976145 	  2.980000000000 	
Mg	  6.000817323760 	  6.024330976145 	  0.000000000000 	
Mg	  7.000817323760 	  6.024330976145 	  2.980000000000 	
Mg	  2.208926542837 	  0.000000000000 	  1.973790018991 	
Mg	  3.208926542837 	  0.000000000000 	  4.953790018991 	
Mg	  2.208926542837 	  3.980000000000 	  1.973790018991 	
Mg	  3.208926542837 	  3.980000000000 	  4.953790018991 	
Mg	  6.188926542837 	  0.000000000000 	  1.973790018991 	
Mg	  7.188926542837 	  0.000000000000 	  4.953790018991 	
Mg	  6.188926542837 	  3.980000000000 	  1.973790018991 	
Mg	  7.188926542837 	  3.980000000000 	  4.953790018991 	
Mg	  0.117568261923 	  2.091358280914 	  1.973790018991 	
Mg	  1.117568261923 	  2.091358280914 	  4.953790018991 	
Mg	  0.117568261923 	  6.071358280914 	  1.973790018991 	
Mg	  1.117568261923 	  6.071358280914 	  4.953790018991 	
Mg	  4.097568261923 	  2.091358280914 	  1.973790018991 	
Mg	  5.097568261923 	  2.091358280914 	  4.953790018991 	
Mg	  4.097568261923 	  6.071358280914 	  1.973790018991 	
Mg	  5.097568261923 	  6.071358280914 	  4.953790018991 	
O	  2.091358280914 	  0.000000000000 	  0.000000000000 	
O	  3.091358280914 	  0.000000000000 	  2.980000000000 	
O	  2.091358280914 	  3.980000000000 	  0.000000000000 	
O	  3.091358280914 	  3.980000000000 	  2.980000000000 	
O	  6.071358280914 	  0.000000000000 	  0.000000000000 	
O	  7.071358280914 	  0.000000000000 	  2.980000000000 	
O	  6.071358280914 	  3.980000000000 	  0.000000000000 	
O	  7.071358280914 	  3.980000000000 	  2.980000000000 	
O	  0.000000000000 	  2.091358280914 	  0.000000000000 	
O	  1.000000000000 	  2.091358280914 	  2.980000000000 	
O	  0.000000000000 	  6.071358280914 	  0.000000000000 	
O	  1.000000000000 	  6.071358280914 	  2.980000000000 	
O	  3.980000000000 	  2.091358280914 	  0.000000000000 	
O	  4.980000000000 	  2.091358280914 	  2.980000000000 	
O	  3.980000000000 	  6.071358280914 	  0.000000000000 	
O	  4.980000000000 	  6.071358280914 	  2.980000000000 	
O	  0.117568261923 	  0.000000000000 	  1.973790018991 	
O	  1.117568261923 	  0.000000000000 	  4.953790018991 	
O	  0.117568261923 	  3.980000000000 	  1.973790018991 	
O	  1.117568261923 	  3.980000000000 	  4.953790018991 	
O	  4.097568261923 	  0.000000000000 	  1.973790018991 	
O	  5.097568261923 	  0.000000000000 	  4.953790018991 	
O	  4.097568261923 	  3.980000000000 	  1.973790018991 	
O	  5.097568261923 	  3.980000000000 	  4.953790018991 	
O	  2.302981152376 	  1.936873584747 	  1.973790018991 	
O	  3.302981152376 	  1.936873584747 	  4.953790018991 	
O	  2.302981152376 	  5.916873584747 	  1.973790018991 	
O	  3.302981152376 	  5.916873584747 	  4.953790018991 	
O	  6.282981152376 	  1.936873584747 	  1.973790018991 	
O	  7.282981152376 	  1.936873584747 	  4.953790018991 	
O	  6.282981152376 	  5.916873584747 	  1.973790018991 	
O	  7.282981152376 	  5.916873584747 	  4.953790018991 	
64 
Energy: 2.0685633345784389e+00 
Mg	  0.000000000000 	  0.000000000000 	  0.000000000000 	
Mg	  1.000000000000 	  0.000000000000 	  2.980000000000 	
Mg	  0.000000000000 	  3.980000000000 	  0.000000000000 	
Mg	  1.000000000000 	  3.980000000000 	  2.980000000000 	
Mg	  3.980000000000 	  0.000000000000 	  0.000000000000 	
Mg	  4.980000000000 	  0.000000000000 	  2.980000000000 	
Mg	  3.980000000000 	  3.980000000000 	  0.000000000000 	
Mg	  4.980000000000 	  3.980000000000 	  2.980000000000 	
Mg	  2.046897676117 	  2.064527403913 	  0.000000000000 	
Mg	  3.046897676117 	  2.064527403913 	  2.980000000000 	
Mg	  2.046897676117 	  6.044527403913 	  0.000000000000 	
Mg	  3.046897676117 	  6.044527403913 	  2.980000000000 	
Mg	  6.026897676117 	  2.064527403913 	  0.000000000000 	
Mg	  7.026897676117 	  2.064527403913 	  2.980000000000 	
Mg	  6.026897676117 	  6.044527403913 	  0.000000000000 	
Mg	  7.026897676117 	  6.044527403913 	  2.980000000000 	
Mg	  2.187935498484 	  0.000000000000 	  2.011638220525 	
Mg	  3.187935498484 	  0.000000000000 	  4.991638220525 	
Mg	  2.187935498484 	  3.980000000000 	  2.011638220525 	
Mg	  3.187935498484 	  3.980000000000 	  4.991638220525 	
Mg	  6.167935498484 	  0.000000000000 	  2.011638220525 	
Mg	  7.167935498484 	  0.000000000000 	  4.991638220525 	
Mg	  6.167935498484 	  3.980000000000 	  2.011638220525 	
Mg	  7.167935498484 	  3.980000000000 	  4.991638220525 	
Mg	  0.088148638979 	  2.099786859505 	  2.011638220525 	
Mg	  1.088148638979 	  2.099786859505 	  4.991638220525 	
Mg	  0.088148638979 	  6.079786859505 	  2.011638220525 	
Mg	  1.088148638979 	  6.079786859505 	  4.991638220525 	
Mg	  4.068148638979 	  2.099786859505 	  2.011638220525 	
Mg	  5.068148638979 	  2.099786859505 	  4.991638220525 	
Mg	  4.068148638979 	  6.079786859505 	  2.011638220525 	
Mg	  5.068148638979 	  6.079786859505 	  4.991638220525 	
O	  2.099786859505 	  0.000000000000 	  0.000000000000 	
O	  3.099786859505 	  0.000000000000 	  2.980000000000 	
O	  2.099786859505 	  3.980000000000 	  0.000000000000 	
O	  3.099786859505 	  3.980000000000 	  2.980000000000 	
O	  6.079786859505 	  0.000000000000 	  0.000000000000 	
O	  7.079786859505 	  0.000000000000 	  2.980000000000 	
O	  6.079786859505 	  3.980000000000 	  0.000000000000 	
O	  7.079786859505 	  3.980000000000 	  2.980000000000 	
O	  0.000000000000 	  2.099786859505 	  0.000000000000 	
O	  1.000000000000 	  2.099786859505 	  2.980000000000 	
O	  0.000000000000 	  6.079786859505 	  0.000000000000 	
O	  1.000000000000 	  6.079786859505 	  2.980000000000 	
O	  3.980000000000 	  2.099786859505 	  0.000000000000 	
O	  4.980000000000 	  2.099786859505 	  2.980000000000 	
O	  3.980000000000 	  6.079786859505 	  0.000000000000 	
O	  4.980000000000 	  6.079786859505 	  2.980000000000 	
O	  0.088148638979 	  0.000000000000 	  2.011638220525 	
O	  1.088148638979 	  0.000000000000 	  4.991638220525 	
O	  0.088148638979 	  3.980000000000 	  2.011638220525 	
O	  1.088148638979 	  3.980000000000 	  4.991638220525 	
O	  4.068148638979 	  0.000000000000 	  2.011638220525 	
O	  5.068148638979 	  0.000000000000 	  4.991638220525 	
O	  4.068148638979 	  3.980000000000 	  2.011638220525 	
O	  5.068148638979 	  3.980000000000 	  4.991638220525 	
O	  2.258454409668 	  1.983959547886 	  2.011638220525 	
O	  3.258454409668 	  1.983959547886 	  4.991638220525 	
O	  2.258454409668 	  5.963959547886 	  2.011638220525 	
O	  3.258454409668 	  5.963959547886 	  4.991638220525 	
O	  6.238454409668 	  1.983959547886 	  2.011638220525 	
O	  7.238454409668 	  1.983959547886 	  4.991638220525 	
O	  6.238454409668 	  5.963959547886 	  2.011638220525 	
O	  7.238454409668 	  5.963959547886 	  4.991638220525 	
64 
Energy: 1.0838468458167041e+00 
Mg	  0.000000000000 	  0.000000000000 	  0.000000000000 	
Mg	  1.000000000000 	  0.000000000000 	  2.980000000000 	
Mg	  0.000000000000 	  3.980000000000 	  0.000000000000 	
Mg	  1.000000000000 	  3.980000000000 	  2.980000000000 	
Mg	  3.980000000000 	  0.000000000000 	  0.000000000000 	
Mg	  4.980000000000 	  0.000000000000 	  2.980000000000 	
Mg	  3.980000000000 	  3.980000000000 	  0.000000000000 	
Mg	  4.980000000000 	  3.980000000000 	  2.980000000000 	
Mg	  2.072956128346 	  2.084705582123 	  0.000000000000 	
Mg	  3.072956128346 	  2.084705582123 	  2.980000000000 	
Mg	  2.072956128346 	  6.064705582123 	  0.000000000000 	
Mg	  3.072956128346 	  6.064705582123 	  2.980000000000 	
Mg	  6.052956128346 	  2.084705582123 	  0.000000000000 	
Mg	  7.052956128346 	  2.084705582123 	  2.980000000000 	
Mg	  6.052956128346 	  6.064705582123 	  0.000000000000 	
Mg	  7.052956128346 	  6.064705582123 	  2.980000000000 	
Mg	  2.166951758557 	  0.000000000000 	  2.049457220794 	
Mg	  3.166951758557 	  0.000000000000 	  5.029457220794 	
Mg	  2.166951758557 	  3.980000000000 	  2.049457220794 	
Mg	  3.166951758557 	  3.980000000000 	  5.029457220794 	
Mg	  6.146951758557 	  0.000000000000 	  2.049457220794 	
Mg	  7.146951758557 	  0.000000000000 	  5.029457220794 	
Mg	  6.146951758557 	  3.980000000000 	  2.049457220794 	
Mg	  7.146951758557 	  3.980000000000 	  5.029457220794 	
Mg	  0.058747268881 	  2.108204489675 	  2.049457220794 	
Mg	  1.058747268881 	  2.108204489675 	  5.029457220794 	
Mg	  0.058747268881 	  6.088204489675 	  2.049457220794 	
Mg	  1.058747268881 	  6.088204489675 	  5.029457220794 	
Mg	  4.038747268881 	  2.108204489675 	  2.049457220794 	
Mg	  5.038747268881 	  2.108204489675 	  5.029457220794 	
Mg	  4.038747268881 	  6.088204489675 	  2.049457220794 	
Mg	  5.038747268881 	  6.088204489675 	  5.029457220794 	
O	  2.108204489675 	  0.000000000000 	  0.000000000000 	
O	  3.108204489675 	  0.000000000000 	  2.980000000000 	
O	  2.108204489675 	  3.980000000000 	  0.000000000000 	
O	  3.108204489675 	  3.980000000000 	  2.980000000000 	
O	  6.088204489675 	  0.000000000000 	  0.000000000000 	
O	  7.088204489675 	  0.000000000000 	  2.980000000000 	
O	  6.088204489675 	  3.980000000000 	  0.000000000000 	
O	  7.088204489675 	  3.980000000000 	  2.980000000000 	
O	  0.000000000000 	  2.108204489675 	  0.000000000000 	
O	  1.000000000000 	  2.108204489675 	  2.980000000000 	
O	  0.000000000000 	  6.088204489675 	  0.000000000000 	
O	  1.000000000000 	  6.088204489675 	  2.980000000000 	
O	  3.980000000000 	  2.108204489675 	  0.000000000000 	
O	  4.980000000000 	  2.108204489675 	  2.980000000000 	
O	  3.980000000000 	  6.088204489675 	  0.000000000000 	
O	  4.980000000000 	  6.088204489675 	  2.980000000000 	
O	  0.058747268881 	  0.000000000000 	  2.049457220794 	
O	  1.058747268881 	  0.000000000000 	  5.029457220794 	
O	  0.058747268881 	  3.980000000000 	  2.049457220794 	
O	  1.058747268881 	  3.980000000000 	  5.029457220794 	
O	  4.038747268881 	  0.000000000000 	  2.049457220794 	
O	  5.038747268881 	  0.000000000000 	  5.029457220794 	
O	  4.038747268881 	  3.980000000000 	  2.049457220794 	
O	  5.038747268881 	  3.980000000000 	  5.029457220794 	
O	  2.213949573662 	  2.031010578365 	  2.049457220794 	
O	  3.213949573662 	  2.031010578365 	  5.029457220794 	
O	  2.213949573662 	  6.011010578365 	  2.049457220794 	
O	  3.213949573662 	  6.011010578365 	  5.029457220794 	
O	  6.193949573662 	  2.031010578365 	  2.049457220794 	
O	  7.193949573662 	  2.031010578365 	  5.029457220794 	
O	  6.193949573662 	  6.011010578365 	  2.049457220794 	
O	  7.193949573662 	  6.011010578365 	  5.029457220794 	
64 
Energy: 3.1744532951283377e-01 
Mg	  0.000000000000 	  0.000000000000 	  0.000000000000 	
Mg	  1.000000000000 	  0.000000000000 	  2.980000000000 	
Mg	  0.000000000000 	  3.980000000000 	  0.000000000000 	
Mg	  1.000000000000 	  3.980000000000 	  2.980000000000 	
Mg	  3.980000000000 	  0.000000000000 	  0.000000000000 	
Mg	  4.980000000000 	  0.000000000000 	  2.980000000000 	
Mg	  3.980000000000 	  3.980000000000 	  0.000000000000 	
Mg	  4.980000000000 	  3.980000000000 	  2.980000000000 	
Mg	  2.098990659277 	  2.104863579861 	  0.000000000000 	
Mg	  3.098990659277 	  2.104863579861 	  2.980000000000 	
Mg	  2.098990659277 	  6.084863579861 	  0.000000000000 	
Mg	  3.098990659277 	  6.084863579861 	  2.980000000000 	
Mg	  6.078990659277 	  2.104863579861 	  0.000000000000 	
Mg	  7.078990659277 	  2.104863579861 	  2.980000000000 	
Mg	  6.078990659277 	  6.084863579861 	  0.000000000000 	
Mg	  7.078990659277 	  6.084863579861 	  2.980000000000 	
Mg	  2.145974023953 	  0.000000000000 	  2.087244818108 	
Mg	  3.145974023953 	  0.000000000000 	  5.067244818108 	
Mg	  2.145974023953 	  3.980000000000 	  2.087244818108 	
Mg	  3.145974023953 	  3.980000000000 	  5.067244818108 	
Mg	  6.125974023953 	  0.000000000000 	  2.087244818108 	
Mg	  7.125974023953 	  0.000000000000 	  5.067244818108 	
Mg	  6.125974023953 	  3.980000000000 	  2.087244818108 	
Mg	  7.125974023953 	  3.980000000000 	  5.067244818108 	
Mg	  0.029364602922 	  2.116609421030 	  2.087244818108 	
Mg	  1.029364602922 	  2.116609421030 	  5.067244818108 	
Mg	  0.029364602922 	  6.096609421030 	  2.087244818108 	
Mg	  1.029364602922 	  6.096609421030 	  5.067244818108 	
Mg	  4.009364602922 	  2.116609421030 	  2.087244818108 	
Mg	  5.009364602922 	  2.116609421030 	  5.067244818108 	
Mg	  4.009364602922 	  6.096609421030 	  2.087244818108 	
Mg	  5.009364602922 	  6.096609421030 	  5.067244818108 	
O	  2.116609421030 	  0.000000000000 	  0.000000000000 	
O	  3.116609421030 	  0.000000000000 	  2.980000000000 	
O	  2.116609421030 	  3.980000000000 	  0.000000000000 	
O	  3.116609421030 	  3.980000000000 	  2.980000000000 	
O	  6.096609421030 	  0.000000000000 	  0.000000000000 	
O	  7.096609421030 	  0.000000000000 	  2.980000000000 	
O	  6.096609421030 	  3.980000000000 	  0.000000000000 	
O	  7.096609421030 	  3.980000000000 	  2.980000000000 	
O	  0.000000000000 	  2.116609421030 	  0.000000000000 	
O	  1.000000000000 	  2.116609421030 	  2.980000000000 	
O	  0.000000000000 	  6.096609421030 	  0.000000000000 	
O	  1.000000000000 	  6.096609421030 	  2.980000000000 	
O	  3.980000000000 	  2.116609421030 	  0.000000000000 	
O	  4.980000000000 	  2.116609421030 	  2.980000000000 	
O	  3.980000000000 	  6.096609421030 	  0.000000000000 	
O	  4.980000000000 	  6.096609421030 	  2.980000000000 	
O	  0.029364602922 	  0.000000000000 	  2.087244818108 	
O	  1.029364602922 	  0.000000000000 	  5.067244818108 	
O	  0.029364602922 	  3.980000000000 	  2.087244818108 	
O	  1.029364602922 	  3.980000000000 	  5.067244818108 	
O	  4.009364602922 	  0.000000000000 	  2.087244818108 	
O	  5.009364602922 	  0.000000000000 	  5.067244818108 	
O	  4.009364602922 	  3.980000000000 	  2.087244818108 	
O	  5.009364602922 	  3.980000000000 	  5.067244818108 	
O	  2.169465706291 	  2.078024332790 	  2.087244818108 	
O	  3.169465706291 	  2.078024332790 	  5.067244818108 	
O	  2.169465706291 	  6.058024332790 	  2.087244818108 	
O	  3.169465706291 	  6.058024332790 	  5.067244818108 	
O	  6.149465706291 	  2.078024332790 	  2.087244818108 	
O	  7.149465706291 	  2.078024332790 	  5.067244818108 	
O	  6.149465706291 	  6.058024332790 	  2.087244818108 	
O	  7.149465706291 	  6.058024332790 	  5.067244818108 	
64 
Energy: 0.0000000000000000e+00 
Mg	  0.000000000000 	  0.000000000000 	  0.000000000000 	
Mg	  1.000000000000 	  0.000000000000 	  2.980000000000 	
Mg	  0.000000000000 	  3.980000000000 	  0.000000000000 	
Mg	  1.000000000000 	  3.980000000000 	  2.980000000000 	
Mg	  3.980000000000 	  0.000000000000 	  0.000000000000 	
Mg	  4.980000000000 	  0.000000000000 	  2.980000000000 	
Mg	  3.980000000000 	  3.980000000000 	  0.000000000000 	
Mg	  4.980000000000 	  3.980000000000 	  2.980000000000 	
Mg	  2.125000000000 	  2.125000000000 	  0.000000000000 	
Mg	  3.125000000000 	  2.125000000000 	  2.980000000000 	
Mg	  2.125000000000 	  6.105000000000 	  0.000000000000 	
Mg	  3.125000000000 	  6.105000000000 	  2.980000000000 	
Mg	  6.105000000000 	  2.125000000000 	  0.000000000000 	
Mg	  7.105000000000 	  2.125000000000 	  2.980000000000 	
Mg	  6.105000000000 	  6.105000000000 	  0.000000000000 	
Mg	  7.105000000000 	  6.105000000000 	  2.980000000000 	
Mg	  2.125000000000 	  0.000000000000 	  2.125000000000 	
Mg	  3.125000000000 	  0.000000000000 	  5.105000000000 	
Mg	  2.125000000000 	  3.980000000000 	  2.125000000000 	
Mg	  3.125000000000 	  3.980000000000 	  5.105000000000 	
Mg	  6.105000000000 	  0.000000000000 	  2.125000000000 	
Mg	  7.105000000000 	  0.000000000000 	  5.105000000000 	
Mg	  6.105000000000 	  3.980000000000 	  2.125000000000 	
Mg	  7.105000000000 	  3.980000000000 	  5.105000000000 	
Mg	  0.000000000000 	  2.125000000000 	  2.125000000000 	
Mg	  1.000000000000 	  2.125000000000 	  5.105000000000 	
Mg	  0.000000000000 	  6.105000000000 	  2.125000000000 	
Mg	  1.000000000000 	  6.105000000000 	  5.105000000000 	
Mg	  3.980000000000 	  2.125000000000 	  2.125000000000 	
Mg	  4.980000000000 	  2.125000000000 	  5.105000000000 	
Mg	  3.980000000000 	  6.105000000000 	  2.125000000000 	
Mg	  4.980000000000 	  6.105000000000 	  5.105000000000 	
O	  2.125000000000 	  0.000000000000 	  0.000000000000 	
O	  3.125000000000 	  0.000000000000 	  2.980000000000 	
O	  2.125000000000 	  3.980000000000 	  0.000000000000 	
O	  3.125000000000 	  3.980000000000 	  2.980000000000 	
O	  6.105000000000 	  0.000000000000 	  0.000000000000 	
O	  7.105000000000 	  0.000000000000 	  2.980000000000 	
O	  6.105000000000 	  3.980000000000 	  0.000000000000 	
O	  7.105000000000 	  3.980000000000 	  2.980000000000 	
O	  0.000000000000 	  2.125000000000 	  0.000000000000 	
O	  1.000000000000 	  2.125000000000 	  2.980000000000 	
O	  0.000000000000 	  6.105000000000 	  0.000000000000 	
O	  1.000000000000 	  6.105000000000 	  2.980000000000 	
O	  3.980000000000 	  2.125000000000 	  0.000000000000 	
O	  4.980000000000 	  2.125000000000 	  2.980000000000 	
O	  3.980000000000 	  6.105000000000 	  0.000000000000 	
O	  4.980000000000 	  6.105000000000 	  2.980000000000 	
O	  0.000000000000 	  0.000000000000 	  2.125000000000 	
O	  1.000000000000 	  0.000000000000 	  5.105000000000 	
O	  0.000000000000 	  3.980000000000 	  2.125000000000 	
O	  1.000000000000 	  3.980000000000 	  5.105000000000 	
O	  3.980000000000 	  0.000000000000 	  2.125000000000 	
O	  4.980000000000 	  0.000000000000 	  5.105000000000 	
O	  3.980000000000 	  3.980000000000 	  2.125000000000 	
O	  4.980000000000 	  3.980000000000 	  5.105000000000 	
O	  2.125000000000 	  2.125000000000 	  2.125000000000 	
O	  3.125000000000 	  2.125000000000 	  5.105000000000 	
O	  2.125000000000 	  6.105000000000 	  2.125000000000 	
O	  3.125000000000 	  6.105000000000 	  5.105000000000 	
O	  6.105000000000 	  2.125000000000 	  2.125000000000 	
O	  7.105000000000 	  2.125000000000 	  5.105000000000 	
O	  6.105000000000 	  6.105000000000 	  2.125000000000 	
O	  7.105000000000 	  6.105000000000 	  5.105000000000 	
