  Invoking FHI-aims ...
  | Number of atoms                   :  96
  ...scf iterations...
  | Total energy corrected        :   -8.250420524857E+01 eV
  ...
  Total atomic forces (unitary forces cleaned)
     1  -2.6888346396E-01  6.1159750403E-01  1.9484717183E-01
     2  2.0556203120E-01  5.7064146703E-01  -1.9530917733E-01
     3  2.6888360982E-01  -6.1159742290E-01  -1.9484706704E-01
     4  -2.0556191608E-01  -5.7064117805E-01  1.9530921882E-01
     5  -7.6082288747E-01  1.6681441800E+00  2.8439464561E-01
     6  7.7687611183E-01  1.3491877301E+00  -3.7619499547E-01
     7  7.6082290037E-01  -1.6681440388E+00  -2.8439452609E-01
     8  -7.7687661306E-01  -1.3491878396E+00  3.7619526717E-01
     9  -3.3553378164E-01  2.4734770866E-01  -1.8302762909E-01
    10  8.9787186151E-01  7.0749174176E-01  1.6820519745E-01
    11  3.3553359160E-01  -2.4734704482E-01  1.8302750535E-01
    12  -8.9787215844E-01  -7.0749216820E-01  -1.6820459232E-01
    13  -4.9463063661E-01  -9.6132421986E-01  -1.0695100876E+00
    14  -7.4394469446E-02  -1.4518955262E+00  1.1056604501E+00
    15  4.9463010889E-01  9.6132422750E-01  1.0695097718E+00
    16  7.4394236718E-02  1.4518959741E+00  -1.1056596324E+00
    17  4.7253087159E-01  -6.6012544634E-01  -5.7153530830E-02
    18  -3.0576268250E-01  -8.4753293163E-01  5.3934032408E-01
    19  -4.7252987848E-01  6.6012542103E-01  5.7154155154E-02
    20  3.0576221439E-01  8.4753293255E-01  -5.3934073541E-01
    21  5.6618457615E-01  -1.0853572909E+00  -2.2174495696E-01
    22  -5.8128293619E-01  -1.1673962951E+00  2.5977924597E-01
    23  -5.6618471752E-01  1.0853579558E+00  2.2174445794E-01
    24  5.8128260474E-01  1.1673964927E+00  -2.5977952413E-01
    25  8.0491885651E-01  -6.1212893254E-03  7.2894734894E-01
    26  -9.5842335513E-01  2.1622040130E-01  -1.2157873901E+00
    27  -8.0491864621E-01  6.1207429715E-03  -7.2894751759E-01
    28  9.5842469059E-01  -2.1622039216E-01  1.2157869104E+00
    29  4.7854121813E-01  3.9561034443E-01  6.6864138408E-01
    30  -4.6932804990E-01  4.2294003585E-01  -6.8627371528E-01
    31  -4.7854125060E-01  -3.9561020912E-01  -6.6864118501E-01
    32  4.6932790691E-01  -4.2294002078E-01  6.8627337851E-01
    33  1.2875517437E-01  9.4981840422E-01  8.1753741989E-01
    34  -9.0331683191E-02  9.8793878634E-01  -7.7367967194E-01
    35  -1.2875525675E-01  -9.4981898735E-01  -8.1753712598E-01
    36  9.0332114226E-02  -9.8793918578E-01  7.7367958605E-01
    37  -7.2157043586E-01  6.2182378718E-01  -2.0346567237E-01
    38  7.3845585518E-01  6.5113478154E-01  1.9120075279E-01
    39  7.2157052277E-01  -6.2182403783E-01  2.0346563249E-01
    40  -7.3845599207E-01  -6.5113477905E-01  -1.9120047768E-01
    41  -7.7352064395E-01  1.0815578082E+00  6.9304305569E-02
    42  7.7750404647E-01  1.0917452371E+00  -6.4434635406E-02
    43  7.7352061181E-01  -1.0815578517E+00  -6.9303964750E-02
    44  -7.7750388692E-01  -1.0917450083E+00  6.4434865060E-02
    45  -1.1411387783E+00  1.1622342230E-01  -7.8230799104E-01
    46  1.3807927678E+00  6.2185572870E-01  6.4679315633E-01
    47  1.1411351954E+00  -1.1622283172E-01  7.8230662115E-01
    48  -1.3807932322E+00  -6.2185664755E-01  -6.4679293027E-01
    49  1.9857464735E-01  3.8971896541E-01  1.4031488231E+00
    50  -9.2849144463E-01  6.2264896965E+00  -3.3227143013E+00
    51  -1.9857256267E-01  -3.8971822049E-01  -1.4031478776E+00
    52  9.2849390495E-01  -6.2264890593E+00  3.3227118489E+00
    53  -1.2318655550E+00  -5.8753595928E-01  5.7014264162E-01
    54  8.8647016650E-01  -5.4349800820E-01  -4.1407197332E-01
    55  1.2318633051E+00  5.8753799463E-01  -5.7014080445E-01
    56  -8.8646933130E-01  5.4349766611E-01  4.1407225241E-01
    57  6.9611209340E-01  -1.6346317492E-01  5.1519662573E-01
    58  1.6412814782E+00  1.3797898879E-01  1.4853276747E+00
    59  -6.9611270216E-01  1.6346230286E-01  -5.1519654486E-01
    60  -1.6412834067E+00  -1.3797940389E-01  -1.4853271485E+00
    61  -1.1365650098E-01  1.4135286238E+00  -1.7096596901E-02
    62  -1.2112449182E+00  -4.6974013091E+00  -1.6107742069E-02
    63  1.1365887682E-01  -1.4135271049E+00  1.7094800871E-02
    64  1.2112448740E+00  4.6974012028E+00  1.6109239973E-02
    65  6.8181165201E-01  -1.2966651535E+00  4.8311157476E-01
    66  1.5511296969E-01  -4.7188619290E-01  -1.1699546273E+00
    67  -6.8181248884E-01  1.2966647706E+00  -4.8310993741E-01
    68  -1.5511240979E-01  4.7188634131E-01  1.1699552443E+00
    69  -1.0740827678E+00  -6.1011629235E-01  5.5774435391E-01
    70  1.2632222959E+00  -7.2775640678E-01  -6.2465894015E-01
    71  1.0740809926E+00  6.1011703473E-01  -5.5774267668E-01
    72  -1.2632218005E+00  7.2775594293E-01  6.2465968646E-01
    73  4.6452476357E-01  -5.2040604606E-01  -1.1490185413E+00
    74  -8.1636347700E-01  -1.6073234337E+00  2.4032798278E+00
    75  -4.6452536257E-01  5.2040263783E-01  1.1490178423E+00
    76  8.1636173839E-01  1.6073239642E+00  -2.4032801436E+00
    77  6.5020097687E-01  -8.7299963727E-02  4.9512358246E-01
    78  -1.4813966250E+00  -3.9091284891E-01  -1.1528032690E+00
    79  -6.5019992108E-01  8.7299447312E-02  -4.9512347745E-01
    80  1.4813970512E+00  3.9091287872E-01  1.1528022976E+00
    81  1.3809184554E+00  5.3151529099E-01  -3.0352556961E-01
    82  -1.3998134899E+00  5.6915017310E-01  3.3025333623E-01
    83  -1.3809162368E+00  -5.3151630794E-01  3.0352551877E-01
    84  1.3998133388E+00  -5.6914968096E-01  -3.3025327316E-01
    85  6.5206825468E-01  -6.4012147282E-02  4.4476713974E-01
    86  -6.6101296191E-01  -6.5373243084E-02  -4.2943885036E-01
    87  -6.5206783983E-01  6.4012502025E-02  -4.4476683531E-01
    88  6.6101265528E-01  6.5373135073E-02  4.2943884900E-01
    89  1.9187324765E-01  -5.9097161672E-01  -1.2354969519E+00
    90  -2.1004066954E-01  -5.6830434136E-01  1.2583163910E+00
    91  -1.9187312484E-01  5.9096932510E-01  1.2354956831E+00
    92  2.1004024439E-01  5.6830504912E-01  -1.2583164254E+00
    93  -3.5692369780E-01  1.3294011607E+00  -1.4296383591E-01
    94  3.5132383641E-01  1.3488582625E+00  1.6245368144E-01
    95  3.5692473541E-01  -1.3293992337E+00  1.4296132807E-01
    96  -3.5132358640E-01  -1.3488583805E+00  -1.6245394110E-01
  Stress tensor (eV/A^3):
  7.9963217898E-02  -1.0171140319E-03  2.0159882253E-02
  -1.0171140319E-03  8.5641954265E-02  -2.7886060710E-03
  2.0159882253E-02  -2.7886060710E-03  8.0835993651E-02
