64 
Energy: 2.7678585265495621e+00 
Mg	  0.000000000000 	  0.000000000000 	  0.000000000000 	
Mg	  1.000000000000 	  0.000000000000 	  2.980000000000 	
Mg	  0.000000000000 	  3.980000000000 	  0.000000000000 	
Mg	  1.000000000000 	  3.980000000000 	  2.980000000000 	
Mg	  3.980000000000 	  0.000000000000 	  0.000000000000 	
Mg	  4.980000000000 	  0.000000000000 	  2.980000000000 	
Mg	  3.980000000000 	  3.980000000000 	  0.000000000000 	
Mg	  4.980000000000 	  3.980000000000 	  2.980000000000 	
Mg	  1.705191317262 	  1.800127544841 	  0.000000000000 	
Mg	  2.705191317262 	  1.800127544841 	  2.980000000000 	
Mg	  1.705191317262 	  5.780127544841 	  0.000000000000 	
Mg	  2.705191317262 	  5.780127544841 	  2.980000000000 	
Mg	  5.685191317262 	  1.800127544841 	  0.000000000000 	
Mg	  6.685191317262 	  1.800127544841 	  2.980000000000 	
Mg	  5.685191317262 	  5.780127544841 	  0.000000000000 	
Mg	  6.685191317262 	  5.780127544841 	  2.980000000000 	
Mg	  2.464681137897 	  0.000000000000 	  1.515318862103 	
Mg	  3.464681137897 	  0.000000000000 	  4.495318862103 	
Mg	  2.464681137897 	  3.980000000000 	  1.515318862103 	
Mg	  3.464681137897 	  3.980000000000 	  4.495318862103 	
Mg	  6.444681137897 	  0.000000000000 	  1.515318862103 	
Mg	  7.444681137897 	  0.000000000000 	  4.495318862103 	
Mg	  6.444681137897 	  3.980000000000 	  1.515318862103 	
Mg	  7.444681137897 	  3.980000000000 	  4.495318862103 	
Mg	  0.474681137897 	  1.990000000000 	  1.515318862103 	
Mg	  1.474681137897 	  1.990000000000 	  4.495318862103 	
Mg	  0.474681137897 	  5.970000000000 	  1.515318862103 	
Mg	  1.474681137897 	  5.970000000000 	  4.495318862103 	
Mg	  4.454681137897 	  1.990000000000 	  1.515318862103 	
Mg	  5.454681137897 	  1.990000000000 	  4.495318862103 	
Mg	  4.454681137897 	  5.970000000000 	  1.515318862103 	
Mg	  5.454681137897 	  5.970000000000 	  4.495318862103 	
O	  1.990000000000 	  0.000000000000 	  0.000000000000 	
O	  2.990000000000 	  0.000000000000 	  2.980000000000 	
O	  1.990000000000 	  3.980000000000 	  0.000000000000 	
O	  2.990000000000 	  3.980000000000 	  2.980000000000 	
O	  5.970000000000 	  0.000000000000 	  0.000000000000 	
O	  6.970000000000 	  0.000000000000 	  2.980000000000 	
O	  5.970000000000 	  3.980000000000 	  0.000000000000 	
O	  6.970000000000 	  3.980000000000 	  2.980000000000 	
O	  0.000000000000 	  1.990000000000 	  0.000000000000 	
O	  1.000000000000 	  1.990000000000 	  2.980000000000 	
O	  0.000000000000 	  5.970000000000 	  0.000000000000 	
O	  1.000000000000 	  5.970000000000 	  2.980000000000 	
O	  3.980000000000 	  1.990000000000 	  0.000000000000 	
O	  4.980000000000 	  1.990000000000 	  2.980000000000 	
O	  3.980000000000 	  5.970000000000 	  0.000000000000 	
O	  4.980000000000 	  5.970000000000 	  2.980000000000 	
O	  0.474681137897 	  0.000000000000 	  1.515318862103 	
O	  1.474681137897 	  0.000000000000 	  4.495318862103 	
O	  0.474681137897 	  3.980000000000 	  1.515318862103 	
O	  1.474681137897 	  3.980000000000 	  4.495318862103 	
O	  4.454681137897 	  0.000000000000 	  1.515318862103 	
O	  5.454681137897 	  0.000000000000 	  4.495318862103 	
O	  4.454681137897 	  3.980000000000 	  1.515318862103 	
O	  5.454681137897 	  3.980000000000 	  4.495318862103 	
O	  2.844426048214 	  1.366268984804 	  1.515318862103 	
O	  3.844426048214 	  1.366268984804 	  4.495318862103 	
O	  2.844426048214 	  5.346268984804 	  1.515318862103 	
O	  3.844426048214 	  5.346268984804 	  4.495318862103 	
O	  6.824426048214 	  1.366268984804 	  1.515318862103 	
O	  7.824426048214 	  1.366268984804 	  4.495318862103 	
O	  6.824426048214 	  5.346268984804 	  1.515318862103 	
O	  7.824426048214 	  5.346268984804 	  4.495318862103 	
64 
Energy: 2.7752213262879306e+00 
Mg	  0.000000000000 	  0.000000000000 	  0.000000000000 	
Mg	  1.000000000000 	  0.000000000000 	  2.980000000000 	
Mg	  0.000000000000 	  3.980000000000 	  0.000000000000 	
Mg	  1.000000000000 	  3.980000000000 	  2.980000000000 	
Mg	  3.980000000000 	  0.000000000000 	  0.000000000000 	
Mg	  4.980000000000 	  0.000000000000 	  2.980000000000 	
Mg	  3.980000000000 	  3.980000000000 	  0.000000000000 	
Mg	  4.980000000000 	  3.980000000000 	  2.980000000000 	
Mg	  1.731220522839 	  1.820315689276 	  0.000000000000 	
Mg	  2.731220522839 	  1.820315689276 	  2.980000000000 	
Mg	  1.731220522839 	  5.800315689276 	  0.000000000000 	
Mg	  2.731220522839 	  5.800315689276 	  2.980000000000 	
Mg	  5.711220522839 	  1.820315689276 	  0.000000000000 	
Mg	  6.711220522839 	  1.820315689276 	  2.980000000000 	
Mg	  5.711220522839 	  5.800315689276 	  0.000000000000 	
Mg	  6.711220522839 	  5.800315689276 	  2.980000000000 	
Mg	  2.443981854337 	  0.000000000000 	  1.553030189964 	
Mg	  3.443981854337 	  0.000000000000 	  4.533030189964 	
Mg	  2.443981854337 	  3.980000000000 	  1.553030189964 	
Mg	  3.443981854337 	  3.980000000000 	  4.533030189964 	
Mg	  6.423981854337 	  0.000000000000 	  1.553030189964 	
Mg	  7.423981854337 	  0.000000000000 	  4.533030189964 	
Mg	  6.423981854337 	  3.980000000000 	  1.553030189964 	
Mg	  7.423981854337 	  3.980000000000 	  4.533030189964 	
Mg	  0.445475832187 	  1.998506022151 	  1.553030189964 	
Mg	  1.445475832187 	  1.998506022151 	  4.533030189964 	
Mg	  0.445475832187 	  5.978506022151 	  1.553030189964 	
Mg	  1.445475832187 	  5.978506022151 	  4.533030189964 	
Mg	  4.425475832187 	  1.998506022151 	  1.553030189964 	
Mg	  5.425475832187 	  1.998506022151 	  4.533030189964 	
Mg	  4.425475832187 	  5.978506022151 	  1.553030189964 	
Mg	  5.425475832187 	  5.978506022151 	  4.533030189964 	
O	  1.998506022151 	  0.000000000000 	  0.000000000000 	
O	  2.998506022151 	  0.000000000000 	  2.980000000000 	
O	  1.998506022151 	  3.980000000000 	  0.000000000000 	
O	  2.998506022151 	  3.980000000000 	  2.980000000000 	
O	  5.978506022151 	  0.000000000000 	  0.000000000000 	
O	  6.978506022151 	  0.000000000000 	  2.980000000000 	
O	  5.978506022151 	  3.980000000000 	  0.000000000000 	
O	  6.978506022151 	  3.980000000000 	  2.980000000000 	
O	  0.000000000000 	  1.998506022151 	  0.000000000000 	
O	  1.000000000000 	  1.998506022151 	  2.980000000000 	
O	  0.000000000000 	  5.978506022151 	  0.000000000000 	
O	  1.000000000000 	  5.978506022151 	  2.980000000000 	
O	  3.980000000000 	  1.998506022151 	  0.000000000000 	
O	  4.980000000000 	  1.998506022151 	  2.980000000000 	
O	  3.980000000000 	  5.978506022151 	  0.000000000000 	
O	  4.980000000000 	  5.978506022151 	  2.980000000000 	
O	  0.445475832187 	  0.000000000000 	  1.553030189964 	
O	  1.445475832187 	  0.000000000000 	  4.533030189964 	
O	  0.445475832187 	  3.980000000000 	  1.553030189964 	
O	  1.445475832187 	  3.980000000000 	  4.533030189964 	
O	  4.425475832187 	  0.000000000000 	  1.553030189964 	
O	  5.425475832187 	  0.000000000000 	  4.533030189964 	
O	  4.425475832187 	  3.980000000000 	  1.553030189964 	
O	  5.425475832187 	  3.980000000000 	  4.533030189964 	
O	  2.800362520087 	  1.413150778657 	  1.553030189964 	
O	  3.800362520087 	  1.413150778657 	  4.533030189964 	
O	  2.800362520087 	  5.393150778657 	  1.553030189964 	
O	  3.800362520087 	  5.393150778657 	  4.533030189964 	
O	  6.780362520087 	  1.413150778657 	  1.553030189964 	
O	  7.780362520087 	  1.413150778657 	  4.533030189964 	
O	  6.780362520087 	  5.393150778657 	  1.553030189964 	
O	  7.780362520087 	  5.393150778657 	  4.533030189964 	
64 
Energy: 3.2035437078626234e+00 
Mg	  0.000000000000 	  0.000000000000 	  0.000000000000 	
Mg	  1.000000000000 	  0.000000000000 	  2.980000000000 	
Mg	  0.000000000000 	  3.980000000000 	  0.000000000000 	
Mg	  1.000000000000 	  3.980000000000 	  2.980000000000 	
Mg	  3.980000000000 	  0.000000000000 	  0.000000000000 	
Mg	  4.980000000000 	  0.000000000000 	  2.980000000000 	
Mg	  3.980000000000 	  3.980000000000 	  0.000000000000 	
Mg	  4.980000000000 	  3.980000000000 	  2.980000000000 	
Mg	  1.757421227571 	  1.840585060744 	  0.000000000000 	
Mg	  2.757421227571 	  1.840585060744 	  2.980000000000 	
Mg	  1.757421227571 	  5.820585060744 	  0.000000000000 	
Mg	  2.757421227571 	  5.820585060744 	  2.980000000000 	
Mg	  5.737421227571 	  1.840585060744 	  0.000000000000 	
Mg	  6.737421227571 	  1.840585060744 	  2.980000000000 	
Mg	  5.737421227571 	  5.820585060744 	  0.000000000000 	
Mg	  6.737421227571 	  5.820585060744 	  2.980000000000 	
Mg	  2.422731892949 	  0.000000000000 	  1.591093561227 	
Mg	  3.422731892949 	  0.000000000000 	  4.571093561227 	
Mg	  2.422731892949 	  3.980000000000 	  1.591093561227 	
Mg	  3.422731892949 	  3.980000000000 	  4.571093561227 	
Mg	  6.402731892949 	  0.000000000000 	  1.591093561227 	
Mg	  7.402731892949 	  0.000000000000 	  4.571093561227 	
Mg	  6.402731892949 	  3.980000000000 	  1.591093561227 	
Mg	  7.402731892949 	  3.980000000000 	  4.571093561227 	
Mg	  0.415819165861 	  2.006912727088 	  1.591093561227 	
Mg	  1.415819165861 	  2.006912727088 	  4.571093561227 	
Mg	  0.415819165861 	  5.986912727088 	  1.591093561227 	
Mg	  1.415819165861 	  5.986912727088 	  4.571093561227 	
Mg	  4.395819165861 	  2.006912727088 	  1.591093561227 	
Mg	  5.395819165861 	  2.006912727088 	  4.571093561227 	
Mg	  4.395819165861 	  5.986912727088 	  1.591093561227 	
Mg	  5.395819165861 	  5.986912727088 	  4.571093561227 	
O	  2.006912727088 	  0.000000000000 	  0.000000000000 	
O	  3.006912727088 	  0.000000000000 	  2.980000000000 	
O	  2.006912727088 	  3.980000000000 	  0.000000000000 	
O	  3.006912727088 	  3.980000000000 	  2.980000000000 	
O	  5.986912727088 	  0.000000000000 	  0.000000000000 	
O	  6.986912727088 	  0.000000000000 	  2.980000000000 	
O	  5.986912727088 	  3.980000000000 	  0.000000000000 	
O	  6.986912727088 	  3.980000000000 	  2.980000000000 	
O	  0.000000000000 	  2.006912727088 	  0.000000000000 	
O	  1.000000000000 	  2.006912727088 	  2.980000000000 	
O	  0.000000000000 	  5.986912727088 	  0.000000000000 	
O	  1.000000000000 	  5.986912727088 	  2.980000000000 	
O	  3.980000000000 	  2.006912727088 	  0.000000000000 	
O	  4.980000000000 	  2.006912727088 	  2.980000000000 	
O	  3.980000000000 	  5.986912727088 	  0.000000000000 	
O	  4.980000000000 	  5.986912727088 	  2.980000000000 	
O	  0.415819165861 	  0.000000000000 	  1.591093561227 	
O	  1.415819165861 	  0.000000000000 	  4.571093561227 	
O	  0.415819165861 	  3.980000000000 	  1.591093561227 	
O	  1.415819165861 	  3.980000000000 	  4.571093561227 	
O	  4.395819165861 	  0.000000000000 	  1.591093561227 	
O	  5.395819165861 	  0.000000000000 	  4.571093561227 	
O	  4.395819165861 	  3.980000000000 	  1.591093561227 	
O	  5.395819165861 	  3.980000000000 	  4.571093561227 	
O	  2.755387225639 	  1.460526343146 	  1.591093561227 	
O	  3.755387225639 	  1.460526343146 	  4.571093561227 	
O	  2.755387225639 	  5.440526343146 	  1.591093561227 	
O	  3.755387225639 	  5.440526343146 	  4.571093561227 	
O	  6.735387225639 	  1.460526343146 	  1.591093561227 	
O	  7.735387225639 	  1.460526343146 	  4.571093561227 	
O	  6.735387225639 	  5.440526343146 	  1.591093561227 	
O	  7.735387225639 	  5.440526343146 	  4.571093561227 	
64 
Energy: 3.8364779295535589e+00 
Mg	  0.000000000000 	  0.000000000000 	  0.000000000000 	
Mg	  1.000000000000 	  0.000000000000 	  2.980000000000 	
Mg	  0.000000000000 	  3.980000000000 	  0.000000000000 	
Mg	  1.000000000000 	  3.980000000000 	  2.980000000000 	
Mg	  3.980000000000 	  0.000000000000 	  0.000000000000 	
Mg	  4.980000000000 	  0.000000000000 	  2.980000000000 	
Mg	  3.980000000000 	  3.980000000000 	  0.000000000000 	
Mg	  4.980000000000 	  3.980000000000 	  2.980000000000 	
Mg	  1.783652990138 	  1.860879561147 	  0.000000000000 	
Mg	  2.783652990138 	  1.860879561147 	  2.980000000000 	
Mg	  1.783652990138 	  5.840879561147 	  0.000000000000 	
Mg	  2.783652990138 	  5.840879561147 	  2.980000000000 	
Mg	  5.763652990138 	  1.860879561147 	  0.000000000000 	
Mg	  6.763652990138 	  1.860879561147 	  2.980000000000 	
Mg	  5.763652990138 	  5.840879561147 	  0.000000000000 	
Mg	  6.763652990138 	  5.840879561147 	  2.980000000000 	
Mg	  2.401465558210 	  0.000000000000 	  1.629199848120 	
Mg	  3.401465558210 	  0.000000000000 	  4.609199848120 	
Mg	  2.401465558210 	  3.980000000000 	  1.629199848120 	
Mg	  3.401465558210 	  3.980000000000 	  4.609199848120 	
Mg	  6.381465558210 	  0.000000000000 	  1.629199848120 	
Mg	  7.381465558210 	  0.000000000000 	  4.609199848120 	
Mg	  6.381465558210 	  3.980000000000 	  1.629199848120 	
Mg	  7.381465558210 	  3.980000000000 	  4.609199848120 	
Mg	  0.386132855045 	  2.015332703165 	  1.629199848120 	
Mg	  1.386132855045 	  2.015332703165 	  4.609199848120 	
Mg	  0.386132855045 	  5.995332703165 	  1.629199848120 	
Mg	  1.386132855045 	  5.995332703165 	  4.609199848120 	
Mg	  4.366132855045 	  2.015332703165 	  1.629199848120 	
Mg	  5.366132855045 	  2.015332703165 	  4.609199848120 	
Mg	  4.366132855045 	  5.995332703165 	  1.629199848120 	
Mg	  5.366132855045 	  5.995332703165 	  4.609199848120 	
O	  2.015332703165 	  0.000000000000 	  0.000000000000 	
O	  3.015332703165 	  0.000000000000 	  2.980000000000 	
O	  2.015332703165 	  3.980000000000 	  0.000000000000 	
O	  3.015332703165 	  3.980000000000 	  2.980000000000 	
O	  5.995332703165 	  0.000000000000 	  0.000000000000 	
O	  6.995332703165 	  0.000000000000 	  2.980000000000 	
O	  5.995332703165 	  3.980000000000 	  0.000000000000 	
O	  6.995332703165 	  3.980000000000 	  2.980000000000 	
O	  0.000000000000 	  2.015332703165 	  0.000000000000 	
O	  1.000000000000 	  2.015332703165 	  2.980000000000 	
O	  0.000000000000 	  5.995332703165 	  0.000000000000 	
O	  1.000000000000 	  5.995332703165 	  2.980000000000 	
O	  3.980000000000 	  2.015332703165 	  0.000000000000 	
O	  4.980000000000 	  2.015332703165 	  2.980000000000 	
O	  3.980000000000 	  5.995332703165 	  0.000000000000 	
O	  4.980000000000 	  5.995332703165 	  2.980000000000 	
O	  0.386132855045 	  0.000000000000 	  1.629199848120 	
O	  1.386132855045 	  0.000000000000 	  4.609199848120 	
O	  0.386132855045 	  3.980000000000 	  1.629199848120 	
O	  1.386132855045 	  3.980000000000 	  4.609199848120 	
O	  4.366132855045 	  0.000000000000 	  1.629199848120 	
O	  5.366132855045 	  0.000000000000 	  4.609199848120 	
O	  4.366132855045 	  3.980000000000 	  1.629199848120 	
O	  5.366132855045 	  3.980000000000 	  4.609199848120 	
O	  2.710371842246 	  1.507954131636 	  1.629199848120 	
O	  3.710371842246 	  1.507954131636 	  4.609199848120 	
O	  2.710371842246 	  5.487954131636 	  1.629199848120 	
O	  3.710371842246 	  5.487954131636 	  4.609199848120 	
O	  6.690371842246 	  1.507954131636 	  1.629199848120 	
O	  7.690371842246 	  1.507954131636 	  4.609199848120 	
O	  6.690371842246 	  5.487954131636 	  1.629199848120 	
O	  7.690371842246 	  5.487954131636 	  4.609199848120 	
64 
Energy: 4.5065138440266370e+00 
Mg	  0.000000000000 	  0.000000000000 	  0.000000000000 	
Mg	  1.000000000000 	  0.000000000000 	  2.980000000000 	
Mg	  0.000000000000 	  3.980000000000 	  0.000000000000 	
Mg	  1.000000000000 	  3.980000000000 	  2.980000000000 	
Mg	  3.980000000000 	  0.000000000000 	  0.000000000000 	
Mg	  4.980000000000 	  0.000000000000 	  2.980000000000 	
Mg	  3.980000000000 	  3.980000000000 	  0.000000000000 	
Mg	  4.980000000000 	  3.980000000000 	  2.980000000000 	
Mg	  1.809909055149 	  1.881194510417 	  0.000000000000 	
Mg	  2.809909055149 	  1.881194510417 	  2.980000000000 	
Mg	  1.809909055149 	  5.861194510417 	  0.000000000000 	
Mg	  2.809909055149 	  5.861194510417 	  2.980000000000 	
Mg	  5.789909055149 	  1.881194510417 	  0.000000000000 	
Mg	  6.789909055149 	  1.881194510417 	  2.980000000000 	
Mg	  5.789909055149 	  5.861194510417 	  0.000000000000 	
Mg	  6.789909055149 	  5.861194510417 	  2.980000000000 	
Mg	  2.380192697292 	  0.000000000000 	  1.667338144613 	
Mg	  3.380192697292 	  0.000000000000 	  4.647338144613 	
Mg	  2.380192697292 	  3.980000000000 	  1.667338144613 	
Mg	  3.380192697292 	  3.980000000000 	  4.647338144613 	
Mg	  6.360192697292 	  0.000000000000 	  1.667338144613 	
Mg	  7.360192697292 	  0.000000000000 	  4.647338144613 	
Mg	  6.360192697292 	  3.980000000000 	  1.667338144613 	
Mg	  7.360192697292 	  3.980000000000 	  4.647338144613 	
Mg	  0.356427276339 	  2.023765420953 	  1.667338144613 	
Mg	  1.356427276339 	  2.023765420953 	  4.647338144613 	
Mg	  0.356427276339 	  6.003765420953 	  1.667338144613 	
Mg	  1.356427276339 	  6.003765420953 	  4.647338144613 	
Mg	  4.336427276339 	  2.023765420953 	  1.667338144613 	
Mg	  5.336427276339 	  2.023765420953 	  4.647338144613 	
Mg	  4.336427276339 	  6.003765420953 	  1.667338144613 	
Mg	  5.336427276339 	  6.003765420953 	  4.647338144613 	
O	  2.023765420953 	  0.000000000000 	  0.000000000000 	
O	  3.023765420953 	  0.000000000000 	  2.980000000000 	
O	  2.023765420953 	  3.980000000000 	  0.000000000000 	
O	  3.023765420953 	  3.980000000000 	  2.980000000000 	
O	  6.003765420953 	  0.000000000000 	  0.000000000000 	
O	  7.003765420953 	  0.000000000000 	  2.980000000000 	
O	  6.003765420953 	  3.980000000000 	  0.000000000000 	
O	  7.003765420953 	  3.980000000000 	  2.980000000000 	
O	  0.000000000000 	  2.023765420953 	  0.000000000000 	
O	  1.000000000000 	  2.023765420953 	  2.980000000000 	
O	  0.000000000000 	  6.003765420953 	  0.000000000000 	
O	  1.000000000000 	  6.003765420953 	  2.980000000000 	
O	  3.980000000000 	  2.023765420953 	  0.000000000000 	
O	  4.980000000000 	  2.023765420953 	  2.980000000000 	
O	  3.980000000000 	  6.003765420953 	  0.000000000000 	
O	  4.980000000000 	  6.003765420953 	  2.980000000000 	
O	  0.356427276339 	  0.000000000000 	  1.667338144613 	
O	  1.356427276339 	  0.000000000000 	  4.647338144613 	
O	  0.356427276339 	  3.980000000000 	  1.667338144613 	
O	  1.356427276339 	  3.980000000000 	  4.647338144613 	
O	  4.336427276339 	  0.000000000000 	  1.667338144613 	
O	  5.336427276339 	  0.000000000000 	  4.647338144613 	
O	  4.336427276339 	  3.980000000000 	  1.667338144613 	
O	  5.336427276339 	  3.980000000000 	  4.647338144613 	
O	  2.665334518364 	  1.555419979843 	  1.667338144613 	
O	  3.665334518364 	  1.555419979843 	  4.647338144613 	
O	  2.665334518364 	  5.535419979843 	  1.667338144613 	
O	  3.665334518364 	  5.535419979843 	  4.647338144613 	
O	  6.645334518364 	  1.555419979843 	  1.667338144613 	
O	  7.645334518364 	  1.555419979843 	  4.647338144613 	
O	  6.645334518364 	  5.535419979843 	  1.667338144613 	
O	  7.645334518364 	  5.535419979843 	  4.647338144613 	
64 
Energy: 5.0971239146121725e+00 
Mg	  0.000000000000 	  0.000000000000 	  0.000000000000 	
Mg	  1.000000000000 	  0.000000000000 	  2.980000000000 	
Mg	  0.000000000000 	  3.980000000000 	  0.000000000000 	
Mg	  1.000000000000 	  3.980000000000 	  2.980000000000 	
Mg	  3.980000000000 	  0.000000000000 	  0.000000000000 	
Mg	  4.980000000000 	  0.000000000000 	  2.980000000000 	
Mg	  3.980000000000 	  3.980000000000 	  0.000000000000 	
Mg	  4.980000000000 	  3.980000000000 	  2.980000000000 	
Mg	  1.836181960332 	  1.901523856681 	  0.000000000000 	
Mg	  2.836181960332 	  1.901523856681 	  2.980000000000 	
Mg	  1.836181960332 	  5.881523856681 	  0.000000000000 	
Mg	  2.836181960332 	  5.881523856681 	  2.980000000000 	
Mg	  5.816181960332 	  1.901523856681 	  0.000000000000 	
Mg	  6.816181960332 	  1.901523856681 	  2.980000000000 	
Mg	  5.816181960332 	  5.881523856681 	  0.000000000000 	
Mg	  6.816181960332 	  5.881523856681 	  2.980000000000 	
Mg	  2.358917131125 	  0.000000000000 	  1.705498167634 	
Mg	  3.358917131125 	  0.000000000000 	  4.685498167634 	
Mg	  2.358917131125 	  3.980000000000 	  1.705498167634 	
Mg	  3.358917131125 	  3.980000000000 	  4.685498167634 	
Mg	  6.338917131125 	  0.000000000000 	  1.705498167634 	
Mg	  7.338917131125 	  0.000000000000 	  4.685498167634 	
Mg	  6.338917131125 	  3.980000000000 	  1.705498167634 	
Mg	  7.338917131125 	  3.980000000000 	  4.685498167634 	
Mg	  0.326709481745 	  2.032207649379 	  1.705498167634 	
Mg	  1.326709481745 	  2.032207649379 	  4.685498167634 	
Mg	  0.326709481745 	  6.012207649379 	  1.705498167634 	
Mg	  1.326709481745 	  6.012207649379 	  4.685498167634 	
Mg	  4.306709481745 	  2.032207649379 	  1.705498167634 	
Mg	  5.306709481745 	  2.032207649379 	  4.685498167634 	
Mg	  4.306709481745 	  6.012207649379 	  1.705498167634 	
Mg	  5.306709481745 	  6.012207649379 	  4.685498167634 	
O	  2.032207649379 	  0.000000000000 	  0.000000000000 	
O	  3.032207649379 	  0.000000000000 	  2.980000000000 	
O	  2.032207649379 	  3.980000000000 	  0.000000000000 	
O	  3.032207649379 	  3.980000000000 	  2.980000000000 	
O	  6.012207649379 	  0.000000000000 	  0.000000000000 	
O	  7.012207649379 	  0.000000000000 	  2.980000000000 	
O	  6.012207649379 	  3.980000000000 	  0.000000000000 	
O	  7.012207649379 	  3.980000000000 	  2.980000000000 	
O	  0.000000000000 	  2.032207649379 	  0.000000000000 	
O	  1.000000000000 	  2.032207649379 	  2.980000000000 	
O	  0.000000000000 	  6.012207649379 	  0.000000000000 	
O	  1.000000000000 	  6.012207649379 	  2.980000000000 	
O	  3.980000000000 	  2.032207649379 	  0.000000000000 	
O	  4.980000000000 	  2.032207649379 	  2.980000000000 	
O	  3.980000000000 	  6.012207649379 	  0.000000000000 	
O	  4.980000000000 	  6.012207649379 	  2.980000000000 	
O	  0.326709481745 	  0.000000000000 	  1.705498167634 	
O	  1.326709481745 	  0.000000000000 	  4.685498167634 	
O	  0.326709481745 	  3.980000000000 	  1.705498167634 	
O	  1.326709481745 	  3.980000000000 	  4.685498167634 	
O	  4.306709481745 	  0.000000000000 	  1.705498167634 	
O	  5.306709481745 	  0.000000000000 	  4.685498167634 	
O	  4.306709481745 	  3.980000000000 	  1.705498167634 	
O	  5.306709481745 	  3.980000000000 	  4.685498167634 	
O	  2.620284716521 	  1.602911390365 	  1.705498167634 	
O	  3.620284716521 	  1.602911390365 	  4.685498167634 	
O	  2.620284716521 	  5.582911390365 	  1.705498167634 	
O	  3.620284716521 	  5.582911390365 	  4.685498167634 	
O	  6.600284716521 	  1.602911390365 	  1.705498167634 	
O	  7.600284716521 	  1.602911390365 	  4.685498167634 	
O	  6.600284716521 	  5.582911390365 	  1.705498167634 	
O	  7.600284716521 	  5.582911390365 	  4.685498167634 	
64 
Energy: 5.5250062780846996e+00 
Mg	  0.000000000000 	  0.000000000000 	  0.000000000000 	
Mg	  1.000000000000 	  0.000000000000 	  2.980000000000 	
Mg	  0.000000000000 	  3.980000000000 	  0.000000000000 	
Mg	  1.000000000000 	  3.980000000000 	  2.980000000000 	
Mg	  3.980000000000 	  0.000000000000 	  0.000000000000 	
Mg	  4.980000000000 	  0.000000000000 	  2.980000000000 	
Mg	  3.980000000000 	  3.980000000000 	  0.000000000000 	
Mg	  4.980000000000 	  3.980000000000 	  2.980000000000 	
Mg	  1.862466745494 	  1.921863218476 	  0.000000000000 	
Mg	  2.862466745494 	  1.921863218476 	  2.980000000000 	
Mg	  1.862466745494 	  5.901863218476 	  0.000000000000 	
Mg	  2.862466745494 	  5.901863218476 	  2.980000000000 	
Mg	  5.842466745494 	  1.921863218476 	  0.000000000000 	
Mg	  6.842466745494 	  1.921863218476 	  2.980000000000 	
Mg	  5.842466745494 	  5.901863218476 	  0.000000000000 	
Mg	  6.842466745494 	  5.901863218476 	  2.980000000000 	
Mg	  2.337638529352 	  0.000000000000 	  1.743673799530 	
Mg	  3.337638529352 	  0.000000000000 	  4.723673799530 	
Mg	  2.337638529352 	  3.980000000000 	  1.743673799530 	
Mg	  3.337638529352 	  3.980000000000 	  4.723673799530 	
Mg	  6.317638529352 	  0.000000000000 	  1.743673799530 	
Mg	  7.317638529352 	  0.000000000000 	  4.723673799530 	
Mg	  6.317638529352 	  3.980000000000 	  1.743673799530 	
Mg	  7.317638529352 	  3.980000000000 	  4.723673799530 	
Mg	  0.296982364911 	  2.040656164441 	  1.743673799530 	
Mg	  1.296982364911 	  2.040656164441 	  4.723673799530 	
Mg	  0.296982364911 	  6.020656164441 	  1.743673799530 	
Mg	  1.296982364911 	  6.020656164441 	  4.723673799530 	
Mg	  4.276982364911 	  2.040656164441 	  1.743673799530 	
Mg	  5.276982364911 	  2.040656164441 	  4.723673799530 	
Mg	  4.276982364911 	  6.020656164441 	  1.743673799530 	
Mg	  5.276982364911 	  6.020656164441 	  4.723673799530 	
O	  2.040656164441 	  0.000000000000 	  0.000000000000 	
O	  3.040656164441 	  0.000000000000 	  2.980000000000 	
O	  2.040656164441 	  3.980000000000 	  0.000000000000 	
O	  3.040656164441 	  3.980000000000 	  2.980000000000 	
O	  6.020656164441 	  0.000000000000 	  0.000000000000 	
O	  7.020656164441 	  0.000000000000 	  2.980000000000 	
O	  6.020656164441 	  3.980000000000 	  0.000000000000 	
O	  7.020656164441 	  3.980000000000 	  2.980000000000 	
O	  0.000000000000 	  2.040656164441 	  0.000000000000 	
O	  1.000000000000 	  2.040656164441 	  2.980000000000 	
O	  0.000000000000 	  6.020656164441 	  0.000000000000 	
O	  1.000000000000 	  6.020656164441 	  2.980000000000 	
O	  3.980000000000 	  2.040656164441 	  0.000000000000 	
O	  4.980000000000 	  2.040656164441 	  2.980000000000 	
O	  3.980000000000 	  6.020656164441 	  0.000000000000 	
O	  4.980000000000 	  6.020656164441 	  2.980000000000 	
O	  0.296982364911 	  0.000000000000 	  1.743673799530 	
O	  1.296982364911 	  0.000000000000 	  4.723673799530 	
O	  0.296982364911 	  3.980000000000 	  1.743673799530 	
O	  1.296982364911 	  3.980000000000 	  4.723673799530 	
O	  4.276982364911 	  0.000000000000 	  1.743673799530 	
O	  5.276982364911 	  0.000000000000 	  4.723673799530 	
O	  4.276982364911 	  3.980000000000 	  1.743673799530 	
O	  5.276982364911 	  3.980000000000 	  4.723673799530 	
O	  2.575224421281 	  1.650421336947 	  1.743673799530 	
O	  3.575224421281 	  1.650421336947 	  4.723673799530 	
O	  2.575224421281 	  5.630421336947 	  1.743673799530 	
O	  3.575224421281 	  5.630421336947 	  4.723673799530 	
O	  6.555224421281 	  1.650421336947 	  1.743673799530 	
O	  7.555224421281 	  1.650421336947 	  4.723673799530 	
O	  6.555224421281 	  5.630421336947 	  1.743673799530 	
O	  7.555224421281 	  5.630421336947 	  4.723673799530 	
64 
Energy: 5.7346164366744237e+00 
Mg	  0.000000000000 	  0.000000000000 	  0.000000000000 	
Mg	  1.000000000000 	  0.000000000000 	  2.980000000000 	
Mg	  0.000000000000 	  3.980000000000 	  0.000000000000 	
Mg	  1.000000000000 	  3.980000000000 	  2.980000000000 	
Mg	  3.980000000000 	  0.000000000000 	  0.000000000000 	
Mg	  4.980000000000 	  0.000000000000 	  2.980000000000 	
Mg	  3.980000000000 	  3.980000000000 	  0.000000000000 	
Mg	  4.980000000000 	  3.980000000000 	  2.980000000000 	
Mg	  1.888757697654 	  1.942207867453 	  0.000000000000 	
Mg	  2.888757697654 	  1.942207867453 	  2.980000000000 	
Mg	  1.888757697654 	  5.922207867453 	  0.000000000000 	
Mg	  2.888757697654 	  5.922207867453 	  2.980000000000 	
Mg	  5.868757697654 	  1.942207867453 	  0.000000000000 	
Mg	  6.868757697654 	  1.942207867453 	  2.980000000000 	
Mg	  5.868757697654 	  5.922207867453 	  0.000000000000 	
Mg	  6.868757697654 	  5.922207867453 	  2.980000000000 	
Mg	  2.316359056045 	  0.000000000000 	  1.781857358057 	
Mg	  3.316359056045 	  0.000000000000 	  4.761857358057 	
Mg	  2.316359056045 	  3.980000000000 	  1.781857358057 	
Mg	  3.316359056045 	  3.980000000000 	  4.761857358057 	
Mg	  6.296359056045 	  0.000000000000 	  1.781857358057 	
Mg	  7.296359056045 	  0.000000000000 	  4.761857358057 	
Mg	  6.296359056045 	  3.980000000000 	  1.781857358057 	
Mg	  7.296359056045 	  3.980000000000 	  4.761857358057 	
Mg	  0.267250848994 	  2.049108207051 	  1.781857358057 	
Mg	  1.267250848994 	  2.049108207051 	  4.761857358057 	
Mg	  0.267250848994 	  6.029108207051 	  1.781857358057 	
Mg	  1.267250848994 	  6.029108207051 	  4.761857358057 	
Mg	  4.247250848994 	  2.049108207051 	  1.781857358057 	
Mg	  5.247250848994 	  2.049108207051 	  4.761857358057 	
Mg	  4.247250848994 	  6.029108207051 	  1.781857358057 	
Mg	  5.247250848994 	  6.029108207051 	  4.761857358057 	
O	  2.049108207051 	  0.000000000000 	  0.000000000000 	
O	  3.049108207051 	  0.000000000000 	  2.980000000000 	
O	  2.049108207051 	  3.980000000000 	  0.000000000000 	
O	  3.049108207051 	  3.980000000000 	  2.980000000000 	
O	  6.029108207051 	  0.000000000000 	  0.000000000000 	
O	  7.029108207051 	  0.000000000000 	  2.980000000000 	
O	  6.029108207051 	  3.980000000000 	  0.000000000000 	
O	  7.029108207051 	  3.980000000000 	  2.980000000000 	
O	  0.000000000000 	  2.049108207051 	  0.000000000000 	
O	  1.000000000000 	  2.049108207051 	  2.980000000000 	
O	  0.000000000000 	  6.029108207051 	  0.000000000000 	
O	  1.000000000000 	  6.029108207051 	  2.980000000000 	
O	  3.980000000000 	  2.049108207051 	  0.000000000000 	
O	  4.980000000000 	  2.049108207051 	  2.980000000000 	
O	  3.980000000000 	  6.029108207051 	  0.000000000000 	
O	  4.980000000000 	  6.029108207051 	  2.980000000000 	
O	  0.267250848994 	  0.000000000000 	  1.781857358057 	
O	  1.267250848994 	  0.000000000000 	  4.761857358057 	
O	  0.267250848994 	  3.980000000000 	  1.781857358057 	
O	  1.267250848994 	  3.980000000000 	  4.761857358057 	
O	  4.247250848994 	  0.000000000000 	  1.781857358057 	
O	  5.247250848994 	  0.000000000000 	  4.761857358057 	
O	  4.247250848994 	  3.980000000000 	  1.781857358057 	
O	  5.247250848994 	  3.980000000000 	  4.761857358057 	
O	  2.530159735240 	  1.697940591473 	  1.781857358057 	
O	  3.530159735240 	  1.697940591473 	  4.761857358057 	
O	  2.530159735240 	  5.677940591473 	  1.781857358057 	
O	  3.530159735240 	  5.677940591473 	  4.761857358057 	
O	  6.510159735240 	  1.697940591473 	  1.781857358057 	
O	  7.510159735240 	  1.697940591473 	  4.761857358057 	
O	  6.510159735240 	  5.677940591473 	  1.781857358057 	
O	  7.510159735240 	  5.677940591473 	  4.761857358057 	
64 
Energy: 5.6926609619029147e+00 
Mg	  0.000000000000 	  0.000000000000 	  0.000000000000 	
Mg	  1.000000000000 	  0.000000000000 	  2.980000000000 	
Mg	  0.000000000000 	  3.980000000000 	  0.000000000000 	
Mg	  1.000000000000 	  3.980000000000 	  2.980000000000 	
Mg	  3.980000000000 	  0.000000000000 	  0.000000000000 	
Mg	  4.980000000000 	  0.000000000000 	  2.980000000000 	
Mg	  3.980000000000 	  3.980000000000 	  0.000000000000 	
Mg	  4.980000000000 	  3.980000000000 	  2.980000000000 	
Mg	  1.915050189169 	  1.962553759480 	  0.000000000000 	
Mg	  2.915050189169 	  1.962553759480 	  2.980000000000 	
Mg	  1.915050189169 	  5.942553759480 	  0.000000000000 	
Mg	  2.915050189169 	  5.942553759480 	  2.980000000000 	
Mg	  5.895050189169 	  1.962553759480 	  0.000000000000 	
Mg	  6.895050189169 	  1.962553759480 	  2.980000000000 	
Mg	  5.895050189169 	  5.942553759480 	  0.000000000000 	
Mg	  6.895050189169 	  5.942553759480 	  2.980000000000 	
Mg	  2.295078751654 	  0.000000000000 	  1.820043048548 	
Mg	  3.295078751654 	  0.000000000000 	  4.800043048548 	
Mg	  2.295078751654 	  3.980000000000 	  1.820043048548 	
Mg	  3.295078751654 	  3.980000000000 	  4.800043048548 	
Mg	  6.275078751654 	  0.000000000000 	  1.820043048548 	
Mg	  7.275078751654 	  0.000000000000 	  4.800043048548 	
Mg	  6.275078751654 	  3.980000000000 	  1.820043048548 	
Mg	  7.275078751654 	  3.980000000000 	  4.800043048548 	
Mg	  0.237517851553 	  2.057560900101 	  1.820043048548 	
Mg	  1.237517851553 	  2.057560900101 	  4.800043048548 	
Mg	  0.237517851553 	  6.037560900101 	  1.820043048548 	
Mg	  1.237517851553 	  6.037560900101 	  4.800043048548 	
Mg	  4.217517851553 	  2.057560900101 	  1.820043048548 	
Mg	  5.217517851553 	  2.057560900101 	  4.800043048548 	
Mg	  4.217517851553 	  6.037560900101 	  1.820043048548 	
Mg	  5.217517851553 	  6.037560900101 	  4.800043048548 	
O	  2.057560900101 	  0.000000000000 	  0.000000000000 	
O	  3.057560900101 	  0.000000000000 	  2.980000000000 	
O	  2.057560900101 	  3.980000000000 	  0.000000000000 	
O	  3.057560900101 	  3.980000000000 	  2.980000000000 	
O	  6.037560900101 	  0.000000000000 	  0.000000000000 	
O	  7.037560900101 	  0.000000000000 	  2.980000000000 	
O	  6.037560900101 	  3.980000000000 	  0.000000000000 	
O	  7.037560900101 	  3.980000000000 	  2.980000000000 	
O	  0.000000000000 	  2.057560900101 	  0.000000000000 	
O	  1.000000000000 	  2.057560900101 	  2.980000000000 	
O	  0.000000000000 	  6.037560900101 	  0.000000000000 	
O	  1.000000000000 	  6.037560900101 	  2.980000000000 	
O	  3.980000000000 	  2.057560900101 	  0.000000000000 	
O	  4.980000000000 	  2.057560900101 	  2.980000000000 	
O	  3.980000000000 	  6.037560900101 	  0.000000000000 	
O	  4.980000000000 	  6.037560900101 	  2.980000000000 	
O	  0.237517851553 	  0.000000000000 	  1.820043048548 	
O	  1.237517851553 	  0.000000000000 	  4.800043048548 	
O	  0.237517851553 	  3.980000000000 	  1.820043048548 	
O	  1.237517851553 	  3.980000000000 	  4.800043048548 	
O	  4.217517851553 	  0.000000000000 	  1.820043048548 	
O	  5.217517851553 	  0.000000000000 	  4.800043048548 	
O	  4.217517851553 	  3.980000000000 	  1.820043048548 	
O	  5.217517851553 	  3.980000000000 	  4.800043048548 	
O	  2.485093032896 	  1.745462443161 	  1.820043048548 	
O	  3.485093032896 	  1.745462443161 	  4.800043048548 	
O	  2.485093032896 	  5.725462443161 	  1.820043048548 	
O	  3.485093032896 	  5.725462443161 	  4.800043048548 	
O	  6.465093032896 	  1.745462443161 	  1.820043048548 	
O	  7.465093032896 	  1.745462443161 	  4.800043048548 	
O	  6.465093032896 	  5.725462443161 	  1.820043048548 	
O	  7.465093032896 	  5.725462443161 	  4.800043048548 	
64 
Energy: 5.3867586472251947e+00 
Mg	  0.000000000000 	  0.000000000000 	  0.000000000000 	
Mg	  1.000000000000 	  0.000000000000 	  2.980000000000 	
Mg	  0.000000000000 	  3.980000000000 	  0.000000000000 	
Mg	  1.000000000000 	  3.980000000000 	  2.980000000000 	
Mg	  3.980000000000 	  0.000000000000 	  0.000000000000 	
Mg	  4.980000000000 	  0.000000000000 	  2.980000000000 	
Mg	  3.980000000000 	  3.980000000000 	  0.000000000000 	
Mg	  4.980000000000 	  3.980000000000 	  2.980000000000 	
Mg	  1.941339776272 	  1.982897374614 	  0.000000000000 	
Mg	  2.941339776272 	  1.982897374614 	  2.980000000000 	
Mg	  1.941339776272 	  5.962897374614 	  0.000000000000 	
Mg	  2.941339776272 	  5.962897374614 	  2.980000000000 	
Mg	  5.921339776272 	  1.982897374614 	  0.000000000000 	
Mg	  6.921339776272 	  1.982897374614 	  2.980000000000 	
Mg	  5.921339776272 	  5.962897374614 	  0.000000000000 	
Mg	  6.921339776272 	  5.962897374614 	  2.980000000000 	
Mg	  2.273800563008 	  0.000000000000 	  1.858224579588 	
Mg	  3.273800563008 	  0.000000000000 	  4.838224579588 	
Mg	  2.273800563008 	  3.980000000000 	  1.858224579588 	
Mg	  3.273800563008 	  3.980000000000 	  4.838224579588 	
Mg	  6.253800563008 	  0.000000000000 	  1.858224579588 	
Mg	  7.253800563008 	  0.000000000000 	  4.838224579588 	
Mg	  6.253800563008 	  3.980000000000 	  1.858224579588 	
Mg	  7.253800563008 	  3.980000000000 	  4.838224579588 	
Mg	  0.207787991710 	  2.066012571298 	  1.858224579588 	
Mg	  1.207787991710 	  2.066012571298 	  4.838224579588 	
Mg	  0.207787991710 	  6.046012571298 	  1.858224579588 	
Mg	  1.207787991710 	  6.046012571298 	  4.838224579588 	
Mg	  4.187787991710 	  2.066012571298 	  1.858224579588 	
Mg	  5.187787991710 	  2.066012571298 	  4.838224579588 	
Mg	  4.187787991710 	  6.046012571298 	  1.858224579588 	
Mg	  5.187787991710 	  6.046012571298 	  4.838224579588 	
O	  2.066012571298 	  0.000000000000 	  0.000000000000 	
O	  3.066012571298 	  0.000000000000 	  2.980000000000 	
O	  2.066012571298 	  3.980000000000 	  0.000000000000 	
O	  3.066012571298 	  3.980000000000 	  2.980000000000 	
O	  6.046012571298 	  0.000000000000 	  0.000000000000 	
O	  7.046012571298 	  0.000000000000 	  2.980000000000 	
O	  6.046012571298 	  3.980000000000 	  0.000000000000 	
O	  7.046012571298 	  3.980000000000 	  2.980000000000 	
O	  0.000000000000 	  2.066012571298 	  0.000000000000 	
O	  1.000000000000 	  2.066012571298 	  2.980000000000 	
O	  0.000000000000 	  6.046012571298 	  0.000000000000 	
O	  1.000000000000 	  6.046012571298 	  2.980000000000 	
O	  3.980000000000 	  2.066012571298 	  0.000000000000 	
O	  4.980000000000 	  2.066012571298 	  2.980000000000 	
O	  3.980000000000 	  6.046012571298 	  0.000000000000 	
O	  4.980000000000 	  6.046012571298 	  2.980000000000 	
O	  0.207787991710 	  0.000000000000 	  1.858224579588 	
O	  1.207787991710 	  0.000000000000 	  4.838224579588 	
O	  0.207787991710 	  3.980000000000 	  1.858224579588 	
O	  1.207787991710 	  3.980000000000 	  4.838224579588 	
O	  4.187787991710 	  0.000000000000 	  1.858224579588 	
O	  5.187787991710 	  0.000000000000 	  4.838224579588 	
O	  4.187787991710 	  3.980000000000 	  1.858224579588 	
O	  5.187787991710 	  3.980000000000 	  4.838224579588 	
O	  2.440030956376 	  1.792979150191 	  1.858224579588 	
O	  3.440030956376 	  1.792979150191 	  4.838224579588 	
O	  2.440030956376 	  5.772979150191 	  1.858224579588 	
O	  3.440030956376 	  5.772979150191 	  4.838224579588 	
O	  6.420030956376 	  1.792979150191 	  1.858224579588 	
O	  7.420030956376 	  1.792979150191 	  4.838224579588 	
O	  6.420030956376 	  5.772979150191 	  1.858224579588 	
O	  7.420030956376 	  5.772979150191 	  4.838224579588 	
64 
Energy: 4.8252461134671529e+00 
Mg	  0.000000000000 	  0.000000000000 	  0.000000000000 	
Mg	  1.000000000000 	  0.000000000000 	  2.980000000000 	
Mg	  0.000000000000 	  3.980000000000 	  0.000000000000 	
Mg	  1.000000000000 	  3.980000000000 	  2.980000000000 	
Mg	  3.980000000000 	  0.000000000000 	  0.000000000000 	
Mg	  4.980000000000 	  0.000000000000 	  2.980000000000 	
Mg	  3.980000000000 	  3.980000000000 	  0.000000000000 	
Mg	  4.980000000000 	  3.980000000000 	  2.980000000000 	
Mg	  1.967622406059 	  2.003235412342 	  0.000000000000 	
Mg	  2.967622406059 	  2.003235412342 	  2.980000000000 	
Mg	  1.967622406059 	  5.983235412342 	  0.000000000000 	
Mg	  2.967622406059 	  5.983235412342 	  2.980000000000 	
Mg	  5.947622406059 	  2.003235412342 	  0.000000000000 	
Mg	  6.947622406059 	  2.003235412342 	  2.980000000000 	
Mg	  5.947622406059 	  5.983235412342 	  0.000000000000 	
Mg	  6.947622406059 	  5.983235412342 	  2.980000000000 	
Mg	  2.252526456326 	  0.000000000000 	  1.896396393492 	
Mg	  3.252526456326 	  0.000000000000 	  4.876396393492 	
Mg	  2.252526456326 	  3.980000000000 	  1.896396393492 	
Mg	  3.252526456326 	  3.980000000000 	  4.876396393492 	
Mg	  6.232526456326 	  0.000000000000 	  1.896396393492 	
Mg	  7.232526456326 	  0.000000000000 	  4.876396393492 	
Mg	  6.232526456326 	  3.980000000000 	  1.896396393492 	
Mg	  7.232526456326 	  3.980000000000 	  4.876396393492 	
Mg	  0.178065031417 	  2.074461424909 	  1.896396393492 	
Mg	  1.178065031417 	  2.074461424909 	  4.876396393492 	
Mg	  0.178065031417 	  6.054461424909 	  1.896396393492 	
Mg	  1.178065031417 	  6.054461424909 	  4.876396393492 	
Mg	  4.158065031417 	  2.074461424909 	  1.896396393492 	
Mg	  5.158065031417 	  2.074461424909 	  4.876396393492 	
Mg	  4.158065031417 	  6.054461424909 	  1.896396393492 	
Mg	  5.158065031417 	  6.054461424909 	  4.876396393492 	
O	  2.074461424909 	  0.000000000000 	  0.000000000000 	
O	  3.074461424909 	  0.000000000000 	  2.980000000000 	
O	  2.074461424909 	  3.980000000000 	  0.000000000000 	
O	  3.074461424909 	  3.980000000000 	  2.980000000000 	
O	  6.054461424909 	  0.000000000000 	  0.000000000000 	
O	  7.054461424909 	  0.000000000000 	  2.980000000000 	
O	  6.054461424909 	  3.980000000000 	  0.000000000000 	
O	  7.054461424909 	  3.980000000000 	  2.980000000000 	
O	  0.000000000000 	  2.074461424909 	  0.000000000000 	
O	  1.000000000000 	  2.074461424909 	  2.980000000000 	
O	  0.000000000000 	  6.054461424909 	  0.000000000000 	
O	  1.000000000000 	  6.054461424909 	  2.980000000000 	
O	  3.980000000000 	  2.074461424909 	  0.000000000000 	
O	  4.980000000000 	  2.074461424909 	  2.980000000000 	
O	  3.980000000000 	  6.054461424909 	  0.000000000000 	
O	  4.980000000000 	  6.054461424909 	  2.980000000000 	
O	  0.178065031417 	  0.000000000000 	  1.896396393492 	
O	  1.178065031417 	  0.000000000000 	  4.876396393492 	
O	  0.178065031417 	  3.980000000000 	  1.896396393492 	
O	  1.178065031417 	  3.980000000000 	  4.876396393492 	
O	  4.158065031417 	  0.000000000000 	  1.896396393492 	
O	  5.158065031417 	  0.000000000000 	  4.876396393492 	
O	  4.158065031417 	  3.980000000000 	  1.896396393492 	
O	  5.158065031417 	  3.980000000000 	  4.876396393492 	
O	  2.394978481459 	  1.840483973628 	  1.896396393492 	
O	  3.394978481459 	  1.840483973628 	  4.876396393492 	
O	  2.394978481459 	  5.820483973628 	  1.896396393492 	
O	  3.394978481459 	  5.820483973628 	  4.876396393492 	
O	  6.374978481459 	  1.840483973628 	  1.896396393492 	
O	  7.374978481459 	  1.840483973628 	  4.876396393492 	
O	  6.374978481459 	  5.820483973628 	  1.896396393492 	
O	  7.374978481459 	  5.820483973628 	  4.876396393492 	
64 
Energy: 4.0392373425267545e+00 
Mg	  0.000000000000 	  0.000000000000 	  0.000000000000 	
Mg	  1.000000000000 	  0.000000000000 	  2.980000000000 	
Mg	  0.000000000000 	  3.980000000000 	  0.000000000000 	
Mg	  1.000000000000 	  3.980000000000 	  2.980000000000 	
Mg	  3.980000000000 	  0.000000000000 	  0.000000000000 	
Mg	  4.980000000000 	  0.000000000000 	  2.980000000000 	
Mg	  3.980000000000 	  3.980000000000 	  0.000000000000 	
Mg	  4.980000000000 	  3.980000000000 	  2.980000000000 	
Mg	  1.993894394532 	  2.023564804834 	  0.000000000000 	
Mg	  2.993894394532 	  2.023564804834 	  2.980000000000 	
Mg	  1.993894394532 	  6.003564804834 	  0.000000000000 	
Mg	  2.993894394532 	  6.003564804834 	  2.980000000000 	
Mg	  5.973894394532 	  2.023564804834 	  0.000000000000 	
Mg	  6.973894394532 	  2.023564804834 	  2.980000000000 	
Mg	  5.973894394532 	  6.003564804834 	  0.000000000000 	
Mg	  6.973894394532 	  6.003564804834 	  2.980000000000 	
Mg	  2.231257676944 	  0.000000000000 	  1.934553573930 	
Mg	  3.231257676944 	  0.000000000000 	  4.914553573930 	
Mg	  2.231257676944 	  3.980000000000 	  1.934553573930 	
Mg	  3.231257676944 	  3.980000000000 	  4.914553573930 	
Mg	  6.211257676944 	  0.000000000000 	  1.934553573930 	
Mg	  7.211257676944 	  0.000000000000 	  4.914553573930 	
Mg	  6.211257676944 	  3.980000000000 	  1.934553573930 	
Mg	  7.211257676944 	  3.980000000000 	  4.914553573930 	
Mg	  0.148352051507 	  2.082905625437 	  1.934553573930 	
Mg	  1.148352051507 	  2.082905625437 	  4.914553573930 	
Mg	  0.148352051507 	  6.062905625437 	  1.934553573930 	
Mg	  1.148352051507 	  6.062905625437 	  4.914553573930 	
Mg	  4.128352051507 	  2.082905625437 	  1.934553573930 	
Mg	  5.128352051507 	  2.082905625437 	  4.914553573930 	
Mg	  4.128352051507 	  6.062905625437 	  1.934553573930 	
Mg	  5.128352051507 	  6.062905625437 	  4.914553573930 	
O	  2.082905625437 	  0.000000000000 	  0.000000000000 	
O	  3.082905625437 	  0.000000000000 	  2.980000000000 	
O	  2.082905625437 	  3.980000000000 	  0.000000000000 	
O	  3.082905625437 	  3.980000000000 	  2.980000000000 	
O	  6.062905625437 	  0.000000000000 	  0.000000000000 	
O	  7.062905625437 	  0.000000000000 	  2.980000000000 	
O	  6.062905625437 	  3.980000000000 	  0.000000000000 	
O	  7.062905625437 	  3.980000000000 	  2.980000000000 	
O	  0.000000000000 	  2.082905625437 	  0.000000000000 	
O	  1.000000000000 	  2.082905625437 	  2.980000000000 	
O	  0.000000000000 	  6.062905625437 	  0.000000000000 	
O	  1.000000000000 	  6.062905625437 	  2.980000000000 	
O	  3.980000000000 	  2.082905625437 	  0.000000000000 	
O	  4.980000000000 	  2.082905625437 	  2.980000000000 	
O	  3.980000000000 	  6.062905625437 	  0.000000000000 	
O	  4.980000000000 	  6.062905625437 	  2.980000000000 	
O	  0.148352051507 	  0.000000000000 	  1.934553573930 	
O	  1.148352051507 	  0.000000000000 	  4.914553573930 	
O	  0.148352051507 	  3.980000000000 	  1.934553573930 	
O	  1.148352051507 	  3.980000000000 	  4.914553573930 	
O	  4.128352051507 	  0.000000000000 	  1.934553573930 	
O	  5.128352051507 	  0.000000000000 	  4.914553573930 	
O	  4.128352051507 	  3.980000000000 	  1.934553573930 	
O	  5.128352051507 	  3.980000000000 	  4.914553573930 	
O	  2.349939318149 	  1.887971029756 	  1.934553573930 	
O	  3.349939318149 	  1.887971029756 	  4.914553573930 	
O	  2.349939318149 	  5.867971029756 	  1.934553573930 	
O	  3.349939318149 	  5.867971029756 	  4.914553573930 	
O	  6.329939318149 	  1.887971029756 	  1.934553573930 	
O	  7.329939318149 	  1.887971029756 	  4.914553573930 	
O	  6.329939318149 	  5.867971029756 	  1.934553573930 	
O	  7.329939318149 	  5.867971029756 	  4.914553573930 	
64 
Energy: 3.0863026358428618e+00 
Mg	  0.000000000000 	  0.000000000000 	  0.000000000000 	
Mg	  1.000000000000 	  0.000000000000 	  2.980000000000 	
Mg	  0.000000000000 	  3.980000000000 	  0.000000000000 	
Mg	  1.000000000000 	  3.980000000000 	  2.980000000000 	
Mg	  3.980000000000 	  0.000000000000 	  0.000000000000 	
Mg	  4.980000000000 	  0.000000000000 	  2.980000000000 	
Mg	  3.980000000000 	  3.980000000000 	  0.000000000000 	
Mg	  4.980000000000 	  3.980000000000 	  2.980000000000 	
Mg	  2.020152544597 	  2.043882845809 	  0.000000000000 	
Mg	  3.020152544597 	  2.043882845809 	  2.980000000000 	
Mg	  2.020152544597 	  6.023882845809 	  0.000000000000 	
Mg	  3.020152544597 	  6.023882845809 	  2.980000000000 	
Mg	  6.000152544597 	  2.043882845809 	  0.000000000000 	
Mg	  7.000152544597 	  2.043882845809 	  2.980000000000 	
Mg	  6.000152544597 	  6.023882845809 	  0.000000000000 	
Mg	  7.000152544597 	  6.023882845809 	  2.980000000000 	
Mg	  2.209994954293 	  0.000000000000 	  1.972691942173 	
Mg	  3.209994954293 	  0.000000000000 	  4.952691942173 	
Mg	  2.209994954293 	  3.980000000000 	  1.972691942173 	
Mg	  3.209994954293 	  3.980000000000 	  4.952691942173 	
Mg	  6.189994954293 	  0.000000000000 	  1.972691942173 	
Mg	  7.189994954293 	  0.000000000000 	  4.952691942173 	
Mg	  6.189994954293 	  3.980000000000 	  1.972691942173 	
Mg	  7.189994954293 	  3.980000000000 	  4.952691942173 	
Mg	  0.118651506060 	  2.091343448233 	  1.972691942173 	
Mg	  1.118651506060 	  2.091343448233 	  4.952691942173 	
Mg	  0.118651506060 	  6.071343448233 	  1.972691942173 	
Mg	  1.118651506060 	  6.071343448233 	  4.952691942173 	
Mg	  4.098651506060 	  2.091343448233 	  1.972691942173 	
Mg	  5.098651506060 	  2.091343448233 	  4.952691942173 	
Mg	  4.098651506060 	  6.071343448233 	  1.972691942173 	
Mg	  5.098651506060 	  6.071343448233 	  4.952691942173 	
O	  2.091343448233 	  0.000000000000 	  0.000000000000 	
O	  3.091343448233 	  0.000000000000 	  2.980000000000 	
O	  2.091343448233 	  3.980000000000 	  0.000000000000 	
O	  3.091343448233 	  3.980000000000 	  2.980000000000 	
O	  6.071343448233 	  0.000000000000 	  0.000000000000 	
O	  7.071343448233 	  0.000000000000 	  2.980000000000 	
O	  6.071343448233 	  3.980000000000 	  0.000000000000 	
O	  7.071343448233 	  3.980000000000 	  2.980000000000 	
O	  0.000000000000 	  2.091343448233 	  0.000000000000 	
O	  1.000000000000 	  2.091343448233 	  2.980000000000 	
O	  0.000000000000 	  6.071343448233 	  0.000000000000 	
O	  1.000000000000 	  6.071343448233 	  2.980000000000 	
O	  3.980000000000 	  2.091343448233 	  0.000000000000 	
O	  4.980000000000 	  2.091343448233 	  2.980000000000 	
O	  3.980000000000 	  6.071343448233 	  0.000000000000 	
O	  4.980000000000 	  6.071343448233 	  2.980000000000 	
O	  0.118651506060 	  0.000000000000 	  1.972691942173 	
O	  1.118651506060 	  0.000000000000 	  4.952691942173 	
O	  0.118651506060 	  3.980000000000 	  1.972691942173 	
O	  1.118651506060 	  3.980000000000 	  4.952691942173 	
O	  4.098651506060 	  0.000000000000 	  1.972691942173 	
O	  5.098651506060 	  0.000000000000 	  4.952691942173 	
O	  4.098651506060 	  3.980000000000 	  1.972691942173 	
O	  5.098651506060 	  3.980000000000 	  4.952691942173 	
O	  2.304916159140 	  1.935435369271 	  1.972691942173 	
O	  3.304916159140 	  1.935435369271 	  4.952691942173 	
O	  2.304916159140 	  5.915435369271 	  1.972691942173 	
O	  3.304916159140 	  5.915435369271 	  4.952691942173 	
O	  6.284916159140 	  1.935435369271 	  1.972691942173 	
O	  7.284916159140 	  1.935435369271 	  4.952691942173 	
O	  6.284916159140 	  5.915435369271 	  1.972691942173 	
O	  7.284916159140 	  5.915435369271 	  4.952691942173 	
64 
Energy: 2.0555321141014584e+00 
Mg	  0.000000000000 	  0.000000000000 	  0.000000000000 	
Mg	  1.000000000000 	  0.000000000000 	  2.980000000000 	
Mg	  0.000000000000 	  3.980000000000 	  0.000000000000 	
Mg	  1.000000000000 	  3.980000000000 	  2.980000000000 	
Mg	  3.980000000000 	  0.000000000000 	  0.000000000000 	
Mg	  4.980000000000 	  0.000000000000 	  2.980000000000 	
Mg	  3.980000000000 	  3.980000000000 	  0.000000000000 	
Mg	  4.980000000000 	  3.980000000000 	  2.980000000000 	
Mg	  2.046394122651 	  2.064187173333 	  0.000000000000 	
Mg	  3.046394122651 	  2.064187173333 	  2.980000000000 	
Mg	  2.046394122651 	  6.044187173333 	  0.000000000000 	
Mg	  3.046394122651 	  6.044187173333 	  2.980000000000 	
Mg	  6.026394122651 	  2.064187173333 	  0.000000000000 	
Mg	  7.026394122651 	  2.064187173333 	  2.980000000000 	
Mg	  6.026394122651 	  6.044187173333 	  0.000000000000 	
Mg	  7.026394122651 	  6.044187173333 	  2.980000000000 	
Mg	  2.188738528110 	  0.000000000000 	  2.010808021286 	
Mg	  3.188738528110 	  0.000000000000 	  4.990808021286 	
Mg	  2.188738528110 	  3.980000000000 	  2.010808021286 	
Mg	  3.188738528110 	  3.980000000000 	  4.990808021286 	
Mg	  6.168738528110 	  0.000000000000 	  2.010808021286 	
Mg	  7.168738528110 	  0.000000000000 	  4.990808021286 	
Mg	  6.168738528110 	  3.980000000000 	  2.010808021286 	
Mg	  7.168738528110 	  3.980000000000 	  4.990808021286 	
Mg	  0.088965253412 	  2.099773274698 	  2.010808021286 	
Mg	  1.088965253412 	  2.099773274698 	  4.990808021286 	
Mg	  0.088965253412 	  6.079773274698 	  2.010808021286 	
Mg	  1.088965253412 	  6.079773274698 	  4.990808021286 	
Mg	  4.068965253412 	  2.099773274698 	  2.010808021286 	
Mg	  5.068965253412 	  2.099773274698 	  4.990808021286 	
Mg	  4.068965253412 	  6.079773274698 	  2.010808021286 	
Mg	  5.068965253412 	  6.079773274698 	  4.990808021286 	
O	  2.099773274698 	  0.000000000000 	  0.000000000000 	
O	  3.099773274698 	  0.000000000000 	  2.980000000000 	
O	  2.099773274698 	  3.980000000000 	  0.000000000000 	
O	  3.099773274698 	  3.980000000000 	  2.980000000000 	
O	  6.079773274698 	  0.000000000000 	  0.000000000000 	
O	  7.079773274698 	  0.000000000000 	  2.980000000000 	
O	  6.079773274698 	  3.980000000000 	  0.000000000000 	
O	  7.079773274698 	  3.980000000000 	  2.980000000000 	
O	  0.000000000000 	  2.099773274698 	  0.000000000000 	
O	  1.000000000000 	  2.099773274698 	  2.980000000000 	
O	  0.000000000000 	  6.079773274698 	  0.000000000000 	
O	  1.000000000000 	  6.079773274698 	  2.980000000000 	
O	  3.980000000000 	  2.099773274698 	  0.000000000000 	
O	  4.980000000000 	  2.099773274698 	  2.980000000000 	
O	  3.980000000000 	  6.079773274698 	  0.000000000000 	
O	  4.980000000000 	  6.079773274698 	  2.980000000000 	
O	  0.088965253412 	  0.000000000000 	  2.010808021286 	
O	  1.088965253412 	  0.000000000000 	  4.990808021286 	
O	  0.088965253412 	  3.980000000000 	  2.010808021286 	
O	  1.088965253412 	  3.980000000000 	  4.990808021286 	
O	  4.068965253412 	  0.000000000000 	  2.010808021286 	
O	  5.068965253412 	  0.000000000000 	  4.990808021286 	
O	  4.068965253412 	  3.980000000000 	  2.010808021286 	
O	  5.068965253412 	  3.980000000000 	  4.990808021286 	
O	  2.259910730839 	  1.982872931715 	  2.010808021286 	
O	  3.259910730839 	  1.982872931715 	  4.990808021286 	
O	  2.259910730839 	  5.962872931715 	  2.010808021286 	
O	  3.259910730839 	  5.962872931715 	  4.990808021286 	
O	  6.239910730839 	  1.982872931715 	  2.010808021286 	
O	  7.239910730839 	  1.982872931715 	  4.990808021286 	
O	  6.239910730839 	  5.962872931715 	  2.010808021286 	
O	  7.239910730839 	  5.962872931715 	  4.990808021286 	
64 
Energy: 1.0738754256974665e+00 
Mg	  0.000000000000 	  0.000000000000 	  0.000000000000 	
Mg	  1.000000000000 	  0.000000000000 	  2.980000000000 	
Mg	  0.000000000000 	  3.980000000000 	  0.000000000000 	
Mg	  1.000000000000 	  3.980000000000 	  2.980000000000 	
Mg	  3.980000000000 	  0.000000000000 	  0.000000000000 	
Mg	  4.980000000000 	  0.000000000000 	  2.980000000000 	
Mg	  3.980000000000 	  3.980000000000 	  0.000000000000 	
Mg	  4.980000000000 	  3.980000000000 	  2.980000000000 	
Mg	  2.072616895843 	  2.084475790014 	  0.000000000000 	
Mg	  3.072616895843 	  2.084475790014 	  2.980000000000 	
Mg	  2.072616895843 	  6.064475790014 	  0.000000000000 	
Mg	  3.072616895843 	  6.064475790014 	  2.980000000000 	
Mg	  6.052616895843 	  2.084475790014 	  0.000000000000 	
Mg	  7.052616895843 	  2.084475790014 	  2.980000000000 	
Mg	  6.052616895843 	  6.064475790014 	  0.000000000000 	
Mg	  7.052616895843 	  6.064475790014 	  2.980000000000 	
Mg	  2.167488049214 	  0.000000000000 	  2.048899107500 	
Mg	  3.167488049214 	  0.000000000000 	  5.028899107500 	
Mg	  2.167488049214 	  3.980000000000 	  2.048899107500 	
Mg	  3.167488049214 	  3.980000000000 	  5.028899107500 	
Mg	  6.147488049214 	  0.000000000000 	  2.048899107500 	
Mg	  7.147488049214 	  0.000000000000 	  5.028899107500 	
Mg	  6.147488049214 	  3.980000000000 	  2.048899107500 	
Mg	  7.147488049214 	  3.980000000000 	  5.028899107500 	
Mg	  0.059294470857 	  2.108193578357 	  2.048899107500 	
Mg	  1.059294470857 	  2.108193578357 	  5.028899107500 	
Mg	  0.059294470857 	  6.088193578357 	  2.048899107500 	
Mg	  1.059294470857 	  6.088193578357 	  5.028899107500 	
Mg	  4.039294470857 	  2.108193578357 	  2.048899107500 	
Mg	  5.039294470857 	  2.108193578357 	  5.028899107500 	
Mg	  4.039294470857 	  6.088193578357 	  2.048899107500 	
Mg	  5.039294470857 	  6.088193578357 	  5.028899107500 	
O	  2.108193578357 	  0.000000000000 	  0.000000000000 	
O	  3.108193578357 	  0.000000000000 	  2.980000000000 	
O	  2.108193578357 	  3.980000000000 	  0.000000000000 	
O	  3.108193578357 	  3.980000000000 	  2.980000000000 	
O	  6.088193578357 	  0.000000000000 	  0.000000000000 	
O	  7.088193578357 	  0.000000000000 	  2.980000000000 	
O	  6.088193578357 	  3.980000000000 	  0.000000000000 	
O	  7.088193578357 	  3.980000000000 	  2.980000000000 	
O	  0.000000000000 	  2.108193578357 	  0.000000000000 	
O	  1.000000000000 	  2.108193578357 	  2.980000000000 	
O	  0.000000000000 	  6.088193578357 	  0.000000000000 	
O	  1.000000000000 	  6.088193578357 	  2.980000000000 	
O	  3.980000000000 	  2.108193578357 	  0.000000000000 	
O	  4.980000000000 	  2.108193578357 	  2.980000000000 	
O	  3.980000000000 	  6.088193578357 	  0.000000000000 	
O	  4.980000000000 	  6.088193578357 	  2.980000000000 	
O	  0.059294470857 	  0.000000000000 	  2.048899107500 	
O	  1.059294470857 	  0.000000000000 	  5.028899107500 	
O	  0.059294470857 	  3.980000000000 	  2.048899107500 	
O	  1.059294470857 	  3.980000000000 	  5.028899107500 	
O	  4.039294470857 	  0.000000000000 	  2.048899107500 	
O	  5.039294470857 	  0.000000000000 	  5.028899107500 	
O	  4.039294470857 	  3.980000000000 	  2.048899107500 	
O	  5.039294470857 	  3.980000000000 	  5.028899107500 	
O	  2.214923625899 	  2.030280643651 	  2.048899107500 	
O	  3.214923625899 	  2.030280643651 	  5.028899107500 	
O	  2.214923625899 	  6.010280643651 	  2.048899107500 	
O	  3.214923625899 	  6.010280643651 	  5.028899107500 	
O	  6.194923625899 	  2.030280643651 	  2.048899107500 	
O	  7.194923625899 	  2.030280643651 	  5.028899107500 	
O	  6.194923625899 	  6.010280643651 	  2.048899107500 	
O	  7.194923625899 	  6.010280643651 	  5.028899107500 	
64 
Energy: 3.1353265006870046e-01 
Mg	  0.000000000000 	  0.000000000000 	  0.000000000000 	
Mg	  1.000000000000 	  0.000000000000 	  2.980000000000 	
Mg	  0.000000000000 	  3.980000000000 	  0.000000000000 	
Mg	  1.000000000000 	  3.980000000000 	  2.980000000000 	
Mg	  3.980000000000 	  0.000000000000 	  0.000000000000 	
Mg	  4.980000000000 	  0.000000000000 	  2.980000000000 	
Mg	  3.980000000000 	  3.980000000000 	  0.000000000000 	
Mg	  4.980000000000 	  3.980000000000 	  2.980000000000 	
Mg	  2.098819196914 	  2.104747107328 	  0.000000000000 	
Mg	  3.098819196914 	  2.104747107328 	  2.980000000000 	
Mg	  2.098819196914 	  6.084747107328 	  0.000000000000 	
Mg	  3.098819196914 	  6.084747107328 	  2.980000000000 	
Mg	  6.078819196914 	  2.104747107328 	  0.000000000000 	
Mg	  7.078819196914 	  2.104747107328 	  2.980000000000 	
Mg	  6.078819196914 	  6.084747107328 	  0.000000000000 	
Mg	  7.078819196914 	  6.084747107328 	  2.980000000000 	
Mg	  2.146242480225 	  0.000000000000 	  2.086963376087 	
Mg	  3.146242480225 	  0.000000000000 	  5.066963376087 	
Mg	  2.146242480225 	  3.980000000000 	  2.086963376087 	
Mg	  3.146242480225 	  3.980000000000 	  5.066963376087 	
Mg	  6.126242480225 	  0.000000000000 	  2.086963376087 	
Mg	  7.126242480225 	  0.000000000000 	  5.066963376087 	
Mg	  6.126242480225 	  3.980000000000 	  2.086963376087 	
Mg	  7.126242480225 	  3.980000000000 	  5.066963376087 	
Mg	  0.029639552069 	  2.116602928156 	  2.086963376087 	
Mg	  1.029639552069 	  2.116602928156 	  5.066963376087 	
Mg	  0.029639552069 	  6.096602928156 	  2.086963376087 	
Mg	  1.029639552069 	  6.096602928156 	  5.066963376087 	
Mg	  4.009639552069 	  2.116602928156 	  2.086963376087 	
Mg	  5.009639552069 	  2.116602928156 	  5.066963376087 	
Mg	  4.009639552069 	  6.096602928156 	  2.086963376087 	
Mg	  5.009639552069 	  6.096602928156 	  5.066963376087 	
O	  2.116602928156 	  0.000000000000 	  0.000000000000 	
O	  3.116602928156 	  0.000000000000 	  2.980000000000 	
O	  2.116602928156 	  3.980000000000 	  0.000000000000 	
O	  3.116602928156 	  3.980000000000 	  2.980000000000 	
O	  6.096602928156 	  0.000000000000 	  0.000000000000 	
O	  7.096602928156 	  0.000000000000 	  2.980000000000 	
O	  6.096602928156 	  3.980000000000 	  0.000000000000 	
O	  7.096602928156 	  3.980000000000 	  2.980000000000 	
O	  0.000000000000 	  2.116602928156 	  0.000000000000 	
O	  1.000000000000 	  2.116602928156 	  2.980000000000 	
O	  0.000000000000 	  6.096602928156 	  0.000000000000 	
O	  1.000000000000 	  6.096602928156 	  2.980000000000 	
O	  3.980000000000 	  2.116602928156 	  0.000000000000 	
O	  4.980000000000 	  2.116602928156 	  2.980000000000 	
O	  3.980000000000 	  6.096602928156 	  0.000000000000 	
O	  4.980000000000 	  6.096602928156 	  2.980000000000 	
O	  0.029639552069 	  0.000000000000 	  2.086963376087 	
O	  1.029639552069 	  0.000000000000 	  5.066963376087 	
O	  0.029639552069 	  3.980000000000 	  2.086963376087 	
O	  1.029639552069 	  3.980000000000 	  5.066963376087 	
O	  4.009639552069 	  0.000000000000 	  2.086963376087 	
O	  5.009639552069 	  0.000000000000 	  5.066963376087 	
O	  4.009639552069 	  3.980000000000 	  2.086963376087 	
O	  5.009639552069 	  3.980000000000 	  5.066963376087 	
O	  2.169954121880 	  2.077656556737 	  2.086963376087 	
O	  3.169954121880 	  2.077656556737 	  5.066963376087 	
O	  2.169954121880 	  6.057656556737 	  2.086963376087 	
O	  3.169954121880 	  6.057656556737 	  5.066963376087 	
O	  6.149954121880 	  2.077656556737 	  2.086963376087 	
O	  7.149954121880 	  2.077656556737 	  5.066963376087 	
O	  6.149954121880 	  6.057656556737 	  2.086963376087 	
O	  7.149954121880 	  6.057656556737 	  5.066963376087 	
64 
Energy: 0.0000000000000000e+00 
Mg	  0.000000000000 	  0.000000000000 	  0.000000000000 	
Mg	  1.000000000000 	  0.000000000000 	  2.980000000000 	
Mg	  0.000000000000 	  3.980000000000 	  0.000000000000 	
Mg	  1.000000000000 	  3.980000000000 	  2.980000000000 	
Mg	  3.980000000000 	  0.000000000000 	  0.000000000000 	
Mg	  4.980000000000 	  0.000000000000 	  2.980000000000 	
Mg	  3.980000000000 	  3.980000000000 	  0.000000000000 	
Mg	  4.980000000000 	  3.980000000000 	  2.980000000000 	
Mg	  2.125000000000 	  2.125000000000 	  0.000000000000 	
Mg	  3.125000000000 	  2.125000000000 	  2.980000000000 	
Mg	  2.125000000000 	  6.105000000000 	  0.000000000000 	
Mg	  3.125000000000 	  6.105000000000 	  2.980000000000 	
Mg	  6.105000000000 	  2.125000000000 	  0.000000000000 	
Mg	  7.105000000000 	  2.125000000000 	  2.980000000000 	
Mg	  6.105000000000 	  6.105000000000 	  0.000000000000 	
Mg	  7.105000000000 	  6.105000000000 	  2.980000000000 	
Mg	  2.125000000000 	  0.000000000000 	  2.125000000000 	
Mg	  3.125000000000 	  0.000000000000 	  5.105000000000 	
Mg	  2.125000000000 	  3.980000000000 	  2.125000000000 	
Mg	  3.125000000000 	  3.980000000000 	  5.105000000000 	
Mg	  6.105000000000 	  0.000000000000 	  2.125000000000 	
Mg	  7.105000000000 	  0.000000000000 	  5.105000000000 	
Mg	  6.105000000000 	  3.980000000000 	  2.125000000000 	
Mg	  7.105000000000 	  3.980000000000 	  5.105000000000 	
Mg	  0.000000000000 	  2.125000000000 	  2.125000000000 	
Mg	  1.000000000000 	  2.125000000000 	  5.105000000000 	
Mg	  0.000000000000 	  6.105000000000 	  2.125000000000 	
Mg	  1.000000000000 	  6.105000000000 	  5.105000000000 	
Mg	  3.980000000000 	  2.125000000000 	  2.125000000000 	
Mg	  4.980000000000 	  2.125000000000 	  5.105000000000 	
Mg	  3.980000000000 	  6.105000000000 	  2.125000000000 	
Mg	  4.980000000000 	  6.105000000000 	  5.105000000000 	
O	  2.125000000000 	  0.000000000000 	  0.000000000000 	
O	  3.125000000000 	  0.000000000000 	  2.980000000000 	
O	  2.125000000000 	  3.980000000000 	  0.000000000000 	
O	  3.125000000000 	  3.980000000000 	  2.980000000000 	
O	  6.105000000000 	  0.000000000000 	  0.000000000000 	
O	  7.105000000000 	  0.000000000000 	  2.980000000000 	
O	  6.105000000000 	  3.980000000000 	  0.000000000000 	
O	  7.105000000000 	  3.980000000000 	  2.980000000000 	
O	  0.000000000000 	  2.125000000000 	  0.000000000000 	
O	  1.000000000000 	  2.125000000000 	  2.980000000000 	
O	  0.000000000000 	  6.105000000000 	  0.000000000000 	
O	  1.000000000000 	  6.105000000000 	  2.980000000000 	
O	  3.980000000000 	  2.125000000000 	  0.000000000000 	
O	  4.980000000000 	  2.125000000000 	  2.980000000000 	
O	  3.980000000000 	  6.105000000000 	  0.000000000000 	
O	  4.980000000000 	  6.105000000000 	  2.980000000000 	
O	  0.000000000000 	  0.000000000000 	  2.125000000000 	
O	  1.000000000000 	  0.000000000000 	  5.105000000000 	
O	  0.000000000000 	  3.980000000000 	  2.125000000000 	
O	  1.000000000000 	  3.980000000000 	  5.105000000000 	
O	  3.980000000000 	  0.000000000000 	  2.125000000000 	
O	  4.980000000000 	  0.000000000000 	  5.105000000000 	
O	  3.980000000000 	  3.980000000000 	  2.125000000000 	
O	  4.980000000000 	  3.980000000000 	  5.105000000000 	
O	  2.125000000000 	  2.125000000000 	  2.125000000000 	
O	  3.125000000000 	  2.125000000000 	  5.105000000000 	
O	  2.125000000000 	  6.105000000000 	  2.125000000000 	
O	  3.125000000000 	  6.105000000000 	  5.105000000000 	
O	  6.105000000000 	  2.125000000000 	  2.125000000000 	
O	  7.105000000000 	  2.125000000000 	  5.105000000000 	
O	  6.105000000000 	  6.105000000000 	  2.125000000000 	
O	  7.105000000000 	  6.105000000000 	  5.105000000000 	
