  Invoking FHI-aims ...
  | Number of atoms                   :  96
  ...scf iterations...
  | Total energy corrected        :   -9.393923688546E+01 eV
  ...
  Total atomic forces (unitary forces cleaned)
     1  -2.7792895414E-01  6.0295828547E-01  1.8721221033E-01
     2  2.1891038236E-01  5.6805378107E-01  -1.9273537276E-01
     3  2.7792899637E-01  -6.0295819413E-01  -1.8721216011E-01
     4  -2.1891023030E-01  -5.6805363307E-01  1.9273544738E-01
     5  -8.3290272235E-01  1.6090371933E+00  2.9889602702E-01
     6  8.3884710673E-01  1.2500834068E+00  -3.3021335778E-01
     7  8.3290315050E-01  -1.6090370474E+00  -2.9889557730E-01
     8  -8.3884720903E-01  -1.2500835482E+00  3.3021366676E-01
     9  -3.5211441486E-01  2.2533389516E-01  -1.7271921522E-01
    10  9.4017802803E-01  6.4545124193E-01  1.3787367388E-01
    11  3.5211393590E-01  -2.2533383371E-01  1.7271881190E-01
    12  -9.4017835960E-01  -6.4545132568E-01  -1.3787355980E-01
    13  -5.1307608698E-01  -1.0099376932E+00  -1.0537407351E+00
    14  -6.9277656888E-02  -1.4590018014E+00  1.1224752985E+00
    15  5.1307545039E-01  1.0099378635E+00  1.0537404416E+00
    16  6.9277529012E-02  1.4590020710E+00  -1.1224748095E+00
    17  4.3780078245E-01  -5.9367001372E-01  -4.5217804214E-02
    18  -2.9858595797E-01  -7.8236378149E-01  5.1671316051E-01
    19  -4.3780005972E-01  5.9367005177E-01  4.5218287310E-02
    20  2.9858574193E-01  7.8236365408E-01  -5.1671350293E-01
    21  5.9962662665E-01  -1.1651983811E+00  -2.3627934268E-01
    22  -5.9505466284E-01  -1.2388928180E+00  2.8570293955E-01
    23  -5.9962708165E-01  1.1651985851E+00  2.3627898766E-01
    24  5.9505465487E-01  1.2388930247E+00  -2.8570312783E-01
    25  8.4489510510E-01  4.7275201474E-02  6.8229388630E-01
    26  -9.4608988716E-01  2.4311976215E-01  -1.1275995788E+00
    27  -8.4489653732E-01  -4.7275559777E-02  -6.8229503809E-01
    28  9.4609082670E-01  -2.4311941060E-01  1.1275993564E+00
    29  4.8682259260E-01  3.8347614188E-01  6.3686023884E-01
    30  -4.6199488615E-01  4.3058128634E-01  -6.5148644968E-01
    31  -4.8682240248E-01  -3.8347615282E-01  -6.3686035622E-01
    32  4.6199428105E-01  -4.3058150718E-01  6.5148609770E-01
    33  1.8467657635E-01  1.0343761343E+00  9.0828143524E-01
    34  -1.8277904374E-01  1.0563967585E+00  -8.9229944313E-01
    35  -1.8467624561E-01  -1.0343763596E+00  -9.0828112004E-01
    36  1.8277933972E-01  -1.0563970267E+00  8.9229930106E-01
    37  -7.2820183775E-01  5.3008623966E-01  -2.0150037097E-01
    38  7.4194745095E-01  5.6583937836E-01  1.8070386656E-01
    39  7.2820189129E-01  -5.3008647466E-01  2.0150045848E-01
    40  -7.4194728414E-01  -5.6583968234E-01  -1.8070337240E-01
    41  -8.5968406415E-01  1.1262878399E+00  7.9398941183E-02
    42  8.6347593097E-01  1.1367444077E+00  -7.5842422297E-02
    43  8.5968399306E-01  -1.1262876606E+00  -7.9398748804E-02
    44  -8.6347566253E-01  -1.1367441293E+00  7.5842563322E-02
    45  -2.6328815588E-01  3.6679935432E-01  5.6182425769E-01
    46  -2.4953665117E+00  -2.4799159092E+00  -2.6267644080E+00
    47  2.6333773773E-01  -3.6678261237E-01  -5.6173201588E-01
    48  2.4953653898E+00  2.4799128288E+00  2.6267647434E+00
    49  -7.6886088796E+00  6.3385113374E-01  3.5060848763E+00
    50  1.2191556328E+01  8.6366045488E+00  -8.1937528939E+00
    51  7.6885013501E+00  -6.3382552415E-01  -3.5061120377E+00
    52  -1.2191493473E+01  -8.6365349090E+00  8.1937094904E+00
    53  2.8942127127E+00  1.3282635469E+00  -1.9879459071E+00
    54  -5.1807212440E-01  -1.2710969349E+00  8.2508766010E-01
    55  -2.8941552847E+00  -1.3282505803E+00  1.9878994166E+00
    56  5.1808584798E-01  1.2710870459E+00  -8.2509538797E-01
    57  1.8668058597E+00  -2.9095140609E-01  1.7710977179E+00
    58  -2.3536456323E-01  3.0222548746E-02  3.0656426272E-01
    59  -1.8667876881E+00  2.9094731308E-01  -1.7710793628E+00
    60  2.3535999338E-01  -3.0223469048E-02  -3.0656857448E-01
    61  1.9242494299E+00  -1.5498084110E+00  -1.6264946734E+00
    62  -1.0652046228E+01  -7.9400259651E+00  7.9654602269E+00
    63  -1.9242060819E+00  1.5497734885E+00  1.6264511875E+00
    64  1.0651974212E+01  7.9399659629E+00  -7.9654039396E+00
    65  -7.1487284591E-01  -3.2870940461E+00  -1.8898303586E+00
    66  4.5663925302E+00  -2.6696074123E-01  5.5000724146E-01
    67  7.1483765596E-01  3.2870770212E+00  1.8898054406E+00
    68  -4.5663939437E+00  2.6696043684E-01  -5.4999804054E-01
    69  1.9133159647E-01  8.3206913149E-01  4.7520271298E-01
    70  -5.0741945570E-01  1.3638034407E+00  -5.4101344310E-01
    71  -1.9131527642E-01  -8.3203552160E-01  -4.7520065236E-01
    72  5.0742009064E-01  -1.3638040201E+00  5.4101215210E-01
    73  2.8063740431E-01  4.4062784196E-01  -8.4554200470E-02
    74  -6.5514901851E-01  3.3624442132E-01  9.3739971160E-01
    75  -2.8064183454E-01  -4.4061740746E-01  8.4579764951E-02
    76  6.5515060159E-01  -3.3624045178E-01  -9.3740862105E-01
    77  1.4491490992E+00  -3.8810434224E-01  8.3501245161E-01
    78  -1.7311835123E+00  -5.4304656377E-01  -1.0646609976E+00
    79  -1.4491459865E+00  3.8810262634E-01  -8.3501192586E-01
    80  1.7311844104E+00  5.4304669640E-01  1.0646607416E+00
    81  -1.5614379100E+00  6.1087015730E+00  -2.6441266577E+00
    82  1.6727927663E+00  6.1218530553E+00  2.7617874552E+00
    83  1.5613621428E+00  -6.1085989225E+00  2.6440935908E+00
    84  -1.6727917945E+00  -6.1218562888E+00  -2.7617981109E+00
    85  1.8948787600E+00  1.3667884719E-01  9.3723483201E-01
    86  -1.9411733796E+00  1.7438385010E-01  -8.8800744418E-01
    87  -1.8948677935E+00  -1.3667825980E-01  -9.3722984382E-01
    88  1.9411732567E+00  -1.7438385444E-01  8.8800738832E-01
    89  -6.4470917027E-02  -7.8625491784E-01  5.8305401406E-01
    90  4.0694125153E-02  -7.3994954137E-01  -5.0593621063E-01
    91  6.4467425910E-02  7.8623942347E-01  -5.8303297867E-01
    92  -4.0695785677E-02  7.3995234771E-01  5.0594410542E-01
    93  8.4113250106E-01  -3.5846782466E+00  3.2279089474E-01
    94  -8.5565489815E-01  -3.4722570980E+00  -2.9005389397E-01
    95  -8.4110365482E-01  3.5845486311E+00  -3.2278008267E-01
    96  8.5565464327E-01  3.4722586598E+00  2.9005669416E-01
  Stress tensor (eV/A^3):
  5.5343576195E-02  -1.8318617985E-02  5.5020592280E-02
  -1.8318617985E-02  2.9742569934E-02  1.1231175247E-02
  5.5020592280E-02  1.1231175247E-02  4.1210703177E-02
