64 
Energy: 2.8182993515555097e+00 
Mg	  0.000000000000 	  0.000000000000 	  0.000000000000 	
Mg	  1.000000000000 	  0.000000000000 	  2.980000000000 	
Mg	  0.000000000000 	  3.980000000000 	  0.000000000000 	
Mg	  1.000000000000 	  3.980000000000 	  2.980000000000 	
Mg	  3.980000000000 	  0.000000000000 	  0.000000000000 	
Mg	  4.980000000000 	  0.000000000000 	  2.980000000000 	
Mg	  3.980000000000 	  3.980000000000 	  0.000000000000 	
Mg	  4.980000000000 	  3.980000000000 	  2.980000000000 	
Mg	  1.702598571379 	  1.798399047586 	  0.000000000000 	
Mg	  2.702598571379 	  1.798399047586 	  2.980000000000 	
Mg	  1.702598571379 	  5.778399047586 	  0.000000000000 	
Mg	  2.702598571379 	  5.778399047586 	  2.980000000000 	
Mg	  5.682598571379 	  1.798399047586 	  0.000000000000 	
Mg	  6.682598571379 	  1.798399047586 	  2.980000000000 	
Mg	  5.682598571379 	  5.778399047586 	  0.000000000000 	
Mg	  6.682598571379 	  5.778399047586 	  2.980000000000 	
Mg	  2.469002381035 	  0.000000000000 	  1.510997618965 	
Mg	  3.469002381035 	  0.000000000000 	  4.490997618965 	
Mg	  2.469002381035 	  3.980000000000 	  1.510997618965 	
Mg	  3.469002381035 	  3.980000000000 	  4.490997618965 	
Mg	  6.449002381035 	  0.000000000000 	  1.510997618965 	
Mg	  7.449002381035 	  0.000000000000 	  4.490997618965 	
Mg	  6.449002381035 	  3.980000000000 	  1.510997618965 	
Mg	  7.449002381035 	  3.980000000000 	  4.490997618965 	
Mg	  0.479002381035 	  1.990000000000 	  1.510997618965 	
Mg	  1.479002381035 	  1.990000000000 	  4.490997618965 	
Mg	  0.479002381035 	  5.970000000000 	  1.510997618965 	
Mg	  1.479002381035 	  5.970000000000 	  4.490997618965 	
Mg	  4.459002381035 	  1.990000000000 	  1.510997618965 	
Mg	  5.459002381035 	  1.990000000000 	  4.490997618965 	
Mg	  4.459002381035 	  5.970000000000 	  1.510997618965 	
Mg	  5.459002381035 	  5.970000000000 	  4.490997618965 	
O	  1.990000000000 	  0.000000000000 	  0.000000000000 	
O	  2.990000000000 	  0.000000000000 	  2.980000000000 	
O	  1.990000000000 	  3.980000000000 	  0.000000000000 	
O	  2.990000000000 	  3.980000000000 	  2.980000000000 	
O	  5.970000000000 	  0.000000000000 	  0.000000000000 	
O	  6.970000000000 	  0.000000000000 	  2.980000000000 	
O	  5.970000000000 	  3.980000000000 	  0.000000000000 	
O	  6.970000000000 	  3.980000000000 	  2.980000000000 	
O	  0.000000000000 	  1.990000000000 	  0.000000000000 	
O	  1.000000000000 	  1.990000000000 	  2.980000000000 	
O	  0.000000000000 	  5.970000000000 	  0.000000000000 	
O	  1.000000000000 	  5.970000000000 	  2.980000000000 	
O	  3.980000000000 	  1.990000000000 	  0.000000000000 	
O	  4.980000000000 	  1.990000000000 	  2.980000000000 	
O	  3.980000000000 	  5.970000000000 	  0.000000000000 	
O	  4.980000000000 	  5.970000000000 	  2.980000000000 	
O	  0.479002381035 	  0.000000000000 	  1.510997618965 	
O	  1.479002381035 	  0.000000000000 	  4.490997618965 	
O	  0.479002381035 	  3.980000000000 	  1.510997618965 	
O	  1.479002381035 	  3.980000000000 	  4.490997618965 	
O	  4.459002381035 	  0.000000000000 	  1.510997618965 	
O	  5.459002381035 	  0.000000000000 	  4.490997618965 	
O	  4.459002381035 	  3.980000000000 	  1.510997618965 	
O	  5.459002381035 	  3.980000000000 	  4.490997618965 	
O	  2.852204285863 	  1.360590871320 	  1.510997618965 	
O	  3.852204285863 	  1.360590871320 	  4.490997618965 	
O	  2.852204285863 	  5.340590871320 	  1.510997618965 	
O	  3.852204285863 	  5.340590871320 	  4.490997618965 	
O	  6.832204285863 	  1.360590871320 	  1.510997618965 	
O	  7.832204285863 	  1.360590871320 	  4.490997618965 	
O	  6.832204285863 	  5.340590871320 	  1.510997618965 	
O	  7.832204285863 	  5.340590871320 	  4.490997618965 	
64 
Energy: 2.8075644795362389e+00 
Mg	  0.000000000000 	  0.000000000000 	  0.000000000000 	
Mg	  1.000000000000 	  0.000000000000 	  2.980000000000 	
Mg	  0.000000000000 	  3.980000000000 	  0.000000000000 	
Mg	  1.000000000000 	  3.980000000000 	  2.980000000000 	
Mg	  3.980000000000 	  0.000000000000 	  0.000000000000 	
Mg	  4.980000000000 	  0.000000000000 	  2.980000000000 	
Mg	  3.980000000000 	  3.980000000000 	  0.000000000000 	
Mg	  4.980000000000 	  3.980000000000 	  2.980000000000 	
Mg	  1.728828909611 	  1.818716052941 	  0.000000000000 	
Mg	  2.728828909611 	  1.818716052941 	  2.980000000000 	
Mg	  1.728828909611 	  5.798716052941 	  0.000000000000 	
Mg	  2.728828909611 	  5.798716052941 	  2.980000000000 	
Mg	  5.708828909611 	  1.818716052941 	  0.000000000000 	
Mg	  6.708828909611 	  1.818716052941 	  2.980000000000 	
Mg	  5.708828909611 	  5.798716052941 	  0.000000000000 	
Mg	  6.708828909611 	  5.798716052941 	  2.980000000000 	
Mg	  2.447926056257 	  0.000000000000 	  1.549054622949 	
Mg	  3.447926056257 	  0.000000000000 	  4.529054622949 	
Mg	  2.447926056257 	  3.980000000000 	  1.549054622949 	
Mg	  3.447926056257 	  3.980000000000 	  4.529054622949 	
Mg	  6.427926056257 	  0.000000000000 	  1.549054622949 	
Mg	  7.427926056257 	  0.000000000000 	  4.529054622949 	
Mg	  6.427926056257 	  3.980000000000 	  1.549054622949 	
Mg	  7.427926056257 	  3.980000000000 	  4.529054622949 	
Mg	  0.449435716654 	  1.998490339603 	  1.549054622949 	
Mg	  1.449435716654 	  1.998490339603 	  4.529054622949 	
Mg	  0.449435716654 	  5.978490339603 	  1.549054622949 	
Mg	  1.449435716654 	  5.978490339603 	  4.529054622949 	
Mg	  4.429435716654 	  1.998490339603 	  1.549054622949 	
Mg	  5.429435716654 	  1.998490339603 	  4.529054622949 	
Mg	  4.429435716654 	  5.978490339603 	  1.549054622949 	
Mg	  5.429435716654 	  5.978490339603 	  4.529054622949 	
O	  1.998490339603 	  0.000000000000 	  0.000000000000 	
O	  2.998490339603 	  0.000000000000 	  2.980000000000 	
O	  1.998490339603 	  3.980000000000 	  0.000000000000 	
O	  2.998490339603 	  3.980000000000 	  2.980000000000 	
O	  5.978490339603 	  0.000000000000 	  0.000000000000 	
O	  6.978490339603 	  0.000000000000 	  2.980000000000 	
O	  5.978490339603 	  3.980000000000 	  0.000000000000 	
O	  6.978490339603 	  3.980000000000 	  2.980000000000 	
O	  0.000000000000 	  1.998490339603 	  0.000000000000 	
O	  1.000000000000 	  1.998490339603 	  2.980000000000 	
O	  0.000000000000 	  5.978490339603 	  0.000000000000 	
O	  1.000000000000 	  5.978490339603 	  2.980000000000 	
O	  3.980000000000 	  1.998490339603 	  0.000000000000 	
O	  4.980000000000 	  1.998490339603 	  2.980000000000 	
O	  3.980000000000 	  5.978490339603 	  0.000000000000 	
O	  4.980000000000 	  5.978490339603 	  2.980000000000 	
O	  0.449435716654 	  0.000000000000 	  1.549054622949 	
O	  1.449435716654 	  0.000000000000 	  4.529054622949 	
O	  0.449435716654 	  3.980000000000 	  1.549054622949 	
O	  1.449435716654 	  3.980000000000 	  4.529054622949 	
O	  4.429435716654 	  0.000000000000 	  1.549054622949 	
O	  5.429435716654 	  0.000000000000 	  4.529054622949 	
O	  4.429435716654 	  3.980000000000 	  1.549054622949 	
O	  5.429435716654 	  3.980000000000 	  4.529054622949 	
O	  2.807474629581 	  1.407931807920 	  1.549054622949 	
O	  3.807474629581 	  1.407931807920 	  4.529054622949 	
O	  2.807474629581 	  5.387931807920 	  1.549054622949 	
O	  3.807474629581 	  5.387931807920 	  4.529054622949 	
O	  6.787474629581 	  1.407931807920 	  1.549054622949 	
O	  7.787474629581 	  1.407931807920 	  4.529054622949 	
O	  6.787474629581 	  5.387931807920 	  1.549054622949 	
O	  7.787474629581 	  5.387931807920 	  4.529054622949 	
64 
Energy: 3.2217667203395801e+00 
Mg	  0.000000000000 	  0.000000000000 	  0.000000000000 	
Mg	  1.000000000000 	  0.000000000000 	  2.980000000000 	
Mg	  0.000000000000 	  3.980000000000 	  0.000000000000 	
Mg	  1.000000000000 	  3.980000000000 	  2.980000000000 	
Mg	  3.980000000000 	  0.000000000000 	  0.000000000000 	
Mg	  4.980000000000 	  0.000000000000 	  2.980000000000 	
Mg	  3.980000000000 	  3.980000000000 	  0.000000000000 	
Mg	  4.980000000000 	  3.980000000000 	  2.980000000000 	
Mg	  1.755197328042 	  1.839098971823 	  0.000000000000 	
Mg	  2.755197328042 	  1.839098971823 	  2.980000000000 	
Mg	  1.755197328042 	  5.819098971823 	  0.000000000000 	
Mg	  2.755197328042 	  5.819098971823 	  2.980000000000 	
Mg	  5.735197328042 	  1.839098971823 	  0.000000000000 	
Mg	  6.735197328042 	  1.839098971823 	  2.980000000000 	
Mg	  5.735197328042 	  5.819098971823 	  0.000000000000 	
Mg	  6.735197328042 	  5.819098971823 	  2.980000000000 	
Mg	  2.426410478289 	  0.000000000000 	  1.587394040480 	
Mg	  3.426410478289 	  0.000000000000 	  4.567394040480 	
Mg	  2.426410478289 	  3.980000000000 	  1.587394040480 	
Mg	  3.426410478289 	  3.980000000000 	  4.567394040480 	
Mg	  6.406410478289 	  0.000000000000 	  1.587394040480 	
Mg	  7.406410478289 	  0.000000000000 	  4.567394040480 	
Mg	  6.406410478289 	  3.980000000000 	  1.587394040480 	
Mg	  7.406410478289 	  3.980000000000 	  4.567394040480 	
Mg	  0.419508218904 	  2.006902259385 	  1.587394040480 	
Mg	  1.419508218904 	  2.006902259385 	  4.567394040480 	
Mg	  0.419508218904 	  5.986902259385 	  1.587394040480 	
Mg	  1.419508218904 	  5.986902259385 	  4.567394040480 	
Mg	  4.399508218904 	  2.006902259385 	  1.587394040480 	
Mg	  5.399508218904 	  2.006902259385 	  4.567394040480 	
Mg	  4.399508218904 	  5.986902259385 	  1.587394040480 	
Mg	  5.399508218904 	  5.986902259385 	  4.567394040480 	
O	  2.006902259385 	  0.000000000000 	  0.000000000000 	
O	  3.006902259385 	  0.000000000000 	  2.980000000000 	
O	  2.006902259385 	  3.980000000000 	  0.000000000000 	
O	  3.006902259385 	  3.980000000000 	  2.980000000000 	
O	  5.986902259385 	  0.000000000000 	  0.000000000000 	
O	  6.986902259385 	  0.000000000000 	  2.980000000000 	
O	  5.986902259385 	  3.980000000000 	  0.000000000000 	
O	  6.986902259385 	  3.980000000000 	  2.980000000000 	
O	  0.000000000000 	  2.006902259385 	  0.000000000000 	
O	  1.000000000000 	  2.006902259385 	  2.980000000000 	
O	  0.000000000000 	  5.986902259385 	  0.000000000000 	
O	  1.000000000000 	  5.986902259385 	  2.980000000000 	
O	  3.980000000000 	  2.006902259385 	  0.000000000000 	
O	  4.980000000000 	  2.006902259385 	  2.980000000000 	
O	  3.980000000000 	  5.986902259385 	  0.000000000000 	
O	  4.980000000000 	  5.986902259385 	  2.980000000000 	
O	  0.419508218904 	  0.000000000000 	  1.587394040480 	
O	  1.419508218904 	  0.000000000000 	  4.567394040480 	
O	  0.419508218904 	  3.980000000000 	  1.587394040480 	
O	  1.419508218904 	  3.980000000000 	  4.567394040480 	
O	  4.399508218904 	  0.000000000000 	  1.587394040480 	
O	  5.399508218904 	  0.000000000000 	  4.567394040480 	
O	  4.399508218904 	  3.980000000000 	  1.587394040480 	
O	  5.399508218904 	  3.980000000000 	  4.567394040480 	
O	  2.762017053413 	  1.455668459744 	  1.587394040480 	
O	  3.762017053413 	  1.455668459744 	  4.567394040480 	
O	  2.762017053413 	  5.435668459744 	  1.587394040480 	
O	  3.762017053413 	  5.435668459744 	  4.567394040480 	
O	  6.742017053413 	  1.455668459744 	  1.587394040480 	
O	  7.742017053413 	  1.455668459744 	  4.567394040480 	
O	  6.742017053413 	  5.435668459744 	  1.587394040480 	
O	  7.742017053413 	  5.435668459744 	  4.567394040480 	
64 
Energy: 3.8465162721598611e+00 
Mg	  0.000000000000 	  0.000000000000 	  0.000000000000 	
Mg	  1.000000000000 	  0.000000000000 	  2.980000000000 	
Mg	  0.000000000000 	  3.980000000000 	  0.000000000000 	
Mg	  1.000000000000 	  3.980000000000 	  2.980000000000 	
Mg	  3.980000000000 	  0.000000000000 	  0.000000000000 	
Mg	  4.980000000000 	  0.000000000000 	  2.980000000000 	
Mg	  3.980000000000 	  3.980000000000 	  0.000000000000 	
Mg	  4.980000000000 	  3.980000000000 	  2.980000000000 	
Mg	  1.781591836335 	  1.859503076712 	  0.000000000000 	
Mg	  2.781591836335 	  1.859503076712 	  2.980000000000 	
Mg	  1.781591836335 	  5.839503076712 	  0.000000000000 	
Mg	  2.781591836335 	  5.839503076712 	  2.980000000000 	
Mg	  5.761591836335 	  1.859503076712 	  0.000000000000 	
Mg	  6.761591836335 	  1.859503076712 	  2.980000000000 	
Mg	  5.761591836335 	  5.839503076712 	  0.000000000000 	
Mg	  6.761591836335 	  5.839503076712 	  2.980000000000 	
Mg	  2.404881759348 	  0.000000000000 	  1.625769355582 	
Mg	  3.404881759348 	  0.000000000000 	  4.605769355582 	
Mg	  2.404881759348 	  3.980000000000 	  1.625769355582 	
Mg	  3.404881759348 	  3.980000000000 	  4.605769355582 	
Mg	  6.384881759348 	  0.000000000000 	  1.625769355582 	
Mg	  7.384881759348 	  0.000000000000 	  4.605769355582 	
Mg	  6.384881759348 	  3.980000000000 	  1.625769355582 	
Mg	  7.384881759348 	  3.980000000000 	  4.605769355582 	
Mg	  0.389556201883 	  2.015325557465 	  1.625769355582 	
Mg	  1.389556201883 	  2.015325557465 	  4.605769355582 	
Mg	  0.389556201883 	  5.995325557465 	  1.625769355582 	
Mg	  1.389556201883 	  5.995325557465 	  4.605769355582 	
Mg	  4.369556201883 	  2.015325557465 	  1.625769355582 	
Mg	  5.369556201883 	  2.015325557465 	  4.605769355582 	
Mg	  4.369556201883 	  5.995325557465 	  1.625769355582 	
Mg	  5.369556201883 	  5.995325557465 	  4.605769355582 	
O	  2.015325557465 	  0.000000000000 	  0.000000000000 	
O	  3.015325557465 	  0.000000000000 	  2.980000000000 	
O	  2.015325557465 	  3.980000000000 	  0.000000000000 	
O	  3.015325557465 	  3.980000000000 	  2.980000000000 	
O	  5.995325557465 	  0.000000000000 	  0.000000000000 	
O	  6.995325557465 	  0.000000000000 	  2.980000000000 	
O	  5.995325557465 	  3.980000000000 	  0.000000000000 	
O	  6.995325557465 	  3.980000000000 	  2.980000000000 	
O	  0.000000000000 	  2.015325557465 	  0.000000000000 	
O	  1.000000000000 	  2.015325557465 	  2.980000000000 	
O	  0.000000000000 	  5.995325557465 	  0.000000000000 	
O	  1.000000000000 	  5.995325557465 	  2.980000000000 	
O	  3.980000000000 	  2.015325557465 	  0.000000000000 	
O	  4.980000000000 	  2.015325557465 	  2.980000000000 	
O	  3.980000000000 	  5.995325557465 	  0.000000000000 	
O	  4.980000000000 	  5.995325557465 	  2.980000000000 	
O	  0.389556201883 	  0.000000000000 	  1.625769355582 	
O	  1.389556201883 	  0.000000000000 	  4.605769355582 	
O	  0.389556201883 	  3.980000000000 	  1.625769355582 	
O	  1.389556201883 	  3.980000000000 	  4.605769355582 	
O	  4.369556201883 	  0.000000000000 	  1.625769355582 	
O	  5.369556201883 	  0.000000000000 	  4.605769355582 	
O	  4.369556201883 	  3.980000000000 	  1.625769355582 	
O	  5.369556201883 	  3.980000000000 	  4.605769355582 	
O	  2.716526720855 	  1.503448708190 	  1.625769355582 	
O	  3.716526720855 	  1.503448708190 	  4.605769355582 	
O	  2.716526720855 	  5.483448708190 	  1.625769355582 	
O	  3.716526720855 	  5.483448708190 	  4.605769355582 	
O	  6.696526720855 	  1.503448708190 	  1.625769355582 	
O	  7.696526720855 	  1.503448708190 	  4.605769355582 	
O	  6.696526720855 	  5.483448708190 	  1.625769355582 	
O	  7.696526720855 	  5.483448708190 	  4.605769355582 	
64 
Energy: 4.5145949700237189e+00 
Mg	  0.000000000000 	  0.000000000000 	  0.000000000000 	
Mg	  1.000000000000 	  0.000000000000 	  2.980000000000 	
Mg	  0.000000000000 	  3.980000000000 	  0.000000000000 	
Mg	  1.000000000000 	  3.980000000000 	  2.980000000000 	
Mg	  3.980000000000 	  0.000000000000 	  0.000000000000 	
Mg	  4.980000000000 	  0.000000000000 	  2.980000000000 	
Mg	  3.980000000000 	  3.980000000000 	  0.000000000000 	
Mg	  4.980000000000 	  3.980000000000 	  2.980000000000 	
Mg	  1.808006479089 	  1.879924136939 	  0.000000000000 	
Mg	  2.808006479089 	  1.879924136939 	  2.980000000000 	
Mg	  1.808006479089 	  5.859924136939 	  0.000000000000 	
Mg	  2.808006479089 	  5.859924136939 	  2.980000000000 	
Mg	  5.788006479089 	  1.879924136939 	  0.000000000000 	
Mg	  6.788006479089 	  1.879924136939 	  2.980000000000 	
Mg	  5.788006479089 	  5.859924136939 	  0.000000000000 	
Mg	  6.788006479089 	  5.859924136939 	  2.980000000000 	
Mg	  2.383347741887 	  0.000000000000 	  1.664171163390 	
Mg	  3.383347741887 	  0.000000000000 	  4.644171163390 	
Mg	  2.383347741887 	  3.980000000000 	  1.664171163390 	
Mg	  3.383347741887 	  3.980000000000 	  4.644171163390 	
Mg	  6.363347741887 	  0.000000000000 	  1.664171163390 	
Mg	  7.363347741887 	  0.000000000000 	  4.644171163390 	
Mg	  6.363347741887 	  3.980000000000 	  1.664171163390 	
Mg	  7.363347741887 	  3.980000000000 	  4.644171163390 	
Mg	  0.359588289248 	  2.023759452638 	  1.664171163390 	
Mg	  1.359588289248 	  2.023759452638 	  4.644171163390 	
Mg	  0.359588289248 	  6.003759452638 	  1.664171163390 	
Mg	  1.359588289248 	  6.003759452638 	  4.644171163390 	
Mg	  4.339588289248 	  2.023759452638 	  1.664171163390 	
Mg	  5.339588289248 	  2.023759452638 	  4.644171163390 	
Mg	  4.339588289248 	  6.003759452638 	  1.664171163390 	
Mg	  5.339588289248 	  6.003759452638 	  4.644171163390 	
O	  2.023759452638 	  0.000000000000 	  0.000000000000 	
O	  3.023759452638 	  0.000000000000 	  2.980000000000 	
O	  2.023759452638 	  3.980000000000 	  0.000000000000 	
O	  3.023759452638 	  3.980000000000 	  2.980000000000 	
O	  6.003759452638 	  0.000000000000 	  0.000000000000 	
O	  7.003759452638 	  0.000000000000 	  2.980000000000 	
O	  6.003759452638 	  3.980000000000 	  0.000000000000 	
O	  7.003759452638 	  3.980000000000 	  2.980000000000 	
O	  0.000000000000 	  2.023759452638 	  0.000000000000 	
O	  1.000000000000 	  2.023759452638 	  2.980000000000 	
O	  0.000000000000 	  6.003759452638 	  0.000000000000 	
O	  1.000000000000 	  6.003759452638 	  2.980000000000 	
O	  3.980000000000 	  2.023759452638 	  0.000000000000 	
O	  4.980000000000 	  2.023759452638 	  2.980000000000 	
O	  3.980000000000 	  6.003759452638 	  0.000000000000 	
O	  4.980000000000 	  6.003759452638 	  2.980000000000 	
O	  0.359588289248 	  0.000000000000 	  1.664171163390 	
O	  1.359588289248 	  0.000000000000 	  4.644171163390 	
O	  0.359588289248 	  3.980000000000 	  1.664171163390 	
O	  1.359588289248 	  3.980000000000 	  4.644171163390 	
O	  4.339588289248 	  0.000000000000 	  1.664171163390 	
O	  5.339588289248 	  0.000000000000 	  4.644171163390 	
O	  4.339588289248 	  3.980000000000 	  1.664171163390 	
O	  5.339588289248 	  3.980000000000 	  4.644171163390 	
O	  2.671018373285 	  1.551260440566 	  1.664171163390 	
O	  3.671018373285 	  1.551260440566 	  4.644171163390 	
O	  2.671018373285 	  5.531260440566 	  1.664171163390 	
O	  3.671018373285 	  5.531260440566 	  4.644171163390 	
O	  6.651018373285 	  1.551260440566 	  1.664171163390 	
O	  7.651018373285 	  1.551260440566 	  4.644171163390 	
O	  6.651018373285 	  5.531260440566 	  1.664171163390 	
O	  7.651018373285 	  5.531260440566 	  4.644171163390 	
64 
Energy: 5.1069710129288097e+00 
Mg	  0.000000000000 	  0.000000000000 	  0.000000000000 	
Mg	  1.000000000000 	  0.000000000000 	  2.980000000000 	
Mg	  0.000000000000 	  3.980000000000 	  0.000000000000 	
Mg	  1.000000000000 	  3.980000000000 	  2.980000000000 	
Mg	  3.980000000000 	  0.000000000000 	  0.000000000000 	
Mg	  4.980000000000 	  0.000000000000 	  2.980000000000 	
Mg	  3.980000000000 	  3.980000000000 	  0.000000000000 	
Mg	  4.980000000000 	  3.980000000000 	  2.980000000000 	
Mg	  1.834435295835 	  1.900357299930 	  0.000000000000 	
Mg	  2.834435295835 	  1.900357299930 	  2.980000000000 	
Mg	  1.834435295835 	  5.880357299930 	  0.000000000000 	
Mg	  2.834435295835 	  5.880357299930 	  2.980000000000 	
Mg	  5.814435295835 	  1.900357299930 	  0.000000000000 	
Mg	  6.814435295835 	  1.900357299930 	  2.980000000000 	
Mg	  5.814435295835 	  5.880357299930 	  0.000000000000 	
Mg	  6.814435295835 	  5.880357299930 	  2.980000000000 	
Mg	  2.361811328598 	  0.000000000000 	  1.702591287644 	
Mg	  3.361811328598 	  0.000000000000 	  4.682591287644 	
Mg	  2.361811328598 	  3.980000000000 	  1.702591287644 	
Mg	  3.361811328598 	  3.980000000000 	  4.682591287644 	
Mg	  6.341811328598 	  0.000000000000 	  1.702591287644 	
Mg	  7.341811328598 	  0.000000000000 	  4.682591287644 	
Mg	  6.341811328598 	  3.980000000000 	  1.702591287644 	
Mg	  7.341811328598 	  3.980000000000 	  4.682591287644 	
Mg	  0.329610020477 	  2.032201308121 	  1.702591287644 	
Mg	  1.329610020477 	  2.032201308121 	  4.682591287644 	
Mg	  0.329610020477 	  6.012201308121 	  1.702591287644 	
Mg	  1.329610020477 	  6.012201308121 	  4.682591287644 	
Mg	  4.309610020477 	  2.032201308121 	  1.702591287644 	
Mg	  5.309610020477 	  2.032201308121 	  4.682591287644 	
Mg	  4.309610020477 	  6.012201308121 	  1.702591287644 	
Mg	  5.309610020477 	  6.012201308121 	  4.682591287644 	
O	  2.032201308121 	  0.000000000000 	  0.000000000000 	
O	  3.032201308121 	  0.000000000000 	  2.980000000000 	
O	  2.032201308121 	  3.980000000000 	  0.000000000000 	
O	  3.032201308121 	  3.980000000000 	  2.980000000000 	
O	  6.012201308121 	  0.000000000000 	  0.000000000000 	
O	  7.012201308121 	  0.000000000000 	  2.980000000000 	
O	  6.012201308121 	  3.980000000000 	  0.000000000000 	
O	  7.012201308121 	  3.980000000000 	  2.980000000000 	
O	  0.000000000000 	  2.032201308121 	  0.000000000000 	
O	  1.000000000000 	  2.032201308121 	  2.980000000000 	
O	  0.000000000000 	  6.012201308121 	  0.000000000000 	
O	  1.000000000000 	  6.012201308121 	  2.980000000000 	
O	  3.980000000000 	  2.032201308121 	  0.000000000000 	
O	  4.980000000000 	  2.032201308121 	  2.980000000000 	
O	  3.980000000000 	  6.012201308121 	  0.000000000000 	
O	  4.980000000000 	  6.012201308121 	  2.980000000000 	
O	  0.329610020477 	  0.000000000000 	  1.702591287644 	
O	  1.329610020477 	  0.000000000000 	  4.682591287644 	
O	  0.329610020477 	  3.980000000000 	  1.702591287644 	
O	  1.329610020477 	  3.980000000000 	  4.682591287644 	
O	  4.309610020477 	  0.000000000000 	  1.702591287644 	
O	  5.309610020477 	  0.000000000000 	  4.682591287644 	
O	  4.309610020477 	  3.980000000000 	  1.702591287644 	
O	  5.309610020477 	  3.980000000000 	  4.682591287644 	
O	  2.625499344979 	  1.599093741214 	  1.702591287644 	
O	  3.625499344979 	  1.599093741214 	  4.682591287644 	
O	  2.625499344979 	  5.579093741214 	  1.702591287644 	
O	  3.625499344979 	  5.579093741214 	  4.682591287644 	
O	  6.605499344979 	  1.599093741214 	  1.702591287644 	
O	  7.605499344979 	  1.599093741214 	  4.682591287644 	
O	  6.605499344979 	  5.579093741214 	  1.702591287644 	
O	  7.605499344979 	  5.579093741214 	  4.682591287644 	
64 
Energy: 5.5376273967261662e+00 
Mg	  0.000000000000 	  0.000000000000 	  0.000000000000 	
Mg	  1.000000000000 	  0.000000000000 	  2.980000000000 	
Mg	  0.000000000000 	  3.980000000000 	  0.000000000000 	
Mg	  1.000000000000 	  3.980000000000 	  2.980000000000 	
Mg	  3.980000000000 	  0.000000000000 	  0.000000000000 	
Mg	  4.980000000000 	  0.000000000000 	  2.980000000000 	
Mg	  3.980000000000 	  3.980000000000 	  0.000000000000 	
Mg	  4.980000000000 	  3.980000000000 	  2.980000000000 	
Mg	  1.860874056237 	  1.920798849561 	  0.000000000000 	
Mg	  2.860874056237 	  1.920798849561 	  2.980000000000 	
Mg	  1.860874056237 	  5.900798849561 	  0.000000000000 	
Mg	  2.860874056237 	  5.900798849561 	  2.980000000000 	
Mg	  5.840874056237 	  1.920798849561 	  0.000000000000 	
Mg	  6.840874056237 	  1.920798849561 	  2.980000000000 	
Mg	  5.840874056237 	  5.900798849561 	  0.000000000000 	
Mg	  6.840874056237 	  5.900798849561 	  2.980000000000 	
Mg	  2.340272402832 	  0.000000000000 	  1.741024469588 	
Mg	  3.340272402832 	  0.000000000000 	  4.721024469588 	
Mg	  2.340272402832 	  3.980000000000 	  1.741024469588 	
Mg	  3.340272402832 	  3.980000000000 	  4.721024469588 	
Mg	  6.320272402832 	  0.000000000000 	  1.741024469588 	
Mg	  7.320272402832 	  0.000000000000 	  4.721024469588 	
Mg	  6.320272402832 	  3.980000000000 	  1.741024469588 	
Mg	  7.320272402832 	  3.980000000000 	  4.721024469588 	
Mg	  0.299623966622 	  2.040648436210 	  1.741024469588 	
Mg	  1.299623966622 	  2.040648436210 	  4.721024469588 	
Mg	  0.299623966622 	  6.020648436210 	  1.741024469588 	
Mg	  1.299623966622 	  6.020648436210 	  4.721024469588 	
Mg	  4.279623966622 	  2.040648436210 	  1.741024469588 	
Mg	  5.279623966622 	  2.040648436210 	  4.721024469588 	
Mg	  4.279623966622 	  6.020648436210 	  1.741024469588 	
Mg	  5.279623966622 	  6.020648436210 	  4.721024469588 	
O	  2.040648436210 	  0.000000000000 	  0.000000000000 	
O	  3.040648436210 	  0.000000000000 	  2.980000000000 	
O	  2.040648436210 	  3.980000000000 	  0.000000000000 	
O	  3.040648436210 	  3.980000000000 	  2.980000000000 	
O	  6.020648436210 	  0.000000000000 	  0.000000000000 	
O	  7.020648436210 	  0.000000000000 	  2.980000000000 	
O	  6.020648436210 	  3.980000000000 	  0.000000000000 	
O	  7.020648436210 	  3.980000000000 	  2.980000000000 	
O	  0.000000000000 	  2.040648436210 	  0.000000000000 	
O	  1.000000000000 	  2.040648436210 	  2.980000000000 	
O	  0.000000000000 	  6.020648436210 	  0.000000000000 	
O	  1.000000000000 	  6.020648436210 	  2.980000000000 	
O	  3.980000000000 	  2.040648436210 	  0.000000000000 	
O	  4.980000000000 	  2.040648436210 	  2.980000000000 	
O	  3.980000000000 	  6.020648436210 	  0.000000000000 	
O	  4.980000000000 	  6.020648436210 	  2.980000000000 	
O	  0.299623966622 	  0.000000000000 	  1.741024469588 	
O	  1.299623966622 	  0.000000000000 	  4.721024469588 	
O	  0.299623966622 	  3.980000000000 	  1.741024469588 	
O	  1.299623966622 	  3.980000000000 	  4.721024469588 	
O	  4.279623966622 	  0.000000000000 	  1.741024469588 	
O	  5.279623966622 	  0.000000000000 	  4.721024469588 	
O	  4.279623966622 	  3.980000000000 	  1.741024469588 	
O	  5.279623966622 	  3.980000000000 	  4.721024469588 	
O	  2.579971576129 	  1.646942544069 	  1.741024469588 	
O	  3.579971576129 	  1.646942544069 	  4.721024469588 	
O	  2.579971576129 	  5.626942544069 	  1.741024469588 	
O	  3.579971576129 	  5.626942544069 	  4.721024469588 	
O	  6.559971576129 	  1.646942544069 	  1.741024469588 	
O	  7.559971576129 	  1.646942544069 	  4.721024469588 	
O	  6.559971576129 	  5.626942544069 	  1.741024469588 	
O	  7.559971576129 	  5.626942544069 	  4.721024469588 	
64 
Energy: 5.7485681717300725e+00 
Mg	  0.000000000000 	  0.000000000000 	  0.000000000000 	
Mg	  1.000000000000 	  0.000000000000 	  2.980000000000 	
Mg	  0.000000000000 	  3.980000000000 	  0.000000000000 	
Mg	  1.000000000000 	  3.980000000000 	  2.980000000000 	
Mg	  3.980000000000 	  0.000000000000 	  0.000000000000 	
Mg	  4.980000000000 	  0.000000000000 	  2.980000000000 	
Mg	  3.980000000000 	  3.980000000000 	  0.000000000000 	
Mg	  4.980000000000 	  3.980000000000 	  2.980000000000 	
Mg	  1.887318031188 	  1.941244862341 	  0.000000000000 	
Mg	  2.887318031188 	  1.941244862341 	  2.980000000000 	
Mg	  1.887318031188 	  5.921244862341 	  0.000000000000 	
Mg	  2.887318031188 	  5.921244862341 	  2.980000000000 	
Mg	  5.867318031188 	  1.941244862341 	  0.000000000000 	
Mg	  6.867318031188 	  1.941244862341 	  2.980000000000 	
Mg	  5.867318031188 	  5.921244862341 	  0.000000000000 	
Mg	  6.867318031188 	  5.921244862341 	  2.980000000000 	
Mg	  2.318732680408 	  0.000000000000 	  1.779464368884 	
Mg	  3.318732680408 	  0.000000000000 	  4.759464368884 	
Mg	  2.318732680408 	  3.980000000000 	  1.779464368884 	
Mg	  3.318732680408 	  3.980000000000 	  4.759464368884 	
Mg	  6.298732680408 	  0.000000000000 	  1.779464368884 	
Mg	  7.298732680408 	  0.000000000000 	  4.759464368884 	
Mg	  6.298732680408 	  3.980000000000 	  1.779464368884 	
Mg	  7.298732680408 	  3.980000000000 	  4.759464368884 	
Mg	  0.269634155762 	  2.049098524646 	  1.779464368884 	
Mg	  1.269634155762 	  2.049098524646 	  4.759464368884 	
Mg	  0.269634155762 	  6.029098524646 	  1.779464368884 	
Mg	  1.269634155762 	  6.029098524646 	  4.759464368884 	
Mg	  4.249634155762 	  2.049098524646 	  1.779464368884 	
Mg	  5.249634155762 	  2.049098524646 	  4.759464368884 	
Mg	  4.249634155762 	  6.029098524646 	  1.779464368884 	
Mg	  5.249634155762 	  6.029098524646 	  4.759464368884 	
O	  2.049098524646 	  0.000000000000 	  0.000000000000 	
O	  3.049098524646 	  0.000000000000 	  2.980000000000 	
O	  2.049098524646 	  3.980000000000 	  0.000000000000 	
O	  3.049098524646 	  3.980000000000 	  2.980000000000 	
O	  6.029098524646 	  0.000000000000 	  0.000000000000 	
O	  7.029098524646 	  0.000000000000 	  2.980000000000 	
O	  6.029098524646 	  3.980000000000 	  0.000000000000 	
O	  7.029098524646 	  3.980000000000 	  2.980000000000 	
O	  0.000000000000 	  2.049098524646 	  0.000000000000 	
O	  1.000000000000 	  2.049098524646 	  2.980000000000 	
O	  0.000000000000 	  6.029098524646 	  0.000000000000 	
O	  1.000000000000 	  6.029098524646 	  2.980000000000 	
O	  3.980000000000 	  2.049098524646 	  0.000000000000 	
O	  4.980000000000 	  2.049098524646 	  2.980000000000 	
O	  3.980000000000 	  6.029098524646 	  0.000000000000 	
O	  4.980000000000 	  6.029098524646 	  2.980000000000 	
O	  0.269634155762 	  0.000000000000 	  1.779464368884 	
O	  1.269634155762 	  0.000000000000 	  4.759464368884 	
O	  0.269634155762 	  3.980000000000 	  1.779464368884 	
O	  1.269634155762 	  3.980000000000 	  4.759464368884 	
O	  4.249634155762 	  0.000000000000 	  1.779464368884 	
O	  5.249634155762 	  0.000000000000 	  4.759464368884 	
O	  4.249634155762 	  3.980000000000 	  1.779464368884 	
O	  5.249634155762 	  3.980000000000 	  4.759464368884 	
O	  2.534440005017 	  1.694799243974 	  1.779464368884 	
O	  3.534440005017 	  1.694799243974 	  4.759464368884 	
O	  2.534440005017 	  5.674799243974 	  1.779464368884 	
O	  3.534440005017 	  5.674799243974 	  4.759464368884 	
O	  6.514440005017 	  1.694799243974 	  1.779464368884 	
O	  7.514440005017 	  1.694799243974 	  4.759464368884 	
O	  6.514440005017 	  5.674799243974 	  1.779464368884 	
O	  7.514440005017 	  5.674799243974 	  4.759464368884 	
64 
Energy: 5.7051100886612289e+00 
Mg	  0.000000000000 	  0.000000000000 	  0.000000000000 	
Mg	  1.000000000000 	  0.000000000000 	  2.980000000000 	
Mg	  0.000000000000 	  3.980000000000 	  0.000000000000 	
Mg	  1.000000000000 	  3.980000000000 	  2.980000000000 	
Mg	  3.980000000000 	  0.000000000000 	  0.000000000000 	
Mg	  4.980000000000 	  0.000000000000 	  2.980000000000 	
Mg	  3.980000000000 	  3.980000000000 	  0.000000000000 	
Mg	  4.980000000000 	  3.980000000000 	  2.980000000000 	
Mg	  1.913763371525 	  1.961691987718 	  0.000000000000 	
Mg	  2.913763371525 	  1.961691987718 	  2.980000000000 	
Mg	  1.913763371525 	  5.941691987718 	  0.000000000000 	
Mg	  2.913763371525 	  5.941691987718 	  2.980000000000 	
Mg	  5.893763371525 	  1.961691987718 	  0.000000000000 	
Mg	  6.893763371525 	  1.961691987718 	  2.980000000000 	
Mg	  5.893763371525 	  5.941691987718 	  0.000000000000 	
Mg	  6.893763371525 	  5.941691987718 	  2.980000000000 	
Mg	  2.297192301064 	  0.000000000000 	  1.817906139140 	
Mg	  3.297192301064 	  0.000000000000 	  4.797906139140 	
Mg	  2.297192301064 	  3.980000000000 	  1.817906139140 	
Mg	  3.297192301064 	  3.980000000000 	  4.797906139140 	
Mg	  6.277192301064 	  0.000000000000 	  1.817906139140 	
Mg	  7.277192301064 	  0.000000000000 	  4.797906139140 	
Mg	  6.277192301064 	  3.980000000000 	  1.817906139140 	
Mg	  7.277192301064 	  3.980000000000 	  4.797906139140 	
Mg	  0.239643080962 	  2.057549220102 	  1.817906139140 	
Mg	  1.239643080962 	  2.057549220102 	  4.797906139140 	
Mg	  0.239643080962 	  6.037549220102 	  1.817906139140 	
Mg	  1.239643080962 	  6.037549220102 	  4.797906139140 	
Mg	  4.219643080962 	  2.057549220102 	  1.817906139140 	
Mg	  5.219643080962 	  2.057549220102 	  4.797906139140 	
Mg	  4.219643080962 	  6.037549220102 	  1.817906139140 	
Mg	  5.219643080962 	  6.037549220102 	  4.797906139140 	
O	  2.057549220102 	  0.000000000000 	  0.000000000000 	
O	  3.057549220102 	  0.000000000000 	  2.980000000000 	
O	  2.057549220102 	  3.980000000000 	  0.000000000000 	
O	  3.057549220102 	  3.980000000000 	  2.980000000000 	
O	  6.037549220102 	  0.000000000000 	  0.000000000000 	
O	  7.037549220102 	  0.000000000000 	  2.980000000000 	
O	  6.037549220102 	  3.980000000000 	  0.000000000000 	
O	  7.037549220102 	  3.980000000000 	  2.980000000000 	
O	  0.000000000000 	  2.057549220102 	  0.000000000000 	
O	  1.000000000000 	  2.057549220102 	  2.980000000000 	
O	  0.000000000000 	  6.037549220102 	  0.000000000000 	
O	  1.000000000000 	  6.037549220102 	  2.980000000000 	
O	  3.980000000000 	  2.057549220102 	  0.000000000000 	
O	  4.980000000000 	  2.057549220102 	  2.980000000000 	
O	  3.980000000000 	  6.037549220102 	  0.000000000000 	
O	  4.980000000000 	  6.037549220102 	  2.980000000000 	
O	  0.239643080962 	  0.000000000000 	  1.817906139140 	
O	  1.239643080962 	  0.000000000000 	  4.797906139140 	
O	  0.239643080962 	  3.980000000000 	  1.817906139140 	
O	  1.239643080962 	  3.980000000000 	  4.797906139140 	
O	  4.219643080962 	  0.000000000000 	  1.817906139140 	
O	  5.219643080962 	  0.000000000000 	  4.797906139140 	
O	  4.219643080962 	  3.980000000000 	  1.817906139140 	
O	  5.219643080962 	  3.980000000000 	  4.797906139140 	
O	  2.488906765833 	  1.742658211718 	  1.817906139140 	
O	  3.488906765833 	  1.742658211718 	  4.797906139140 	
O	  2.488906765833 	  5.722658211718 	  1.817906139140 	
O	  3.488906765833 	  5.722658211718 	  4.797906139140 	
O	  6.468906765833 	  1.742658211718 	  1.817906139140 	
O	  7.468906765833 	  1.742658211718 	  4.797906139140 	
O	  6.468906765833 	  5.722658211718 	  1.817906139140 	
O	  7.468906765833 	  5.722658211718 	  4.797906139140 	
64 
Energy: 5.3946091197744552e+00 
Mg	  0.000000000000 	  0.000000000000 	  0.000000000000 	
Mg	  1.000000000000 	  0.000000000000 	  2.980000000000 	
Mg	  0.000000000000 	  3.980000000000 	  0.000000000000 	
Mg	  1.000000000000 	  3.980000000000 	  2.980000000000 	
Mg	  3.980000000000 	  0.000000000000 	  0.000000000000 	
Mg	  4.980000000000 	  0.000000000000 	  2.980000000000 	
Mg	  3.980000000000 	  3.980000000000 	  0.000000000000 	
Mg	  4.980000000000 	  3.980000000000 	  2.980000000000 	
Mg	  1.940206277961 	  1.982137189214 	  0.000000000000 	
Mg	  2.940206277961 	  1.982137189214 	  2.980000000000 	
Mg	  1.940206277961 	  5.962137189214 	  0.000000000000 	
Mg	  2.940206277961 	  5.962137189214 	  2.980000000000 	
Mg	  5.920206277961 	  1.982137189214 	  0.000000000000 	
Mg	  6.920206277961 	  1.982137189214 	  2.980000000000 	
Mg	  5.920206277961 	  5.962137189214 	  0.000000000000 	
Mg	  6.920206277961 	  5.962137189214 	  2.980000000000 	
Mg	  2.275653567984 	  0.000000000000 	  1.856344455455 	
Mg	  3.275653567984 	  0.000000000000 	  4.836344455455 	
Mg	  2.275653567984 	  3.980000000000 	  1.856344455455 	
Mg	  3.275653567984 	  3.980000000000 	  4.836344455455 	
Mg	  6.255653567984 	  0.000000000000 	  1.856344455455 	
Mg	  7.255653567984 	  0.000000000000 	  4.836344455455 	
Mg	  6.255653567984 	  3.980000000000 	  1.856344455455 	
Mg	  7.255653567984 	  3.980000000000 	  4.836344455455 	
Mg	  0.209654556265 	  2.065999011720 	  1.856344455455 	
Mg	  1.209654556265 	  2.065999011720 	  4.836344455455 	
Mg	  0.209654556265 	  6.045999011720 	  1.856344455455 	
Mg	  1.209654556265 	  6.045999011720 	  4.836344455455 	
Mg	  4.189654556265 	  2.065999011720 	  1.856344455455 	
Mg	  5.189654556265 	  2.065999011720 	  4.836344455455 	
Mg	  4.189654556265 	  6.045999011720 	  1.856344455455 	
Mg	  5.189654556265 	  6.045999011720 	  4.836344455455 	
O	  2.065999011720 	  0.000000000000 	  0.000000000000 	
O	  3.065999011720 	  0.000000000000 	  2.980000000000 	
O	  2.065999011720 	  3.980000000000 	  0.000000000000 	
O	  3.065999011720 	  3.980000000000 	  2.980000000000 	
O	  6.045999011720 	  0.000000000000 	  0.000000000000 	
O	  7.045999011720 	  0.000000000000 	  2.980000000000 	
O	  6.045999011720 	  3.980000000000 	  0.000000000000 	
O	  7.045999011720 	  3.980000000000 	  2.980000000000 	
O	  0.000000000000 	  2.065999011720 	  0.000000000000 	
O	  1.000000000000 	  2.065999011720 	  2.980000000000 	
O	  0.000000000000 	  6.045999011720 	  0.000000000000 	
O	  1.000000000000 	  6.045999011720 	  2.980000000000 	
O	  3.980000000000 	  2.065999011720 	  0.000000000000 	
O	  4.980000000000 	  2.065999011720 	  2.980000000000 	
O	  3.980000000000 	  6.045999011720 	  0.000000000000 	
O	  4.980000000000 	  6.045999011720 	  2.980000000000 	
O	  0.209654556265 	  0.000000000000 	  1.856344455455 	
O	  1.209654556265 	  0.000000000000 	  4.836344455455 	
O	  0.209654556265 	  3.980000000000 	  1.856344455455 	
O	  1.209654556265 	  3.980000000000 	  4.836344455455 	
O	  4.189654556265 	  0.000000000000 	  1.856344455455 	
O	  5.189654556265 	  0.000000000000 	  4.836344455455 	
O	  4.189654556265 	  3.980000000000 	  1.856344455455 	
O	  5.189654556265 	  3.980000000000 	  4.836344455455 	
O	  2.443377212996 	  1.790512924788 	  1.856344455455 	
O	  3.443377212996 	  1.790512924788 	  4.836344455455 	
O	  2.443377212996 	  5.770512924788 	  1.856344455455 	
O	  3.443377212996 	  5.770512924788 	  4.836344455455 	
O	  6.423377212996 	  1.790512924788 	  1.856344455455 	
O	  7.423377212996 	  1.790512924788 	  4.836344455455 	
O	  6.423377212996 	  5.770512924788 	  1.856344455455 	
O	  7.423377212996 	  5.770512924788 	  4.836344455455 	
64 
Energy: 4.8263130323875112e+00 
Mg	  0.000000000000 	  0.000000000000 	  0.000000000000 	
Mg	  1.000000000000 	  0.000000000000 	  2.980000000000 	
Mg	  0.000000000000 	  3.980000000000 	  0.000000000000 	
Mg	  1.000000000000 	  3.980000000000 	  2.980000000000 	
Mg	  3.980000000000 	  0.000000000000 	  0.000000000000 	
Mg	  4.980000000000 	  0.000000000000 	  2.980000000000 	
Mg	  3.980000000000 	  3.980000000000 	  0.000000000000 	
Mg	  4.980000000000 	  3.980000000000 	  2.980000000000 	
Mg	  1.966643319226 	  2.002577663510 	  0.000000000000 	
Mg	  2.966643319226 	  2.002577663510 	  2.980000000000 	
Mg	  1.966643319226 	  5.982577663510 	  0.000000000000 	
Mg	  2.966643319226 	  5.982577663510 	  2.980000000000 	
Mg	  5.946643319226 	  2.002577663510 	  0.000000000000 	
Mg	  6.946643319226 	  2.002577663510 	  2.980000000000 	
Mg	  5.946643319226 	  5.982577663510 	  0.000000000000 	
Mg	  6.946643319226 	  5.982577663510 	  2.980000000000 	
Mg	  2.254118073498 	  0.000000000000 	  1.894774630658 	
Mg	  3.254118073498 	  0.000000000000 	  4.874774630658 	
Mg	  2.254118073498 	  3.980000000000 	  1.894774630658 	
Mg	  3.254118073498 	  3.980000000000 	  4.874774630658 	
Mg	  6.234118073498 	  0.000000000000 	  1.894774630658 	
Mg	  7.234118073498 	  0.000000000000 	  4.874774630658 	
Mg	  6.234118073498 	  3.980000000000 	  1.894774630658 	
Mg	  7.234118073498 	  3.980000000000 	  4.874774630658 	
Mg	  0.179671721420 	  2.074446352078 	  1.894774630658 	
Mg	  1.179671721420 	  2.074446352078 	  4.874774630658 	
Mg	  0.179671721420 	  6.054446352078 	  1.894774630658 	
Mg	  1.179671721420 	  6.054446352078 	  4.874774630658 	
Mg	  4.159671721420 	  2.074446352078 	  1.894774630658 	
Mg	  5.159671721420 	  2.074446352078 	  4.874774630658 	
Mg	  4.159671721420 	  6.054446352078 	  1.894774630658 	
Mg	  5.159671721420 	  6.054446352078 	  4.874774630658 	
O	  2.074446352078 	  0.000000000000 	  0.000000000000 	
O	  3.074446352078 	  0.000000000000 	  2.980000000000 	
O	  2.074446352078 	  3.980000000000 	  0.000000000000 	
O	  3.074446352078 	  3.980000000000 	  2.980000000000 	
O	  6.054446352078 	  0.000000000000 	  0.000000000000 	
O	  7.054446352078 	  0.000000000000 	  2.980000000000 	
O	  6.054446352078 	  3.980000000000 	  0.000000000000 	
O	  7.054446352078 	  3.980000000000 	  2.980000000000 	
O	  0.000000000000 	  2.074446352078 	  0.000000000000 	
O	  1.000000000000 	  2.074446352078 	  2.980000000000 	
O	  0.000000000000 	  6.054446352078 	  0.000000000000 	
O	  1.000000000000 	  6.054446352078 	  2.980000000000 	
O	  3.980000000000 	  2.074446352078 	  0.000000000000 	
O	  4.980000000000 	  2.074446352078 	  2.980000000000 	
O	  3.980000000000 	  6.054446352078 	  0.000000000000 	
O	  4.980000000000 	  6.054446352078 	  2.980000000000 	
O	  0.179671721420 	  0.000000000000 	  1.894774630658 	
O	  1.179671721420 	  0.000000000000 	  4.874774630658 	
O	  0.179671721420 	  3.980000000000 	  1.894774630658 	
O	  1.179671721420 	  3.980000000000 	  4.874774630658 	
O	  4.159671721420 	  0.000000000000 	  1.894774630658 	
O	  5.159671721420 	  0.000000000000 	  4.874774630658 	
O	  4.159671721420 	  3.980000000000 	  1.894774630658 	
O	  5.159671721420 	  3.980000000000 	  4.874774630658 	
O	  2.397855450634 	  1.838357710132 	  1.894774630658 	
O	  3.397855450634 	  1.838357710132 	  4.874774630658 	
O	  2.397855450634 	  5.818357710132 	  1.894774630658 	
O	  3.397855450634 	  5.818357710132 	  4.874774630658 	
O	  6.377855450634 	  1.838357710132 	  1.894774630658 	
O	  7.377855450634 	  1.838357710132 	  4.874774630658 	
O	  6.377855450634 	  5.818357710132 	  1.894774630658 	
O	  7.377855450634 	  5.818357710132 	  4.874774630658 	
64 
Energy: 4.0331539860634900e+00 
Mg	  0.000000000000 	  0.000000000000 	  0.000000000000 	
Mg	  1.000000000000 	  0.000000000000 	  2.980000000000 	
Mg	  0.000000000000 	  3.980000000000 	  0.000000000000 	
Mg	  1.000000000000 	  3.980000000000 	  2.980000000000 	
Mg	  3.980000000000 	  0.000000000000 	  0.000000000000 	
Mg	  4.980000000000 	  0.000000000000 	  2.980000000000 	
Mg	  3.980000000000 	  3.980000000000 	  0.000000000000 	
Mg	  4.980000000000 	  3.980000000000 	  2.980000000000 	
Mg	  1.993071424587 	  2.023010848189 	  0.000000000000 	
Mg	  2.993071424587 	  2.023010848189 	  2.980000000000 	
Mg	  1.993071424587 	  6.003010848189 	  0.000000000000 	
Mg	  2.993071424587 	  6.003010848189 	  2.980000000000 	
Mg	  5.973071424587 	  2.023010848189 	  0.000000000000 	
Mg	  6.973071424587 	  2.023010848189 	  2.980000000000 	
Mg	  5.973071424587 	  6.003010848189 	  0.000000000000 	
Mg	  6.973071424587 	  6.003010848189 	  2.980000000000 	
Mg	  2.232586813407 	  0.000000000000 	  1.933192577382 	
Mg	  3.232586813407 	  0.000000000000 	  4.913192577382 	
Mg	  2.232586813407 	  3.980000000000 	  1.933192577382 	
Mg	  3.232586813407 	  3.980000000000 	  4.913192577382 	
Mg	  6.212586813407 	  0.000000000000 	  1.933192577382 	
Mg	  7.212586813407 	  0.000000000000 	  4.913192577382 	
Mg	  6.212586813407 	  3.980000000000 	  1.933192577382 	
Mg	  7.212586813407 	  3.980000000000 	  4.913192577382 	
Mg	  0.149697118012 	  2.082889695394 	  1.933192577382 	
Mg	  1.149697118012 	  2.082889695394 	  4.913192577382 	
Mg	  0.149697118012 	  6.062889695394 	  1.933192577382 	
Mg	  1.149697118012 	  6.062889695394 	  4.913192577382 	
Mg	  4.129697118012 	  2.082889695394 	  1.933192577382 	
Mg	  5.129697118012 	  2.082889695394 	  4.913192577382 	
Mg	  4.129697118012 	  6.062889695394 	  1.933192577382 	
Mg	  5.129697118012 	  6.062889695394 	  4.913192577382 	
O	  2.082889695394 	  0.000000000000 	  0.000000000000 	
O	  3.082889695394 	  0.000000000000 	  2.980000000000 	
O	  2.082889695394 	  3.980000000000 	  0.000000000000 	
O	  3.082889695394 	  3.980000000000 	  2.980000000000 	
O	  6.062889695394 	  0.000000000000 	  0.000000000000 	
O	  7.062889695394 	  0.000000000000 	  2.980000000000 	
O	  6.062889695394 	  3.980000000000 	  0.000000000000 	
O	  7.062889695394 	  3.980000000000 	  2.980000000000 	
O	  0.000000000000 	  2.082889695394 	  0.000000000000 	
O	  1.000000000000 	  2.082889695394 	  2.980000000000 	
O	  0.000000000000 	  6.062889695394 	  0.000000000000 	
O	  1.000000000000 	  6.062889695394 	  2.980000000000 	
O	  3.980000000000 	  2.082889695394 	  0.000000000000 	
O	  4.980000000000 	  2.082889695394 	  2.980000000000 	
O	  3.980000000000 	  6.062889695394 	  0.000000000000 	
O	  4.980000000000 	  6.062889695394 	  2.980000000000 	
O	  0.149697118012 	  0.000000000000 	  1.933192577382 	
O	  1.149697118012 	  0.000000000000 	  4.913192577382 	
O	  0.149697118012 	  3.980000000000 	  1.933192577382 	
O	  1.149697118012 	  3.980000000000 	  4.913192577382 	
O	  4.129697118012 	  0.000000000000 	  1.933192577382 	
O	  5.129697118012 	  0.000000000000 	  4.913192577382 	
O	  4.129697118012 	  3.980000000000 	  1.933192577382 	
O	  5.129697118012 	  3.980000000000 	  4.913192577382 	
O	  2.352344507816 	  1.886187682326 	  1.933192577382 	
O	  3.352344507816 	  1.886187682326 	  4.913192577382 	
O	  2.352344507816 	  5.866187682326 	  1.933192577382 	
O	  3.352344507816 	  5.866187682326 	  4.913192577382 	
O	  6.332344507816 	  1.886187682326 	  1.933192577382 	
O	  7.332344507816 	  1.886187682326 	  4.913192577382 	
O	  6.332344507816 	  5.866187682326 	  1.933192577382 	
O	  7.332344507816 	  5.866187682326 	  4.913192577382 	
64 
Energy: 3.0749308837410680e+00 
Mg	  0.000000000000 	  0.000000000000 	  0.000000000000 	
Mg	  1.000000000000 	  0.000000000000 	  2.980000000000 	
Mg	  0.000000000000 	  3.980000000000 	  0.000000000000 	
Mg	  1.000000000000 	  3.980000000000 	  2.980000000000 	
Mg	  3.980000000000 	  0.000000000000 	  0.000000000000 	
Mg	  4.980000000000 	  0.000000000000 	  2.980000000000 	
Mg	  3.980000000000 	  3.980000000000 	  0.000000000000 	
Mg	  4.980000000000 	  3.980000000000 	  2.980000000000 	
Mg	  2.019487946163 	  2.043434501265 	  0.000000000000 	
Mg	  3.019487946163 	  2.043434501265 	  2.980000000000 	
Mg	  2.019487946163 	  6.023434501265 	  0.000000000000 	
Mg	  3.019487946163 	  6.023434501265 	  2.980000000000 	
Mg	  5.999487946163 	  2.043434501265 	  0.000000000000 	
Mg	  6.999487946163 	  2.043434501265 	  2.980000000000 	
Mg	  5.999487946163 	  6.023434501265 	  0.000000000000 	
Mg	  6.999487946163 	  6.023434501265 	  2.980000000000 	
Mg	  2.211060386984 	  0.000000000000 	  1.971594835957 	
Mg	  3.211060386984 	  0.000000000000 	  4.951594835957 	
Mg	  2.211060386984 	  3.980000000000 	  1.971594835957 	
Mg	  3.211060386984 	  3.980000000000 	  4.951594835957 	
Mg	  6.191060386984 	  0.000000000000 	  1.971594835957 	
Mg	  7.191060386984 	  0.000000000000 	  4.951594835957 	
Mg	  6.191060386984 	  3.980000000000 	  1.971594835957 	
Mg	  7.191060386984 	  3.980000000000 	  4.951594835957 	
Mg	  0.119732775513 	  2.091327611471 	  1.971594835957 	
Mg	  1.119732775513 	  2.091327611471 	  4.951594835957 	
Mg	  0.119732775513 	  6.071327611471 	  1.971594835957 	
Mg	  1.119732775513 	  6.071327611471 	  4.951594835957 	
Mg	  4.099732775513 	  2.091327611471 	  1.971594835957 	
Mg	  5.099732775513 	  2.091327611471 	  4.951594835957 	
Mg	  4.099732775513 	  6.071327611471 	  1.971594835957 	
Mg	  5.099732775513 	  6.071327611471 	  4.951594835957 	
O	  2.091327611471 	  0.000000000000 	  0.000000000000 	
O	  3.091327611471 	  0.000000000000 	  2.980000000000 	
O	  2.091327611471 	  3.980000000000 	  0.000000000000 	
O	  3.091327611471 	  3.980000000000 	  2.980000000000 	
O	  6.071327611471 	  0.000000000000 	  0.000000000000 	
O	  7.071327611471 	  0.000000000000 	  2.980000000000 	
O	  6.071327611471 	  3.980000000000 	  0.000000000000 	
O	  7.071327611471 	  3.980000000000 	  2.980000000000 	
O	  0.000000000000 	  2.091327611471 	  0.000000000000 	
O	  1.000000000000 	  2.091327611471 	  2.980000000000 	
O	  0.000000000000 	  6.071327611471 	  0.000000000000 	
O	  1.000000000000 	  6.071327611471 	  2.980000000000 	
O	  3.980000000000 	  2.091327611471 	  0.000000000000 	
O	  4.980000000000 	  2.091327611471 	  2.980000000000 	
O	  3.980000000000 	  6.071327611471 	  0.000000000000 	
O	  4.980000000000 	  6.071327611471 	  2.980000000000 	
O	  0.119732775513 	  0.000000000000 	  1.971594835957 	
O	  1.119732775513 	  0.000000000000 	  4.951594835957 	
O	  0.119732775513 	  3.980000000000 	  1.971594835957 	
O	  1.119732775513 	  3.980000000000 	  4.951594835957 	
O	  4.099732775513 	  0.000000000000 	  1.971594835957 	
O	  5.099732775513 	  0.000000000000 	  4.951594835957 	
O	  4.099732775513 	  3.980000000000 	  1.971594835957 	
O	  5.099732775513 	  3.980000000000 	  4.951594835957 	
O	  2.306846607395 	  1.933998744446 	  1.971594835957 	
O	  3.306846607395 	  1.933998744446 	  4.951594835957 	
O	  2.306846607395 	  5.913998744446 	  1.971594835957 	
O	  3.306846607395 	  5.913998744446 	  4.951594835957 	
O	  6.286846607395 	  1.933998744446 	  1.971594835957 	
O	  7.286846607395 	  1.933998744446 	  4.951594835957 	
O	  6.286846607395 	  5.913998744446 	  1.971594835957 	
O	  7.286846607395 	  5.913998744446 	  4.951594835957 	
64 
Energy: 2.0426693245922571e+00 
Mg	  0.000000000000 	  0.000000000000 	  0.000000000000 	
Mg	  1.000000000000 	  0.000000000000 	  2.980000000000 	
Mg	  0.000000000000 	  3.980000000000 	  0.000000000000 	
Mg	  1.000000000000 	  3.980000000000 	  2.980000000000 	
Mg	  3.980000000000 	  0.000000000000 	  0.000000000000 	
Mg	  4.980000000000 	  0.000000000000 	  2.980000000000 	
Mg	  3.980000000000 	  3.980000000000 	  0.000000000000 	
Mg	  4.980000000000 	  3.980000000000 	  2.980000000000 	
Mg	  2.045890638501 	  2.063846684551 	  0.000000000000 	
Mg	  3.045890638501 	  2.063846684551 	  2.980000000000 	
Mg	  2.045890638501 	  6.043846684551 	  0.000000000000 	
Mg	  3.045890638501 	  6.043846684551 	  2.980000000000 	
Mg	  6.025890638501 	  2.063846684551 	  0.000000000000 	
Mg	  7.025890638501 	  2.063846684551 	  2.980000000000 	
Mg	  6.025890638501 	  6.043846684551 	  0.000000000000 	
Mg	  7.025890638501 	  6.043846684551 	  2.980000000000 	
Mg	  2.189539006904 	  0.000000000000 	  2.009978546400 	
Mg	  3.189539006904 	  0.000000000000 	  4.989978546400 	
Mg	  2.189539006904 	  3.980000000000 	  2.009978546400 	
Mg	  3.189539006904 	  3.980000000000 	  4.989978546400 	
Mg	  6.169539006904 	  0.000000000000 	  2.009978546400 	
Mg	  7.169539006904 	  0.000000000000 	  4.989978546400 	
Mg	  6.169539006904 	  3.980000000000 	  2.009978546400 	
Mg	  7.169539006904 	  3.980000000000 	  4.989978546400 	
Mg	  0.089780230252 	  2.099758776652 	  2.009978546400 	
Mg	  1.089780230252 	  2.099758776652 	  4.989978546400 	
Mg	  0.089780230252 	  6.079758776652 	  2.009978546400 	
Mg	  1.089780230252 	  6.079758776652 	  4.989978546400 	
Mg	  4.069780230252 	  2.099758776652 	  2.009978546400 	
Mg	  5.069780230252 	  2.099758776652 	  4.989978546400 	
Mg	  4.069780230252 	  6.079758776652 	  2.009978546400 	
Mg	  5.069780230252 	  6.079758776652 	  4.989978546400 	
O	  2.099758776652 	  0.000000000000 	  0.000000000000 	
O	  3.099758776652 	  0.000000000000 	  2.980000000000 	
O	  2.099758776652 	  3.980000000000 	  0.000000000000 	
O	  3.099758776652 	  3.980000000000 	  2.980000000000 	
O	  6.079758776652 	  0.000000000000 	  0.000000000000 	
O	  7.079758776652 	  0.000000000000 	  2.980000000000 	
O	  6.079758776652 	  3.980000000000 	  0.000000000000 	
O	  7.079758776652 	  3.980000000000 	  2.980000000000 	
O	  0.000000000000 	  2.099758776652 	  0.000000000000 	
O	  1.000000000000 	  2.099758776652 	  2.980000000000 	
O	  0.000000000000 	  6.079758776652 	  0.000000000000 	
O	  1.000000000000 	  6.079758776652 	  2.980000000000 	
O	  3.980000000000 	  2.099758776652 	  0.000000000000 	
O	  4.980000000000 	  2.099758776652 	  2.980000000000 	
O	  3.980000000000 	  6.079758776652 	  0.000000000000 	
O	  4.980000000000 	  6.079758776652 	  2.980000000000 	
O	  0.089780230252 	  0.000000000000 	  2.009978546400 	
O	  1.089780230252 	  0.000000000000 	  4.989978546400 	
O	  0.089780230252 	  3.980000000000 	  2.009978546400 	
O	  1.089780230252 	  3.980000000000 	  4.989978546400 	
O	  4.069780230252 	  0.000000000000 	  2.009978546400 	
O	  5.069780230252 	  0.000000000000 	  4.989978546400 	
O	  4.069780230252 	  3.980000000000 	  2.009978546400 	
O	  5.069780230252 	  3.980000000000 	  4.989978546400 	
O	  2.261363191106 	  1.981787554100 	  2.009978546400 	
O	  3.261363191106 	  1.981787554100 	  4.989978546400 	
O	  2.261363191106 	  5.961787554100 	  2.009978546400 	
O	  3.261363191106 	  5.961787554100 	  4.989978546400 	
O	  6.241363191106 	  1.981787554100 	  2.009978546400 	
O	  7.241363191106 	  1.981787554100 	  4.989978546400 	
O	  6.241363191106 	  5.961787554100 	  2.009978546400 	
O	  7.241363191106 	  5.961787554100 	  4.989978546400 	
64 
Energy: 1.0640453271772004e+00 
Mg	  0.000000000000 	  0.000000000000 	  0.000000000000 	
Mg	  1.000000000000 	  0.000000000000 	  2.980000000000 	
Mg	  0.000000000000 	  3.980000000000 	  0.000000000000 	
Mg	  1.000000000000 	  3.980000000000 	  2.980000000000 	
Mg	  3.980000000000 	  0.000000000000 	  0.000000000000 	
Mg	  4.980000000000 	  0.000000000000 	  2.980000000000 	
Mg	  3.980000000000 	  3.980000000000 	  0.000000000000 	
Mg	  4.980000000000 	  3.980000000000 	  2.980000000000 	
Mg	  2.072277685487 	  2.084245778369 	  0.000000000000 	
Mg	  3.072277685487 	  2.084245778369 	  2.980000000000 	
Mg	  2.072277685487 	  6.064245778369 	  0.000000000000 	
Mg	  3.072277685487 	  6.064245778369 	  2.980000000000 	
Mg	  6.052277685487 	  2.084245778369 	  0.000000000000 	
Mg	  7.052277685487 	  2.084245778369 	  2.980000000000 	
Mg	  6.052277685487 	  6.064245778369 	  0.000000000000 	
Mg	  7.052277685487 	  6.064245778369 	  2.980000000000 	
Mg	  2.168022428543 	  0.000000000000 	  2.048341499723 	
Mg	  3.168022428543 	  0.000000000000 	  5.028341499723 	
Mg	  2.168022428543 	  3.980000000000 	  2.048341499723 	
Mg	  3.168022428543 	  3.980000000000 	  5.028341499723 	
Mg	  6.148022428543 	  0.000000000000 	  2.048341499723 	
Mg	  7.148022428543 	  0.000000000000 	  5.028341499723 	
Mg	  6.148022428543 	  3.980000000000 	  2.048341499723 	
Mg	  7.148022428543 	  3.980000000000 	  5.028341499723 	
Mg	  0.059840464410 	  2.108181964133 	  2.048341499723 	
Mg	  1.059840464410 	  2.108181964133 	  5.028341499723 	
Mg	  0.059840464410 	  6.088181964133 	  2.048341499723 	
Mg	  1.059840464410 	  6.088181964133 	  5.028341499723 	
Mg	  4.039840464410 	  2.108181964133 	  2.048341499723 	
Mg	  5.039840464410 	  2.108181964133 	  5.028341499723 	
Mg	  4.039840464410 	  6.088181964133 	  2.048341499723 	
Mg	  5.039840464410 	  6.088181964133 	  5.028341499723 	
O	  2.108181964133 	  0.000000000000 	  0.000000000000 	
O	  3.108181964133 	  0.000000000000 	  2.980000000000 	
O	  2.108181964133 	  3.980000000000 	  0.000000000000 	
O	  3.108181964133 	  3.980000000000 	  2.980000000000 	
O	  6.088181964133 	  0.000000000000 	  0.000000000000 	
O	  7.088181964133 	  0.000000000000 	  2.980000000000 	
O	  6.088181964133 	  3.980000000000 	  0.000000000000 	
O	  7.088181964133 	  3.980000000000 	  2.980000000000 	
O	  0.000000000000 	  2.108181964133 	  0.000000000000 	
O	  1.000000000000 	  2.108181964133 	  2.980000000000 	
O	  0.000000000000 	  6.088181964133 	  0.000000000000 	
O	  1.000000000000 	  6.088181964133 	  2.980000000000 	
O	  3.980000000000 	  2.108181964133 	  0.000000000000 	
O	  4.980000000000 	  2.108181964133 	  2.980000000000 	
O	  3.980000000000 	  6.088181964133 	  0.000000000000 	
O	  4.980000000000 	  6.088181964133 	  2.980000000000 	
O	  0.059840464410 	  0.000000000000 	  2.048341499723 	
O	  1.059840464410 	  0.000000000000 	  5.028341499723 	
O	  0.059840464410 	  3.980000000000 	  2.048341499723 	
O	  1.059840464410 	  3.980000000000 	  5.028341499723 	
O	  4.039840464410 	  0.000000000000 	  2.048341499723 	
O	  5.039840464410 	  0.000000000000 	  5.028341499723 	
O	  4.039840464410 	  3.980000000000 	  2.048341499723 	
O	  5.039840464410 	  3.980000000000 	  5.028341499723 	
O	  2.215894800070 	  2.029551593899 	  2.048341499723 	
O	  3.215894800070 	  2.029551593899 	  5.028341499723 	
O	  2.215894800070 	  6.009551593899 	  2.048341499723 	
O	  3.215894800070 	  6.009551593899 	  5.028341499723 	
O	  6.195894800070 	  2.029551593899 	  2.048341499723 	
O	  7.195894800070 	  2.029551593899 	  5.028341499723 	
O	  6.195894800070 	  6.009551593899 	  2.048341499723 	
O	  7.195894800070 	  6.009551593899 	  5.028341499723 	
64 
Energy: 3.0967969944138474e-01 
Mg	  0.000000000000 	  0.000000000000 	  0.000000000000 	
Mg	  1.000000000000 	  0.000000000000 	  2.980000000000 	
Mg	  0.000000000000 	  3.980000000000 	  0.000000000000 	
Mg	  1.000000000000 	  3.980000000000 	  2.980000000000 	
Mg	  3.980000000000 	  0.000000000000 	  0.000000000000 	
Mg	  4.980000000000 	  0.000000000000 	  2.980000000000 	
Mg	  3.980000000000 	  3.980000000000 	  0.000000000000 	
Mg	  4.980000000000 	  3.980000000000 	  2.980000000000 	
Mg	  2.098647745036 	  2.104630511991 	  0.000000000000 	
Mg	  3.098647745036 	  2.104630511991 	  2.980000000000 	
Mg	  2.098647745036 	  6.084630511991 	  0.000000000000 	
Mg	  3.098647745036 	  6.084630511991 	  2.980000000000 	
Mg	  6.078647745036 	  2.104630511991 	  0.000000000000 	
Mg	  7.078647745036 	  2.104630511991 	  2.980000000000 	
Mg	  6.078647745036 	  6.084630511991 	  0.000000000000 	
Mg	  7.078647745036 	  6.084630511991 	  2.980000000000 	
Mg	  2.146509880678 	  0.000000000000 	  2.086682211125 	
Mg	  3.146509880678 	  0.000000000000 	  5.066682211125 	
Mg	  2.146509880678 	  3.980000000000 	  2.086682211125 	
Mg	  3.146509880678 	  3.980000000000 	  5.066682211125 	
Mg	  6.126509880678 	  0.000000000000 	  2.086682211125 	
Mg	  7.126509880678 	  0.000000000000 	  5.066682211125 	
Mg	  6.126509880678 	  3.980000000000 	  2.086682211125 	
Mg	  7.126509880678 	  3.980000000000 	  5.066682211125 	
Mg	  0.029913834776 	  2.116596045901 	  2.086682211125 	
Mg	  1.029913834776 	  2.116596045901 	  5.066682211125 	
Mg	  0.029913834776 	  6.096596045901 	  2.086682211125 	
Mg	  1.029913834776 	  6.096596045901 	  5.066682211125 	
Mg	  4.009913834776 	  2.116596045901 	  2.086682211125 	
Mg	  5.009913834776 	  2.116596045901 	  5.066682211125 	
Mg	  4.009913834776 	  6.096596045901 	  2.086682211125 	
Mg	  5.009913834776 	  6.096596045901 	  5.066682211125 	
O	  2.116596045901 	  0.000000000000 	  0.000000000000 	
O	  3.116596045901 	  0.000000000000 	  2.980000000000 	
O	  2.116596045901 	  3.980000000000 	  0.000000000000 	
O	  3.116596045901 	  3.980000000000 	  2.980000000000 	
O	  6.096596045901 	  0.000000000000 	  0.000000000000 	
O	  7.096596045901 	  0.000000000000 	  2.980000000000 	
O	  6.096596045901 	  3.980000000000 	  0.000000000000 	
O	  7.096596045901 	  3.980000000000 	  2.980000000000 	
O	  0.000000000000 	  2.116596045901 	  0.000000000000 	
O	  1.000000000000 	  2.116596045901 	  2.980000000000 	
O	  0.000000000000 	  6.096596045901 	  0.000000000000 	
O	  1.000000000000 	  6.096596045901 	  2.980000000000 	
O	  3.980000000000 	  2.116596045901 	  0.000000000000 	
O	  4.980000000000 	  2.116596045901 	  2.980000000000 	
O	  3.980000000000 	  6.096596045901 	  0.000000000000 	
O	  4.980000000000 	  6.096596045901 	  2.980000000000 	
O	  0.029913834776 	  0.000000000000 	  2.086682211125 	
O	  1.029913834776 	  0.000000000000 	  5.066682211125 	
O	  0.029913834776 	  3.980000000000 	  2.086682211125 	
O	  1.029913834776 	  3.980000000000 	  5.066682211125 	
O	  4.009913834776 	  0.000000000000 	  2.086682211125 	
O	  5.009913834776 	  0.000000000000 	  5.066682211125 	
O	  4.009913834776 	  3.980000000000 	  2.086682211125 	
O	  5.009913834776 	  3.980000000000 	  5.066682211125 	
O	  2.170440948499 	  2.077289267005 	  2.086682211125 	
O	  3.170440948499 	  2.077289267005 	  5.066682211125 	
O	  2.170440948499 	  6.057289267005 	  2.086682211125 	
O	  3.170440948499 	  6.057289267005 	  5.066682211125 	
O	  6.150440948499 	  2.077289267005 	  2.086682211125 	
O	  7.150440948499 	  2.077289267005 	  5.066682211125 	
O	  6.150440948499 	  6.057289267005 	  2.086682211125 	
O	  7.150440948499 	  6.057289267005 	  5.066682211125 	
64 
Energy: 0.0000000000000000e+00 
Mg	  0.000000000000 	  0.000000000000 	  0.000000000000 	
Mg	  1.000000000000 	  0.000000000000 	  2.980000000000 	
Mg	  0.000000000000 	  3.980000000000 	  0.000000000000 	
Mg	  1.000000000000 	  3.980000000000 	  2.980000000000 	
Mg	  3.980000000000 	  0.000000000000 	  0.000000000000 	
Mg	  4.980000000000 	  0.000000000000 	  2.980000000000 	
Mg	  3.980000000000 	  3.980000000000 	  0.000000000000 	
Mg	  4.980000000000 	  3.980000000000 	  2.980000000000 	
Mg	  2.125000000000 	  2.125000000000 	  0.000000000000 	
Mg	  3.125000000000 	  2.125000000000 	  2.980000000000 	
Mg	  2.125000000000 	  6.105000000000 	  0.000000000000 	
Mg	  3.125000000000 	  6.105000000000 	  2.980000000000 	
Mg	  6.105000000000 	  2.125000000000 	  0.000000000000 	
Mg	  7.105000000000 	  2.125000000000 	  2.980000000000 	
Mg	  6.105000000000 	  6.105000000000 	  0.000000000000 	
Mg	  7.105000000000 	  6.105000000000 	  2.980000000000 	
Mg	  2.125000000000 	  0.000000000000 	  2.125000000000 	
Mg	  3.125000000000 	  0.000000000000 	  5.105000000000 	
Mg	  2.125000000000 	  3.980000000000 	  2.125000000000 	
Mg	  3.125000000000 	  3.980000000000 	  5.105000000000 	
Mg	  6.105000000000 	  0.000000000000 	  2.125000000000 	
Mg	  7.105000000000 	  0.000000000000 	  5.105000000000 	
Mg	  6.105000000000 	  3.980000000000 	  2.125000000000 	
Mg	  7.105000000000 	  3.980000000000 	  5.105000000000 	
Mg	  0.000000000000 	  2.125000000000 	  2.125000000000 	
Mg	  1.000000000000 	  2.125000000000 	  5.105000000000 	
Mg	  0.000000000000 	  6.105000000000 	  2.125000000000 	
Mg	  1.000000000000 	  6.105000000000 	  5.105000000000 	
Mg	  3.980000000000 	  2.125000000000 	  2.125000000000 	
Mg	  4.980000000000 	  2.125000000000 	  5.105000000000 	
Mg	  3.980000000000 	  6.105000000000 	  2.125000000000 	
Mg	  4.980000000000 	  6.105000000000 	  5.105000000000 	
O	  2.125000000000 	  0.000000000000 	  0.000000000000 	
O	  3.125000000000 	  0.000000000000 	  2.980000000000 	
O	  2.125000000000 	  3.980000000000 	  0.000000000000 	
O	  3.125000000000 	  3.980000000000 	  2.980000000000 	
O	  6.105000000000 	  0.000000000000 	  0.000000000000 	
O	  7.105000000000 	  0.000000000000 	  2.980000000000 	
O	  6.105000000000 	  3.980000000000 	  0.000000000000 	
O	  7.105000000000 	  3.980000000000 	  2.980000000000 	
O	  0.000000000000 	  2.125000000000 	  0.000000000000 	
O	  1.000000000000 	  2.125000000000 	  2.980000000000 	
O	  0.000000000000 	  6.105000000000 	  0.000000000000 	
O	  1.000000000000 	  6.105000000000 	  2.980000000000 	
O	  3.980000000000 	  2.125000000000 	  0.000000000000 	
O	  4.980000000000 	  2.125000000000 	  2.980000000000 	
O	  3.980000000000 	  6.105000000000 	  0.000000000000 	
O	  4.980000000000 	  6.105000000000 	  2.980000000000 	
O	  0.000000000000 	  0.000000000000 	  2.125000000000 	
O	  1.000000000000 	  0.000000000000 	  5.105000000000 	
O	  0.000000000000 	  3.980000000000 	  2.125000000000 	
O	  1.000000000000 	  3.980000000000 	  5.105000000000 	
O	  3.980000000000 	  0.000000000000 	  2.125000000000 	
O	  4.980000000000 	  0.000000000000 	  5.105000000000 	
O	  3.980000000000 	  3.980000000000 	  2.125000000000 	
O	  4.980000000000 	  3.980000000000 	  5.105000000000 	
O	  2.125000000000 	  2.125000000000 	  2.125000000000 	
O	  3.125000000000 	  2.125000000000 	  5.105000000000 	
O	  2.125000000000 	  6.105000000000 	  2.125000000000 	
O	  3.125000000000 	  6.105000000000 	  5.105000000000 	
O	  6.105000000000 	  2.125000000000 	  2.125000000000 	
O	  7.105000000000 	  2.125000000000 	  5.105000000000 	
O	  6.105000000000 	  6.105000000000 	  2.125000000000 	
O	  7.105000000000 	  6.105000000000 	  5.105000000000 	
