  Invoking FHI-aims ...
  | Number of atoms                   :  96
  ...scf iterations...
  | Total energy corrected        :   -9.154275575864E+01 eV
  ...
  Total atomic forces (unitary forces cleaned)
     1  -2.7731923371E-01  6.0694558503E-01  1.9231602148E-01
     2  2.1189436930E-01  5.6648155903E-01  -1.9320538006E-01
     3  2.7731932792E-01  -6.0694549747E-01  -1.9231594429E-01
     4  -2.1189422910E-01  -5.6648133362E-01  1.9320544085E-01
     5  -7.8528330302E-01  1.6819802610E+00  2.9247538145E-01
     6  8.1931557983E-01  9.5428492386E-01  -9.9441695184E-02
     7  7.8528353240E-01  -1.6819801206E+00  -2.9247508415E-01
     8  -8.1931588019E-01  -9.5428504837E-01  9.9441996342E-02
     9  -3.6909207171E-01  2.5426759072E-01  -1.8728361918E-01
    10  9.7134439095E-01  6.7150276712E-01  1.6417294320E-01
    11  3.6909172522E-01  -2.5426722950E-01  1.8728333955E-01
    12  -9.7134462677E-01  -6.7150293194E-01  -1.6417257043E-01
    13  -5.2255816898E-01  -1.0040327250E+00  -1.0908017252E+00
    14  -7.9778719197E-02  -1.4583813214E+00  1.1487478352E+00
    15  5.2255758161E-01  1.0040328293E+00  1.0908014209E+00
    16  7.9778478098E-02  1.4583815940E+00  -1.1487471463E+00
    17  4.0395875842E-01  -5.4587563813E-01  -4.2912150242E-02
    18  -2.7543517017E-01  -6.6968061467E-01  4.8885894194E-01
    19  -4.0395782748E-01  5.4587555315E-01  4.2912725480E-02
    20  2.7543484511E-01  6.6968048717E-01  -4.8885927589E-01
    21  6.4756887974E-01  -1.2413928927E+00  -2.4640707578E-01
    22  -6.5256110237E-01  -1.3184080664E+00  3.0044927347E-01
    23  -6.4756946152E-01  1.2413934267E+00  2.4640651270E-01
    24  6.5256091822E-01  1.3184083090E+00  -3.0044958095E-01
    25  9.0802711471E-01  2.2527924398E-02  7.7410203366E-01
    26  -1.0111793376E+00  1.5856662483E-01  -1.2051491419E+00
    27  -9.0802719848E-01  -2.2528449862E-02  -7.7410236331E-01
    28  1.0111804826E+00  -1.5856637131E-01  1.2051487188E+00
    29  4.7421004755E-01  3.1204691983E-01  5.9260637253E-01
    30  -4.5509282559E-01  3.5434462338E-01  -6.1386631882E-01
    31  -4.7420993236E-01  -3.1204683431E-01  -5.9260633022E-01
    32  4.5509238599E-01  -3.5434469067E-01  6.1386592470E-01
    33  1.9383051852E-01  1.0907907175E+00  9.5157329943E-01
    34  -1.6835651014E-01  1.1331599664E+00  -9.0989742503E-01
    35  -1.9383055955E-01  -1.0907911291E+00  -9.5157310707E-01
    36  1.6835689034E-01  -1.1331603863E+00  9.0989727442E-01
    37  -6.8349391988E-01  4.8435641429E-01  -2.3262240277E-01
    38  7.0131024632E-01  5.2379297807E-01  2.1137707849E-01
    39  6.8349399693E-01  -4.8435667639E-01  2.3262238793E-01
    40  -7.0131026253E-01  -5.2379317508E-01  -2.1137667767E-01
    41  -8.9387773054E-01  1.2105812652E+00  8.3098165652E-02
    42  8.9857891580E-01  1.2216323636E+00  -7.9434268322E-02
    43  8.9387765761E-01  -1.2105811687E+00  -8.3097866919E-02
    44  -8.9857866247E-01  -1.2216320571E+00  7.9434474325E-02
    45  -1.7277087775E+00  1.4185758193E-01  -1.1296288241E+00
    46  -3.8449516345E-01  -4.2111253205E+00  9.2664656490E-01
    47  1.7277176785E+00  -1.4185572287E-01  1.1296355408E+00
    48  3.8449298692E-01  4.2111229844E+00  -9.2664793441E-01
    49  -1.8388942725E+00  9.1015490141E-01  2.1801915470E+00
    50  2.0943435526E+00  5.7532511520E+00  -6.1277086765E+00
    51  1.8388621803E+00  -9.1013476868E-01  -2.1801833473E+00
    52  -2.0943441437E+00  -5.7532515881E+00  6.1277119979E+00
    53  -4.8454970090E-01  -6.0606105155E-01  6.1798578934E-02
    54  4.6089256866E-01  -1.0766626797E+00  -8.2484088861E-02
    55  4.8456700050E-01  6.0606758230E-01  -6.1808938234E-02
    56  -4.6088870058E-01  1.0766606960E+00  8.2482418532E-02
    57  1.3468670794E+00  -2.2349973479E-01  1.2684030526E+00
    58  1.0804517667E+00  6.7798541102E-03  1.3560500939E+00
    59  -1.3468638150E+00  2.2349798338E-01  -1.2683991987E+00
    60  -1.0804541418E+00  -6.7803485412E-03  -1.3560506817E+00
    61  -1.5724099975E-02  8.0700536589E-01  -3.9818703945E-02
    62  -2.6628865097E+00  -3.6243193944E+00  1.4824650695E+00
    63  1.5736878411E-02  -8.0702827044E-01  3.9809616043E-02
    64  2.6628867369E+00  3.6243208544E+00  -1.4824637927E+00
    65  3.9862442761E-01  -1.7499338302E+00  1.7933933176E-02
    66  2.7710587487E+00  3.1161310658E+00  -9.9956948607E-01
    67  -3.9863595875E-01  1.7499280232E+00  -1.7939729393E-02
    68  -2.7710563394E+00  -3.1161301116E+00  9.9957068623E-01
    69  -1.0190648747E+00  -9.2201643059E-01  5.9959448844E-01
    70  9.1123484448E-01  -6.8532504510E-01  -5.6641293211E-01
    71  1.0190698218E+00  9.2202482620E-01  -5.9959455230E-01
    72  -9.1123531609E-01  6.8532587883E-01  5.6641344428E-01
    73  6.8560687633E-01  -4.2728196046E-01  -1.5560554401E+00
    74  -1.0440717917E+00  -1.2696026868E+00  2.7885596313E+00
    75  -6.8560850381E-01  4.2728317277E-01  1.5560619996E+00
    76  1.0440702541E+00  1.2696039417E+00  -2.7885607161E+00
    77  1.2399478412E+00  -3.4657092472E-01  8.3058819009E-01
    78  -1.7620874645E+00  -6.2774985796E-01  -1.2119253622E+00
    79  -1.2399448674E+00  3.4656924550E-01  -8.3058714703E-01
    80  1.7620880442E+00  6.2774997229E-01  1.2119245609E+00
    81  9.1586731620E-01  2.0268655596E+00  -1.0866169874E+00
    82  -9.4662950028E-01  2.0853182872E+00  1.1616678924E+00
    83  -9.1587646199E-01  -2.0268506635E+00  1.0865969266E+00
    84  9.4663106849E-01  -2.0853169752E+00  -1.1616728645E+00
    85  1.4852287883E+00  3.4469906161E-02  7.4925018239E-01
    86  -1.5202512251E+00  4.4277275989E-02  -7.0640831275E-01
    87  -1.4852250186E+00  -3.4469578440E-02  -7.4924850942E-01
    88  1.5202509828E+00  -4.4277321520E-02  7.0640818828E-01
    89  2.9637105830E-01  -4.2120954395E-01  -1.3137776188E+00
    90  -3.1228146547E-01  -3.9881853632E-01  1.3674603619E+00
    91  -2.9637413770E-01  4.2120686362E-01  1.3137916388E+00
    92  3.1228017257E-01  3.9881921939E-01  -1.3674563246E+00
    93  -3.0942451574E-01  6.8796272537E-01  1.8191776057E-01
    94  2.9512604975E-01  7.5247738654E-01  -1.5237678812E-01
    95  3.0942843422E-01  -6.8798167383E-01  -1.8191488304E-01
    96  -2.9512630170E-01  -7.5247861160E-01  1.5237706267E-01
  Stress tensor (eV/A^3):
  8.6141205016E-02  -8.3261246223E-03  2.5799615320E-02
  -8.3261246223E-03  7.8648560035E-02  6.2043787333E-04
  2.5799615320E-02  6.2043787333E-04  8.6958462741E-02
