64 
Energy: 2.7624476104920337e+00 
Mg	  0.000000000000 	  0.000000000000 	  0.000000000000 	
Mg	  1.000000000000 	  0.000000000000 	  2.980000000000 	
Mg	  0.000000000000 	  3.980000000000 	  0.000000000000 	
Mg	  1.000000000000 	  3.980000000000 	  2.980000000000 	
Mg	  3.980000000000 	  0.000000000000 	  0.000000000000 	
Mg	  4.980000000000 	  0.000000000000 	  2.980000000000 	
Mg	  3.980000000000 	  3.980000000000 	  0.000000000000 	
Mg	  4.980000000000 	  3.980000000000 	  2.980000000000 	
Mg	  1.710243837322 	  1.803495891548 	  0.000000000000 	
Mg	  2.710243837322 	  1.803495891548 	  2.980000000000 	
Mg	  1.710243837322 	  5.783495891548 	  0.000000000000 	
Mg	  2.710243837322 	  5.783495891548 	  2.980000000000 	
Mg	  5.690243837322 	  1.803495891548 	  0.000000000000 	
Mg	  6.690243837322 	  1.803495891548 	  2.980000000000 	
Mg	  5.690243837322 	  5.783495891548 	  0.000000000000 	
Mg	  6.690243837322 	  5.783495891548 	  2.980000000000 	
Mg	  2.456260271131 	  0.000000000000 	  1.523739728869 	
Mg	  3.456260271131 	  0.000000000000 	  4.503739728869 	
Mg	  2.456260271131 	  3.980000000000 	  1.523739728869 	
Mg	  3.456260271131 	  3.980000000000 	  4.503739728869 	
Mg	  6.436260271131 	  0.000000000000 	  1.523739728869 	
Mg	  7.436260271131 	  0.000000000000 	  4.503739728869 	
Mg	  6.436260271131 	  3.980000000000 	  1.523739728869 	
Mg	  7.436260271131 	  3.980000000000 	  4.503739728869 	
Mg	  0.466260271131 	  1.990000000000 	  1.523739728869 	
Mg	  1.466260271131 	  1.990000000000 	  4.503739728869 	
Mg	  0.466260271131 	  5.970000000000 	  1.523739728869 	
Mg	  1.466260271131 	  5.970000000000 	  4.503739728869 	
Mg	  4.446260271131 	  1.990000000000 	  1.523739728869 	
Mg	  5.446260271131 	  1.990000000000 	  4.503739728869 	
Mg	  4.446260271131 	  5.970000000000 	  1.523739728869 	
Mg	  5.446260271131 	  5.970000000000 	  4.503739728869 	
O	  1.990000000000 	  0.000000000000 	  0.000000000000 	
O	  2.990000000000 	  0.000000000000 	  2.980000000000 	
O	  1.990000000000 	  3.980000000000 	  0.000000000000 	
O	  2.990000000000 	  3.980000000000 	  2.980000000000 	
O	  5.970000000000 	  0.000000000000 	  0.000000000000 	
O	  6.970000000000 	  0.000000000000 	  2.980000000000 	
O	  5.970000000000 	  3.980000000000 	  0.000000000000 	
O	  6.970000000000 	  3.980000000000 	  2.980000000000 	
O	  0.000000000000 	  1.990000000000 	  0.000000000000 	
O	  1.000000000000 	  1.990000000000 	  2.980000000000 	
O	  0.000000000000 	  5.970000000000 	  0.000000000000 	
O	  1.000000000000 	  5.970000000000 	  2.980000000000 	
O	  3.980000000000 	  1.990000000000 	  0.000000000000 	
O	  4.980000000000 	  1.990000000000 	  2.980000000000 	
O	  3.980000000000 	  5.970000000000 	  0.000000000000 	
O	  4.980000000000 	  5.970000000000 	  2.980000000000 	
O	  0.466260271131 	  0.000000000000 	  1.523739728869 	
O	  1.466260271131 	  0.000000000000 	  4.503739728869 	
O	  0.466260271131 	  3.980000000000 	  1.523739728869 	
O	  1.466260271131 	  3.980000000000 	  4.503739728869 	
O	  4.446260271131 	  0.000000000000 	  1.523739728869 	
O	  5.446260271131 	  0.000000000000 	  4.503739728869 	
O	  4.446260271131 	  3.980000000000 	  1.523739728869 	
O	  5.446260271131 	  3.980000000000 	  4.503739728869 	
O	  2.829268488035 	  1.377334003734 	  1.523739728869 	
O	  3.829268488035 	  1.377334003734 	  4.503739728869 	
O	  2.829268488035 	  5.357334003734 	  1.523739728869 	
O	  3.829268488035 	  5.357334003734 	  4.503739728869 	
O	  6.809268488035 	  1.377334003734 	  1.523739728869 	
O	  7.809268488035 	  1.377334003734 	  4.503739728869 	
O	  6.809268488035 	  5.357334003734 	  1.523739728869 	
O	  7.809268488035 	  5.357334003734 	  4.503739728869 	
64 
Energy: 2.7778060316720188e+00 
Mg	  0.000000000000 	  0.000000000000 	  0.000000000000 	
Mg	  1.000000000000 	  0.000000000000 	  2.980000000000 	
Mg	  0.000000000000 	  3.980000000000 	  0.000000000000 	
Mg	  1.000000000000 	  3.980000000000 	  2.980000000000 	
Mg	  3.980000000000 	  0.000000000000 	  0.000000000000 	
Mg	  4.980000000000 	  0.000000000000 	  2.980000000000 	
Mg	  3.980000000000 	  3.980000000000 	  0.000000000000 	
Mg	  4.980000000000 	  3.980000000000 	  2.980000000000 	
Mg	  1.735899384101 	  1.823442787954 	  0.000000000000 	
Mg	  2.735899384101 	  1.823442787954 	  2.980000000000 	
Mg	  1.735899384101 	  5.803442787954 	  0.000000000000 	
Mg	  2.735899384101 	  5.803442787954 	  2.980000000000 	
Mg	  5.715899384101 	  1.823442787954 	  0.000000000000 	
Mg	  6.715899384101 	  1.823442787954 	  2.980000000000 	
Mg	  5.715899384101 	  5.803442787954 	  0.000000000000 	
Mg	  6.715899384101 	  5.803442787954 	  2.980000000000 	
Mg	  2.436246614929 	  0.000000000000 	  1.560812576394 	
Mg	  3.436246614929 	  0.000000000000 	  4.540812576394 	
Mg	  2.436246614929 	  3.980000000000 	  1.560812576394 	
Mg	  3.436246614929 	  3.980000000000 	  4.540812576394 	
Mg	  6.416246614929 	  0.000000000000 	  1.560812576394 	
Mg	  7.416246614929 	  0.000000000000 	  4.540812576394 	
Mg	  6.416246614929 	  3.980000000000 	  1.560812576394 	
Mg	  7.416246614929 	  3.980000000000 	  4.540812576394 	
Mg	  0.437717019268 	  1.998529595661 	  1.560812576394 	
Mg	  1.437717019268 	  1.998529595661 	  4.540812576394 	
Mg	  0.437717019268 	  5.978529595661 	  1.560812576394 	
Mg	  1.437717019268 	  5.978529595661 	  4.540812576394 	
Mg	  4.417717019268 	  1.998529595661 	  1.560812576394 	
Mg	  5.417717019268 	  1.998529595661 	  4.540812576394 	
Mg	  4.417717019268 	  5.978529595661 	  1.560812576394 	
Mg	  5.417717019268 	  5.978529595661 	  4.540812576394 	
O	  1.998529595661 	  0.000000000000 	  0.000000000000 	
O	  2.998529595661 	  0.000000000000 	  2.980000000000 	
O	  1.998529595661 	  3.980000000000 	  0.000000000000 	
O	  2.998529595661 	  3.980000000000 	  2.980000000000 	
O	  5.978529595661 	  0.000000000000 	  0.000000000000 	
O	  6.978529595661 	  0.000000000000 	  2.980000000000 	
O	  5.978529595661 	  3.980000000000 	  0.000000000000 	
O	  6.978529595661 	  3.980000000000 	  2.980000000000 	
O	  0.000000000000 	  1.998529595661 	  0.000000000000 	
O	  1.000000000000 	  1.998529595661 	  2.980000000000 	
O	  0.000000000000 	  5.978529595661 	  0.000000000000 	
O	  1.000000000000 	  5.978529595661 	  2.980000000000 	
O	  3.980000000000 	  1.998529595661 	  0.000000000000 	
O	  4.980000000000 	  1.998529595661 	  2.980000000000 	
O	  3.980000000000 	  5.978529595661 	  0.000000000000 	
O	  4.980000000000 	  5.978529595661 	  2.980000000000 	
O	  0.437717019268 	  0.000000000000 	  1.560812576394 	
O	  1.437717019268 	  0.000000000000 	  4.540812576394 	
O	  0.437717019268 	  3.980000000000 	  1.560812576394 	
O	  1.437717019268 	  3.980000000000 	  4.540812576394 	
O	  4.417717019268 	  0.000000000000 	  1.560812576394 	
O	  5.417717019268 	  0.000000000000 	  4.540812576394 	
O	  4.417717019268 	  3.980000000000 	  1.560812576394 	
O	  5.417717019268 	  3.980000000000 	  4.540812576394 	
O	  2.786420230344 	  1.423369432344 	  1.560812576394 	
O	  3.786420230344 	  1.423369432344 	  4.540812576394 	
O	  2.786420230344 	  5.403369432344 	  1.560812576394 	
O	  3.786420230344 	  5.403369432344 	  4.540812576394 	
O	  6.766420230344 	  1.423369432344 	  1.560812576394 	
O	  7.766420230344 	  1.423369432344 	  4.540812576394 	
O	  6.766420230344 	  5.403369432344 	  1.560812576394 	
O	  7.766420230344 	  5.403369432344 	  4.540812576394 	
64 
Energy: 3.2063801415271018e+00 
Mg	  0.000000000000 	  0.000000000000 	  0.000000000000 	
Mg	  1.000000000000 	  0.000000000000 	  2.980000000000 	
Mg	  0.000000000000 	  3.980000000000 	  0.000000000000 	
Mg	  1.000000000000 	  3.980000000000 	  2.980000000000 	
Mg	  3.980000000000 	  0.000000000000 	  0.000000000000 	
Mg	  4.980000000000 	  0.000000000000 	  2.980000000000 	
Mg	  3.980000000000 	  3.980000000000 	  0.000000000000 	
Mg	  4.980000000000 	  3.980000000000 	  2.980000000000 	
Mg	  1.761779674128 	  1.843495241265 	  0.000000000000 	
Mg	  2.761779674128 	  1.843495241265 	  2.980000000000 	
Mg	  1.761779674128 	  5.823495241265 	  0.000000000000 	
Mg	  2.761779674128 	  5.823495241265 	  2.980000000000 	
Mg	  5.741779674128 	  1.843495241265 	  0.000000000000 	
Mg	  6.741779674128 	  1.843495241265 	  2.980000000000 	
Mg	  5.741779674128 	  5.823495241265 	  0.000000000000 	
Mg	  6.741779674128 	  5.823495241265 	  2.980000000000 	
Mg	  2.415504211229 	  0.000000000000 	  1.598348539852 	
Mg	  3.415504211229 	  0.000000000000 	  4.578348539852 	
Mg	  2.415504211229 	  3.980000000000 	  1.598348539852 	
Mg	  3.415504211229 	  3.980000000000 	  4.578348539852 	
Mg	  6.395504211229 	  0.000000000000 	  1.598348539852 	
Mg	  7.395504211229 	  0.000000000000 	  4.578348539852 	
Mg	  6.395504211229 	  3.980000000000 	  1.598348539852 	
Mg	  7.395504211229 	  3.980000000000 	  4.578348539852 	
Mg	  0.408577835688 	  2.006926375541 	  1.598348539852 	
Mg	  1.408577835688 	  2.006926375541 	  4.578348539852 	
Mg	  0.408577835688 	  5.986926375541 	  1.598348539852 	
Mg	  1.408577835688 	  5.986926375541 	  4.578348539852 	
Mg	  4.388577835688 	  2.006926375541 	  1.598348539852 	
Mg	  5.388577835688 	  2.006926375541 	  4.578348539852 	
Mg	  4.388577835688 	  5.986926375541 	  1.598348539852 	
Mg	  5.388577835688 	  5.986926375541 	  4.578348539852 	
O	  2.006926375541 	  0.000000000000 	  0.000000000000 	
O	  3.006926375541 	  0.000000000000 	  2.980000000000 	
O	  2.006926375541 	  3.980000000000 	  0.000000000000 	
O	  3.006926375541 	  3.980000000000 	  2.980000000000 	
O	  5.986926375541 	  0.000000000000 	  0.000000000000 	
O	  6.986926375541 	  0.000000000000 	  2.980000000000 	
O	  5.986926375541 	  3.980000000000 	  0.000000000000 	
O	  6.986926375541 	  3.980000000000 	  2.980000000000 	
O	  0.000000000000 	  2.006926375541 	  0.000000000000 	
O	  1.000000000000 	  2.006926375541 	  2.980000000000 	
O	  0.000000000000 	  5.986926375541 	  0.000000000000 	
O	  1.000000000000 	  5.986926375541 	  2.980000000000 	
O	  3.980000000000 	  2.006926375541 	  0.000000000000 	
O	  4.980000000000 	  2.006926375541 	  2.980000000000 	
O	  3.980000000000 	  5.986926375541 	  0.000000000000 	
O	  4.980000000000 	  5.986926375541 	  2.980000000000 	
O	  0.408577835688 	  0.000000000000 	  1.598348539852 	
O	  1.408577835688 	  0.000000000000 	  4.578348539852 	
O	  0.408577835688 	  3.980000000000 	  1.598348539852 	
O	  1.408577835688 	  3.980000000000 	  4.578348539852 	
O	  4.388577835688 	  0.000000000000 	  1.598348539852 	
O	  5.388577835688 	  0.000000000000 	  4.578348539852 	
O	  4.388577835688 	  3.980000000000 	  1.598348539852 	
O	  5.388577835688 	  3.980000000000 	  4.578348539852 	
O	  2.742366479779 	  1.470055099446 	  1.598348539852 	
O	  3.742366479779 	  1.470055099446 	  4.578348539852 	
O	  2.742366479779 	  5.450055099446 	  1.598348539852 	
O	  3.742366479779 	  5.450055099446 	  4.578348539852 	
O	  6.722366479779 	  1.470055099446 	  1.598348539852 	
O	  7.722366479779 	  1.470055099446 	  4.578348539852 	
O	  6.722366479779 	  5.450055099446 	  1.598348539852 	
O	  7.722366479779 	  5.450055099446 	  4.578348539852 	
64 
Energy: 3.8367051582187122e+00 
Mg	  0.000000000000 	  0.000000000000 	  0.000000000000 	
Mg	  1.000000000000 	  0.000000000000 	  2.980000000000 	
Mg	  0.000000000000 	  3.980000000000 	  0.000000000000 	
Mg	  1.000000000000 	  3.980000000000 	  2.980000000000 	
Mg	  3.980000000000 	  0.000000000000 	  0.000000000000 	
Mg	  4.980000000000 	  0.000000000000 	  2.980000000000 	
Mg	  3.980000000000 	  3.980000000000 	  0.000000000000 	
Mg	  4.980000000000 	  3.980000000000 	  2.980000000000 	
Mg	  1.787692701040 	  1.863576352219 	  0.000000000000 	
Mg	  2.787692701040 	  1.863576352219 	  2.980000000000 	
Mg	  1.787692701040 	  5.843576352219 	  0.000000000000 	
Mg	  2.787692701040 	  5.843576352219 	  2.980000000000 	
Mg	  5.767692701040 	  1.863576352219 	  0.000000000000 	
Mg	  6.767692701040 	  1.863576352219 	  2.980000000000 	
Mg	  5.767692701040 	  5.843576352219 	  0.000000000000 	
Mg	  6.767692701040 	  5.843576352219 	  2.980000000000 	
Mg	  2.394761910474 	  0.000000000000 	  1.635925398681 	
Mg	  3.394761910474 	  0.000000000000 	  4.615925398681 	
Mg	  2.394761910474 	  3.980000000000 	  1.635925398681 	
Mg	  3.394761910474 	  3.980000000000 	  4.615925398681 	
Mg	  6.374761910474 	  0.000000000000 	  1.635925398681 	
Mg	  7.374761910474 	  0.000000000000 	  4.615925398681 	
Mg	  6.374761910474 	  3.980000000000 	  1.635925398681 	
Mg	  7.374761910474 	  3.980000000000 	  4.615925398681 	
Mg	  0.379418255896 	  2.015343654577 	  1.635925398681 	
Mg	  1.379418255896 	  2.015343654577 	  4.615925398681 	
Mg	  0.379418255896 	  5.995343654577 	  1.635925398681 	
Mg	  1.379418255896 	  5.995343654577 	  4.615925398681 	
Mg	  4.359418255896 	  2.015343654577 	  1.635925398681 	
Mg	  5.359418255896 	  2.015343654577 	  4.615925398681 	
Mg	  4.359418255896 	  5.995343654577 	  1.635925398681 	
Mg	  5.359418255896 	  5.995343654577 	  4.615925398681 	
O	  2.015343654577 	  0.000000000000 	  0.000000000000 	
O	  3.015343654577 	  0.000000000000 	  2.980000000000 	
O	  2.015343654577 	  3.980000000000 	  0.000000000000 	
O	  3.015343654577 	  3.980000000000 	  2.980000000000 	
O	  5.995343654577 	  0.000000000000 	  0.000000000000 	
O	  6.995343654577 	  0.000000000000 	  2.980000000000 	
O	  5.995343654577 	  3.980000000000 	  0.000000000000 	
O	  6.995343654577 	  3.980000000000 	  2.980000000000 	
O	  0.000000000000 	  2.015343654577 	  0.000000000000 	
O	  1.000000000000 	  2.015343654577 	  2.980000000000 	
O	  0.000000000000 	  5.995343654577 	  0.000000000000 	
O	  1.000000000000 	  5.995343654577 	  2.980000000000 	
O	  3.980000000000 	  2.015343654577 	  0.000000000000 	
O	  4.980000000000 	  2.015343654577 	  2.980000000000 	
O	  3.980000000000 	  5.995343654577 	  0.000000000000 	
O	  4.980000000000 	  5.995343654577 	  2.980000000000 	
O	  0.379418255896 	  0.000000000000 	  1.635925398681 	
O	  1.379418255896 	  0.000000000000 	  4.615925398681 	
O	  0.379418255896 	  3.980000000000 	  1.635925398681 	
O	  1.379418255896 	  3.980000000000 	  4.615925398681 	
O	  4.359418255896 	  0.000000000000 	  1.635925398681 	
O	  5.359418255896 	  0.000000000000 	  4.615925398681 	
O	  4.359418255896 	  3.980000000000 	  1.635925398681 	
O	  5.359418255896 	  3.980000000000 	  4.615925398681 	
O	  2.698296515191 	  1.516788066330 	  1.635925398681 	
O	  3.698296515191 	  1.516788066330 	  4.615925398681 	
O	  2.698296515191 	  5.496788066330 	  1.635925398681 	
O	  3.698296515191 	  5.496788066330 	  4.615925398681 	
O	  6.678296515191 	  1.516788066330 	  1.635925398681 	
O	  7.678296515191 	  1.516788066330 	  4.615925398681 	
O	  6.678296515191 	  5.496788066330 	  1.635925398681 	
O	  7.678296515191 	  5.496788066330 	  4.615925398681 	
64 
Energy: 4.5055370976009064e+00 
Mg	  0.000000000000 	  0.000000000000 	  0.000000000000 	
Mg	  1.000000000000 	  0.000000000000 	  2.980000000000 	
Mg	  0.000000000000 	  3.980000000000 	  0.000000000000 	
Mg	  1.000000000000 	  3.980000000000 	  2.980000000000 	
Mg	  3.980000000000 	  0.000000000000 	  0.000000000000 	
Mg	  4.980000000000 	  0.000000000000 	  2.980000000000 	
Mg	  3.980000000000 	  3.980000000000 	  0.000000000000 	
Mg	  4.980000000000 	  3.980000000000 	  2.980000000000 	
Mg	  1.813638227468 	  1.883683693820 	  0.000000000000 	
Mg	  2.813638227468 	  1.883683693820 	  2.980000000000 	
Mg	  1.813638227468 	  5.863683693820 	  0.000000000000 	
Mg	  2.813638227468 	  5.863683693820 	  2.980000000000 	
Mg	  5.793638227468 	  1.883683693820 	  0.000000000000 	
Mg	  6.793638227468 	  1.883683693820 	  2.980000000000 	
Mg	  5.793638227468 	  5.863683693820 	  0.000000000000 	
Mg	  6.793638227468 	  5.863683693820 	  2.980000000000 	
Mg	  2.374001958286 	  0.000000000000 	  1.673547294763 	
Mg	  3.374001958286 	  0.000000000000 	  4.653547294763 	
Mg	  2.374001958286 	  3.980000000000 	  1.673547294763 	
Mg	  3.374001958286 	  3.980000000000 	  4.653547294763 	
Mg	  6.354001958286 	  0.000000000000 	  1.673547294763 	
Mg	  7.354001958286 	  0.000000000000 	  4.653547294763 	
Mg	  6.354001958286 	  3.980000000000 	  1.673547294763 	
Mg	  7.354001958286 	  3.980000000000 	  4.653547294763 	
Mg	  0.350227331761 	  2.023774626524 	  1.673547294763 	
Mg	  1.350227331761 	  2.023774626524 	  4.653547294763 	
Mg	  0.350227331761 	  6.003774626524 	  1.673547294763 	
Mg	  1.350227331761 	  6.003774626524 	  4.653547294763 	
Mg	  4.330227331761 	  2.023774626524 	  1.673547294763 	
Mg	  5.330227331761 	  2.023774626524 	  4.653547294763 	
Mg	  4.330227331761 	  6.003774626524 	  1.673547294763 	
Mg	  5.330227331761 	  6.003774626524 	  4.653547294763 	
O	  2.023774626524 	  0.000000000000 	  0.000000000000 	
O	  3.023774626524 	  0.000000000000 	  2.980000000000 	
O	  2.023774626524 	  3.980000000000 	  0.000000000000 	
O	  3.023774626524 	  3.980000000000 	  2.980000000000 	
O	  6.003774626524 	  0.000000000000 	  0.000000000000 	
O	  7.003774626524 	  0.000000000000 	  2.980000000000 	
O	  6.003774626524 	  3.980000000000 	  0.000000000000 	
O	  7.003774626524 	  3.980000000000 	  2.980000000000 	
O	  0.000000000000 	  2.023774626524 	  0.000000000000 	
O	  1.000000000000 	  2.023774626524 	  2.980000000000 	
O	  0.000000000000 	  6.003774626524 	  0.000000000000 	
O	  1.000000000000 	  6.003774626524 	  2.980000000000 	
O	  3.980000000000 	  2.023774626524 	  0.000000000000 	
O	  4.980000000000 	  2.023774626524 	  2.980000000000 	
O	  3.980000000000 	  6.003774626524 	  0.000000000000 	
O	  4.980000000000 	  6.003774626524 	  2.980000000000 	
O	  0.350227331761 	  0.000000000000 	  1.673547294763 	
O	  1.350227331761 	  0.000000000000 	  4.653547294763 	
O	  0.350227331761 	  3.980000000000 	  1.673547294763 	
O	  1.350227331761 	  3.980000000000 	  4.653547294763 	
O	  4.330227331761 	  0.000000000000 	  1.673547294763 	
O	  5.330227331761 	  0.000000000000 	  4.653547294763 	
O	  4.330227331761 	  3.980000000000 	  1.673547294763 	
O	  5.330227331761 	  3.980000000000 	  4.653547294763 	
O	  2.654183823695 	  1.563575912590 	  1.673547294763 	
O	  3.654183823695 	  1.563575912590 	  4.653547294763 	
O	  2.654183823695 	  5.543575912590 	  1.673547294763 	
O	  3.654183823695 	  5.543575912590 	  4.653547294763 	
O	  6.634183823695 	  1.563575912590 	  1.673547294763 	
O	  7.634183823695 	  1.563575912590 	  4.653547294763 	
O	  6.634183823695 	  5.543575912590 	  1.673547294763 	
O	  7.634183823695 	  5.543575912590 	  4.653547294763 	
64 
Energy: 5.0955435964179214e+00 
Mg	  0.000000000000 	  0.000000000000 	  0.000000000000 	
Mg	  1.000000000000 	  0.000000000000 	  2.980000000000 	
Mg	  0.000000000000 	  3.980000000000 	  0.000000000000 	
Mg	  1.000000000000 	  3.980000000000 	  2.980000000000 	
Mg	  3.980000000000 	  0.000000000000 	  0.000000000000 	
Mg	  4.980000000000 	  0.000000000000 	  2.980000000000 	
Mg	  3.980000000000 	  3.980000000000 	  0.000000000000 	
Mg	  4.980000000000 	  3.980000000000 	  2.980000000000 	
Mg	  1.839604523907 	  1.903808579039 	  0.000000000000 	
Mg	  2.839604523907 	  1.903808579039 	  2.980000000000 	
Mg	  1.839604523907 	  5.883808579039 	  0.000000000000 	
Mg	  2.839604523907 	  5.883808579039 	  2.980000000000 	
Mg	  5.819604523907 	  1.903808579039 	  0.000000000000 	
Mg	  6.819604523907 	  1.903808579039 	  2.980000000000 	
Mg	  5.819604523907 	  5.883808579039 	  0.000000000000 	
Mg	  6.819604523907 	  5.883808579039 	  2.980000000000 	
Mg	  2.353236964967 	  0.000000000000 	  1.711196413642 	
Mg	  3.353236964967 	  0.000000000000 	  4.691196413642 	
Mg	  2.353236964967 	  3.980000000000 	  1.711196413642 	
Mg	  3.353236964967 	  3.980000000000 	  4.691196413642 	
Mg	  6.333236964967 	  0.000000000000 	  1.711196413642 	
Mg	  7.333236964967 	  0.000000000000 	  4.691196413642 	
Mg	  6.333236964967 	  3.980000000000 	  1.711196413642 	
Mg	  7.333236964967 	  3.980000000000 	  4.691196413642 	
Mg	  0.321020275663 	  2.032216689304 	  1.711196413642 	
Mg	  1.321020275663 	  2.032216689304 	  4.691196413642 	
Mg	  0.321020275663 	  6.012216689304 	  1.711196413642 	
Mg	  1.321020275663 	  6.012216689304 	  4.691196413642 	
Mg	  4.301020275663 	  2.032216689304 	  1.711196413642 	
Mg	  5.301020275663 	  2.032216689304 	  4.691196413642 	
Mg	  4.301020275663 	  6.012216689304 	  1.711196413642 	
Mg	  5.301020275663 	  6.012216689304 	  4.691196413642 	
O	  2.032216689304 	  0.000000000000 	  0.000000000000 	
O	  3.032216689304 	  0.000000000000 	  2.980000000000 	
O	  2.032216689304 	  3.980000000000 	  0.000000000000 	
O	  3.032216689304 	  3.980000000000 	  2.980000000000 	
O	  6.012216689304 	  0.000000000000 	  0.000000000000 	
O	  7.012216689304 	  0.000000000000 	  2.980000000000 	
O	  6.012216689304 	  3.980000000000 	  0.000000000000 	
O	  7.012216689304 	  3.980000000000 	  2.980000000000 	
O	  0.000000000000 	  2.032216689304 	  0.000000000000 	
O	  1.000000000000 	  2.032216689304 	  2.980000000000 	
O	  0.000000000000 	  6.012216689304 	  0.000000000000 	
O	  1.000000000000 	  6.012216689304 	  2.980000000000 	
O	  3.980000000000 	  2.032216689304 	  0.000000000000 	
O	  4.980000000000 	  2.032216689304 	  2.980000000000 	
O	  3.980000000000 	  6.012216689304 	  0.000000000000 	
O	  4.980000000000 	  6.012216689304 	  2.980000000000 	
O	  0.321020275663 	  0.000000000000 	  1.711196413642 	
O	  1.321020275663 	  0.000000000000 	  4.691196413642 	
O	  0.321020275663 	  3.980000000000 	  1.711196413642 	
O	  1.321020275663 	  3.980000000000 	  4.691196413642 	
O	  4.301020275663 	  0.000000000000 	  1.711196413642 	
O	  5.301020275663 	  0.000000000000 	  4.691196413642 	
O	  4.301020275663 	  3.980000000000 	  1.711196413642 	
O	  5.301020275663 	  3.980000000000 	  4.691196413642 	
O	  2.610053185497 	  1.610396047084 	  1.711196413642 	
O	  3.610053185497 	  1.610396047084 	  4.691196413642 	
O	  2.610053185497 	  5.590396047084 	  1.711196413642 	
O	  3.610053185497 	  5.590396047084 	  4.691196413642 	
O	  6.590053185497 	  1.610396047084 	  1.711196413642 	
O	  7.590053185497 	  1.610396047084 	  4.691196413642 	
O	  6.590053185497 	  5.590396047084 	  1.711196413642 	
O	  7.590053185497 	  5.590396047084 	  4.691196413642 	
64 
Energy: 5.5233228546049666e+00 
Mg	  0.000000000000 	  0.000000000000 	  0.000000000000 	
Mg	  1.000000000000 	  0.000000000000 	  2.980000000000 	
Mg	  0.000000000000 	  3.980000000000 	  0.000000000000 	
Mg	  1.000000000000 	  3.980000000000 	  2.980000000000 	
Mg	  3.980000000000 	  0.000000000000 	  0.000000000000 	
Mg	  4.980000000000 	  0.000000000000 	  2.980000000000 	
Mg	  3.980000000000 	  3.980000000000 	  0.000000000000 	
Mg	  4.980000000000 	  3.980000000000 	  2.980000000000 	
Mg	  1.865585819487 	  1.923945809980 	  0.000000000000 	
Mg	  2.865585819487 	  1.923945809980 	  2.980000000000 	
Mg	  1.865585819487 	  5.903945809980 	  0.000000000000 	
Mg	  2.865585819487 	  5.903945809980 	  2.980000000000 	
Mg	  5.845585819487 	  1.923945809980 	  0.000000000000 	
Mg	  6.845585819487 	  1.923945809980 	  2.980000000000 	
Mg	  5.845585819487 	  5.903945809980 	  0.000000000000 	
Mg	  6.845585819487 	  5.903945809980 	  2.980000000000 	
Mg	  2.332465743429 	  0.000000000000 	  1.748865838502 	
Mg	  3.332465743429 	  0.000000000000 	  4.728865838502 	
Mg	  2.332465743429 	  3.980000000000 	  1.748865838502 	
Mg	  3.332465743429 	  3.980000000000 	  4.728865838502 	
Mg	  6.312465743429 	  0.000000000000 	  1.748865838502 	
Mg	  7.312465743429 	  0.000000000000 	  4.728865838502 	
Mg	  6.312465743429 	  3.980000000000 	  1.748865838502 	
Mg	  7.312465743429 	  3.980000000000 	  4.728865838502 	
Mg	  0.291799952464 	  2.040665790966 	  1.748865838502 	
Mg	  1.291799952464 	  2.040665790966 	  4.728865838502 	
Mg	  0.291799952464 	  6.020665790966 	  1.748865838502 	
Mg	  1.291799952464 	  6.020665790966 	  4.728865838502 	
Mg	  4.271799952464 	  2.040665790966 	  1.748865838502 	
Mg	  5.271799952464 	  2.040665790966 	  4.728865838502 	
Mg	  4.271799952464 	  6.020665790966 	  1.748865838502 	
Mg	  5.271799952464 	  6.020665790966 	  4.728865838502 	
O	  2.040665790966 	  0.000000000000 	  0.000000000000 	
O	  3.040665790966 	  0.000000000000 	  2.980000000000 	
O	  2.040665790966 	  3.980000000000 	  0.000000000000 	
O	  3.040665790966 	  3.980000000000 	  2.980000000000 	
O	  6.020665790966 	  0.000000000000 	  0.000000000000 	
O	  7.020665790966 	  0.000000000000 	  2.980000000000 	
O	  6.020665790966 	  3.980000000000 	  0.000000000000 	
O	  7.020665790966 	  3.980000000000 	  2.980000000000 	
O	  0.000000000000 	  2.040665790966 	  0.000000000000 	
O	  1.000000000000 	  2.040665790966 	  2.980000000000 	
O	  0.000000000000 	  6.020665790966 	  0.000000000000 	
O	  1.000000000000 	  6.020665790966 	  2.980000000000 	
O	  3.980000000000 	  2.040665790966 	  0.000000000000 	
O	  4.980000000000 	  2.040665790966 	  2.980000000000 	
O	  3.980000000000 	  6.020665790966 	  0.000000000000 	
O	  4.980000000000 	  6.020665790966 	  2.980000000000 	
O	  0.291799952464 	  0.000000000000 	  1.748865838502 	
O	  1.291799952464 	  0.000000000000 	  4.728865838502 	
O	  0.291799952464 	  3.980000000000 	  1.748865838502 	
O	  1.291799952464 	  3.980000000000 	  4.728865838502 	
O	  4.271799952464 	  0.000000000000 	  1.748865838502 	
O	  5.271799952464 	  0.000000000000 	  4.728865838502 	
O	  4.271799952464 	  3.980000000000 	  1.748865838502 	
O	  5.271799952464 	  3.980000000000 	  4.728865838502 	
O	  2.565905705401 	  1.657240653428 	  1.748865838502 	
O	  3.565905705401 	  1.657240653428 	  4.728865838502 	
O	  2.565905705401 	  5.637240653428 	  1.748865838502 	
O	  3.565905705401 	  5.637240653428 	  4.728865838502 	
O	  6.545905705401 	  1.657240653428 	  1.748865838502 	
O	  7.545905705401 	  1.657240653428 	  4.728865838502 	
O	  6.545905705401 	  5.637240653428 	  1.748865838502 	
O	  7.545905705401 	  5.637240653428 	  4.728865838502 	
64 
Energy: 5.7332146294923199e+00 
Mg	  0.000000000000 	  0.000000000000 	  0.000000000000 	
Mg	  1.000000000000 	  0.000000000000 	  2.980000000000 	
Mg	  0.000000000000 	  3.980000000000 	  0.000000000000 	
Mg	  1.000000000000 	  3.980000000000 	  2.980000000000 	
Mg	  3.980000000000 	  0.000000000000 	  0.000000000000 	
Mg	  4.980000000000 	  0.000000000000 	  2.980000000000 	
Mg	  3.980000000000 	  3.980000000000 	  0.000000000000 	
Mg	  4.980000000000 	  3.980000000000 	  2.980000000000 	
Mg	  1.891574726210 	  1.944089454509 	  0.000000000000 	
Mg	  2.891574726210 	  1.944089454509 	  2.980000000000 	
Mg	  1.891574726210 	  5.924089454509 	  0.000000000000 	
Mg	  2.891574726210 	  5.924089454509 	  2.980000000000 	
Mg	  5.871574726210 	  1.944089454509 	  0.000000000000 	
Mg	  6.871574726210 	  1.944089454509 	  2.980000000000 	
Mg	  5.871574726210 	  5.924089454509 	  0.000000000000 	
Mg	  6.871574726210 	  5.924089454509 	  2.980000000000 	
Mg	  2.311692552598 	  0.000000000000 	  1.786545269613 	
Mg	  3.311692552598 	  0.000000000000 	  4.766545269613 	
Mg	  2.311692552598 	  3.980000000000 	  1.786545269613 	
Mg	  3.311692552598 	  3.980000000000 	  4.766545269613 	
Mg	  6.291692552598 	  0.000000000000 	  1.786545269613 	
Mg	  7.291692552598 	  0.000000000000 	  4.766545269613 	
Mg	  6.291692552598 	  3.980000000000 	  1.786545269613 	
Mg	  7.291692552598 	  3.980000000000 	  4.766545269613 	
Mg	  0.262573641492 	  2.049118911106 	  1.786545269613 	
Mg	  1.262573641492 	  2.049118911106 	  4.766545269613 	
Mg	  0.262573641492 	  6.029118911106 	  1.786545269613 	
Mg	  1.262573641492 	  6.029118911106 	  4.766545269613 	
Mg	  4.242573641492 	  2.049118911106 	  1.786545269613 	
Mg	  5.242573641492 	  2.049118911106 	  4.766545269613 	
Mg	  4.242573641492 	  6.029118911106 	  1.786545269613 	
Mg	  5.242573641492 	  6.029118911106 	  4.766545269613 	
O	  2.049118911106 	  0.000000000000 	  0.000000000000 	
O	  3.049118911106 	  0.000000000000 	  2.980000000000 	
O	  2.049118911106 	  3.980000000000 	  0.000000000000 	
O	  3.049118911106 	  3.980000000000 	  2.980000000000 	
O	  6.029118911106 	  0.000000000000 	  0.000000000000 	
O	  7.029118911106 	  0.000000000000 	  2.980000000000 	
O	  6.029118911106 	  3.980000000000 	  0.000000000000 	
O	  7.029118911106 	  3.980000000000 	  2.980000000000 	
O	  0.000000000000 	  2.049118911106 	  0.000000000000 	
O	  1.000000000000 	  2.049118911106 	  2.980000000000 	
O	  0.000000000000 	  6.029118911106 	  0.000000000000 	
O	  1.000000000000 	  6.029118911106 	  2.980000000000 	
O	  3.980000000000 	  2.049118911106 	  0.000000000000 	
O	  4.980000000000 	  2.049118911106 	  2.980000000000 	
O	  3.980000000000 	  6.029118911106 	  0.000000000000 	
O	  4.980000000000 	  6.029118911106 	  2.980000000000 	
O	  0.262573641492 	  0.000000000000 	  1.786545269613 	
O	  1.262573641492 	  0.000000000000 	  4.766545269613 	
O	  0.262573641492 	  3.980000000000 	  1.786545269613 	
O	  1.262573641492 	  3.980000000000 	  4.766545269613 	
O	  4.242573641492 	  0.000000000000 	  1.786545269613 	
O	  5.242573641492 	  0.000000000000 	  4.766545269613 	
O	  4.242573641492 	  3.980000000000 	  1.786545269613 	
O	  5.242573641492 	  3.980000000000 	  4.766545269613 	
O	  2.521751465792 	  1.704097146185 	  1.786545269613 	
O	  3.521751465792 	  1.704097146185 	  4.766545269613 	
O	  2.521751465792 	  5.684097146185 	  1.786545269613 	
O	  3.521751465792 	  5.684097146185 	  4.766545269613 	
O	  6.501751465792 	  1.704097146185 	  1.786545269613 	
O	  7.501751465792 	  1.704097146185 	  4.766545269613 	
O	  6.501751465792 	  5.684097146185 	  1.786545269613 	
O	  7.501751465792 	  5.684097146185 	  4.766545269613 	
64 
Energy: 5.6917022350110198e+00 
Mg	  0.000000000000 	  0.000000000000 	  0.000000000000 	
Mg	  1.000000000000 	  0.000000000000 	  2.980000000000 	
Mg	  0.000000000000 	  3.980000000000 	  0.000000000000 	
Mg	  1.000000000000 	  3.980000000000 	  2.980000000000 	
Mg	  3.980000000000 	  0.000000000000 	  0.000000000000 	
Mg	  4.980000000000 	  0.000000000000 	  2.980000000000 	
Mg	  3.980000000000 	  3.980000000000 	  0.000000000000 	
Mg	  4.980000000000 	  3.980000000000 	  2.980000000000 	
Mg	  1.917565313933 	  1.964234407510 	  0.000000000000 	
Mg	  2.917565313933 	  1.964234407510 	  2.980000000000 	
Mg	  1.917565313933 	  5.944234407510 	  0.000000000000 	
Mg	  2.917565313933 	  5.944234407510 	  2.980000000000 	
Mg	  5.897565313933 	  1.964234407510 	  0.000000000000 	
Mg	  6.897565313933 	  1.964234407510 	  2.980000000000 	
Mg	  5.897565313933 	  5.944234407510 	  0.000000000000 	
Mg	  6.897565313933 	  5.944234407510 	  2.980000000000 	
Mg	  2.290918062547 	  0.000000000000 	  1.824227126779 	
Mg	  3.290918062547 	  0.000000000000 	  4.804227126779 	
Mg	  2.290918062547 	  3.980000000000 	  1.824227126779 	
Mg	  3.290918062547 	  3.980000000000 	  4.804227126779 	
Mg	  6.270918062547 	  0.000000000000 	  1.824227126779 	
Mg	  7.270918062547 	  0.000000000000 	  4.804227126779 	
Mg	  6.270918062547 	  3.980000000000 	  1.824227126779 	
Mg	  7.270918062547 	  3.980000000000 	  4.804227126779 	
Mg	  0.233345467884 	  2.057572594663 	  1.824227126779 	
Mg	  1.233345467884 	  2.057572594663 	  4.804227126779 	
Mg	  0.233345467884 	  6.037572594663 	  1.824227126779 	
Mg	  1.233345467884 	  6.037572594663 	  4.804227126779 	
Mg	  4.213345467884 	  2.057572594663 	  1.824227126779 	
Mg	  5.213345467884 	  2.057572594663 	  4.804227126779 	
Mg	  4.213345467884 	  6.037572594663 	  1.824227126779 	
Mg	  5.213345467884 	  6.037572594663 	  4.804227126779 	
O	  2.057572594663 	  0.000000000000 	  0.000000000000 	
O	  3.057572594663 	  0.000000000000 	  2.980000000000 	
O	  2.057572594663 	  3.980000000000 	  0.000000000000 	
O	  3.057572594663 	  3.980000000000 	  2.980000000000 	
O	  6.037572594663 	  0.000000000000 	  0.000000000000 	
O	  7.037572594663 	  0.000000000000 	  2.980000000000 	
O	  6.037572594663 	  3.980000000000 	  0.000000000000 	
O	  7.037572594663 	  3.980000000000 	  2.980000000000 	
O	  0.000000000000 	  2.057572594663 	  0.000000000000 	
O	  1.000000000000 	  2.057572594663 	  2.980000000000 	
O	  0.000000000000 	  6.037572594663 	  0.000000000000 	
O	  1.000000000000 	  6.037572594663 	  2.980000000000 	
O	  3.980000000000 	  2.057572594663 	  0.000000000000 	
O	  4.980000000000 	  2.057572594663 	  2.980000000000 	
O	  3.980000000000 	  6.037572594663 	  0.000000000000 	
O	  4.980000000000 	  6.037572594663 	  2.980000000000 	
O	  0.233345467884 	  0.000000000000 	  1.824227126779 	
O	  1.233345467884 	  0.000000000000 	  4.804227126779 	
O	  0.233345467884 	  3.980000000000 	  1.824227126779 	
O	  1.233345467884 	  3.980000000000 	  4.804227126779 	
O	  4.213345467884 	  0.000000000000 	  1.824227126779 	
O	  5.213345467884 	  0.000000000000 	  4.804227126779 	
O	  4.213345467884 	  3.980000000000 	  1.824227126779 	
O	  5.213345467884 	  3.980000000000 	  4.804227126779 	
O	  2.477594436854 	  1.750956649864 	  1.824227126779 	
O	  3.477594436854 	  1.750956649864 	  4.804227126779 	
O	  2.477594436854 	  5.730956649864 	  1.824227126779 	
O	  3.477594436854 	  5.730956649864 	  4.804227126779 	
O	  6.457594436854 	  1.750956649864 	  1.824227126779 	
O	  7.457594436854 	  1.750956649864 	  4.804227126779 	
O	  6.457594436854 	  5.730956649864 	  1.824227126779 	
O	  7.457594436854 	  5.730956649864 	  4.804227126779 	
64 
Energy: 5.3863613349577024e+00 
Mg	  0.000000000000 	  0.000000000000 	  0.000000000000 	
Mg	  1.000000000000 	  0.000000000000 	  2.980000000000 	
Mg	  0.000000000000 	  3.980000000000 	  0.000000000000 	
Mg	  1.000000000000 	  3.980000000000 	  2.980000000000 	
Mg	  3.980000000000 	  0.000000000000 	  0.000000000000 	
Mg	  4.980000000000 	  0.000000000000 	  2.980000000000 	
Mg	  3.980000000000 	  3.980000000000 	  0.000000000000 	
Mg	  4.980000000000 	  3.980000000000 	  2.980000000000 	
Mg	  1.943552322578 	  1.984376631125 	  0.000000000000 	
Mg	  2.943552322578 	  1.984376631125 	  2.980000000000 	
Mg	  1.943552322578 	  5.964376631125 	  0.000000000000 	
Mg	  2.943552322578 	  5.964376631125 	  2.980000000000 	
Mg	  5.923552322578 	  1.984376631125 	  0.000000000000 	
Mg	  6.923552322578 	  1.984376631125 	  2.980000000000 	
Mg	  5.923552322578 	  5.964376631125 	  0.000000000000 	
Mg	  6.923552322578 	  5.964376631125 	  2.980000000000 	
Mg	  2.270146790951 	  0.000000000000 	  1.861903705485 	
Mg	  3.270146790951 	  0.000000000000 	  4.841903705485 	
Mg	  2.270146790951 	  3.980000000000 	  1.861903705485 	
Mg	  3.270146790951 	  3.980000000000 	  4.841903705485 	
Mg	  6.250146790951 	  0.000000000000 	  1.861903705485 	
Mg	  7.250146790951 	  0.000000000000 	  4.841903705485 	
Mg	  6.250146790951 	  3.980000000000 	  1.861903705485 	
Mg	  7.250146790951 	  3.980000000000 	  4.841903705485 	
Mg	  0.204121542733 	  2.066025248218 	  1.861903705485 	
Mg	  1.204121542733 	  2.066025248218 	  4.841903705485 	
Mg	  0.204121542733 	  6.046025248218 	  1.861903705485 	
Mg	  1.204121542733 	  6.046025248218 	  4.841903705485 	
Mg	  4.184121542733 	  2.066025248218 	  1.861903705485 	
Mg	  5.184121542733 	  2.066025248218 	  4.841903705485 	
Mg	  4.184121542733 	  6.046025248218 	  1.861903705485 	
Mg	  5.184121542733 	  6.046025248218 	  4.841903705485 	
O	  2.066025248218 	  0.000000000000 	  0.000000000000 	
O	  3.066025248218 	  0.000000000000 	  2.980000000000 	
O	  2.066025248218 	  3.980000000000 	  0.000000000000 	
O	  3.066025248218 	  3.980000000000 	  2.980000000000 	
O	  6.046025248218 	  0.000000000000 	  0.000000000000 	
O	  7.046025248218 	  0.000000000000 	  2.980000000000 	
O	  6.046025248218 	  3.980000000000 	  0.000000000000 	
O	  7.046025248218 	  3.980000000000 	  2.980000000000 	
O	  0.000000000000 	  2.066025248218 	  0.000000000000 	
O	  1.000000000000 	  2.066025248218 	  2.980000000000 	
O	  0.000000000000 	  6.046025248218 	  0.000000000000 	
O	  1.000000000000 	  6.046025248218 	  2.980000000000 	
O	  3.980000000000 	  2.066025248218 	  0.000000000000 	
O	  4.980000000000 	  2.066025248218 	  2.980000000000 	
O	  3.980000000000 	  6.046025248218 	  0.000000000000 	
O	  4.980000000000 	  6.046025248218 	  2.980000000000 	
O	  0.204121542733 	  0.000000000000 	  1.861903705485 	
O	  1.204121542733 	  0.000000000000 	  4.841903705485 	
O	  0.204121542733 	  3.980000000000 	  1.861903705485 	
O	  1.204121542733 	  3.980000000000 	  4.841903705485 	
O	  4.184121542733 	  0.000000000000 	  1.861903705485 	
O	  5.184121542733 	  0.000000000000 	  4.841903705485 	
O	  4.184121542733 	  3.980000000000 	  1.861903705485 	
O	  5.184121542733 	  3.980000000000 	  4.841903705485 	
O	  2.433444025137 	  1.797809541067 	  1.861903705485 	
O	  3.433444025137 	  1.797809541067 	  4.841903705485 	
O	  2.433444025137 	  5.777809541067 	  1.861903705485 	
O	  3.433444025137 	  5.777809541067 	  4.841903705485 	
O	  6.413444025137 	  1.797809541067 	  1.861903705485 	
O	  7.413444025137 	  1.797809541067 	  4.841903705485 	
O	  6.413444025137 	  5.777809541067 	  1.861903705485 	
O	  7.413444025137 	  5.777809541067 	  4.841903705485 	
64 
Energy: 4.8251950303676656e+00 
Mg	  0.000000000000 	  0.000000000000 	  0.000000000000 	
Mg	  1.000000000000 	  0.000000000000 	  2.980000000000 	
Mg	  0.000000000000 	  3.980000000000 	  0.000000000000 	
Mg	  1.000000000000 	  3.980000000000 	  2.980000000000 	
Mg	  3.980000000000 	  0.000000000000 	  0.000000000000 	
Mg	  4.980000000000 	  0.000000000000 	  2.980000000000 	
Mg	  3.980000000000 	  3.980000000000 	  0.000000000000 	
Mg	  4.980000000000 	  3.980000000000 	  2.980000000000 	
Mg	  1.969530818052 	  2.004512191702 	  0.000000000000 	
Mg	  2.969530818052 	  2.004512191702 	  2.980000000000 	
Mg	  1.969530818052 	  5.984512191702 	  0.000000000000 	
Mg	  2.969530818052 	  5.984512191702 	  2.980000000000 	
Mg	  5.949530818052 	  2.004512191702 	  0.000000000000 	
Mg	  6.949530818052 	  2.004512191702 	  2.980000000000 	
Mg	  5.949530818052 	  5.984512191702 	  0.000000000000 	
Mg	  6.949530818052 	  5.984512191702 	  2.980000000000 	
Mg	  2.249381807248 	  0.000000000000 	  1.899568070753 	
Mg	  3.249381807248 	  0.000000000000 	  4.879568070753 	
Mg	  2.249381807248 	  3.980000000000 	  1.899568070753 	
Mg	  3.249381807248 	  3.980000000000 	  4.879568070753 	
Mg	  6.229381807248 	  0.000000000000 	  1.899568070753 	
Mg	  7.229381807248 	  0.000000000000 	  4.879568070753 	
Mg	  6.229381807248 	  3.980000000000 	  1.899568070753 	
Mg	  7.229381807248 	  3.980000000000 	  4.879568070753 	
Mg	  0.174906868248 	  2.074474939001 	  1.899568070753 	
Mg	  1.174906868248 	  2.074474939001 	  4.879568070753 	
Mg	  0.174906868248 	  6.054474939001 	  1.899568070753 	
Mg	  1.174906868248 	  6.054474939001 	  4.879568070753 	
Mg	  4.154906868248 	  2.074474939001 	  1.899568070753 	
Mg	  5.154906868248 	  2.074474939001 	  4.879568070753 	
Mg	  4.154906868248 	  6.054474939001 	  1.899568070753 	
Mg	  5.154906868248 	  6.054474939001 	  4.879568070753 	
O	  2.074474939001 	  0.000000000000 	  0.000000000000 	
O	  3.074474939001 	  0.000000000000 	  2.980000000000 	
O	  2.074474939001 	  3.980000000000 	  0.000000000000 	
O	  3.074474939001 	  3.980000000000 	  2.980000000000 	
O	  6.054474939001 	  0.000000000000 	  0.000000000000 	
O	  7.054474939001 	  0.000000000000 	  2.980000000000 	
O	  6.054474939001 	  3.980000000000 	  0.000000000000 	
O	  7.054474939001 	  3.980000000000 	  2.980000000000 	
O	  0.000000000000 	  2.074474939001 	  0.000000000000 	
O	  1.000000000000 	  2.074474939001 	  2.980000000000 	
O	  0.000000000000 	  6.054474939001 	  0.000000000000 	
O	  1.000000000000 	  6.054474939001 	  2.980000000000 	
O	  3.980000000000 	  2.074474939001 	  0.000000000000 	
O	  4.980000000000 	  2.074474939001 	  2.980000000000 	
O	  3.980000000000 	  6.054474939001 	  0.000000000000 	
O	  4.980000000000 	  6.054474939001 	  2.980000000000 	
O	  0.174906868248 	  0.000000000000 	  1.899568070753 	
O	  1.174906868248 	  0.000000000000 	  4.879568070753 	
O	  0.174906868248 	  3.980000000000 	  1.899568070753 	
O	  1.174906868248 	  3.980000000000 	  4.879568070753 	
O	  4.154906868248 	  0.000000000000 	  1.899568070753 	
O	  5.154906868248 	  0.000000000000 	  4.879568070753 	
O	  4.154906868248 	  3.980000000000 	  1.899568070753 	
O	  5.154906868248 	  3.980000000000 	  4.879568070753 	
O	  2.389307301846 	  1.844647314123 	  1.899568070753 	
O	  3.389307301846 	  1.844647314123 	  4.879568070753 	
O	  2.389307301846 	  5.824647314123 	  1.899568070753 	
O	  3.389307301846 	  5.824647314123 	  4.879568070753 	
O	  6.369307301846 	  1.844647314123 	  1.899568070753 	
O	  7.369307301846 	  1.844647314123 	  4.879568070753 	
O	  6.369307301846 	  5.824647314123 	  1.899568070753 	
O	  7.369307301846 	  5.824647314123 	  4.879568070753 	
64 
Energy: 4.0389883309447416e+00 
Mg	  0.000000000000 	  0.000000000000 	  0.000000000000 	
Mg	  1.000000000000 	  0.000000000000 	  2.980000000000 	
Mg	  0.000000000000 	  3.980000000000 	  0.000000000000 	
Mg	  1.000000000000 	  3.980000000000 	  2.980000000000 	
Mg	  3.980000000000 	  0.000000000000 	  0.000000000000 	
Mg	  4.980000000000 	  0.000000000000 	  2.980000000000 	
Mg	  3.980000000000 	  3.980000000000 	  0.000000000000 	
Mg	  4.980000000000 	  3.980000000000 	  2.980000000000 	
Mg	  1.995496174094 	  2.024637322658 	  0.000000000000 	
Mg	  2.995496174094 	  2.024637322658 	  2.980000000000 	
Mg	  1.995496174094 	  6.004637322658 	  0.000000000000 	
Mg	  2.995496174094 	  6.004637322658 	  2.980000000000 	
Mg	  5.975496174094 	  2.024637322658 	  0.000000000000 	
Mg	  6.975496174094 	  2.024637322658 	  2.980000000000 	
Mg	  5.975496174094 	  6.004637322658 	  0.000000000000 	
Mg	  6.975496174094 	  6.004637322658 	  2.980000000000 	
Mg	  2.228625362603 	  0.000000000000 	  1.937213876967 	
Mg	  3.228625362603 	  0.000000000000 	  4.917213876967 	
Mg	  2.228625362603 	  3.980000000000 	  1.937213876967 	
Mg	  3.228625362603 	  3.980000000000 	  4.917213876967 	
Mg	  6.208625362603 	  0.000000000000 	  1.937213876967 	
Mg	  7.208625362603 	  0.000000000000 	  4.917213876967 	
Mg	  6.208625362603 	  3.980000000000 	  1.937213876967 	
Mg	  7.208625362603 	  3.980000000000 	  4.917213876967 	
Mg	  0.145705742818 	  2.082919619785 	  1.937213876967 	
Mg	  1.145705742818 	  2.082919619785 	  4.917213876967 	
Mg	  0.145705742818 	  6.062919619785 	  1.937213876967 	
Mg	  1.145705742818 	  6.062919619785 	  4.917213876967 	
Mg	  4.125705742818 	  2.082919619785 	  1.937213876967 	
Mg	  5.125705742818 	  2.082919619785 	  4.917213876967 	
Mg	  4.125705742818 	  6.062919619785 	  1.937213876967 	
Mg	  5.125705742818 	  6.062919619785 	  4.917213876967 	
O	  2.082919619785 	  0.000000000000 	  0.000000000000 	
O	  3.082919619785 	  0.000000000000 	  2.980000000000 	
O	  2.082919619785 	  3.980000000000 	  0.000000000000 	
O	  3.082919619785 	  3.980000000000 	  2.980000000000 	
O	  6.062919619785 	  0.000000000000 	  0.000000000000 	
O	  7.062919619785 	  0.000000000000 	  2.980000000000 	
O	  6.062919619785 	  3.980000000000 	  0.000000000000 	
O	  7.062919619785 	  3.980000000000 	  2.980000000000 	
O	  0.000000000000 	  2.082919619785 	  0.000000000000 	
O	  1.000000000000 	  2.082919619785 	  2.980000000000 	
O	  0.000000000000 	  6.062919619785 	  0.000000000000 	
O	  1.000000000000 	  6.062919619785 	  2.980000000000 	
O	  3.980000000000 	  2.082919619785 	  0.000000000000 	
O	  4.980000000000 	  2.082919619785 	  2.980000000000 	
O	  3.980000000000 	  6.062919619785 	  0.000000000000 	
O	  4.980000000000 	  6.062919619785 	  2.980000000000 	
O	  0.145705742818 	  0.000000000000 	  1.937213876967 	
O	  1.145705742818 	  0.000000000000 	  4.917213876967 	
O	  0.145705742818 	  3.980000000000 	  1.937213876967 	
O	  1.145705742818 	  3.980000000000 	  4.917213876967 	
O	  4.125705742818 	  0.000000000000 	  1.937213876967 	
O	  5.125705742818 	  0.000000000000 	  4.917213876967 	
O	  4.125705742818 	  3.980000000000 	  1.937213876967 	
O	  5.125705742818 	  3.980000000000 	  4.917213876967 	
O	  2.345189956857 	  1.891462273722 	  1.937213876967 	
O	  3.345189956857 	  1.891462273722 	  4.917213876967 	
O	  2.345189956857 	  5.871462273722 	  1.937213876967 	
O	  3.345189956857 	  5.871462273722 	  4.917213876967 	
O	  6.325189956857 	  1.891462273722 	  1.937213876967 	
O	  7.325189956857 	  1.891462273722 	  4.917213876967 	
O	  6.325189956857 	  5.871462273722 	  1.937213876967 	
O	  7.325189956857 	  5.871462273722 	  4.917213876967 	
64 
Energy: 3.0852665934486549e+00 
Mg	  0.000000000000 	  0.000000000000 	  0.000000000000 	
Mg	  1.000000000000 	  0.000000000000 	  2.980000000000 	
Mg	  0.000000000000 	  3.980000000000 	  0.000000000000 	
Mg	  1.000000000000 	  3.980000000000 	  2.980000000000 	
Mg	  3.980000000000 	  0.000000000000 	  0.000000000000 	
Mg	  4.980000000000 	  0.000000000000 	  2.980000000000 	
Mg	  3.980000000000 	  3.980000000000 	  0.000000000000 	
Mg	  4.980000000000 	  3.980000000000 	  2.980000000000 	
Mg	  2.021444280224 	  2.044748619686 	  0.000000000000 	
Mg	  3.021444280224 	  2.044748619686 	  2.980000000000 	
Mg	  2.021444280224 	  6.024748619686 	  0.000000000000 	
Mg	  3.021444280224 	  6.024748619686 	  2.980000000000 	
Mg	  6.001444280224 	  2.044748619686 	  0.000000000000 	
Mg	  7.001444280224 	  2.044748619686 	  2.980000000000 	
Mg	  6.001444280224 	  6.024748619686 	  0.000000000000 	
Mg	  7.001444280224 	  6.024748619686 	  2.980000000000 	
Mg	  2.207878995918 	  0.000000000000 	  1.974835601300 	
Mg	  3.207878995918 	  0.000000000000 	  4.954835601300 	
Mg	  2.207878995918 	  3.980000000000 	  1.974835601300 	
Mg	  3.207878995918 	  3.980000000000 	  4.954835601300 	
Mg	  6.187878995918 	  0.000000000000 	  1.974835601300 	
Mg	  7.187878995918 	  0.000000000000 	  4.954835601300 	
Mg	  6.187878995918 	  3.980000000000 	  1.974835601300 	
Mg	  7.187878995918 	  3.980000000000 	  4.954835601300 	
Mg	  0.116521697309 	  2.091357298609 	  1.974835601300 	
Mg	  1.116521697309 	  2.091357298609 	  4.954835601300 	
Mg	  0.116521697309 	  6.071357298609 	  1.974835601300 	
Mg	  1.116521697309 	  6.071357298609 	  4.954835601300 	
Mg	  4.096521697309 	  2.091357298609 	  1.974835601300 	
Mg	  5.096521697309 	  2.091357298609 	  4.954835601300 	
Mg	  4.096521697309 	  6.071357298609 	  1.974835601300 	
Mg	  5.096521697309 	  6.071357298609 	  4.954835601300 	
O	  2.091357298609 	  0.000000000000 	  0.000000000000 	
O	  3.091357298609 	  0.000000000000 	  2.980000000000 	
O	  2.091357298609 	  3.980000000000 	  0.000000000000 	
O	  3.091357298609 	  3.980000000000 	  2.980000000000 	
O	  6.071357298609 	  0.000000000000 	  0.000000000000 	
O	  7.071357298609 	  0.000000000000 	  2.980000000000 	
O	  6.071357298609 	  3.980000000000 	  0.000000000000 	
O	  7.071357298609 	  3.980000000000 	  2.980000000000 	
O	  0.000000000000 	  2.091357298609 	  0.000000000000 	
O	  1.000000000000 	  2.091357298609 	  2.980000000000 	
O	  0.000000000000 	  6.071357298609 	  0.000000000000 	
O	  1.000000000000 	  6.071357298609 	  2.980000000000 	
O	  3.980000000000 	  2.091357298609 	  0.000000000000 	
O	  4.980000000000 	  2.091357298609 	  2.980000000000 	
O	  3.980000000000 	  6.071357298609 	  0.000000000000 	
O	  4.980000000000 	  6.071357298609 	  2.980000000000 	
O	  0.116521697309 	  0.000000000000 	  1.974835601300 	
O	  1.116521697309 	  0.000000000000 	  4.954835601300 	
O	  0.116521697309 	  3.980000000000 	  1.974835601300 	
O	  1.116521697309 	  3.980000000000 	  4.954835601300 	
O	  4.096521697309 	  0.000000000000 	  1.974835601300 	
O	  5.096521697309 	  0.000000000000 	  4.954835601300 	
O	  4.096521697309 	  3.980000000000 	  1.974835601300 	
O	  5.096521697309 	  3.980000000000 	  4.954835601300 	
O	  2.301096353765 	  1.938247788345 	  1.974835601300 	
O	  3.301096353765 	  1.938247788345 	  4.954835601300 	
O	  2.301096353765 	  5.918247788345 	  1.974835601300 	
O	  3.301096353765 	  5.918247788345 	  4.954835601300 	
O	  6.281096353765 	  1.938247788345 	  1.974835601300 	
O	  7.281096353765 	  1.938247788345 	  4.954835601300 	
O	  6.281096353765 	  5.918247788345 	  1.974835601300 	
O	  7.281096353765 	  5.918247788345 	  4.954835601300 	
64 
Energy: 2.0535380762538868e+00 
Mg	  0.000000000000 	  0.000000000000 	  0.000000000000 	
Mg	  1.000000000000 	  0.000000000000 	  2.980000000000 	
Mg	  0.000000000000 	  3.980000000000 	  0.000000000000 	
Mg	  1.000000000000 	  3.980000000000 	  2.980000000000 	
Mg	  3.980000000000 	  0.000000000000 	  0.000000000000 	
Mg	  4.980000000000 	  0.000000000000 	  2.980000000000 	
Mg	  3.980000000000 	  3.980000000000 	  0.000000000000 	
Mg	  4.980000000000 	  3.980000000000 	  2.980000000000 	
Mg	  2.047371508817 	  2.064843021516 	  0.000000000000 	
Mg	  3.047371508817 	  2.064843021516 	  2.980000000000 	
Mg	  2.047371508817 	  6.044843021516 	  0.000000000000 	
Mg	  3.047371508817 	  6.044843021516 	  2.980000000000 	
Mg	  6.027371508817 	  2.064843021516 	  0.000000000000 	
Mg	  7.027371508817 	  2.064843021516 	  2.980000000000 	
Mg	  6.027371508817 	  6.044843021516 	  0.000000000000 	
Mg	  7.027371508817 	  6.044843021516 	  2.980000000000 	
Mg	  2.187143610411 	  0.000000000000 	  2.012428483419 	
Mg	  3.187143610411 	  0.000000000000 	  4.992428483419 	
Mg	  2.187143610411 	  3.980000000000 	  2.012428483419 	
Mg	  3.187143610411 	  3.980000000000 	  4.992428483419 	
Mg	  6.167143610411 	  0.000000000000 	  2.012428483419 	
Mg	  7.167143610411 	  0.000000000000 	  4.992428483419 	
Mg	  6.167143610411 	  3.980000000000 	  2.012428483419 	
Mg	  7.167143610411 	  3.980000000000 	  4.992428483419 	
Mg	  0.087357563496 	  2.099786046915 	  2.012428483419 	
Mg	  1.087357563496 	  2.099786046915 	  4.992428483419 	
Mg	  0.087357563496 	  6.079786046915 	  2.012428483419 	
Mg	  1.087357563496 	  6.079786046915 	  4.992428483419 	
Mg	  4.067357563496 	  2.099786046915 	  2.012428483419 	
Mg	  5.067357563496 	  2.099786046915 	  4.992428483419 	
Mg	  4.067357563496 	  6.079786046915 	  2.012428483419 	
Mg	  5.067357563496 	  6.079786046915 	  4.992428483419 	
O	  2.099786046915 	  0.000000000000 	  0.000000000000 	
O	  3.099786046915 	  0.000000000000 	  2.980000000000 	
O	  2.099786046915 	  3.980000000000 	  0.000000000000 	
O	  3.099786046915 	  3.980000000000 	  2.980000000000 	
O	  6.079786046915 	  0.000000000000 	  0.000000000000 	
O	  7.079786046915 	  0.000000000000 	  2.980000000000 	
O	  6.079786046915 	  3.980000000000 	  0.000000000000 	
O	  7.079786046915 	  3.980000000000 	  2.980000000000 	
O	  0.000000000000 	  2.099786046915 	  0.000000000000 	
O	  1.000000000000 	  2.099786046915 	  2.980000000000 	
O	  0.000000000000 	  6.079786046915 	  0.000000000000 	
O	  1.000000000000 	  6.079786046915 	  2.980000000000 	
O	  3.980000000000 	  2.099786046915 	  0.000000000000 	
O	  4.980000000000 	  2.099786046915 	  2.980000000000 	
O	  3.980000000000 	  6.079786046915 	  0.000000000000 	
O	  4.980000000000 	  6.079786046915 	  2.980000000000 	
O	  0.087357563496 	  0.000000000000 	  2.012428483419 	
O	  1.087357563496 	  0.000000000000 	  4.992428483419 	
O	  0.087357563496 	  3.980000000000 	  2.012428483419 	
O	  1.087357563496 	  3.980000000000 	  4.992428483419 	
O	  4.067357563496 	  0.000000000000 	  2.012428483419 	
O	  5.067357563496 	  0.000000000000 	  4.992428483419 	
O	  4.067357563496 	  3.980000000000 	  2.012428483419 	
O	  5.067357563496 	  3.980000000000 	  4.992428483419 	
O	  2.257029661208 	  1.984998208481 	  2.012428483419 	
O	  3.257029661208 	  1.984998208481 	  4.992428483419 	
O	  2.257029661208 	  5.964998208481 	  2.012428483419 	
O	  3.257029661208 	  5.964998208481 	  4.992428483419 	
O	  6.237029661208 	  1.984998208481 	  2.012428483419 	
O	  7.237029661208 	  1.984998208481 	  4.992428483419 	
O	  6.237029661208 	  5.964998208481 	  2.012428483419 	
O	  7.237029661208 	  5.964998208481 	  4.992428483419 	
64 
Energy: 1.0715845812295681e+00 
Mg	  0.000000000000 	  0.000000000000 	  0.000000000000 	
Mg	  1.000000000000 	  0.000000000000 	  2.980000000000 	
Mg	  0.000000000000 	  3.980000000000 	  0.000000000000 	
Mg	  1.000000000000 	  3.980000000000 	  2.980000000000 	
Mg	  3.980000000000 	  0.000000000000 	  0.000000000000 	
Mg	  4.980000000000 	  0.000000000000 	  2.980000000000 	
Mg	  3.980000000000 	  3.980000000000 	  0.000000000000 	
Mg	  4.980000000000 	  3.980000000000 	  2.980000000000 	
Mg	  2.073274754125 	  2.084917827502 	  0.000000000000 	
Mg	  3.073274754125 	  2.084917827502 	  2.980000000000 	
Mg	  2.073274754125 	  6.064917827502 	  0.000000000000 	
Mg	  3.073274754125 	  6.064917827502 	  2.980000000000 	
Mg	  6.053274754125 	  2.084917827502 	  0.000000000000 	
Mg	  7.053274754125 	  2.084917827502 	  2.980000000000 	
Mg	  6.053274754125 	  6.064917827502 	  0.000000000000 	
Mg	  7.053274754125 	  6.064917827502 	  2.980000000000 	
Mg	  2.166419341144 	  0.000000000000 	  2.049988607370 	
Mg	  3.166419341144 	  0.000000000000 	  5.029988607370 	
Mg	  2.166419341144 	  3.980000000000 	  2.049988607370 	
Mg	  3.166419341144 	  3.980000000000 	  5.029988607370 	
Mg	  6.146419341144 	  0.000000000000 	  2.049988607370 	
Mg	  7.146419341144 	  0.000000000000 	  5.029988607370 	
Mg	  6.146419341144 	  3.980000000000 	  2.049988607370 	
Mg	  7.146419341144 	  3.980000000000 	  5.029988607370 	
Mg	  0.058215366887 	  2.108203974257 	  2.049988607370 	
Mg	  1.058215366887 	  2.108203974257 	  5.029988607370 	
Mg	  0.058215366887 	  6.088203974257 	  2.049988607370 	
Mg	  1.058215366887 	  6.088203974257 	  5.029988607370 	
Mg	  4.038215366887 	  2.108203974257 	  2.049988607370 	
Mg	  5.038215366887 	  2.108203974257 	  5.029988607370 	
Mg	  4.038215366887 	  6.088203974257 	  2.049988607370 	
Mg	  5.038215366887 	  6.088203974257 	  5.029988607370 	
O	  2.108203974257 	  0.000000000000 	  0.000000000000 	
O	  3.108203974257 	  0.000000000000 	  2.980000000000 	
O	  2.108203974257 	  3.980000000000 	  0.000000000000 	
O	  3.108203974257 	  3.980000000000 	  2.980000000000 	
O	  6.088203974257 	  0.000000000000 	  0.000000000000 	
O	  7.088203974257 	  0.000000000000 	  2.980000000000 	
O	  6.088203974257 	  3.980000000000 	  0.000000000000 	
O	  7.088203974257 	  3.980000000000 	  2.980000000000 	
O	  0.000000000000 	  2.108203974257 	  0.000000000000 	
O	  1.000000000000 	  2.108203974257 	  2.980000000000 	
O	  0.000000000000 	  6.088203974257 	  0.000000000000 	
O	  1.000000000000 	  6.088203974257 	  2.980000000000 	
O	  3.980000000000 	  2.108203974257 	  0.000000000000 	
O	  4.980000000000 	  2.108203974257 	  2.980000000000 	
O	  3.980000000000 	  6.088203974257 	  0.000000000000 	
O	  4.980000000000 	  6.088203974257 	  2.980000000000 	
O	  0.058215366887 	  0.000000000000 	  2.049988607370 	
O	  1.058215366887 	  0.000000000000 	  5.029988607370 	
O	  0.058215366887 	  3.980000000000 	  2.049988607370 	
O	  1.058215366887 	  3.980000000000 	  5.029988607370 	
O	  4.038215366887 	  0.000000000000 	  2.049988607370 	
O	  5.038215366887 	  0.000000000000 	  5.029988607370 	
O	  4.038215366887 	  3.980000000000 	  2.049988607370 	
O	  5.038215366887 	  3.980000000000 	  5.029988607370 	
O	  2.212991634654 	  2.031708982168 	  2.049988607370 	
O	  3.212991634654 	  2.031708982168 	  5.029988607370 	
O	  2.212991634654 	  6.011708982168 	  2.049988607370 	
O	  3.212991634654 	  6.011708982168 	  5.029988607370 	
O	  6.192991634654 	  2.031708982168 	  2.049988607370 	
O	  7.192991634654 	  2.031708982168 	  5.029988607370 	
O	  6.192991634654 	  6.011708982168 	  2.049988607370 	
O	  7.192991634654 	  6.011708982168 	  5.029988607370 	
64 
Energy: 3.1227042068103844e-01 
Mg	  0.000000000000 	  0.000000000000 	  0.000000000000 	
Mg	  1.000000000000 	  0.000000000000 	  2.980000000000 	
Mg	  0.000000000000 	  3.980000000000 	  0.000000000000 	
Mg	  1.000000000000 	  3.980000000000 	  2.980000000000 	
Mg	  3.980000000000 	  0.000000000000 	  0.000000000000 	
Mg	  4.980000000000 	  0.000000000000 	  2.980000000000 	
Mg	  3.980000000000 	  3.980000000000 	  0.000000000000 	
Mg	  4.980000000000 	  3.980000000000 	  2.980000000000 	
Mg	  2.099151515333 	  2.104970752556 	  0.000000000000 	
Mg	  3.099151515333 	  2.104970752556 	  2.980000000000 	
Mg	  2.099151515333 	  6.084970752556 	  0.000000000000 	
Mg	  3.099151515333 	  6.084970752556 	  2.980000000000 	
Mg	  6.079151515333 	  2.104970752556 	  0.000000000000 	
Mg	  7.079151515333 	  2.104970752556 	  2.980000000000 	
Mg	  6.079151515333 	  6.084970752556 	  0.000000000000 	
Mg	  7.079151515333 	  6.084970752556 	  2.980000000000 	
Mg	  2.145705413119 	  0.000000000000 	  2.087513040887 	
Mg	  3.145705413119 	  0.000000000000 	  5.067513040887 	
Mg	  2.145705413119 	  3.980000000000 	  2.087513040887 	
Mg	  3.145705413119 	  3.980000000000 	  5.067513040887 	
Mg	  6.125705413119 	  0.000000000000 	  2.087513040887 	
Mg	  7.125705413119 	  0.000000000000 	  5.067513040887 	
Mg	  6.125705413119 	  3.980000000000 	  2.087513040887 	
Mg	  7.125705413119 	  3.980000000000 	  5.067513040887 	
Mg	  0.029096186116 	  2.116609227003 	  2.087513040887 	
Mg	  1.029096186116 	  2.116609227003 	  5.067513040887 	
Mg	  0.029096186116 	  6.096609227003 	  2.087513040887 	
Mg	  1.029096186116 	  6.096609227003 	  5.067513040887 	
Mg	  4.009096186116 	  2.116609227003 	  2.087513040887 	
Mg	  5.009096186116 	  2.116609227003 	  5.067513040887 	
Mg	  4.009096186116 	  6.096609227003 	  2.087513040887 	
Mg	  5.009096186116 	  6.096609227003 	  5.067513040887 	
O	  2.116609227003 	  0.000000000000 	  0.000000000000 	
O	  3.116609227003 	  0.000000000000 	  2.980000000000 	
O	  2.116609227003 	  3.980000000000 	  0.000000000000 	
O	  3.116609227003 	  3.980000000000 	  2.980000000000 	
O	  6.096609227003 	  0.000000000000 	  0.000000000000 	
O	  7.096609227003 	  0.000000000000 	  2.980000000000 	
O	  6.096609227003 	  3.980000000000 	  0.000000000000 	
O	  7.096609227003 	  3.980000000000 	  2.980000000000 	
O	  0.000000000000 	  2.116609227003 	  0.000000000000 	
O	  1.000000000000 	  2.116609227003 	  2.980000000000 	
O	  0.000000000000 	  6.096609227003 	  0.000000000000 	
O	  1.000000000000 	  6.096609227003 	  2.980000000000 	
O	  3.980000000000 	  2.116609227003 	  0.000000000000 	
O	  4.980000000000 	  2.116609227003 	  2.980000000000 	
O	  3.980000000000 	  6.096609227003 	  0.000000000000 	
O	  4.980000000000 	  6.096609227003 	  2.980000000000 	
O	  0.029096186116 	  0.000000000000 	  2.087513040887 	
O	  1.029096186116 	  0.000000000000 	  5.067513040887 	
O	  0.029096186116 	  3.980000000000 	  2.087513040887 	
O	  1.029096186116 	  3.980000000000 	  5.067513040887 	
O	  4.009096186116 	  0.000000000000 	  2.087513040887 	
O	  5.009096186116 	  0.000000000000 	  5.067513040887 	
O	  4.009096186116 	  3.980000000000 	  2.087513040887 	
O	  5.009096186116 	  3.980000000000 	  5.067513040887 	
O	  2.168982362012 	  2.078376838446 	  2.087513040887 	
O	  3.168982362012 	  2.078376838446 	  5.067513040887 	
O	  2.168982362012 	  6.058376838446 	  2.087513040887 	
O	  3.168982362012 	  6.058376838446 	  5.067513040887 	
O	  6.148982362012 	  2.078376838446 	  2.087513040887 	
O	  7.148982362012 	  2.078376838446 	  5.067513040887 	
O	  6.148982362012 	  6.058376838446 	  2.087513040887 	
O	  7.148982362012 	  6.058376838446 	  5.067513040887 	
64 
Energy: 0.0000000000000000e+00 
Mg	  0.000000000000 	  0.000000000000 	  0.000000000000 	
Mg	  1.000000000000 	  0.000000000000 	  2.980000000000 	
Mg	  0.000000000000 	  3.980000000000 	  0.000000000000 	
Mg	  1.000000000000 	  3.980000000000 	  2.980000000000 	
Mg	  3.980000000000 	  0.000000000000 	  0.000000000000 	
Mg	  4.980000000000 	  0.000000000000 	  2.980000000000 	
Mg	  3.980000000000 	  3.980000000000 	  0.000000000000 	
Mg	  4.980000000000 	  3.980000000000 	  2.980000000000 	
Mg	  2.125000000000 	  2.125000000000 	  0.000000000000 	
Mg	  3.125000000000 	  2.125000000000 	  2.980000000000 	
Mg	  2.125000000000 	  6.105000000000 	  0.000000000000 	
Mg	  3.125000000000 	  6.105000000000 	  2.980000000000 	
Mg	  6.105000000000 	  2.125000000000 	  0.000000000000 	
Mg	  7.105000000000 	  2.125000000000 	  2.980000000000 	
Mg	  6.105000000000 	  6.105000000000 	  0.000000000000 	
Mg	  7.105000000000 	  6.105000000000 	  2.980000000000 	
Mg	  2.125000000000 	  0.000000000000 	  2.125000000000 	
Mg	  3.125000000000 	  0.000000000000 	  5.105000000000 	
Mg	  2.125000000000 	  3.980000000000 	  2.125000000000 	
Mg	  3.125000000000 	  3.980000000000 	  5.105000000000 	
Mg	  6.105000000000 	  0.000000000000 	  2.125000000000 	
Mg	  7.105000000000 	  0.000000000000 	  5.105000000000 	
Mg	  6.105000000000 	  3.980000000000 	  2.125000000000 	
Mg	  7.105000000000 	  3.980000000000 	  5.105000000000 	
Mg	  0.000000000000 	  2.125000000000 	  2.125000000000 	
Mg	  1.000000000000 	  2.125000000000 	  5.105000000000 	
Mg	  0.000000000000 	  6.105000000000 	  2.125000000000 	
Mg	  1.000000000000 	  6.105000000000 	  5.105000000000 	
Mg	  3.980000000000 	  2.125000000000 	  2.125000000000 	
Mg	  4.980000000000 	  2.125000000000 	  5.105000000000 	
Mg	  3.980000000000 	  6.105000000000 	  2.125000000000 	
Mg	  4.980000000000 	  6.105000000000 	  5.105000000000 	
O	  2.125000000000 	  0.000000000000 	  0.000000000000 	
O	  3.125000000000 	  0.000000000000 	  2.980000000000 	
O	  2.125000000000 	  3.980000000000 	  0.000000000000 	
O	  3.125000000000 	  3.980000000000 	  2.980000000000 	
O	  6.105000000000 	  0.000000000000 	  0.000000000000 	
O	  7.105000000000 	  0.000000000000 	  2.980000000000 	
O	  6.105000000000 	  3.980000000000 	  0.000000000000 	
O	  7.105000000000 	  3.980000000000 	  2.980000000000 	
O	  0.000000000000 	  2.125000000000 	  0.000000000000 	
O	  1.000000000000 	  2.125000000000 	  2.980000000000 	
O	  0.000000000000 	  6.105000000000 	  0.000000000000 	
O	  1.000000000000 	  6.105000000000 	  2.980000000000 	
O	  3.980000000000 	  2.125000000000 	  0.000000000000 	
O	  4.980000000000 	  2.125000000000 	  2.980000000000 	
O	  3.980000000000 	  6.105000000000 	  0.000000000000 	
O	  4.980000000000 	  6.105000000000 	  2.980000000000 	
O	  0.000000000000 	  0.000000000000 	  2.125000000000 	
O	  1.000000000000 	  0.000000000000 	  5.105000000000 	
O	  0.000000000000 	  3.980000000000 	  2.125000000000 	
O	  1.000000000000 	  3.980000000000 	  5.105000000000 	
O	  3.980000000000 	  0.000000000000 	  2.125000000000 	
O	  4.980000000000 	  0.000000000000 	  5.105000000000 	
O	  3.980000000000 	  3.980000000000 	  2.125000000000 	
O	  4.980000000000 	  3.980000000000 	  5.105000000000 	
O	  2.125000000000 	  2.125000000000 	  2.125000000000 	
O	  3.125000000000 	  2.125000000000 	  5.105000000000 	
O	  2.125000000000 	  6.105000000000 	  2.125000000000 	
O	  3.125000000000 	  6.105000000000 	  5.105000000000 	
O	  6.105000000000 	  2.125000000000 	  2.125000000000 	
O	  7.105000000000 	  2.125000000000 	  5.105000000000 	
O	  6.105000000000 	  6.105000000000 	  2.125000000000 	
O	  7.105000000000 	  6.105000000000 	  5.105000000000 	
