  Invoking FHI-aims ...
  | Number of atoms                   :  96
  ...scf iterations...
  | Total energy corrected        :   -7.953606044580E+01 eV
  ...
  Total atomic forces (unitary forces cleaned)
     1  -2.7185569385E-01  5.8597770433E-01  1.8419096231E-01
     2  2.2786710591E-01  5.7258337682E-01  -1.8257827080E-01
     3  2.7185561210E-01  -5.8597764031E-01  -1.8419096587E-01
     4  -2.2786702427E-01  -5.7258340718E-01  1.8257839204E-01
     5  -8.8558011380E-01  1.3269654501E+00  1.7615910109E-01
     6  8.9421600487E-01  1.4112624744E+00  -2.8346396650E-01
     7  8.8558092135E-01  -1.3269652570E+00  -1.7615840784E-01
     8  -8.9421577009E-01  -1.4112626637E+00  2.8346414467E-01
     9  -2.8504184065E-01  1.4655950912E-01  -1.3528314560E-01
    10  4.1700369626E-01  2.5614060418E-01  1.2523230391E-01
    11  2.8504113189E-01  -1.4656001436E-01  1.3528268035E-01
    12  -4.1700386230E-01  -2.5614018909E-01  -1.2523263569E-01
    13  -4.4865277503E-01  -9.9428536634E-01  -9.0708779890E-01
    14  3.2254042457E-01  -1.1091047851E+00  9.2601945917E-01
    15  4.4865210814E-01  9.9428567079E-01  9.0708756525E-01
    16  -3.2254071286E-01  1.1091046936E+00  -9.2601949984E-01
    17  7.2179503299E-01  -9.5101153133E-01  -7.1359747840E-02
    18  -6.8401638205E-01  -1.0588844053E+00  2.0098375414E-01
    19  -7.2179465550E-01  9.5101184094E-01  7.1360205406E-02
    20  6.8401657366E-01  1.0588844661E+00  -2.0098405487E-01
    21  2.8358039637E-01  -6.7756052241E-01  -1.0960312916E-01
    22  -2.8267504776E-01  -6.8699099984E-01  1.1923163831E-01
    23  -2.8358048104E-01  6.7756050893E-01  1.0960315712E-01
    24  2.8267504606E-01  6.8699105270E-01  -1.1923180322E-01
    25  7.3617854936E-01  8.6577072266E-02  4.8043028251E-01
    26  -7.8012019917E-01  1.9298527441E-01  -6.1070285664E-01
    27  -7.3617874025E-01  -8.6577634846E-02  -4.8043060130E-01
    28  7.8012032815E-01  -1.9298481210E-01  6.1070281133E-01
    29  4.7862339202E-01  7.7847064471E-01  8.6463930491E-01
    30  -4.7053839113E-01  7.8375770571E-01  -8.7812439757E-01
    31  -4.7862315349E-01  -7.7847036064E-01  -8.6463961010E-01
    32  4.7053759117E-01  -7.8375807509E-01  8.7812420037E-01
    33  1.1349548837E-02  6.3275155742E-01  4.5868797755E-01
    34  -4.8764652906E-03  6.4023074384E-01  -4.6344361324E-01
    35  -1.1349431148E-02  -6.3275155929E-01  -4.5868805150E-01
    36  4.8764057359E-03  -6.4023078642E-01  4.6344358708E-01
    37  -9.8597367176E-01  8.9405957120E-01  -5.5151472154E-02
    38  9.8799072707E-01  9.0117141307E-01  5.1102161398E-02
    39  9.8597355887E-01  -8.9405952428E-01  5.5151720641E-02
    40  -9.8799018087E-01  -9.0117169075E-01  -5.1101743717E-02
    41  -5.4008940201E-01  6.5285512858E-01  3.3002304287E-02
    42  5.4064590188E-01  6.5278343852E-01  -3.4121294392E-02
    43  5.4008951941E-01  -6.5285509794E-01  -3.3002352036E-02
    44  -5.4064585711E-01  -6.5278348607E-01  3.4121308162E-02
    45  -9.3691342125E-01  2.1930611725E-02  -6.1117593765E-01
    46  9.9533844511E-01  5.1310240792E-02  6.5965441490E-01
    47  9.3691133729E-01  -2.1931130644E-02  6.1117433134E-01
    48  -9.9533821670E-01  -5.1310245844E-02  -6.5965465875E-01
    49  -4.5192081682E-01  -1.0119714211E+00  1.9540841750E+00
    50  1.4616021944E+00  2.3212477688E-03  -4.3869449457E+00
    51  4.5191821619E-01  1.0119685993E+00  -1.9540824762E+00
    52  -1.4616017866E+00  -2.3214236980E-03  4.3869452615E+00
    53  -1.0503049730E-01  -3.3847636828E-01  -2.1665371706E-01
    54  8.9050057589E-02  -3.6941768052E-01  2.4406801734E-01
    55  1.0503109342E-01  3.3847800102E-01  2.1665394551E-01
    56  -8.9050024423E-02  3.6941750288E-01  -2.4406799383E-01
    57  2.7289148222E-01  6.5114314462E-03  9.9942266375E-02
    58  8.3800811594E-01  1.3659476799E-01  7.4954322633E-01
    59  -2.7289079830E-01  -6.5117370702E-03  -9.9941637933E-02
    60  -8.3800861576E-01  -1.3659498904E-01  -7.4954374775E-01
    61  -3.2594388675E-01  3.1583328650E-01  1.2410701988E-01
    62  -1.7234955387E+00  -8.1981162470E-01  1.2987813674E+00
    63  3.2594485379E-01  -3.1583386453E-01  -1.2410744174E-01
    64  1.7234954331E+00  8.1981164875E-01  -1.2987808358E+00
    65  1.6838853884E+00  -1.0922706192E+00  -9.5608196726E-01
    66  -2.0401823409E+00  -7.5046274104E-01  2.2374028490E+00
    67  -1.6838846454E+00  1.0922692460E+00  9.5608009635E-01
    68  2.0401812074E+00  7.5046493267E-01  -2.2374003983E+00
    69  -6.4822637685E-02  -4.6177316085E-01  6.9008075751E-02
    70  1.0297222968E-01  -5.2395433131E-01  -8.1220689720E-02
    71  6.4822951856E-02  4.6177368220E-01  -6.9007976645E-02
    72  -1.0297226428E-01  5.2395352178E-01  8.1220921294E-02
    73  4.8835120596E-02  3.1010269883E-01  -4.1972051689E-01
    74  2.2708092039E-01  -3.7269742604E-02  -7.4177346484E-01
    75  -4.8835161482E-02  -3.1010249462E-01  4.1972051091E-01
    76  -2.2708033074E-01  3.7268843487E-02  7.4177129824E-01
    77  1.9197849198E-01  1.9432716385E-02  1.7848835474E-01
    78  -2.4896019483E-01  4.5358032551E-02  -2.1466734232E-01
    79  -1.9197791536E-01  -1.9432714899E-02  -1.7848821827E-01
    80  2.4896032594E-01  -4.5358076147E-02  2.1466740537E-01
    81  8.3152860922E-01  2.0652665165E+00  4.8064178795E-01
    82  -8.3196841546E-01  2.0820256040E+00  -4.7782854022E-01
    83  -8.3153058096E-01  -2.0652624800E+00  -4.8063856721E-01
    84  8.3196876029E-01  -2.0820256181E+00  4.7782828966E-01
    85  3.0988674418E-01  -5.2941352290E-02  1.6924265637E-01
    86  -3.1586866229E-01  -4.5449905731E-02  -1.6777745704E-01
    87  -3.0988563913E-01  5.2941334931E-02  -1.6924199347E-01
    88  3.1586836717E-01  4.5449909987E-02  1.6777738684E-01
    89  4.6915040681E-02  1.1464435377E-01  -4.7055734171E-01
    90  -4.7265059538E-02  1.2147823645E-01  4.7175632966E-01
    91  -4.6914797952E-02  -1.1464348266E-01  4.7055612962E-01
    92  4.7265201791E-02  -1.2147804083E-01  -4.7175640254E-01
    93  -2.3105543498E-01  1.3906331424E-01  3.1907909746E-01
    94  2.3161379035E-01  1.4708032810E-01  -3.1731954537E-01
    95  2.3105705455E-01  -1.3906518497E-01  -3.1908047000E-01
    96  -2.3161347522E-01  -1.4708027178E-01  3.1731946609E-01
  Stress tensor (eV/A^3):
  6.5031893056E-02  -2.1070053542E-03  2.1983915116E-02
  -2.1070053542E-03  6.9942705552E-02  7.4416788366E-05
  2.1983915116E-02  7.4416788366E-05  5.1723255599E-02
