  Invoking FHI-aims ...
  | Number of atoms                   :  96
  ...scf iterations...
  | Total energy corrected        :   -8.505756515889E+01 eV
  ...
  Total atomic forces (unitary forces cleaned)
     1  -3.0498807900E-01  6.3224230828E-01  1.9747530631E-01
     2  2.1987439536E-01  5.7981533679E-01  -1.9505820829E-01
     3  3.0498819619E-01  -6.3224220910E-01  -1.9747521388E-01
     4  -2.1987427986E-01  -5.7981503465E-01  1.9505824385E-01
     5  -7.1747863675E-01  1.5707927799E+00  1.4718310348E-01
     6  9.3344075752E-01  -9.5009389168E-01  1.6341005445E+00
     7  7.1747866106E-01  -1.5707926365E+00  -1.4718297219E-01
     8  -9.3344132190E-01  9.5009378789E-01  -1.6341003102E+00
     9  -4.0553561773E-01  3.0754985726E-01  -2.0737988925E-01
    10  3.9499973879E-01  -5.5944671017E-02  2.0432462016E-01
    11  4.0553541259E-01  -3.0754915721E-01  2.0737978543E-01
    12  -3.9499826456E-01  5.5946116402E-02  -2.0432413323E-01
    13  -5.3363195792E-01  -1.0098685585E+00  -1.1397489212E+00
    14  4.8534955678E-01  -7.3130047388E-01  1.1653171077E+00
    15  5.3363140742E-01  1.0098686007E+00  1.1397485937E+00
    16  -4.8535156431E-01  7.3129905149E-01  -1.1653160729E+00
    17  4.1698491242E-01  -5.6583200587E-01  -4.3122328952E-02
    18  -5.8163873447E-01  -6.0009880636E-02  -2.0575889684E-01
    19  -4.1698371248E-01  5.6583175844E-01  4.3123040228E-02
    20  5.8163898628E-01  6.0009259563E-02  2.0575903343E-01
    21  6.8928809421E-01  -1.2590865623E+00  -2.3084253118E-01
    22  -6.8707650713E-01  -1.3484589447E+00  3.1162154459E-01
    23  -6.8928834477E-01  1.2590874685E+00  2.3084202604E-01
    24  6.8707611257E-01  1.3484591130E+00  -3.1162184013E-01
    25  9.4384271073E-01  6.0999425347E-03  8.5213174179E-01
    26  -7.9662343831E-01  -5.2155693636E-01  -5.9801764162E-01
    27  -9.4384241663E-01  -6.1006236925E-03  -8.5213192942E-01
    28  7.9662422036E-01  5.2155764437E-01  5.9801654785E-01
    29  4.9031673462E-01  2.7748831792E-01  6.1296376922E-01
    30  -4.5875046281E-01  3.5230108108E-01  -6.3147824182E-01
    31  -4.9031669601E-01  -2.7748801997E-01  -6.1296352165E-01
    32  4.5875022238E-01  -3.5230101673E-01  6.3147783425E-01
    33  1.6948371102E-01  1.0845717370E+00  9.6372229905E-01
    34  -9.1893019364E-02  1.1530396739E+00  -8.9159382503E-01
    35  -1.6948382525E-01  -1.0845724455E+00  -9.6372206614E-01
    36  9.1893517158E-02  -1.1530401959E+00  8.9159379842E-01
    37  -6.9619736243E-01  4.8789278317E-01  -2.6298123925E-01
    38  7.2092925981E-01  5.6035566401E-01  2.3133095440E-01
    39  6.9619747667E-01  -4.8789305113E-01  2.6298108467E-01
    40  -7.2092946869E-01  -5.6035573274E-01  -2.3133066729E-01
    41  -8.9191069453E-01  1.2470421966E+00  7.9858367284E-02
    42  9.0427602323E-01  1.2670495598E+00  -7.7470907592E-02
    43  8.9191063511E-01  -1.2470422176E+00  -7.9857971458E-02
    44  -9.0427581877E-01  -1.2670492630E+00  7.7471177227E-02
    45  -1.3094572750E+00  1.3451436598E-01  -9.0719484256E-01
    46  7.1964669939E-01  -2.0645873766E+00  2.1555030347E-01
    47  1.3094534783E+00  -1.3451374239E-01  9.0719345188E-01
    48  -7.1964766370E-01  2.0645849784E+00  -2.1554999455E-01
    49  4.2728121523E-01  1.9693469255E-01  1.1374558715E+00
    50  -1.3961944594E+00  6.1654054583E+00  -3.2097667608E+00
    51  -4.2727829591E-01  -1.9693602274E-01  -1.1374552110E+00
    52  1.3961972226E+00  -6.1654048328E+00  3.2097634655E+00
    53  -1.6080958926E+00  -7.1221975283E-01  8.1388235983E-01
    54  1.1729919227E+00  -6.8466109637E-01  -6.8168255173E-01
    55  1.6080925926E+00  7.1222254779E-01  -8.1387978763E-01
    56  -1.1729908468E+00  6.8466053999E-01  6.8168291972E-01
    57  8.5759159242E-01  -1.8757840856E-01  6.6858395221E-01
    58  1.8989102314E+00  -7.4046068807E-03  1.6706068954E+00
    59  -8.5759240664E-01  1.8757743268E-01  -6.6858399725E-01
    60  -1.8989124486E+00  7.4041243943E-03  -1.6706059773E+00
    61  -1.7977284076E-01  1.8319688536E+00  1.3888633530E-02
    62  -1.2982371510E+00  -4.2331300295E+00  -8.6975250689E-02
    63  1.7977579307E-01  -1.8319657774E+00  -1.3890713374E-02
    64  1.2982369971E+00  4.2331302593E+00  8.6976962465E-02
    65  6.9222571844E-01  -9.7153969447E-01  5.3502801492E-01
    66  1.1981729019E+00  2.6296049737E+00  -4.4977441218E-01
    67  -6.9222602653E-01  9.7154021848E-01  -5.3502636044E-01
    68  -1.1981722327E+00  -2.6296035304E+00  4.4977516569E-01
    69  -1.3512609851E+00  -8.1741065022E-01  7.0080191059E-01
    70  1.4842902435E+00  -8.3544799886E-01  -7.1004476105E-01
    71  1.3512585175E+00  8.1741142021E-01  -7.0079961587E-01
    72  -1.4842896103E+00  8.3544745471E-01  7.1004562782E-01
    73  5.5251536619E-01  -7.0974014880E-01  -1.4674339725E+00
    74  -7.5889016695E-01  -1.8556577142E+00  2.4200479400E+00
    75  -5.5251624279E-01  7.0973553822E-01  1.4674328488E+00
    76  7.5888836895E-01  1.8556582304E+00  -2.4200481153E+00
    77  8.3071752084E-01  -1.2705759210E-01  6.3682374937E-01
    78  -1.8838331732E+00  -7.0449768411E-01  -1.4771576473E+00
    79  -8.3071636641E-01  1.2705697363E-01  -6.3682368788E-01
    80  1.8838338851E+00  7.0449782047E-01  1.4771565246E+00
    81  1.2530944333E+00  2.8075950827E-01  -5.4606755280E-02
    82  -1.3245396152E+00  3.6286705187E-01  1.2065691773E-01
    83  -1.2530925101E+00  -2.8076057447E-01  5.4608415000E-02
    84  1.3245392676E+00  -3.6286710785E-01  -1.2065624159E-01
    85  8.4485507946E-01  -7.5642525851E-02  5.5769810431E-01
    86  -8.6422615149E-01  -5.1947553538E-02  -5.2859647906E-01
    87  -8.4485463649E-01  7.5642996447E-02  -5.5769784318E-01
    88  8.6422581285E-01  5.1947473394E-02  5.2859644196E-01
    89  2.8572885231E-01  -7.1969114040E-01  -1.5991895968E+00
    90  -3.0297080751E-01  -6.7429098891E-01  1.6386976293E+00
    91  -2.8572849784E-01  7.1968799699E-01  1.5991872584E+00
    92  3.0297032903E-01  6.7429192993E-01  -1.6386980246E+00
    93  -4.1192712906E-01  1.7299214889E+00  -2.3269722238E-01
    94  3.9113195374E-01  1.7835644210E+00  2.7258886853E-01
    95  4.1192852172E-01  -1.7299184182E+00  2.3269369596E-01
    96  -3.9113160378E-01  -1.7835642910E+00  -2.7258930028E-01
  Stress tensor (eV/A^3):
  8.7760900681E-02  -3.0065824417E-03  1.8877558267E-02
  -3.0065824417E-03  8.7816249692E-02  -2.4390884300E-04
  1.8877558267E-02  -2.4390884300E-04  8.6926522303E-02
