  Invoking FHI-aims ...
  | Number of atoms                   :  96
  ...scf iterations...
  | Total energy corrected        :   -7.410876300391E+01 eV
  ...
  Total atomic forces (unitary forces cleaned)
     1  -2.3578116051E-01  5.8525078023E-01  1.8585749060E-01
     2  2.2042413480E-01  5.7275885604E-01  -1.9126001773E-01
     3  2.3578119352E-01  -5.8525069761E-01  -1.8585745588E-01
     4  -2.2042400673E-01  -5.7275875491E-01  1.9126010552E-01
     5  -8.5890192553E-01  1.2307572521E+00  1.1269394670E-01
     6  8.6119271081E-01  1.2284472373E+00  -9.5952173499E-02
     7  8.5890234856E-01  -1.2307571114E+00  -1.1269351795E-01
     8  -8.6119274919E-01  -1.2284473834E+00  9.5952448142E-02
     9  -2.5012991889E-01  1.5835366019E-01  -1.3002855972E-01
    10  2.3325792175E-01  1.4187922850E-01  1.3013914371E-01
    11  2.5012945813E-01  -1.5835366938E-01  1.3002821561E-01
    12  -2.3325825929E-01  -1.4187923099E-01  -1.3013919969E-01
    13  -4.3692895617E-01  -9.4067892993E-01  -9.3284535668E-01
    14  4.6459872158E-01  -9.2424200321E-01  9.4130103195E-01
    15  4.3692840218E-01  9.4067908303E-01  9.3284511756E-01
    16  -4.6459881985E-01  9.2424217809E-01  -9.4130060552E-01
    17  8.4636440480E-01  -1.1906009924E+00  -1.1003585449E-01
    18  -8.8010734040E-01  -1.1940738827E+00  8.4096416245E-02
    19  -8.4636409843E-01  1.1906014479E+00  1.1003618631E-01
    20  8.8010733889E-01  1.1940740035E+00  -8.4096882177E-02
    21  9.4904831922E-02  -4.6544539659E-01  -1.6838532969E-01
    22  -8.1649632034E-02  -4.4136430832E-01  1.6502676833E-01
    23  -9.4904836136E-02  4.6544511492E-01  1.6838514228E-01
    24  8.1649662378E-02  4.4136426361E-01  -1.6502677230E-01
    25  6.1621404600E-01  3.7832134346E-02  4.7579743441E-01
    26  -6.0878962351E-01  1.3903056394E-02  -4.5293297798E-01
    27  -6.1621443171E-01  -3.7832485969E-02  -4.7579780861E-01
    28  6.0879011121E-01  -1.3902752919E-02  4.5293284668E-01
    29  5.3365889391E-01  9.6070113013E-01  1.0642613168E+00
    30  -5.2917913216E-01  9.6566052905E-01  -1.0638085731E+00
    31  -5.3365874746E-01  -9.6070109769E-01  -1.0642613707E+00
    32  5.2917872661E-01  -9.6566089350E-01  1.0638083250E+00
    33  1.8454266097E-02  4.2226471010E-01  3.3295324055E-01
    34  -1.7940511632E-02  4.2082887120E-01  -3.3188837252E-01
    35  -1.8454027776E-02  -4.2226484047E-01  -3.3295315565E-01
    36  1.7940579072E-02  -4.2082888046E-01  3.3188826055E-01
    37  -1.0990008158E+00  1.1464397039E+00  -4.5367503104E-02
    38  1.0963827714E+00  1.1503473583E+00  4.1106296546E-02
    39  1.0990006889E+00  -1.1464396519E+00  4.5367707622E-02
    40  -1.0963822888E+00  -1.1503473238E+00  -4.1105838503E-02
    41  -3.5055568365E-01  4.4297212340E-01  6.6527525616E-03
    42  3.4928189438E-01  4.4183873965E-01  -6.7570528338E-03
    43  3.5055579819E-01  -4.4297223505E-01  -6.6527133672E-03
    44  -3.4928190658E-01  -4.4183881694E-01  6.7571167792E-03
    45  -2.0586552981E+00  1.1796187619E-01  -1.3803318510E+00
    46  2.0233524329E+00  1.0036393282E-01  1.3751781738E+00
    47  2.0586533256E+00  -1.1796158739E-01  1.3803291354E+00
    48  -2.0233529276E+00  -1.0036374077E-01  -1.3751782351E+00
    49  -2.2889207410E+01  -1.2410837660E+00  1.3061166651E+01
    50  2.9030084851E+01  5.1015746250E+00  -1.7800079888E+01
    51  2.2888792322E+01  1.2411284127E+00  -1.3060957410E+01
    52  -2.9030087360E+01  -5.1015032309E+00  1.7800072427E+01
    53  1.1817844487E+01  1.2488151414E+01  -4.0546998590E+00
    54  -1.2728055208E+01  1.4239330569E+01  4.2551555822E+00
    55  -1.1817622497E+01  -1.2487944085E+01  4.0546185294E+00
    56  1.2728086889E+01  -1.4239367210E+01  -4.2551717458E+00
    57  1.0581134766E+00  -1.6647690486E-01  8.8123672973E-01
    58  -4.7702184476E-01  -7.8404630475E-02  -3.3122014789E-01
    59  -1.0581005486E+00  1.6647406541E-01  -8.8122519686E-01
    60  4.7702098533E-01  7.8404082432E-02  3.3121955768E-01
    61  8.7685632128E+00  -1.1387835300E+01  -5.9571125523E+00
    62  -1.4574371614E+01  -1.9557756565E+01  9.9743803796E+00
    63  -8.7683861686E+00  1.1387586805E+01  5.9569806234E+00
    64  1.4574343987E+01  1.9557721563E+01  -9.9743557782E+00
    65  -1.4877100469E+00  -1.2928524689E+01  -9.2172971623E+00
    66  1.5760825487E+00  -1.2886467543E+01  9.4458118730E+00
    67  1.4876803052E+00  1.2928404302E+01  9.2171655648E+00
    68  -1.5760945614E+00  1.2886470710E+01  -9.4457811191E+00
    69  4.7377241650E+00  9.0709059600E+00  -4.0058471796E-02
    70  -5.0042924299E+00  9.2813747429E+00  1.2367471728E-01
    71  -4.7376696995E+00  -9.0708063300E+00  4.0052670268E-02
    72  5.0042946237E+00  -9.2813770778E+00  -1.2367905395E-01
    73  -1.8708258737E+00  7.2490957069E-01  7.6738175451E+00
    74  1.9750674875E+00  4.9009122656E-01  -8.0617798590E+00
    75  1.8707966186E+00  -7.2489417167E-01  -7.6736848046E+00
    76  -1.9750581828E+00  -4.9009175701E-01  8.0617543604E+00
    77  9.3100070919E-01  -2.1255366808E-01  5.1418997656E-01
    78  -8.3756944148E-01  -2.0943856489E-01  -4.5848232629E-01
    79  -9.3099477607E-01  2.1255212775E-01  -5.1418727597E-01
    80  8.3756899296E-01  2.0943836934E-01  4.5848180147E-01
    81  -4.2288720764E+00  2.0793152079E+01  -8.7627609681E+00
    82  4.2367593215E+00  2.0786534058E+01  8.7568865269E+00
    83  4.2287412183E+00  -2.0792860807E+01  8.7628093946E+00
    84  -4.2367600677E+00  -2.0786542119E+01  -8.7568987381E+00
    85  1.1181262688E+00  5.8796525272E-02  5.8678122888E-01
    86  -1.1119097540E+00  5.6071352613E-02  -5.8581319268E-01
    87  -1.1181221477E+00  -5.8796011749E-02  -5.8677946626E-01
    88  1.1119088545E+00  -5.6071394999E-02  5.8581281384E-01
    89  -1.9782205585E+00  -2.8848009104E+00  1.1169913964E+01
    90  1.9774643606E+00  -2.8796178197E+00  -1.1176466246E+01
    91  1.9782218775E+00  2.8847992165E+00  -1.1169916781E+01
    92  -1.9774646665E+00  2.8796169674E+00  1.1176472568E+01
    93  7.3231841967E+00  -1.4469422229E+01  -3.6358758810E+00
    94  -7.3350547720E+00  -1.4481526421E+01  3.6395963188E+00
    95  -7.3230547677E+00  1.4469137896E+01  3.6358256276E+00
    96  7.3350571463E+00  1.4481535963E+01  -3.6395909502E+00
  Stress tensor (eV/A^3):
  -1.5312845782E-02  -7.0034246132E-03  8.1986181336E-02
  -7.0034246132E-03  -1.1743723837E-01  5.1467911604E-03
  8.1986181336E-02  5.1467911604E-03  -4.0002184228E-02
