  Invoking FHI-aims ...
  | Number of atoms                   :  96
  ...scf iterations...
  | Total energy corrected        :   -7.744489466961E+01 eV
  ...
  Total atomic forces (unitary forces cleaned)
     1  -2.1923965270E-01  5.9456718024E-01  1.9205998535E-01
     2  2.0702254809E-01  5.8089273225E-01  -1.9632049745E-01
     3  2.1923981107E-01  -5.9456709035E-01  -1.9205988746E-01
     4  -2.0702243407E-01  -5.8089245189E-01  1.9632054211E-01
     5  -8.1162891732E-01  1.2418711540E+00  1.0164309529E-01
     6  8.0651096934E-01  1.2006582642E+00  -5.3844997289E-02
     7  8.1162891400E-01  -1.2418710240E+00  -1.0164299693E-01
     8  -8.0651142050E-01  -1.2006583655E+00  5.3845301577E-02
     9  -2.1647420960E-01  1.7488109674E-01  -1.2642942695E-01
    10  1.8228419496E-01  1.3562286664E-01  1.2993831313E-01
    11  2.1647405244E-01  -1.7488049493E-01  1.2642927869E-01
    12  -1.8228461883E-01  -1.3562331067E-01  -1.2993801013E-01
    13  -4.0577820686E-01  -8.7589549558E-01  -9.3086210374E-01
    14  4.4314475732E-01  -8.3671805248E-01  9.3022921930E-01
    15  4.0577773116E-01  8.7589544666E-01  9.3086182154E-01
    16  -4.4314492811E-01  8.3671852283E-01  -9.3022838864E-01
    17  1.1258630881E+00  -1.6860086532E+00  -1.5905901134E-01
    18  -1.1432891753E+00  -1.6627896031E+00  1.2006503448E-01
    19  -1.1258632419E+00  1.6860103469E+00  1.5905928763E-01
    20  1.1432889758E+00  1.6627897236E+00  -1.2006574102E-01
    21  -2.0128328834E-01  6.2360319933E-02  -1.2624661836E-01
    22  2.0535591572E-01  6.9372082523E-02  1.2414589933E-01
    23  2.0128413081E-01  -6.2361426036E-02  1.2624630119E-01
    24  -2.0535613184E-01  -6.9372087814E-02  -1.2414590781E-01
    25  5.5047187512E-01  -1.7708490555E-02  5.1109523257E-01
    26  -5.3758417054E-01  -4.8341144370E-02  -4.7136600529E-01
    27  -5.5047178537E-01  1.7708166799E-02  -5.1109535346E-01
    28  5.3758502108E-01  4.8341151219E-02  4.7136579577E-01
    29  6.1062733915E-01  1.3077495044E+00  1.4429478437E+00
    30  -6.1000500952E-01  1.3069484023E+00  -1.4414190292E+00
    31  -6.1062773340E-01  -1.3077503667E+00  -1.4429480788E+00
    32  6.1000553281E-01  -1.3069491402E+00  1.4414190994E+00
    33  -1.2685384700E-01  -2.2637012107E-03  -1.2428055010E-01
    34  1.2958666554E-01  -1.6000506286E-03  1.2720443915E-01
    35  1.2685410753E-01  2.2640919799E-03  1.2428126264E-01
    36  -1.2958687628E-01  1.6005075795E-03  -1.2720485913E-01
    37  -1.3249598766E+00  1.6519409958E+00  3.5096788794E-03
    38  1.3240770230E+00  1.6511714614E+00  -3.6027313617E-03
    39  1.3249597561E+00  -1.6519409835E+00  -3.5093170444E-03
    40  -1.3240767398E+00  -1.6511709932E+00  3.6031577946E-03
    41  3.3094798970E-03  -2.5950469438E-02  -4.3605773999E-02
    42  -3.7597824514E-03  -2.6249615199E-02  4.3812060420E-02
    43  -3.3093048858E-03  2.5950180211E-02  4.3605743324E-02
    44  3.7596078980E-03  2.6249350231E-02  -4.3812032072E-02
    45  -7.5335304073E-01  7.7169515408E-02  -4.9732046289E-01
    46  7.3179733872E-01  2.3893673335E-02  5.0284224886E-01
    47  7.5335028284E-01  -7.7169108254E-02  4.9731935468E-01
    48  -7.3179761069E-01  -2.3893864649E-02  -5.0284231826E-01
    49  -8.6105662788E-01  1.5430882651E+00  3.2805988357E+00
    50  4.2288836463E-01  2.0868125740E+00  -3.5981928119E+00
    51  8.6105738805E-01  -1.5430800967E+00  -3.2805978465E+00
    52  -4.2288746294E-01  -2.0868119344E+00  3.5981917322E+00
    53  8.1229949204E-01  2.6100892283E-01  -5.7398649174E-01
    54  -6.7538088315E-01  2.1580078335E-01  5.1381406788E-01
    55  -8.1229744900E-01  -2.6101077287E-01  5.7398562993E-01
    56  6.7538114406E-01  -2.1580090850E-01  -5.1381444183E-01
    57  -5.7461629038E-01  7.7328621077E-02  -5.4857338885E-01
    58  1.0000639263E+00  1.9295156355E-01  9.1958109382E-01
    59  5.7461612459E-01  -7.7328466662E-02  5.4857352370E-01
    60  -1.0000640237E+00  -1.9295165494E-01  -9.1958002470E-01
    61  2.6113753530E-01  -9.9475375245E-01  -4.5032668708E-02
    62  -3.8279557104E-01  -1.6071155220E+00  3.8251028769E-02
    63  -2.6113882486E-01  9.9475021116E-01  4.5033201462E-02
    64  3.8279560804E-01  1.6071148070E+00  -3.8250562166E-02
    65  7.1996234659E-01  -3.4175624863E+00  3.0750475439E-01
    66  -6.4974261059E-01  -3.3198481796E+00  -5.6012514425E-01
    67  -7.1996479056E-01  3.4175581708E+00  -3.0750110559E-01
    68  6.4974240312E-01  3.3198470443E+00  5.6012473439E-01
    69  5.8758499125E-01  6.3682684861E-01  -2.6137618266E-01
    70  -6.7538848748E-01  6.9968186105E-01  2.9985230128E-01
    71  -5.8758378532E-01  -6.3682668556E-01  2.6137476072E-01
    72  6.7538773449E-01  -6.9968121123E-01  -2.9985230582E-01
    73  -8.7767459854E-02  5.0345294999E-01  7.4790152195E-01
    74  3.9258792192E-02  4.0308485476E-01  -5.8495897371E-01
    75  8.7768362477E-02  -5.0345160651E-01  -7.4790032227E-01
    76  -3.9258330014E-02  -4.0308463465E-01  5.8495856211E-01
    77  -5.4982921510E-01  8.1897652340E-02  -4.4812856260E-01
    78  6.3028518608E-01  7.6016667944E-02  5.0835772145E-01
    79  5.4982774996E-01  -8.1897545762E-02  4.4812748905E-01
    80  -6.3028498024E-01  -7.6016634577E-02  -5.0835696659E-01
    81  2.4693077206E+00  1.8835566973E+00  -1.7858726807E+00
    82  -2.4685535422E+00  1.8821469783E+00  1.7853330505E+00
    83  -2.4693031475E+00  -1.8835590445E+00  1.7858669898E+00
    84  2.4685537944E+00  -1.8821447158E+00  -1.7853350480E+00
    85  -6.9296023355E-01  -2.7514657994E-03  -3.7337107980E-01
    86  6.9433629742E-01  -3.1082427477E-03  3.7388984117E-01
    87  6.9295921841E-01  2.7518199333E-03  3.7337027467E-01
    88  -6.9433679220E-01  3.1079651712E-03  -3.7388953550E-01
    89  -2.5300366407E-01  1.7976489101E-01  8.9630270983E-01
    90  2.5322872795E-01  1.7927349039E-01  -8.9727349418E-01
    91  2.5300341244E-01  -1.7976248971E-01  -8.9630099345E-01
    92  -2.5322881848E-01  -1.7927405063E-01  8.9727425596E-01
    93  9.7790269342E-02  -9.8412496846E-01  2.1621077090E-01
    94  -9.7788464942E-02  -9.8439081209E-01  -2.1723353088E-01
    95  -9.7790483434E-02  9.8412325362E-01  -2.1620885646E-01
    96  9.7788232895E-02  9.8439023535E-01  2.1723426922E-01
  Stress tensor (eV/A^3):
  3.8772682322E-02  -5.2785051558E-04  2.0920193467E-02
  -5.2785051558E-04  4.1279498021E-02  -2.9683905734E-04
  2.0920193467E-02  -2.9683905734E-04  3.8778136776E-02
