  Invoking FHI-aims ...
  | Number of atoms                   :  96
  ...scf iterations...
  | Total energy corrected        :   -6.281551139304E+01 eV
  ...
  Total atomic forces (unitary forces cleaned)
     1  -2.1995891916E-01  5.8685741729E-01  1.8970450796E-01
     2  2.1763250648E-01  5.8248332251E-01  -1.9499072754E-01
     3  2.1995901093E-01  -5.8685733522E-01  -1.8970444853E-01
     4  -2.1763236933E-01  -5.8248314631E-01  1.9499080120E-01
     5  -8.4797565250E-01  1.1226043361E+00  5.3212494552E-02
     6  8.3507475293E-01  1.0945255342E+00  1.6815995742E-02
     7  8.4797587916E-01  -1.1226042091E+00  -5.3212215483E-02
     8  -8.3507494958E-01  -1.0945256588E+00  -1.6815702003E-02
     9  -1.9965755599E-01  1.5927070359E-01  -1.0261406498E-01
    10  1.1556819810E-01  7.4593305725E-02  1.0926408108E-01
    11  1.9965724027E-01  -1.5927046043E-01  1.0261381599E-01
    12  -1.1556856980E-01  -7.4593463411E-02  -1.0926403010E-01
    13  -3.9298712292E-01  -8.8679741052E-01  -8.8866169953E-01
    14  4.7893768783E-01  -7.9978126518E-01  8.8190451644E-01
    15  3.9298661873E-01  8.8679746376E-01  8.8866144683E-01
    16  -4.7893778797E-01  7.9978153255E-01  -8.8190392039E-01
    17  1.6785701614E+00  -2.4386004953E+00  -2.2953716959E-01
    18  -1.7203806101E+00  -2.3828320955E+00  1.3715857512E-01
    19  -1.6785711745E+00  2.4386031249E+00  2.2953737863E-01
    20  1.7203807095E+00  2.3828327511E+00  -1.3715931350E-01
    21  -7.7801340026E-01  8.1358107694E-01  -6.4269580845E-02
    22  7.8657104979E-01  8.3666027593E-01  5.4207989932E-02
    23  7.7801458488E-01  -8.1358347658E-01  6.4269331283E-02
    24  -7.8657129505E-01  -8.3666086382E-01  -5.4207850253E-02
    25  4.7746333495E-01  1.4920286547E-02  4.0520922429E-01
    26  -4.5034692198E-01  -6.1037974060E-02  -3.1252657073E-01
    27  -4.7746366474E-01  -1.4920539192E-02  -4.0520951707E-01
    28  4.5034746297E-01  6.1038152203E-02  3.1252643756E-01
    29  7.5782433380E-01  2.0176465810E+00  2.0239928022E+00
    30  -7.5789150179E-01  2.0165847225E+00  -2.0229274461E+00
    31  -7.5782451361E-01  -2.0176471482E+00  -2.0239928385E+00
    32  7.5789194772E-01  -2.0165858980E+00  2.0229276529E+00
    33  -2.6033608333E-01  -6.8778144953E-01  -6.9622833547E-01
    34  2.5746598097E-01  -6.9108460290E-01  6.9331776598E-01
    35  2.6033641540E-01  6.8778176747E-01  6.9622852821E-01
    36  -2.5746646559E-01  6.9108545559E-01  -6.9331834428E-01
    37  -1.8869616614E+00  2.3492905746E+00  1.0890481556E-01
    38  1.8852276798E+00  2.3477643623E+00  -1.0876159062E-01
    39  1.8869610677E+00  -2.3492898283E+00  -1.0890431452E-01
    40  -1.8852265855E+00  -2.3477632415E+00  1.0876208523E-01
    41  5.4505532288E-01  -7.7504797506E-01  -1.2307773975E-01
    42  -5.4637060924E-01  -7.7602629098E-01  1.2375781334E-01
    43  -5.4505472504E-01  7.7504708552E-01  1.2307750103E-01
    44  5.4636986494E-01  7.7602524606E-01  -1.2375781295E-01
    45  -1.7830363932E+00  1.5247911081E-01  -1.1351748283E+00
    46  1.6833634538E+00  4.3723668023E-02  1.0915494013E+00
    47  1.7830309541E+00  -1.5247923283E-01  1.1351718941E+00
    48  -1.6833637629E+00  -4.3723097114E-02  -1.0915490149E+00
    49  -3.0927640110E+01  7.0329803644E+00  1.6699834708E+01
    50  4.0162891420E+01  2.5423037185E+01  -2.0904819870E+01
    51  3.0926970688E+01  -7.0327045516E+00  -1.6699568534E+01
    52  -4.0162934575E+01  -2.5422999590E+01  2.0904835528E+01
    53  2.0509644703E+01  1.6231762167E+01  -7.9534767412E+00
    54  -2.0932292182E+01  1.7753788233E+01  8.0899576755E+00
    55  -2.0509203522E+01  -1.6231452796E+01  7.9533050062E+00
    56  2.0932335104E+01  -1.7753828049E+01  -8.0899857441E+00
    57  -5.1008575555E-01  5.3610250456E-02  -3.9337885168E-01
    58  -3.3248208330E-01  -7.2820437048E-02  -2.5423993801E-01
    59  5.1010659870E-01  -5.3613443345E-02  3.9339647207E-01
    60  3.3248507553E-01  7.2820538494E-02  2.5424245337E-01
    61  9.9395078880E+00  -2.2830433155E+01  -4.8387649020E+00
    62  -1.7914161594E+01  -4.2634636327E+01  9.6639758390E+00
    63  -9.9393023588E+00  2.2829855132E+01  4.8386603661E+00
    64  1.7914159885E+01  4.2634637755E+01  -9.6639658016E+00
    65  -2.1061916792E+00  -1.4042031522E+01  -5.6116841347E+00
    66  2.8518706045E+00  -1.3758017374E+01  3.5654059137E+00
    67  2.1061066476E+00  1.4041894909E+01  5.6116296632E+00
    68  -2.8518779246E+00  1.3758013765E+01  -3.5653860067E+00
    69  7.0103923021E+00  8.7017627843E+00  -1.8219910153E+00
    70  -7.5272182757E+00  9.2850627209E+00  1.9192476858E+00
    71  -7.0102988918E+00  -8.7016605960E+00  1.8219574598E+00
    72  7.5272182261E+00  -9.2850613222E+00  -1.9192529647E+00
    73  -1.8685003647E+00  1.9693185103E+00  8.1632047140E+00
    74  1.4420268165E+00  1.3209610339E+00  -6.4199174532E+00
    75  1.8684866712E+00  -1.9692918631E+00  -8.1631206044E+00
    76  -1.4420200279E+00  -1.3209590961E+00  6.4199022263E+00
    77  -1.3511963242E+00  4.2643773316E-04  -1.0596155435E+00
    78  1.6366936101E+00  -5.4547797177E-02  1.2375146353E+00
    79  1.3512026443E+00  -4.2776502030E-04  1.0596203268E+00
    80  -1.6366940274E+00  5.4547561870E-02  -1.2375138294E+00
    81  -3.3330332373E+00  2.3918854391E+01  -1.1632471399E+01
    82  3.3382553411E+00  2.3895766161E+01  1.1622936858E+01
    83  3.3329089907E+00  -2.3918460204E+01  1.1632236902E+01
    84  -3.3382478329E+00  -2.3895759817E+01  -1.1622994550E+01
    85  -9.0392798265E-01  4.4715852212E-02  -5.6213918548E-01
    86  9.1007723724E-01  3.9660982646E-02  5.5495314614E-01
    87  9.0394589675E-01  -4.4715922584E-02  5.6214912238E-01
    88  -9.1007517566E-01  -3.9661195852E-02  -5.5495150584E-01
    89  -2.2780492642E+00  3.8120386448E-01  1.3000767254E+01
    90  2.2841052254E+00  3.7662281240E-01  -1.3016022223E+01
    91  2.2780078225E+00  -3.8117929035E-01  -1.3000533698E+01
    92  -2.2841120123E+00  -3.7662879989E-01  1.3016068424E+01
    93  8.8503343826E+00  -2.1695009054E+01  -1.9522643696E+00
    94  -8.8463681420E+00  -2.1696964019E+01  1.9459383665E+00
    95  -8.8501797180E+00  2.1694595293E+01  1.9522497999E+00
    96  8.8463653563E+00  2.1696964583E+01  -1.9459294602E+00
  Stress tensor (eV/A^3):
  -8.0056197852E-02  -1.1590352384E-02  7.5620655241E-02
  -1.1590352384E-02  -2.3453427958E-01  7.2597684622E-03
  7.5620655241E-02  7.2597684622E-03  -5.7646617039E-02
