  Invoking FHI-aims ...
  | Number of atoms                   :  96
  ...scf iterations...
  | Total energy corrected        :   -8.447582413245E+01 eV
  ...
  Total atomic forces (unitary forces cleaned)
     1  -2.6857964603E-01  5.8849300532E-01  1.8025457488E-01
     2  2.2214028689E-01  5.6891816716E-01  -1.8184090571E-01
     3  2.6857957657E-01  -5.8849292184E-01  -1.8025457044E-01
     4  -2.2214019812E-01  -5.6891817303E-01  1.8184101574E-01
     5  -8.7205859206E-01  1.4468668611E+00  2.3038354802E-01
     6  8.8599014447E-01  1.5644538037E+00  -4.4105650973E-01
     7  8.7205937213E-01  -1.4468666774E+00  -2.3038285992E-01
     8  -8.8598994566E-01  -1.5644539844E+00  4.4105673808E-01
     9  -3.2175871921E-01  1.7175976119E-01  -1.5181566513E-01
    10  6.0341212096E-01  3.9391311383E-01  1.3072920262E-01
    11  3.2175802019E-01  -1.7176020550E-01  1.5181514767E-01
    12  -6.0341234953E-01  -3.9391278787E-01  -1.3072949616E-01
    13  -4.8297491427E-01  -1.0179078498E+00  -9.6001362812E-01
    14  2.1353884049E-01  -1.2511038836E+00  1.0002529266E+00
    15  4.8297420700E-01  1.0179081412E+00  9.6001336196E-01
    16  -2.1353908289E-01  1.2511038757E+00  -1.0002528610E+00
    17  5.5299924198E-01  -7.2846686978E-01  -4.7334720605E-02
    18  -4.7513235998E-01  -9.2086917231E-01  3.1381444958E-01
    19  -5.5299879012E-01  7.2846716926E-01  4.7335195911E-02
    20  4.7513245286E-01  9.2086907543E-01  -3.1381476254E-01
    21  4.6531335953E-01  -9.4888745872E-01  -1.5223534548E-01
    22  -4.6690300588E-01  -9.7511081475E-01  1.7351828398E-01
    23  -4.6531346503E-01  9.4888746788E-01  1.5223530792E-01
    24  4.6690313317E-01  9.7511098644E-01  -1.7351841950E-01
    25  8.1949668005E-01  8.4182381943E-02  5.6513042781E-01
    26  -9.0619857480E-01  2.7732335884E-01  -8.3375484637E-01
    27  -8.1949678860E-01  -8.4182958230E-02  -5.6513071433E-01
    28  9.0619885874E-01  -2.7732285358E-01  8.3375476626E-01
    29  4.6521560893E-01  5.5580120247E-01  7.1626313144E-01
    30  -4.5253453251E-01  5.7889374964E-01  -7.1589097266E-01
    31  -4.6521541390E-01  -5.5580113378E-01  -7.1626351924E-01
    32  4.5253369632E-01  -5.7889411824E-01  7.1589073233E-01
    33  8.2449875707E-02  8.7471993994E-01  6.8384001778E-01
    34  -7.5421962095E-02  8.8292540748E-01  -6.8782249213E-01
    35  -8.2449714911E-02  -8.7471980277E-01  -6.8383989994E-01
    36  7.5421951329E-02  -8.8292548487E-01  6.8782245079E-01
    37  -8.3766769241E-01  6.6756341308E-01  -1.1965606791E-01
    38  8.4104111982E-01  6.8372821506E-01  1.0945563831E-01
    39  8.3766769120E-01  -6.6756355060E-01  1.1965630837E-01
    40  -8.4104069286E-01  -6.8372863643E-01  -1.0945513864E-01
    41  -7.3924503729E-01  9.1466123879E-01  5.8968555089E-02
    42  7.4095652251E-01  9.1522691988E-01  -6.1486080535E-02
    43  7.3924502783E-01  -9.1466101786E-01  -5.8968555512E-02
    44  -7.4095632535E-01  -9.1522679108E-01  6.1486108182E-02
    45  -1.7013679366E+00  5.7559523618E-02  -1.0972469754E+00
    46  1.8130279056E+00  1.0310738328E-02  1.2033911793E+00
    47  1.7013640066E+00  -5.7559708237E-02  1.0972440262E+00
    48  -1.8130280219E+00  -1.0310625653E-02  -1.2033914018E+00
    49  -1.3433185327E+00  -1.1720899268E+00  2.3157164836E+00
    50  3.1034758882E+00  3.5007396879E-01  -6.4871745671E+00
    51  1.3432971150E+00  1.1720811872E+00  -2.3157066473E+00
    52  -3.1034757121E+00  -3.5007256721E-01  6.4871754902E+00
    53  -7.4803527146E-02  -3.2590848695E-01  -2.2248328256E-01
    54  -7.9671831998E-02  -2.6453206370E-01  2.9327627876E-01
    55  7.4810653251E-02  3.2592191840E-01  2.2248300310E-01
    56  7.9672885151E-02  2.6452992392E-01  -2.9327631152E-01
    57  8.2631036043E-01  -9.4197440593E-02  6.1931952688E-01
    58  1.0158865058E+00  1.8717793560E-01  9.4958768035E-01
    59  -8.2630754648E-01  9.4196487437E-02  -6.1931705528E-01
    60  -1.0158880029E+00  -1.8717833264E-01  -9.4958893879E-01
    61  -3.1999101976E-01  3.9814251092E-01  1.4489693911E-01
    62  -3.0496159532E+00  -1.4623295670E+00  2.1206752381E+00
    63  3.2000124874E-01  -3.9814920172E-01  -1.4490419426E-01
    64  3.0496162213E+00  1.4623298682E+00  -2.1206745243E+00
    65  1.5855753329E+00  -1.5023718471E+00  -1.0815239078E+00
    66  -1.9635254331E+00  -1.3862695463E+00  2.5425262271E+00
    67  -1.5855757391E+00  1.5023640812E+00  1.0815161841E+00
    68  1.9635232964E+00  1.3862730913E+00  -2.5425219019E+00
    69  -1.7209202606E-01  -8.3122171356E-01  9.8370411100E-02
    70  2.4819364822E-01  -9.0326926071E-01  -1.5393895510E-01
    71  1.7209368292E-01  8.3122739839E-01  -9.8369135427E-02
    72  -2.4819340843E-01  9.0326692940E-01  1.5393932864E-01
    73  2.2761524021E-01  4.3172651317E-01  -9.3409056438E-01
    74  6.0474124599E-02  3.1521464570E-01  -2.4511293614E-01
    75  -2.2761602927E-01  -4.3172682774E-01  9.3409336557E-01
    76  -6.0472980449E-02  -3.1521522077E-01  2.4510885534E-01
    77  7.7121503366E-01  -6.0176317651E-02  4.5328041160E-01
    78  -9.3643886286E-01  -6.3898125995E-02  -5.5141126260E-01
    79  -7.7121240966E-01  6.0175971858E-02  -4.5327964020E-01
    80  9.3643896453E-01  6.3898066534E-02  5.5141126328E-01
    81  5.6186803399E-01  2.6783853493E+00  3.4240851139E-01
    82  -5.7261216580E-01  2.7426877001E+00  -3.3380341191E-01
    83  -5.6187855927E-01  -2.6783657352E+00  -3.4240453871E-01
    84  5.7261243293E-01  -2.7426891960E+00  3.3380239510E-01
    85  9.2544809126E-01  3.7400341487E-02  5.1415758218E-01
    86  -9.3949636266E-01  5.9649185579E-02  -5.0923362359E-01
    87  -9.2544472207E-01  -3.7399954026E-02  -5.1415582999E-01
    88  9.3949593694E-01  -5.9649141087E-02  5.0923351967E-01
    89  1.2446815124E-01  2.3574560176E-01  -7.9451803984E-01
    90  -1.3539396649E-01  2.5546481207E-01  7.9932072686E-01
    91  -1.2446836668E-01  -2.3574783317E-01  7.9452123277E-01
    92  1.3539397701E-01  -2.5546389237E-01  -7.9931984590E-01
    93  -2.2581551909E-01  1.7021421147E-01  3.5386798178E-01
    94  2.2439260636E-01  1.9206866292E-01  -3.4977642134E-01
    95  2.2582509049E-01  -1.7022632240E-01  -3.5387579623E-01
    96  -2.2439178311E-01  -1.9206787913E-01  3.4977600975E-01
  Stress tensor (eV/A^3):
  7.5503090754E-02  -3.4391993730E-03  2.5417026590E-02
  -3.4391993730E-03  8.1391294542E-02  7.5748390892E-04
  2.5417026590E-02  7.5748390892E-04  6.3375307572E-02
