  Invoking FHI-aims ...
  | Number of atoms                   :  96
  ...scf iterations...
  | Total energy corrected        :   -9.655181905887E+01 eV
  ...
  Total atomic forces (unitary forces cleaned)
     1  -3.1761467495E-01  6.2643828760E-01  2.0165758630E-01
     2  2.3344237869E-01  5.9159097229E-01  -1.8772978218E-01
     3  3.1761472808E-01  -6.2643817638E-01  -2.0165751785E-01
     4  -2.3344223208E-01  -5.9159074415E-01  1.8772982279E-01
     5  -7.2410130187E-01  4.8816810644E-01  -4.7734053527E-01
     6  1.1459075272E+00  -2.1025036572E+00  3.0611844206E+00
     7  7.2410160196E-01  -4.8816795985E-01  4.7734089309E-01
     8  -1.1459078941E+00  2.1025035492E+00  -3.0611841404E+00
     9  -4.6519487003E-01  3.5300088322E-01  -2.0662024600E-01
    10  -1.1237626158E+00  -1.4739792672E+00  2.0399438265E-01
    11  4.6519446934E-01  -3.5300053351E-01  2.0661992867E-01
    12  1.1237643659E+00  1.4739810035E+00  -2.0399450498E-01
    13  -5.7065905147E-01  -1.0781473673E+00  -1.1845756422E+00
    14  2.0929387208E+00  6.2159848470E-01  1.2519394400E+00
    15  5.7065842262E-01  1.0781475233E+00  1.1845753235E+00
    16  -2.0929410750E+00  -6.2160008999E-01  -1.2519382521E+00
    17  4.9310041332E-01  -6.7004325544E-01  -4.8736689829E-02
    18  -1.3531805187E+00  7.3533821120E-01  -1.6648273838E+00
    19  -4.9309946164E-01  6.7004324365E-01  4.8737306246E-02
    20  1.3531816593E+00  -7.3533915485E-01  1.6648277025E+00
    21  6.6113734489E-01  -1.2417560847E+00  -2.4410118097E-01
    22  -5.8240350613E-01  -1.2617103776E+00  3.7185318984E-01
    23  -6.6113788397E-01  1.2417565879E+00  2.4410061787E-01
    24  5.8240320925E-01  1.2617104352E+00  -3.7185340963E-01
    25  1.0937544988E+00  5.2732662801E-02  9.4110867094E-01
    26  -2.7705734245E-01  -1.5555365195E+00  8.3741786712E-01
    27  -1.0937551292E+00  -5.2733248218E-02  -9.4110948422E-01
    28  2.7705747575E-01  1.5555378665E+00  -8.3741899178E-01
    29  5.4518953873E-01  3.7286163631E-01  6.9619249089E-01
    30  -4.4976877901E-01  4.9931777474E-01  -7.3008797228E-01
    31  -5.4518942292E-01  -3.7286155539E-01  -6.9619240792E-01
    32  4.4976833867E-01  -4.9931796553E-01  7.3008758875E-01
    33  2.0463792124E-01  1.0639772318E+00  9.5101934431E-01
    34  -1.2690619065E-01  1.1806323968E+00  -8.7541453712E-01
    35  -2.0463797474E-01  -1.0639776409E+00  -9.5101917763E-01
    36  1.2690648295E-01  -1.1806328590E+00  8.7541434872E-01
    37  -7.9551998028E-01  5.3324992770E-01  -2.9544687721E-01
    38  8.1697519191E-01  6.5179527038E-01  2.0855098475E-01
    39  7.9551999591E-01  -5.3325013944E-01  2.9544683814E-01
    40  -8.1697522725E-01  -6.5179549589E-01  -2.0855054457E-01
    41  -8.8391682760E-01  1.1934188811E+00  6.9265970728E-02
    42  9.1620950307E-01  1.2357895926E+00  -7.5594518888E-02
    43  8.8391676362E-01  -1.1934188091E+00  -6.9265671437E-02
    44  -9.1620925901E-01  -1.2357893092E+00  7.5594745011E-02
    45  -8.7794005316E-01  1.4381475530E-01  -4.6632786241E-01
    46  -2.3338851276E+00  -3.2797956662E+00  -1.5501360909E+00
    47  8.7796029753E-01  -1.4381172120E-01  4.6634303361E-01
    48  2.3338846204E+00  3.2797967220E+00  1.5501323143E+00
    49  -3.9614935807E-01  2.8980634517E-01  9.5180559205E-01
    50  6.2962545256E-01  4.6697551730E+00  -3.7404454328E+00
    51  3.9614135292E-01  -2.8980221165E-01  -9.5181279500E-01
    52  -6.2962480376E-01  -4.6697564736E+00  3.7404452707E+00
    53  -1.2664201961E+00  -1.0494307125E+00  4.9565396975E-01
    54  1.4309931398E+00  -2.1590779627E+00  -9.8711968150E-01
    55  1.2664256957E+00  1.0494326862E+00  -4.9565753863E-01
    56  -1.4309915617E+00  2.1590768732E+00  9.8712043234E-01
    57  1.0606460067E+00  -1.7935659262E-01  9.6555911773E-01
    58  1.8010171322E+00  -2.2038436819E-01  2.2613664186E+00
    59  -1.0606488455E+00  1.7935566670E-01  -9.6556221089E-01
    60  -1.8010180532E+00  2.2038401129E-01  -2.2613641011E+00
    61  -3.0560000686E-01  1.6503886976E+00  1.2433235862E-01
    62  -3.1228367316E+00  -2.3015873542E+00  1.7373647712E+00
    63  3.0560840520E-01  -1.6503955145E+00  -1.2433818932E-01
    64  3.1228358992E+00  2.3015879656E+00  -1.7373633702E+00
    65  3.7446020097E-01  -7.1350730088E-01  1.8815578638E-01
    66  3.7859274483E+00  3.8796278753E+00  -1.4758078480E+00
    67  -3.7446745954E-01  7.1351327618E-01  -1.8815737207E-01
    68  -3.7859261251E+00  -3.8796285732E+00  1.4758087641E+00
    69  -1.2645723002E+00  -1.1512819978E+00  7.1482156838E-01
    70  9.2338751411E-01  -4.8913941906E-01  -6.1204429879E-01
    71  1.2645747184E+00  1.1512874214E+00  -7.1482046357E-01
    72  -9.2338750279E-01  4.8913982407E-01  6.1204451719E-01
    73  7.4123238200E-01  -4.8567781739E-01  -1.7427249584E+00
    74  -1.0178097228E+00  -1.6626330689E+00  3.0249337604E+00
    75  -7.4123351720E-01  4.8567796860E-01  1.7427290950E+00
    76  1.0178077022E+00  1.6626339794E+00  -3.0249340318E+00
    77  1.0652258444E+00  -3.0638025142E-01  7.0708367741E-01
    78  -1.4881426344E+00  -6.0688075262E-01  -1.0556316321E+00
    79  -1.0652279011E+00  3.0637986443E-01  -7.0708613846E-01
    80  1.4881432177E+00  6.0688099685E-01  1.0556308534E+00
    81  6.1397085335E-01  6.8073104365E-01  -2.4996313163E-01
    82  -4.3000572875E-01  7.5169374195E-01  3.3536095718E-01
    83  -6.1398116510E-01  -6.8073282889E-01  2.4995976799E-01
    84  4.3000665352E-01  -7.5169366388E-01  -3.3536280878E-01
    85  1.2127768217E+00  2.2408737141E-02  6.1118832673E-01
    86  -1.1894087393E+00  3.6841724616E-02  -4.5018226903E-01
    87  -1.2127809223E+00  -2.2409028069E-02  -6.1119015488E-01
    88  1.1894085239E+00  -3.6841827069E-02  4.5018226850E-01
    89  3.9673012745E-01  -4.8777201498E-01  -1.7353652025E+00
    90  -4.3162026189E-01  -4.3105539831E-01  1.8113869504E+00
    91  -3.9673178705E-01  4.8776815225E-01  1.7353724832E+00
    92  4.3161950475E-01  4.3105646786E-01  -1.8113855223E+00
    93  -5.1390424573E-01  1.5045983747E+00  1.1906396411E-01
    94  4.5112139049E-01  1.6328476321E+00  -4.4637102814E-02
    95  5.1390599402E-01  -1.5046053656E+00  -1.1906288743E-01
    96  -4.5112148213E-01  -1.6328484093E+00  4.4637080788E-02
  Stress tensor (eV/A^3):
  8.1521493146E-02  -1.2296745051E-02  2.2700016456E-02
  -1.2296745051E-02  7.8570559827E-02  9.0778427534E-03
  2.2700016456E-02  9.0778427534E-03  7.7264556971E-02
