64 
Energy: 2.6597570809914015e+00 
Mg	  0.000000000000 	  0.000000000000 	  0.000000000000 	
Mg	  1.000000000000 	  0.000000000000 	  2.980000000000 	
Mg	  0.000000000000 	  3.980000000000 	  0.000000000000 	
Mg	  1.000000000000 	  3.980000000000 	  2.980000000000 	
Mg	  3.980000000000 	  0.000000000000 	  0.000000000000 	
Mg	  4.980000000000 	  0.000000000000 	  2.980000000000 	
Mg	  3.980000000000 	  3.980000000000 	  0.000000000000 	
Mg	  4.980000000000 	  3.980000000000 	  2.980000000000 	
Mg	  1.715538961332 	  1.807025974221 	  0.000000000000 	
Mg	  2.715538961332 	  1.807025974221 	  2.980000000000 	
Mg	  1.715538961332 	  5.787025974221 	  0.000000000000 	
Mg	  2.715538961332 	  5.787025974221 	  2.980000000000 	
Mg	  5.695538961332 	  1.807025974221 	  0.000000000000 	
Mg	  6.695538961332 	  1.807025974221 	  2.980000000000 	
Mg	  5.695538961332 	  5.787025974221 	  0.000000000000 	
Mg	  6.695538961332 	  5.787025974221 	  2.980000000000 	
Mg	  2.447435064447 	  0.000000000000 	  1.532564935553 	
Mg	  3.447435064447 	  0.000000000000 	  4.512564935553 	
Mg	  2.447435064447 	  3.980000000000 	  1.532564935553 	
Mg	  3.447435064447 	  3.980000000000 	  4.512564935553 	
Mg	  6.427435064447 	  0.000000000000 	  1.532564935553 	
Mg	  7.427435064447 	  0.000000000000 	  4.512564935553 	
Mg	  6.427435064447 	  3.980000000000 	  1.532564935553 	
Mg	  7.427435064447 	  3.980000000000 	  4.512564935553 	
Mg	  0.457435064447 	  1.990000000000 	  1.532564935553 	
Mg	  1.457435064447 	  1.990000000000 	  4.512564935553 	
Mg	  0.457435064447 	  5.970000000000 	  1.532564935553 	
Mg	  1.457435064447 	  5.970000000000 	  4.512564935553 	
Mg	  4.437435064447 	  1.990000000000 	  1.532564935553 	
Mg	  5.437435064447 	  1.990000000000 	  4.512564935553 	
Mg	  4.437435064447 	  5.970000000000 	  1.532564935553 	
Mg	  5.437435064447 	  5.970000000000 	  4.512564935553 	
O	  1.990000000000 	  0.000000000000 	  0.000000000000 	
O	  2.990000000000 	  0.000000000000 	  2.980000000000 	
O	  1.990000000000 	  3.980000000000 	  0.000000000000 	
O	  2.990000000000 	  3.980000000000 	  2.980000000000 	
O	  5.970000000000 	  0.000000000000 	  0.000000000000 	
O	  6.970000000000 	  0.000000000000 	  2.980000000000 	
O	  5.970000000000 	  3.980000000000 	  0.000000000000 	
O	  6.970000000000 	  3.980000000000 	  2.980000000000 	
O	  0.000000000000 	  1.990000000000 	  0.000000000000 	
O	  1.000000000000 	  1.990000000000 	  2.980000000000 	
O	  0.000000000000 	  5.970000000000 	  0.000000000000 	
O	  1.000000000000 	  5.970000000000 	  2.980000000000 	
O	  3.980000000000 	  1.990000000000 	  0.000000000000 	
O	  4.980000000000 	  1.990000000000 	  2.980000000000 	
O	  3.980000000000 	  5.970000000000 	  0.000000000000 	
O	  4.980000000000 	  5.970000000000 	  2.980000000000 	
O	  0.457435064447 	  0.000000000000 	  1.532564935553 	
O	  1.457435064447 	  0.000000000000 	  4.512564935553 	
O	  0.457435064447 	  3.980000000000 	  1.532564935553 	
O	  1.457435064447 	  3.980000000000 	  4.512564935553 	
O	  4.437435064447 	  0.000000000000 	  1.532564935553 	
O	  5.437435064447 	  0.000000000000 	  4.512564935553 	
O	  4.437435064447 	  3.980000000000 	  1.532564935553 	
O	  5.437435064447 	  3.980000000000 	  4.512564935553 	
O	  2.813383116005 	  1.388930325316 	  1.532564935553 	
O	  3.813383116005 	  1.388930325316 	  4.512564935553 	
O	  2.813383116005 	  5.368930325316 	  1.532564935553 	
O	  3.813383116005 	  5.368930325316 	  4.512564935553 	
O	  6.793383116005 	  1.388930325316 	  1.532564935553 	
O	  7.793383116005 	  1.388930325316 	  4.512564935553 	
O	  6.793383116005 	  5.368930325316 	  1.532564935553 	
O	  7.793383116005 	  5.368930325316 	  4.512564935553 	
64 
Energy: 2.7150821648420185e+00 
Mg	  0.000000000000 	  0.000000000000 	  0.000000000000 	
Mg	  1.000000000000 	  0.000000000000 	  2.980000000000 	
Mg	  0.000000000000 	  3.980000000000 	  0.000000000000 	
Mg	  1.000000000000 	  3.980000000000 	  2.980000000000 	
Mg	  3.980000000000 	  0.000000000000 	  0.000000000000 	
Mg	  4.980000000000 	  0.000000000000 	  2.980000000000 	
Mg	  3.980000000000 	  3.980000000000 	  0.000000000000 	
Mg	  4.980000000000 	  3.980000000000 	  2.980000000000 	
Mg	  1.740773764237 	  1.826707297282 	  0.000000000000 	
Mg	  2.740773764237 	  1.826707297282 	  2.980000000000 	
Mg	  1.740773764237 	  5.806707297282 	  0.000000000000 	
Mg	  2.740773764237 	  5.806707297282 	  2.980000000000 	
Mg	  5.720773764237 	  1.826707297282 	  0.000000000000 	
Mg	  6.720773764237 	  1.826707297282 	  2.980000000000 	
Mg	  5.720773764237 	  5.806707297282 	  0.000000000000 	
Mg	  6.720773764237 	  5.806707297282 	  2.980000000000 	
Mg	  2.428242028594 	  0.000000000000 	  1.568906698148 	
Mg	  3.428242028594 	  0.000000000000 	  4.548906698148 	
Mg	  2.428242028594 	  3.980000000000 	  1.568906698148 	
Mg	  3.428242028594 	  3.980000000000 	  4.548906698148 	
Mg	  6.408242028594 	  0.000000000000 	  1.568906698148 	
Mg	  7.408242028594 	  0.000000000000 	  4.548906698148 	
Mg	  6.408242028594 	  3.980000000000 	  1.568906698148 	
Mg	  7.408242028594 	  3.980000000000 	  4.548906698148 	
Mg	  0.429667665223 	  1.998574363371 	  1.568906698148 	
Mg	  1.429667665223 	  1.998574363371 	  4.548906698148 	
Mg	  0.429667665223 	  5.978574363371 	  1.568906698148 	
Mg	  1.429667665223 	  5.978574363371 	  4.548906698148 	
Mg	  4.409667665223 	  1.998574363371 	  1.568906698148 	
Mg	  5.409667665223 	  1.998574363371 	  4.548906698148 	
Mg	  4.409667665223 	  5.978574363371 	  1.568906698148 	
Mg	  5.409667665223 	  5.978574363371 	  4.548906698148 	
O	  1.998574363371 	  0.000000000000 	  0.000000000000 	
O	  2.998574363371 	  0.000000000000 	  2.980000000000 	
O	  1.998574363371 	  3.980000000000 	  0.000000000000 	
O	  2.998574363371 	  3.980000000000 	  2.980000000000 	
O	  5.978574363371 	  0.000000000000 	  0.000000000000 	
O	  6.978574363371 	  0.000000000000 	  2.980000000000 	
O	  5.978574363371 	  3.980000000000 	  0.000000000000 	
O	  6.978574363371 	  3.980000000000 	  2.980000000000 	
O	  0.000000000000 	  1.998574363371 	  0.000000000000 	
O	  1.000000000000 	  1.998574363371 	  2.980000000000 	
O	  0.000000000000 	  5.978574363371 	  0.000000000000 	
O	  1.000000000000 	  5.978574363371 	  2.980000000000 	
O	  3.980000000000 	  1.998574363371 	  0.000000000000 	
O	  4.980000000000 	  1.998574363371 	  2.980000000000 	
O	  3.980000000000 	  5.978574363371 	  0.000000000000 	
O	  4.980000000000 	  5.978574363371 	  2.980000000000 	
O	  0.429667665223 	  0.000000000000 	  1.568906698148 	
O	  1.429667665223 	  0.000000000000 	  4.548906698148 	
O	  0.429667665223 	  3.980000000000 	  1.568906698148 	
O	  1.429667665223 	  3.980000000000 	  4.548906698148 	
O	  4.409667665223 	  0.000000000000 	  1.568906698148 	
O	  5.409667665223 	  0.000000000000 	  4.548906698148 	
O	  4.409667665223 	  3.980000000000 	  1.568906698148 	
O	  5.409667665223 	  3.980000000000 	  4.548906698148 	
O	  2.771976160772 	  1.433991051268 	  1.568906698148 	
O	  3.771976160772 	  1.433991051268 	  4.548906698148 	
O	  2.771976160772 	  5.413991051268 	  1.568906698148 	
O	  3.771976160772 	  5.413991051268 	  4.548906698148 	
O	  6.751976160772 	  1.433991051268 	  1.568906698148 	
O	  7.751976160772 	  1.433991051268 	  4.548906698148 	
O	  6.751976160772 	  5.413991051268 	  1.568906698148 	
O	  7.751976160772 	  5.413991051268 	  4.548906698148 	
64 
Energy: 3.1716040739245992e+00 
Mg	  0.000000000000 	  0.000000000000 	  0.000000000000 	
Mg	  1.000000000000 	  0.000000000000 	  2.980000000000 	
Mg	  0.000000000000 	  3.980000000000 	  0.000000000000 	
Mg	  1.000000000000 	  3.980000000000 	  2.980000000000 	
Mg	  3.980000000000 	  0.000000000000 	  0.000000000000 	
Mg	  4.980000000000 	  0.000000000000 	  2.980000000000 	
Mg	  3.980000000000 	  3.980000000000 	  0.000000000000 	
Mg	  4.980000000000 	  3.980000000000 	  2.980000000000 	
Mg	  1.766319493453 	  1.846532194109 	  0.000000000000 	
Mg	  2.766319493453 	  1.846532194109 	  2.980000000000 	
Mg	  1.766319493453 	  5.826532194109 	  0.000000000000 	
Mg	  2.766319493453 	  5.826532194109 	  2.980000000000 	
Mg	  5.746319493453 	  1.846532194109 	  0.000000000000 	
Mg	  6.746319493453 	  1.846532194109 	  2.980000000000 	
Mg	  5.746319493453 	  5.826532194109 	  0.000000000000 	
Mg	  6.746319493453 	  5.826532194109 	  2.980000000000 	
Mg	  2.408021098705 	  0.000000000000 	  1.605894092140 	
Mg	  3.408021098705 	  0.000000000000 	  4.585894092140 	
Mg	  2.408021098705 	  3.980000000000 	  1.605894092140 	
Mg	  3.408021098705 	  3.980000000000 	  4.585894092140 	
Mg	  6.388021098705 	  0.000000000000 	  1.605894092140 	
Mg	  7.388021098705 	  0.000000000000 	  4.585894092140 	
Mg	  6.388021098705 	  3.980000000000 	  1.605894092140 	
Mg	  7.388021098705 	  3.980000000000 	  4.585894092140 	
Mg	  0.401063503283 	  2.006957595423 	  1.605894092140 	
Mg	  1.401063503283 	  2.006957595423 	  4.585894092140 	
Mg	  0.401063503283 	  5.986957595423 	  1.605894092140 	
Mg	  1.401063503283 	  5.986957595423 	  4.585894092140 	
Mg	  4.381063503283 	  2.006957595423 	  1.605894092140 	
Mg	  5.381063503283 	  2.006957595423 	  4.585894092140 	
Mg	  4.381063503283 	  5.986957595423 	  1.605894092140 	
Mg	  5.381063503283 	  5.986957595423 	  4.585894092140 	
O	  2.006957595423 	  0.000000000000 	  0.000000000000 	
O	  3.006957595423 	  0.000000000000 	  2.980000000000 	
O	  2.006957595423 	  3.980000000000 	  0.000000000000 	
O	  3.006957595423 	  3.980000000000 	  2.980000000000 	
O	  5.986957595423 	  0.000000000000 	  0.000000000000 	
O	  6.986957595423 	  0.000000000000 	  2.980000000000 	
O	  5.986957595423 	  3.980000000000 	  0.000000000000 	
O	  6.986957595423 	  3.980000000000 	  2.980000000000 	
O	  0.000000000000 	  2.006957595423 	  0.000000000000 	
O	  1.000000000000 	  2.006957595423 	  2.980000000000 	
O	  0.000000000000 	  5.986957595423 	  0.000000000000 	
O	  1.000000000000 	  5.986957595423 	  2.980000000000 	
O	  3.980000000000 	  2.006957595423 	  0.000000000000 	
O	  4.980000000000 	  2.006957595423 	  2.980000000000 	
O	  3.980000000000 	  5.986957595423 	  0.000000000000 	
O	  4.980000000000 	  5.986957595423 	  2.980000000000 	
O	  0.401063503283 	  0.000000000000 	  1.605894092140 	
O	  1.401063503283 	  0.000000000000 	  4.585894092140 	
O	  0.401063503283 	  3.980000000000 	  1.605894092140 	
O	  1.401063503283 	  3.980000000000 	  4.585894092140 	
O	  4.381063503283 	  0.000000000000 	  1.605894092140 	
O	  5.381063503283 	  0.000000000000 	  4.585894092140 	
O	  4.381063503283 	  3.980000000000 	  1.605894092140 	
O	  5.381063503283 	  3.980000000000 	  4.585894092140 	
O	  2.728871901332 	  1.479960152109 	  1.605894092140 	
O	  3.728871901332 	  1.479960152109 	  4.585894092140 	
O	  2.728871901332 	  5.459960152109 	  1.605894092140 	
O	  3.728871901332 	  5.459960152109 	  4.585894092140 	
O	  6.708871901332 	  1.479960152109 	  1.605894092140 	
O	  7.708871901332 	  1.479960152109 	  4.585894092140 	
O	  6.708871901332 	  5.459960152109 	  1.605894092140 	
O	  7.708871901332 	  5.459960152109 	  4.585894092140 	
64 
Energy: 3.8175456735226034e+00 
Mg	  0.000000000000 	  0.000000000000 	  0.000000000000 	
Mg	  1.000000000000 	  0.000000000000 	  2.980000000000 	
Mg	  0.000000000000 	  3.980000000000 	  0.000000000000 	
Mg	  1.000000000000 	  3.980000000000 	  2.980000000000 	
Mg	  3.980000000000 	  0.000000000000 	  0.000000000000 	
Mg	  4.980000000000 	  0.000000000000 	  2.980000000000 	
Mg	  3.980000000000 	  3.980000000000 	  0.000000000000 	
Mg	  4.980000000000 	  3.980000000000 	  2.980000000000 	
Mg	  1.791900228504 	  1.866389411612 	  0.000000000000 	
Mg	  2.791900228504 	  1.866389411612 	  2.980000000000 	
Mg	  1.791900228504 	  5.846389411612 	  0.000000000000 	
Mg	  2.791900228504 	  5.846389411612 	  2.980000000000 	
Mg	  5.771900228504 	  1.866389411612 	  0.000000000000 	
Mg	  6.771900228504 	  1.866389411612 	  2.980000000000 	
Mg	  5.771900228504 	  5.846389411612 	  0.000000000000 	
Mg	  6.771900228504 	  5.846389411612 	  2.980000000000 	
Mg	  2.387813693373 	  0.000000000000 	  1.642921862286 	
Mg	  3.387813693373 	  0.000000000000 	  4.622921862286 	
Mg	  2.387813693373 	  3.980000000000 	  1.642921862286 	
Mg	  3.387813693373 	  3.980000000000 	  4.622921862286 	
Mg	  6.367813693373 	  0.000000000000 	  1.642921862286 	
Mg	  7.367813693373 	  0.000000000000 	  4.622921862286 	
Mg	  6.367813693373 	  3.980000000000 	  1.642921862286 	
Mg	  7.367813693373 	  3.980000000000 	  4.622921862286 	
Mg	  0.372445915543 	  2.015367777830 	  1.642921862286 	
Mg	  1.372445915543 	  2.015367777830 	  4.622921862286 	
Mg	  0.372445915543 	  5.995367777830 	  1.642921862286 	
Mg	  1.372445915543 	  5.995367777830 	  4.622921862286 	
Mg	  4.352445915543 	  2.015367777830 	  1.642921862286 	
Mg	  5.352445915543 	  2.015367777830 	  4.622921862286 	
Mg	  4.352445915543 	  5.995367777830 	  1.642921862286 	
Mg	  5.352445915543 	  5.995367777830 	  4.622921862286 	
O	  2.015367777830 	  0.000000000000 	  0.000000000000 	
O	  3.015367777830 	  0.000000000000 	  2.980000000000 	
O	  2.015367777830 	  3.980000000000 	  0.000000000000 	
O	  3.015367777830 	  3.980000000000 	  2.980000000000 	
O	  5.995367777830 	  0.000000000000 	  0.000000000000 	
O	  6.995367777830 	  0.000000000000 	  2.980000000000 	
O	  5.995367777830 	  3.980000000000 	  0.000000000000 	
O	  6.995367777830 	  3.980000000000 	  2.980000000000 	
O	  0.000000000000 	  2.015367777830 	  0.000000000000 	
O	  1.000000000000 	  2.015367777830 	  2.980000000000 	
O	  0.000000000000 	  5.995367777830 	  0.000000000000 	
O	  1.000000000000 	  5.995367777830 	  2.980000000000 	
O	  3.980000000000 	  2.015367777830 	  0.000000000000 	
O	  4.980000000000 	  2.015367777830 	  2.980000000000 	
O	  3.980000000000 	  5.995367777830 	  0.000000000000 	
O	  4.980000000000 	  5.995367777830 	  2.980000000000 	
O	  0.372445915543 	  0.000000000000 	  1.642921862286 	
O	  1.372445915543 	  0.000000000000 	  4.622921862286 	
O	  0.372445915543 	  3.980000000000 	  1.642921862286 	
O	  1.372445915543 	  3.980000000000 	  4.622921862286 	
O	  4.352445915543 	  0.000000000000 	  1.642921862286 	
O	  5.352445915543 	  0.000000000000 	  4.622921862286 	
O	  4.352445915543 	  3.980000000000 	  1.642921862286 	
O	  5.352445915543 	  3.980000000000 	  4.622921862286 	
O	  2.685770425808 	  1.525973844806 	  1.642921862286 	
O	  3.685770425808 	  1.525973844806 	  4.622921862286 	
O	  2.685770425808 	  5.505973844806 	  1.642921862286 	
O	  3.685770425808 	  5.505973844806 	  4.622921862286 	
O	  6.665770425808 	  1.525973844806 	  1.642921862286 	
O	  7.665770425808 	  1.525973844806 	  4.622921862286 	
O	  6.665770425808 	  5.505973844806 	  1.642921862286 	
O	  7.665770425808 	  5.505973844806 	  4.622921862286 	
64 
Energy: 4.4896788037521516e+00 
Mg	  0.000000000000 	  0.000000000000 	  0.000000000000 	
Mg	  1.000000000000 	  0.000000000000 	  2.980000000000 	
Mg	  0.000000000000 	  3.980000000000 	  0.000000000000 	
Mg	  1.000000000000 	  3.980000000000 	  2.980000000000 	
Mg	  3.980000000000 	  0.000000000000 	  0.000000000000 	
Mg	  4.980000000000 	  0.000000000000 	  2.980000000000 	
Mg	  3.980000000000 	  3.980000000000 	  0.000000000000 	
Mg	  4.980000000000 	  3.980000000000 	  2.980000000000 	
Mg	  1.817522725425 	  1.886280264114 	  0.000000000000 	
Mg	  2.817522725425 	  1.886280264114 	  2.980000000000 	
Mg	  1.817522725425 	  5.866280264114 	  0.000000000000 	
Mg	  2.817522725425 	  5.866280264114 	  2.980000000000 	
Mg	  5.797522725425 	  1.886280264114 	  0.000000000000 	
Mg	  6.797522725425 	  1.886280264114 	  2.980000000000 	
Mg	  5.797522725425 	  5.866280264114 	  0.000000000000 	
Mg	  6.797522725425 	  5.866280264114 	  2.980000000000 	
Mg	  2.367583034935 	  0.000000000000 	  1.680007648047 	
Mg	  3.367583034935 	  0.000000000000 	  4.660007648047 	
Mg	  2.367583034935 	  3.980000000000 	  1.680007648047 	
Mg	  3.367583034935 	  3.980000000000 	  4.660007648047 	
Mg	  6.347583034935 	  0.000000000000 	  1.680007648047 	
Mg	  7.347583034935 	  0.000000000000 	  4.660007648047 	
Mg	  6.347583034935 	  3.980000000000 	  1.680007648047 	
Mg	  7.347583034935 	  3.980000000000 	  4.660007648047 	
Mg	  0.343787693444 	  2.023795341491 	  1.680007648047 	
Mg	  1.343787693444 	  2.023795341491 	  4.660007648047 	
Mg	  0.343787693444 	  6.003795341491 	  1.680007648047 	
Mg	  1.343787693444 	  6.003795341491 	  4.660007648047 	
Mg	  4.323787693444 	  2.023795341491 	  1.680007648047 	
Mg	  5.323787693444 	  2.023795341491 	  4.660007648047 	
Mg	  4.323787693444 	  6.003795341491 	  1.680007648047 	
Mg	  5.323787693444 	  6.003795341491 	  4.660007648047 	
O	  2.023795341491 	  0.000000000000 	  0.000000000000 	
O	  3.023795341491 	  0.000000000000 	  2.980000000000 	
O	  2.023795341491 	  3.980000000000 	  0.000000000000 	
O	  3.023795341491 	  3.980000000000 	  2.980000000000 	
O	  6.003795341491 	  0.000000000000 	  0.000000000000 	
O	  7.003795341491 	  0.000000000000 	  2.980000000000 	
O	  6.003795341491 	  3.980000000000 	  0.000000000000 	
O	  7.003795341491 	  3.980000000000 	  2.980000000000 	
O	  0.000000000000 	  2.023795341491 	  0.000000000000 	
O	  1.000000000000 	  2.023795341491 	  2.980000000000 	
O	  0.000000000000 	  6.003795341491 	  0.000000000000 	
O	  1.000000000000 	  6.003795341491 	  2.980000000000 	
O	  3.980000000000 	  2.023795341491 	  0.000000000000 	
O	  4.980000000000 	  2.023795341491 	  2.980000000000 	
O	  3.980000000000 	  6.003795341491 	  0.000000000000 	
O	  4.980000000000 	  6.003795341491 	  2.980000000000 	
O	  0.343787693444 	  0.000000000000 	  1.680007648047 	
O	  1.343787693444 	  0.000000000000 	  4.660007648047 	
O	  0.343787693444 	  3.980000000000 	  1.680007648047 	
O	  1.343787693444 	  3.980000000000 	  4.660007648047 	
O	  4.323787693444 	  0.000000000000 	  1.680007648047 	
O	  5.323787693444 	  0.000000000000 	  4.660007648047 	
O	  4.323787693444 	  3.980000000000 	  1.680007648047 	
O	  5.323787693444 	  3.980000000000 	  4.660007648047 	
O	  2.642613189690 	  1.572058312306 	  1.680007648047 	
O	  3.642613189690 	  1.572058312306 	  4.660007648047 	
O	  2.642613189690 	  5.552058312306 	  1.680007648047 	
O	  3.642613189690 	  5.552058312306 	  4.660007648047 	
O	  6.622613189690 	  1.572058312306 	  1.680007648047 	
O	  7.622613189690 	  1.572058312306 	  4.660007648047 	
O	  6.622613189690 	  5.552058312306 	  1.680007648047 	
O	  7.622613189690 	  5.552058312306 	  4.660007648047 	
64 
Energy: 5.0756655760726650e+00 
Mg	  0.000000000000 	  0.000000000000 	  0.000000000000 	
Mg	  1.000000000000 	  0.000000000000 	  2.980000000000 	
Mg	  0.000000000000 	  3.980000000000 	  0.000000000000 	
Mg	  1.000000000000 	  3.980000000000 	  2.980000000000 	
Mg	  3.980000000000 	  0.000000000000 	  0.000000000000 	
Mg	  4.980000000000 	  0.000000000000 	  2.980000000000 	
Mg	  3.980000000000 	  3.980000000000 	  0.000000000000 	
Mg	  4.980000000000 	  3.980000000000 	  2.980000000000 	
Mg	  1.843170402852 	  1.906192500663 	  0.000000000000 	
Mg	  2.843170402852 	  1.906192500663 	  2.980000000000 	
Mg	  1.843170402852 	  5.886192500663 	  0.000000000000 	
Mg	  2.843170402852 	  5.886192500663 	  2.980000000000 	
Mg	  5.823170402852 	  1.906192500663 	  0.000000000000 	
Mg	  6.823170402852 	  1.906192500663 	  2.980000000000 	
Mg	  5.823170402852 	  5.886192500663 	  0.000000000000 	
Mg	  6.823170402852 	  5.886192500663 	  2.980000000000 	
Mg	  2.347347185342 	  0.000000000000 	  1.717126207230 	
Mg	  3.347347185342 	  0.000000000000 	  4.697126207230 	
Mg	  2.347347185342 	  3.980000000000 	  1.717126207230 	
Mg	  3.347347185342 	  3.980000000000 	  4.697126207230 	
Mg	  6.327347185342 	  0.000000000000 	  1.717126207230 	
Mg	  7.327347185342 	  0.000000000000 	  4.697126207230 	
Mg	  6.327347185342 	  3.980000000000 	  1.717126207230 	
Mg	  7.327347185342 	  3.980000000000 	  4.697126207230 	
Mg	  0.315110489056 	  2.032236696286 	  1.717126207230 	
Mg	  1.315110489056 	  2.032236696286 	  4.697126207230 	
Mg	  0.315110489056 	  6.012236696286 	  1.717126207230 	
Mg	  1.315110489056 	  6.012236696286 	  4.697126207230 	
Mg	  4.295110489056 	  2.032236696286 	  1.717126207230 	
Mg	  5.295110489056 	  2.032236696286 	  4.697126207230 	
Mg	  4.295110489056 	  6.012236696286 	  1.717126207230 	
Mg	  5.295110489056 	  6.012236696286 	  4.697126207230 	
O	  2.032236696286 	  0.000000000000 	  0.000000000000 	
O	  3.032236696286 	  0.000000000000 	  2.980000000000 	
O	  2.032236696286 	  3.980000000000 	  0.000000000000 	
O	  3.032236696286 	  3.980000000000 	  2.980000000000 	
O	  6.012236696286 	  0.000000000000 	  0.000000000000 	
O	  7.012236696286 	  0.000000000000 	  2.980000000000 	
O	  6.012236696286 	  3.980000000000 	  0.000000000000 	
O	  7.012236696286 	  3.980000000000 	  2.980000000000 	
O	  0.000000000000 	  2.032236696286 	  0.000000000000 	
O	  1.000000000000 	  2.032236696286 	  2.980000000000 	
O	  0.000000000000 	  6.012236696286 	  0.000000000000 	
O	  1.000000000000 	  6.012236696286 	  2.980000000000 	
O	  3.980000000000 	  2.032236696286 	  0.000000000000 	
O	  4.980000000000 	  2.032236696286 	  2.980000000000 	
O	  3.980000000000 	  6.012236696286 	  0.000000000000 	
O	  4.980000000000 	  6.012236696286 	  2.980000000000 	
O	  0.315110489056 	  0.000000000000 	  1.717126207230 	
O	  1.315110489056 	  0.000000000000 	  4.697126207230 	
O	  0.315110489056 	  3.980000000000 	  1.717126207230 	
O	  1.315110489056 	  3.980000000000 	  4.697126207230 	
O	  4.295110489056 	  0.000000000000 	  1.717126207230 	
O	  5.295110489056 	  0.000000000000 	  4.697126207230 	
O	  4.295110489056 	  3.980000000000 	  1.717126207230 	
O	  5.295110489056 	  3.980000000000 	  4.697126207230 	
O	  2.599435576587 	  1.618181513666 	  1.717126207230 	
O	  3.599435576587 	  1.618181513666 	  4.697126207230 	
O	  2.599435576587 	  5.598181513666 	  1.717126207230 	
O	  3.599435576587 	  5.598181513666 	  4.697126207230 	
O	  6.579435576587 	  1.618181513666 	  1.717126207230 	
O	  7.579435576587 	  1.618181513666 	  4.697126207230 	
O	  6.579435576587 	  5.598181513666 	  1.717126207230 	
O	  7.579435576587 	  5.598181513666 	  4.697126207230 	
64 
Energy: 5.4976348133026676e+00 
Mg	  0.000000000000 	  0.000000000000 	  0.000000000000 	
Mg	  1.000000000000 	  0.000000000000 	  2.980000000000 	
Mg	  0.000000000000 	  3.980000000000 	  0.000000000000 	
Mg	  1.000000000000 	  3.980000000000 	  2.980000000000 	
Mg	  3.980000000000 	  0.000000000000 	  0.000000000000 	
Mg	  4.980000000000 	  0.000000000000 	  2.980000000000 	
Mg	  3.980000000000 	  3.980000000000 	  0.000000000000 	
Mg	  4.980000000000 	  3.980000000000 	  2.980000000000 	
Mg	  1.868836776260 	  1.926120122077 	  0.000000000000 	
Mg	  2.868836776260 	  1.926120122077 	  2.980000000000 	
Mg	  1.868836776260 	  5.906120122077 	  0.000000000000 	
Mg	  2.868836776260 	  5.906120122077 	  2.980000000000 	
Mg	  5.848836776260 	  1.926120122077 	  0.000000000000 	
Mg	  6.848836776260 	  1.926120122077 	  2.980000000000 	
Mg	  5.848836776260 	  5.906120122077 	  0.000000000000 	
Mg	  6.848836776260 	  5.906120122077 	  2.980000000000 	
Mg	  2.327103542800 	  0.000000000000 	  1.754270084625 	
Mg	  3.327103542800 	  0.000000000000 	  4.734270084625 	
Mg	  2.327103542800 	  3.980000000000 	  1.754270084625 	
Mg	  3.327103542800 	  3.980000000000 	  4.734270084625 	
Mg	  6.307103542800 	  0.000000000000 	  1.754270084625 	
Mg	  7.307103542800 	  0.000000000000 	  4.734270084625 	
Mg	  6.307103542800 	  3.980000000000 	  1.754270084625 	
Mg	  7.307103542800 	  3.980000000000 	  4.734270084625 	
Mg	  0.286416729087 	  2.040686813712 	  1.754270084625 	
Mg	  1.286416729087 	  2.040686813712 	  4.734270084625 	
Mg	  0.286416729087 	  6.020686813712 	  1.754270084625 	
Mg	  1.286416729087 	  6.020686813712 	  4.734270084625 	
Mg	  4.266416729087 	  2.040686813712 	  1.754270084625 	
Mg	  5.266416729087 	  2.040686813712 	  4.734270084625 	
Mg	  4.266416729087 	  6.020686813712 	  1.754270084625 	
Mg	  5.266416729087 	  6.020686813712 	  4.734270084625 	
O	  2.040686813712 	  0.000000000000 	  0.000000000000 	
O	  3.040686813712 	  0.000000000000 	  2.980000000000 	
O	  2.040686813712 	  3.980000000000 	  0.000000000000 	
O	  3.040686813712 	  3.980000000000 	  2.980000000000 	
O	  6.020686813712 	  0.000000000000 	  0.000000000000 	
O	  7.020686813712 	  0.000000000000 	  2.980000000000 	
O	  6.020686813712 	  3.980000000000 	  0.000000000000 	
O	  7.020686813712 	  3.980000000000 	  2.980000000000 	
O	  0.000000000000 	  2.040686813712 	  0.000000000000 	
O	  1.000000000000 	  2.040686813712 	  2.980000000000 	
O	  0.000000000000 	  6.020686813712 	  0.000000000000 	
O	  1.000000000000 	  6.020686813712 	  2.980000000000 	
O	  3.980000000000 	  2.040686813712 	  0.000000000000 	
O	  4.980000000000 	  2.040686813712 	  2.980000000000 	
O	  3.980000000000 	  6.020686813712 	  0.000000000000 	
O	  4.980000000000 	  6.020686813712 	  2.980000000000 	
O	  0.286416729087 	  0.000000000000 	  1.754270084625 	
O	  1.286416729087 	  0.000000000000 	  4.734270084625 	
O	  0.286416729087 	  3.980000000000 	  1.754270084625 	
O	  1.286416729087 	  3.980000000000 	  4.734270084625 	
O	  4.266416729087 	  0.000000000000 	  1.754270084625 	
O	  5.266416729087 	  0.000000000000 	  4.734270084625 	
O	  4.266416729087 	  3.980000000000 	  1.754270084625 	
O	  5.266416729087 	  3.980000000000 	  4.734270084625 	
O	  2.556236926069 	  1.664335231692 	  1.754270084625 	
O	  3.556236926069 	  1.664335231692 	  4.734270084625 	
O	  2.556236926069 	  5.644335231692 	  1.754270084625 	
O	  3.556236926069 	  5.644335231692 	  4.734270084625 	
O	  6.536236926069 	  1.664335231692 	  1.754270084625 	
O	  7.536236926069 	  1.664335231692 	  4.734270084625 	
O	  6.536236926069 	  5.644335231692 	  1.754270084625 	
O	  7.536236926069 	  5.644335231692 	  4.734270084625 	
64 
Energy: 5.7048266281248043e+00 
Mg	  0.000000000000 	  0.000000000000 	  0.000000000000 	
Mg	  1.000000000000 	  0.000000000000 	  2.980000000000 	
Mg	  0.000000000000 	  3.980000000000 	  0.000000000000 	
Mg	  1.000000000000 	  3.980000000000 	  2.980000000000 	
Mg	  3.980000000000 	  0.000000000000 	  0.000000000000 	
Mg	  4.980000000000 	  0.000000000000 	  2.980000000000 	
Mg	  3.980000000000 	  3.980000000000 	  0.000000000000 	
Mg	  4.980000000000 	  3.980000000000 	  2.980000000000 	
Mg	  1.894512337472 	  1.946055530129 	  0.000000000000 	
Mg	  2.894512337472 	  1.946055530129 	  2.980000000000 	
Mg	  1.894512337472 	  5.926055530129 	  0.000000000000 	
Mg	  2.894512337472 	  5.926055530129 	  2.980000000000 	
Mg	  5.874512337472 	  1.946055530129 	  0.000000000000 	
Mg	  6.874512337472 	  1.946055530129 	  2.980000000000 	
Mg	  5.874512337472 	  5.926055530129 	  0.000000000000 	
Mg	  6.874512337472 	  5.926055530129 	  2.980000000000 	
Mg	  2.306857878726 	  0.000000000000 	  1.791425952159 	
Mg	  3.306857878726 	  0.000000000000 	  4.771425952159 	
Mg	  2.306857878726 	  3.980000000000 	  1.791425952159 	
Mg	  3.306857878726 	  3.980000000000 	  4.771425952159 	
Mg	  6.286857878726 	  0.000000000000 	  1.791425952159 	
Mg	  7.286857878726 	  0.000000000000 	  4.771425952159 	
Mg	  6.286857878726 	  3.980000000000 	  1.791425952159 	
Mg	  7.286857878726 	  3.980000000000 	  4.771425952159 	
Mg	  0.257715963284 	  2.049141915443 	  1.791425952159 	
Mg	  1.257715963284 	  2.049141915443 	  4.771425952159 	
Mg	  0.257715963284 	  6.029141915443 	  1.791425952159 	
Mg	  1.257715963284 	  6.029141915443 	  4.771425952159 	
Mg	  4.237715963284 	  2.049141915443 	  1.791425952159 	
Mg	  5.237715963284 	  2.049141915443 	  4.771425952159 	
Mg	  4.237715963284 	  6.029141915443 	  1.791425952159 	
Mg	  5.237715963284 	  6.029141915443 	  4.771425952159 	
O	  2.049141915443 	  0.000000000000 	  0.000000000000 	
O	  3.049141915443 	  0.000000000000 	  2.980000000000 	
O	  2.049141915443 	  3.980000000000 	  0.000000000000 	
O	  3.049141915443 	  3.980000000000 	  2.980000000000 	
O	  6.029141915443 	  0.000000000000 	  0.000000000000 	
O	  7.029141915443 	  0.000000000000 	  2.980000000000 	
O	  6.029141915443 	  3.980000000000 	  0.000000000000 	
O	  7.029141915443 	  3.980000000000 	  2.980000000000 	
O	  0.000000000000 	  2.049141915443 	  0.000000000000 	
O	  1.000000000000 	  2.049141915443 	  2.980000000000 	
O	  0.000000000000 	  6.029141915443 	  0.000000000000 	
O	  1.000000000000 	  6.029141915443 	  2.980000000000 	
O	  3.980000000000 	  2.049141915443 	  0.000000000000 	
O	  4.980000000000 	  2.049141915443 	  2.980000000000 	
O	  3.980000000000 	  6.029141915443 	  0.000000000000 	
O	  4.980000000000 	  6.029141915443 	  2.980000000000 	
O	  0.257715963284 	  0.000000000000 	  1.791425952159 	
O	  1.257715963284 	  0.000000000000 	  4.771425952159 	
O	  0.257715963284 	  3.980000000000 	  1.791425952159 	
O	  1.257715963284 	  3.980000000000 	  4.771425952159 	
O	  4.237715963284 	  0.000000000000 	  1.791425952159 	
O	  5.237715963284 	  0.000000000000 	  4.771425952159 	
O	  4.237715963284 	  3.980000000000 	  1.791425952159 	
O	  5.237715963284 	  3.980000000000 	  4.771425952159 	
O	  2.513030649353 	  1.710503139688 	  1.791425952159 	
O	  3.513030649353 	  1.710503139688 	  4.771425952159 	
O	  2.513030649353 	  5.690503139688 	  1.791425952159 	
O	  3.513030649353 	  5.690503139688 	  4.771425952159 	
O	  6.493030649353 	  1.710503139688 	  1.791425952159 	
O	  7.493030649353 	  1.710503139688 	  4.771425952159 	
O	  6.493030649353 	  5.690503139688 	  1.791425952159 	
O	  7.493030649353 	  5.690503139688 	  4.771425952159 	
64 
Energy: 5.6664167379609189e+00 
Mg	  0.000000000000 	  0.000000000000 	  0.000000000000 	
Mg	  1.000000000000 	  0.000000000000 	  2.980000000000 	
Mg	  0.000000000000 	  3.980000000000 	  0.000000000000 	
Mg	  1.000000000000 	  3.980000000000 	  2.980000000000 	
Mg	  3.980000000000 	  0.000000000000 	  0.000000000000 	
Mg	  4.980000000000 	  0.000000000000 	  2.980000000000 	
Mg	  3.980000000000 	  3.980000000000 	  0.000000000000 	
Mg	  4.980000000000 	  3.980000000000 	  2.980000000000 	
Mg	  1.920189702723 	  1.965992296607 	  0.000000000000 	
Mg	  2.920189702723 	  1.965992296607 	  2.980000000000 	
Mg	  1.920189702723 	  5.945992296607 	  0.000000000000 	
Mg	  2.920189702723 	  5.945992296607 	  2.980000000000 	
Mg	  5.900189702723 	  1.965992296607 	  0.000000000000 	
Mg	  6.900189702723 	  1.965992296607 	  2.980000000000 	
Mg	  5.900189702723 	  5.945992296607 	  0.000000000000 	
Mg	  6.900189702723 	  5.945992296607 	  2.980000000000 	
Mg	  2.286610453796 	  0.000000000000 	  1.828584514954 	
Mg	  3.286610453796 	  0.000000000000 	  4.808584514954 	
Mg	  2.286610453796 	  3.980000000000 	  1.828584514954 	
Mg	  3.286610453796 	  3.980000000000 	  4.808584514954 	
Mg	  6.266610453796 	  0.000000000000 	  1.828584514954 	
Mg	  7.266610453796 	  0.000000000000 	  4.808584514954 	
Mg	  6.266610453796 	  3.980000000000 	  1.828584514954 	
Mg	  7.266610453796 	  3.980000000000 	  4.808584514954 	
Mg	  0.229012969421 	  2.057597484375 	  1.828584514954 	
Mg	  1.229012969421 	  2.057597484375 	  4.808584514954 	
Mg	  0.229012969421 	  6.037597484375 	  1.828584514954 	
Mg	  1.229012969421 	  6.037597484375 	  4.808584514954 	
Mg	  4.209012969421 	  2.057597484375 	  1.828584514954 	
Mg	  5.209012969421 	  2.057597484375 	  4.808584514954 	
Mg	  4.209012969421 	  6.037597484375 	  1.828584514954 	
Mg	  5.209012969421 	  6.037597484375 	  4.808584514954 	
O	  2.057597484375 	  0.000000000000 	  0.000000000000 	
O	  3.057597484375 	  0.000000000000 	  2.980000000000 	
O	  2.057597484375 	  3.980000000000 	  0.000000000000 	
O	  3.057597484375 	  3.980000000000 	  2.980000000000 	
O	  6.037597484375 	  0.000000000000 	  0.000000000000 	
O	  7.037597484375 	  0.000000000000 	  2.980000000000 	
O	  6.037597484375 	  3.980000000000 	  0.000000000000 	
O	  7.037597484375 	  3.980000000000 	  2.980000000000 	
O	  0.000000000000 	  2.057597484375 	  0.000000000000 	
O	  1.000000000000 	  2.057597484375 	  2.980000000000 	
O	  0.000000000000 	  6.037597484375 	  0.000000000000 	
O	  1.000000000000 	  6.037597484375 	  2.980000000000 	
O	  3.980000000000 	  2.057597484375 	  0.000000000000 	
O	  4.980000000000 	  2.057597484375 	  2.980000000000 	
O	  3.980000000000 	  6.037597484375 	  0.000000000000 	
O	  4.980000000000 	  6.037597484375 	  2.980000000000 	
O	  0.229012969421 	  0.000000000000 	  1.828584514954 	
O	  1.229012969421 	  0.000000000000 	  4.808584514954 	
O	  0.229012969421 	  3.980000000000 	  1.828584514954 	
O	  1.229012969421 	  3.980000000000 	  4.808584514954 	
O	  4.209012969421 	  0.000000000000 	  1.828584514954 	
O	  5.209012969421 	  0.000000000000 	  4.808584514954 	
O	  4.209012969421 	  3.980000000000 	  1.828584514954 	
O	  5.209012969421 	  3.980000000000 	  4.808584514954 	
O	  2.469820829333 	  1.756674442556 	  1.828584514954 	
O	  3.469820829333 	  1.756674442556 	  4.808584514954 	
O	  2.469820829333 	  5.736674442556 	  1.828584514954 	
O	  3.469820829333 	  5.736674442556 	  4.808584514954 	
O	  6.449820829333 	  1.756674442556 	  1.828584514954 	
O	  7.449820829333 	  1.756674442556 	  4.808584514954 	
O	  6.449820829333 	  5.736674442556 	  1.828584514954 	
O	  7.449820829333 	  5.736674442556 	  4.808584514954 	
64 
Energy: 5.3704755494632117e+00 
Mg	  0.000000000000 	  0.000000000000 	  0.000000000000 	
Mg	  1.000000000000 	  0.000000000000 	  2.980000000000 	
Mg	  0.000000000000 	  3.980000000000 	  0.000000000000 	
Mg	  1.000000000000 	  3.980000000000 	  2.980000000000 	
Mg	  3.980000000000 	  0.000000000000 	  0.000000000000 	
Mg	  4.980000000000 	  0.000000000000 	  2.980000000000 	
Mg	  3.980000000000 	  3.980000000000 	  0.000000000000 	
Mg	  4.980000000000 	  3.980000000000 	  2.980000000000 	
Mg	  1.945862677256 	  1.985925788727 	  0.000000000000 	
Mg	  2.945862677256 	  1.985925788727 	  2.980000000000 	
Mg	  1.945862677256 	  5.965925788727 	  0.000000000000 	
Mg	  2.945862677256 	  5.965925788727 	  2.980000000000 	
Mg	  5.925862677256 	  1.985925788727 	  0.000000000000 	
Mg	  6.925862677256 	  1.985925788727 	  2.980000000000 	
Mg	  5.925862677256 	  5.965925788727 	  0.000000000000 	
Mg	  6.925862677256 	  5.965925788727 	  2.980000000000 	
Mg	  2.266367569026 	  0.000000000000 	  1.865736454313 	
Mg	  3.266367569026 	  0.000000000000 	  4.845736454313 	
Mg	  2.266367569026 	  3.980000000000 	  1.865736454313 	
Mg	  3.266367569026 	  3.980000000000 	  4.845736454313 	
Mg	  6.246367569026 	  0.000000000000 	  1.865736454313 	
Mg	  7.246367569026 	  0.000000000000 	  4.845736454313 	
Mg	  6.246367569026 	  3.980000000000 	  1.865736454313 	
Mg	  7.246367569026 	  3.980000000000 	  4.845736454313 	
Mg	  0.200315557356 	  2.066052011669 	  1.865736454313 	
Mg	  1.200315557356 	  2.066052011669 	  4.845736454313 	
Mg	  0.200315557356 	  6.046052011669 	  1.865736454313 	
Mg	  1.200315557356 	  6.046052011669 	  4.845736454313 	
Mg	  4.180315557356 	  2.066052011669 	  1.865736454313 	
Mg	  5.180315557356 	  2.066052011669 	  4.845736454313 	
Mg	  4.180315557356 	  6.046052011669 	  1.865736454313 	
Mg	  5.180315557356 	  6.046052011669 	  4.845736454313 	
O	  2.066052011669 	  0.000000000000 	  0.000000000000 	
O	  3.066052011669 	  0.000000000000 	  2.980000000000 	
O	  2.066052011669 	  3.980000000000 	  0.000000000000 	
O	  3.066052011669 	  3.980000000000 	  2.980000000000 	
O	  6.046052011669 	  0.000000000000 	  0.000000000000 	
O	  7.046052011669 	  0.000000000000 	  2.980000000000 	
O	  6.046052011669 	  3.980000000000 	  0.000000000000 	
O	  7.046052011669 	  3.980000000000 	  2.980000000000 	
O	  0.000000000000 	  2.066052011669 	  0.000000000000 	
O	  1.000000000000 	  2.066052011669 	  2.980000000000 	
O	  0.000000000000 	  6.046052011669 	  0.000000000000 	
O	  1.000000000000 	  6.046052011669 	  2.980000000000 	
O	  3.980000000000 	  2.066052011669 	  0.000000000000 	
O	  4.980000000000 	  2.066052011669 	  2.980000000000 	
O	  3.980000000000 	  6.046052011669 	  0.000000000000 	
O	  4.980000000000 	  6.046052011669 	  2.980000000000 	
O	  0.200315557356 	  0.000000000000 	  1.865736454313 	
O	  1.200315557356 	  0.000000000000 	  4.845736454313 	
O	  0.200315557356 	  3.980000000000 	  1.865736454313 	
O	  1.200315557356 	  3.980000000000 	  4.845736454313 	
O	  4.180315557356 	  0.000000000000 	  1.865736454313 	
O	  5.180315557356 	  0.000000000000 	  4.845736454313 	
O	  4.180315557356 	  3.980000000000 	  1.865736454313 	
O	  5.180315557356 	  3.980000000000 	  4.845736454313 	
O	  2.426620014911 	  1.802837369303 	  1.865736454313 	
O	  3.426620014911 	  1.802837369303 	  4.845736454313 	
O	  2.426620014911 	  5.782837369303 	  1.865736454313 	
O	  3.426620014911 	  5.782837369303 	  4.845736454313 	
O	  6.406620014911 	  1.802837369303 	  1.865736454313 	
O	  7.406620014911 	  1.802837369303 	  4.845736454313 	
O	  6.406620014911 	  5.782837369303 	  1.865736454313 	
O	  7.406620014911 	  5.782837369303 	  4.845736454313 	
64 
Energy: 4.8231563044900998e+00 
Mg	  0.000000000000 	  0.000000000000 	  0.000000000000 	
Mg	  1.000000000000 	  0.000000000000 	  2.980000000000 	
Mg	  0.000000000000 	  3.980000000000 	  0.000000000000 	
Mg	  1.000000000000 	  3.980000000000 	  2.980000000000 	
Mg	  3.980000000000 	  0.000000000000 	  0.000000000000 	
Mg	  4.980000000000 	  0.000000000000 	  2.980000000000 	
Mg	  3.980000000000 	  3.980000000000 	  0.000000000000 	
Mg	  4.980000000000 	  3.980000000000 	  2.980000000000 	
Mg	  1.971525265019 	  2.005851256031 	  0.000000000000 	
Mg	  2.971525265019 	  2.005851256031 	  2.980000000000 	
Mg	  1.971525265019 	  5.985851256031 	  0.000000000000 	
Mg	  2.971525265019 	  5.985851256031 	  2.980000000000 	
Mg	  5.951525265019 	  2.005851256031 	  0.000000000000 	
Mg	  6.951525265019 	  2.005851256031 	  2.980000000000 	
Mg	  5.951525265019 	  5.985851256031 	  0.000000000000 	
Mg	  6.951525265019 	  5.985851256031 	  2.980000000000 	
Mg	  2.246133193115 	  0.000000000000 	  1.902873282995 	
Mg	  3.246133193115 	  0.000000000000 	  4.882873282995 	
Mg	  2.246133193115 	  3.980000000000 	  1.902873282995 	
Mg	  3.246133193115 	  3.980000000000 	  4.882873282995 	
Mg	  6.226133193115 	  0.000000000000 	  1.902873282995 	
Mg	  7.226133193115 	  0.000000000000 	  4.882873282995 	
Mg	  6.226133193115 	  3.980000000000 	  1.902873282995 	
Mg	  7.226133193115 	  3.980000000000 	  4.882873282995 	
Mg	  0.171629955060 	  2.074503238055 	  1.902873282995 	
Mg	  1.171629955060 	  2.074503238055 	  4.882873282995 	
Mg	  0.171629955060 	  6.054503238055 	  1.902873282995 	
Mg	  1.171629955060 	  6.054503238055 	  4.882873282995 	
Mg	  4.151629955060 	  2.074503238055 	  1.902873282995 	
Mg	  5.151629955060 	  2.074503238055 	  4.882873282995 	
Mg	  4.151629955060 	  6.054503238055 	  1.902873282995 	
Mg	  5.151629955060 	  6.054503238055 	  4.882873282995 	
O	  2.074503238055 	  0.000000000000 	  0.000000000000 	
O	  3.074503238055 	  0.000000000000 	  2.980000000000 	
O	  2.074503238055 	  3.980000000000 	  0.000000000000 	
O	  3.074503238055 	  3.980000000000 	  2.980000000000 	
O	  6.054503238055 	  0.000000000000 	  0.000000000000 	
O	  7.054503238055 	  0.000000000000 	  2.980000000000 	
O	  6.054503238055 	  3.980000000000 	  0.000000000000 	
O	  7.054503238055 	  3.980000000000 	  2.980000000000 	
O	  0.000000000000 	  2.074503238055 	  0.000000000000 	
O	  1.000000000000 	  2.074503238055 	  2.980000000000 	
O	  0.000000000000 	  6.054503238055 	  0.000000000000 	
O	  1.000000000000 	  6.054503238055 	  2.980000000000 	
O	  3.980000000000 	  2.074503238055 	  0.000000000000 	
O	  4.980000000000 	  2.074503238055 	  2.980000000000 	
O	  3.980000000000 	  6.054503238055 	  0.000000000000 	
O	  4.980000000000 	  6.054503238055 	  2.980000000000 	
O	  0.171629955060 	  0.000000000000 	  1.902873282995 	
O	  1.171629955060 	  0.000000000000 	  4.882873282995 	
O	  0.171629955060 	  3.980000000000 	  1.902873282995 	
O	  1.171629955060 	  3.980000000000 	  4.882873282995 	
O	  4.151629955060 	  0.000000000000 	  1.902873282995 	
O	  5.151629955060 	  0.000000000000 	  4.882873282995 	
O	  4.151629955060 	  3.980000000000 	  1.902873282995 	
O	  5.151629955060 	  3.980000000000 	  4.882873282995 	
O	  2.383437157163 	  1.848981477106 	  1.902873282995 	
O	  3.383437157163 	  1.848981477106 	  4.882873282995 	
O	  2.383437157163 	  5.828981477106 	  1.902873282995 	
O	  3.383437157163 	  5.828981477106 	  4.882873282995 	
O	  6.363437157163 	  1.848981477106 	  1.902873282995 	
O	  7.363437157163 	  1.848981477106 	  4.882873282995 	
O	  6.363437157163 	  5.828981477106 	  1.902873282995 	
O	  7.363437157163 	  5.828981477106 	  4.882873282995 	
64 
Energy: 4.0515481016879598e+00 
Mg	  0.000000000000 	  0.000000000000 	  0.000000000000 	
Mg	  1.000000000000 	  0.000000000000 	  2.980000000000 	
Mg	  0.000000000000 	  3.980000000000 	  0.000000000000 	
Mg	  1.000000000000 	  3.980000000000 	  2.980000000000 	
Mg	  3.980000000000 	  0.000000000000 	  0.000000000000 	
Mg	  4.980000000000 	  0.000000000000 	  2.980000000000 	
Mg	  3.980000000000 	  3.980000000000 	  0.000000000000 	
Mg	  4.980000000000 	  3.980000000000 	  2.980000000000 	
Mg	  1.997171696596 	  2.025764022844 	  0.000000000000 	
Mg	  2.997171696596 	  2.025764022844 	  2.980000000000 	
Mg	  1.997171696596 	  6.005764022844 	  0.000000000000 	
Mg	  2.997171696596 	  6.005764022844 	  2.980000000000 	
Mg	  5.977171696596 	  2.025764022844 	  0.000000000000 	
Mg	  6.977171696596 	  2.025764022844 	  2.980000000000 	
Mg	  5.977171696596 	  6.005764022844 	  0.000000000000 	
Mg	  6.977171696596 	  6.005764022844 	  2.980000000000 	
Mg	  2.225910306586 	  0.000000000000 	  1.939987044098 	
Mg	  3.225910306586 	  0.000000000000 	  4.919987044098 	
Mg	  2.225910306586 	  3.980000000000 	  1.939987044098 	
Mg	  3.225910306586 	  3.980000000000 	  4.919987044098 	
Mg	  6.205910306586 	  0.000000000000 	  1.939987044098 	
Mg	  7.205910306586 	  0.000000000000 	  4.919987044098 	
Mg	  6.205910306586 	  3.980000000000 	  1.939987044098 	
Mg	  7.205910306586 	  3.980000000000 	  4.919987044098 	
Mg	  0.142961631244 	  2.082948675342 	  1.939987044098 	
Mg	  1.142961631244 	  2.082948675342 	  4.919987044098 	
Mg	  0.142961631244 	  6.062948675342 	  1.939987044098 	
Mg	  1.142961631244 	  6.062948675342 	  4.919987044098 	
Mg	  4.122961631244 	  2.082948675342 	  1.939987044098 	
Mg	  5.122961631244 	  2.082948675342 	  4.919987044098 	
Mg	  4.122961631244 	  6.062948675342 	  1.939987044098 	
Mg	  5.122961631244 	  6.062948675342 	  4.919987044098 	
O	  2.082948675342 	  0.000000000000 	  0.000000000000 	
O	  3.082948675342 	  0.000000000000 	  2.980000000000 	
O	  2.082948675342 	  3.980000000000 	  0.000000000000 	
O	  3.082948675342 	  3.980000000000 	  2.980000000000 	
O	  6.062948675342 	  0.000000000000 	  0.000000000000 	
O	  7.062948675342 	  0.000000000000 	  2.980000000000 	
O	  6.062948675342 	  3.980000000000 	  0.000000000000 	
O	  7.062948675342 	  3.980000000000 	  2.980000000000 	
O	  0.000000000000 	  2.082948675342 	  0.000000000000 	
O	  1.000000000000 	  2.082948675342 	  2.980000000000 	
O	  0.000000000000 	  6.062948675342 	  0.000000000000 	
O	  1.000000000000 	  6.062948675342 	  2.980000000000 	
O	  3.980000000000 	  2.082948675342 	  0.000000000000 	
O	  4.980000000000 	  2.082948675342 	  2.980000000000 	
O	  3.980000000000 	  6.062948675342 	  0.000000000000 	
O	  4.980000000000 	  6.062948675342 	  2.980000000000 	
O	  0.142961631244 	  0.000000000000 	  1.939987044098 	
O	  1.142961631244 	  0.000000000000 	  4.919987044098 	
O	  0.142961631244 	  3.980000000000 	  1.939987044098 	
O	  1.142961631244 	  3.980000000000 	  4.919987044098 	
O	  4.122961631244 	  0.000000000000 	  1.939987044098 	
O	  5.122961631244 	  0.000000000000 	  4.919987044098 	
O	  4.122961631244 	  3.980000000000 	  1.939987044098 	
O	  5.122961631244 	  3.980000000000 	  4.919987044098 	
O	  2.340279611581 	  1.895097091888 	  1.939987044098 	
O	  3.340279611581 	  1.895097091888 	  4.919987044098 	
O	  2.340279611581 	  5.875097091888 	  1.939987044098 	
O	  3.340279611581 	  5.875097091888 	  4.919987044098 	
O	  6.320279611581 	  1.895097091888 	  1.939987044098 	
O	  7.320279611581 	  1.895097091888 	  4.919987044098 	
O	  6.320279611581 	  5.875097091888 	  1.939987044098 	
O	  7.320279611581 	  5.875097091888 	  4.919987044098 	
64 
Energy: 3.1086148627718266e+00 
Mg	  0.000000000000 	  0.000000000000 	  0.000000000000 	
Mg	  1.000000000000 	  0.000000000000 	  2.980000000000 	
Mg	  0.000000000000 	  3.980000000000 	  0.000000000000 	
Mg	  1.000000000000 	  3.980000000000 	  2.980000000000 	
Mg	  3.980000000000 	  0.000000000000 	  0.000000000000 	
Mg	  4.980000000000 	  0.000000000000 	  2.980000000000 	
Mg	  3.980000000000 	  3.980000000000 	  0.000000000000 	
Mg	  4.980000000000 	  3.980000000000 	  2.980000000000 	
Mg	  2.022796767060 	  2.045659776610 	  0.000000000000 	
Mg	  3.022796767060 	  2.045659776610 	  2.980000000000 	
Mg	  2.022796767060 	  6.025659776610 	  0.000000000000 	
Mg	  3.022796767060 	  6.025659776610 	  2.980000000000 	
Mg	  6.002796767060 	  2.045659776610 	  0.000000000000 	
Mg	  7.002796767060 	  2.045659776610 	  2.980000000000 	
Mg	  6.002796767060 	  6.025659776610 	  0.000000000000 	
Mg	  7.002796767060 	  6.025659776610 	  2.980000000000 	
Mg	  2.205700843461 	  0.000000000000 	  1.977070747959 	
Mg	  3.205700843461 	  0.000000000000 	  4.957070747959 	
Mg	  2.205700843461 	  3.980000000000 	  1.977070747959 	
Mg	  3.205700843461 	  3.980000000000 	  4.957070747959 	
Mg	  6.185700843461 	  0.000000000000 	  1.977070747959 	
Mg	  7.185700843461 	  0.000000000000 	  4.957070747959 	
Mg	  6.185700843461 	  3.980000000000 	  1.977070747959 	
Mg	  7.185700843461 	  3.980000000000 	  4.957070747959 	
Mg	  0.114315047751 	  2.091385795710 	  1.977070747959 	
Mg	  1.114315047751 	  2.091385795710 	  4.957070747959 	
Mg	  0.114315047751 	  6.071385795710 	  1.977070747959 	
Mg	  1.114315047751 	  6.071385795710 	  4.957070747959 	
Mg	  4.094315047751 	  2.091385795710 	  1.977070747959 	
Mg	  5.094315047751 	  2.091385795710 	  4.957070747959 	
Mg	  4.094315047751 	  6.071385795710 	  1.977070747959 	
Mg	  5.094315047751 	  6.071385795710 	  4.957070747959 	
O	  2.091385795710 	  0.000000000000 	  0.000000000000 	
O	  3.091385795710 	  0.000000000000 	  2.980000000000 	
O	  2.091385795710 	  3.980000000000 	  0.000000000000 	
O	  3.091385795710 	  3.980000000000 	  2.980000000000 	
O	  6.071385795710 	  0.000000000000 	  0.000000000000 	
O	  7.071385795710 	  0.000000000000 	  2.980000000000 	
O	  6.071385795710 	  3.980000000000 	  0.000000000000 	
O	  7.071385795710 	  3.980000000000 	  2.980000000000 	
O	  0.000000000000 	  2.091385795710 	  0.000000000000 	
O	  1.000000000000 	  2.091385795710 	  2.980000000000 	
O	  0.000000000000 	  6.071385795710 	  0.000000000000 	
O	  1.000000000000 	  6.071385795710 	  2.980000000000 	
O	  3.980000000000 	  2.091385795710 	  0.000000000000 	
O	  4.980000000000 	  2.091385795710 	  2.980000000000 	
O	  3.980000000000 	  6.071385795710 	  0.000000000000 	
O	  4.980000000000 	  6.071385795710 	  2.980000000000 	
O	  0.114315047751 	  0.000000000000 	  1.977070747959 	
O	  1.114315047751 	  0.000000000000 	  4.957070747959 	
O	  0.114315047751 	  3.980000000000 	  1.977070747959 	
O	  1.114315047751 	  3.980000000000 	  4.957070747959 	
O	  4.094315047751 	  0.000000000000 	  1.977070747959 	
O	  5.094315047751 	  0.000000000000 	  4.957070747959 	
O	  4.094315047751 	  3.980000000000 	  1.977070747959 	
O	  5.094315047751 	  3.980000000000 	  4.957070747959 	
O	  2.297152881662 	  1.941175822965 	  1.977070747959 	
O	  3.297152881662 	  1.941175822965 	  4.957070747959 	
O	  2.297152881662 	  5.921175822965 	  1.977070747959 	
O	  3.297152881662 	  5.921175822965 	  4.957070747959 	
O	  6.277152881662 	  1.941175822965 	  1.977070747959 	
O	  7.277152881662 	  1.941175822965 	  4.957070747959 	
O	  6.277152881662 	  5.921175822965 	  1.977070747959 	
O	  7.277152881662 	  5.921175822965 	  4.957070747959 	
64 
Energy: 2.0798795392114355e+00 
Mg	  0.000000000000 	  0.000000000000 	  0.000000000000 	
Mg	  1.000000000000 	  0.000000000000 	  2.980000000000 	
Mg	  0.000000000000 	  3.980000000000 	  0.000000000000 	
Mg	  1.000000000000 	  3.980000000000 	  2.980000000000 	
Mg	  3.980000000000 	  0.000000000000 	  0.000000000000 	
Mg	  4.980000000000 	  0.000000000000 	  2.980000000000 	
Mg	  3.980000000000 	  3.980000000000 	  0.000000000000 	
Mg	  4.980000000000 	  3.980000000000 	  2.980000000000 	
Mg	  2.048395809329 	  2.065534564572 	  0.000000000000 	
Mg	  3.048395809329 	  2.065534564572 	  2.980000000000 	
Mg	  2.048395809329 	  6.045534564572 	  0.000000000000 	
Mg	  3.048395809329 	  6.045534564572 	  2.980000000000 	
Mg	  6.028395809329 	  2.065534564572 	  0.000000000000 	
Mg	  7.028395809329 	  2.065534564572 	  2.980000000000 	
Mg	  6.028395809329 	  6.045534564572 	  0.000000000000 	
Mg	  7.028395809329 	  6.045534564572 	  2.980000000000 	
Mg	  2.185505851280 	  0.000000000000 	  2.014118298841 	
Mg	  3.185505851280 	  0.000000000000 	  4.994118298841 	
Mg	  2.185505851280 	  3.980000000000 	  2.014118298841 	
Mg	  3.185505851280 	  3.980000000000 	  4.994118298841 	
Mg	  6.165505851280 	  0.000000000000 	  2.014118298841 	
Mg	  7.165505851280 	  0.000000000000 	  4.994118298841 	
Mg	  6.165505851280 	  3.980000000000 	  2.014118298841 	
Mg	  7.165505851280 	  3.980000000000 	  4.994118298841 	
Mg	  0.085693776219 	  2.099812075060 	  2.014118298841 	
Mg	  1.085693776219 	  2.099812075060 	  4.994118298841 	
Mg	  0.085693776219 	  6.079812075060 	  2.014118298841 	
Mg	  1.085693776219 	  6.079812075060 	  4.994118298841 	
Mg	  4.065693776219 	  2.099812075060 	  2.014118298841 	
Mg	  5.065693776219 	  2.099812075060 	  4.994118298841 	
Mg	  4.065693776219 	  6.079812075060 	  2.014118298841 	
Mg	  5.065693776219 	  6.079812075060 	  4.994118298841 	
O	  2.099812075060 	  0.000000000000 	  0.000000000000 	
O	  3.099812075060 	  0.000000000000 	  2.980000000000 	
O	  2.099812075060 	  3.980000000000 	  0.000000000000 	
O	  3.099812075060 	  3.980000000000 	  2.980000000000 	
O	  6.079812075060 	  0.000000000000 	  0.000000000000 	
O	  7.079812075060 	  0.000000000000 	  2.980000000000 	
O	  6.079812075060 	  3.980000000000 	  0.000000000000 	
O	  7.079812075060 	  3.980000000000 	  2.980000000000 	
O	  0.000000000000 	  2.099812075060 	  0.000000000000 	
O	  1.000000000000 	  2.099812075060 	  2.980000000000 	
O	  0.000000000000 	  6.079812075060 	  0.000000000000 	
O	  1.000000000000 	  6.079812075060 	  2.980000000000 	
O	  3.980000000000 	  2.099812075060 	  0.000000000000 	
O	  4.980000000000 	  2.099812075060 	  2.980000000000 	
O	  3.980000000000 	  6.079812075060 	  0.000000000000 	
O	  4.980000000000 	  6.079812075060 	  2.980000000000 	
O	  0.085693776219 	  0.000000000000 	  2.014118298841 	
O	  1.085693776219 	  0.000000000000 	  4.994118298841 	
O	  0.085693776219 	  3.980000000000 	  2.014118298841 	
O	  1.085693776219 	  3.980000000000 	  4.994118298841 	
O	  4.065693776219 	  0.000000000000 	  2.014118298841 	
O	  5.065693776219 	  0.000000000000 	  4.994118298841 	
O	  4.065693776219 	  3.980000000000 	  2.014118298841 	
O	  5.065693776219 	  3.980000000000 	  4.994118298841 	
O	  2.254060872255 	  1.987210453108 	  2.014118298841 	
O	  3.254060872255 	  1.987210453108 	  4.994118298841 	
O	  2.254060872255 	  5.967210453108 	  2.014118298841 	
O	  3.254060872255 	  5.967210453108 	  4.994118298841 	
O	  6.234060872255 	  1.987210453108 	  2.014118298841 	
O	  7.234060872255 	  1.987210453108 	  4.994118298841 	
O	  6.234060872255 	  5.967210453108 	  2.014118298841 	
O	  7.234060872255 	  5.967210453108 	  4.994118298841 	
64 
Energy: 1.0916420123131414e+00 
Mg	  0.000000000000 	  0.000000000000 	  0.000000000000 	
Mg	  1.000000000000 	  0.000000000000 	  2.980000000000 	
Mg	  0.000000000000 	  3.980000000000 	  0.000000000000 	
Mg	  1.000000000000 	  3.980000000000 	  2.980000000000 	
Mg	  3.980000000000 	  0.000000000000 	  0.000000000000 	
Mg	  4.980000000000 	  0.000000000000 	  2.980000000000 	
Mg	  3.980000000000 	  3.980000000000 	  0.000000000000 	
Mg	  4.980000000000 	  3.980000000000 	  2.980000000000 	
Mg	  2.073964757532 	  2.085384820862 	  0.000000000000 	
Mg	  3.073964757532 	  2.085384820862 	  2.980000000000 	
Mg	  2.073964757532 	  6.065384820862 	  0.000000000000 	
Mg	  3.073964757532 	  6.065384820862 	  2.980000000000 	
Mg	  6.053964757532 	  2.085384820862 	  0.000000000000 	
Mg	  7.053964757532 	  2.085384820862 	  2.980000000000 	
Mg	  6.053964757532 	  6.065384820862 	  0.000000000000 	
Mg	  7.053964757532 	  6.065384820862 	  2.980000000000 	
Mg	  2.165325264169 	  0.000000000000 	  2.051124630873 	
Mg	  3.165325264169 	  0.000000000000 	  5.031124630873 	
Mg	  2.165325264169 	  3.980000000000 	  2.051124630873 	
Mg	  3.165325264169 	  3.980000000000 	  5.031124630873 	
Mg	  6.145325264169 	  0.000000000000 	  2.051124630873 	
Mg	  7.145325264169 	  0.000000000000 	  5.031124630873 	
Mg	  6.145325264169 	  3.980000000000 	  2.051124630873 	
Mg	  7.145325264169 	  3.980000000000 	  5.031124630873 	
Mg	  0.057100316648 	  2.108224947521 	  2.051124630873 	
Mg	  1.057100316648 	  2.108224947521 	  5.031124630873 	
Mg	  0.057100316648 	  6.088224947521 	  2.051124630873 	
Mg	  1.057100316648 	  6.088224947521 	  5.031124630873 	
Mg	  4.037100316648 	  2.108224947521 	  2.051124630873 	
Mg	  5.037100316648 	  2.108224947521 	  5.031124630873 	
Mg	  4.037100316648 	  6.088224947521 	  2.051124630873 	
Mg	  5.037100316648 	  6.088224947521 	  5.031124630873 	
O	  2.108224947521 	  0.000000000000 	  0.000000000000 	
O	  3.108224947521 	  0.000000000000 	  2.980000000000 	
O	  2.108224947521 	  3.980000000000 	  0.000000000000 	
O	  3.108224947521 	  3.980000000000 	  2.980000000000 	
O	  6.088224947521 	  0.000000000000 	  0.000000000000 	
O	  7.088224947521 	  0.000000000000 	  2.980000000000 	
O	  6.088224947521 	  3.980000000000 	  0.000000000000 	
O	  7.088224947521 	  3.980000000000 	  2.980000000000 	
O	  0.000000000000 	  2.108224947521 	  0.000000000000 	
O	  1.000000000000 	  2.108224947521 	  2.980000000000 	
O	  0.000000000000 	  6.088224947521 	  0.000000000000 	
O	  1.000000000000 	  6.088224947521 	  2.980000000000 	
O	  3.980000000000 	  2.108224947521 	  0.000000000000 	
O	  4.980000000000 	  2.108224947521 	  2.980000000000 	
O	  3.980000000000 	  6.088224947521 	  0.000000000000 	
O	  4.980000000000 	  6.088224947521 	  2.980000000000 	
O	  0.057100316648 	  0.000000000000 	  2.051124630873 	
O	  1.057100316648 	  0.000000000000 	  5.031124630873 	
O	  0.057100316648 	  3.980000000000 	  2.051124630873 	
O	  1.057100316648 	  3.980000000000 	  5.031124630873 	
O	  4.037100316648 	  0.000000000000 	  2.051124630873 	
O	  5.037100316648 	  0.000000000000 	  5.031124630873 	
O	  4.037100316648 	  3.980000000000 	  2.051124630873 	
O	  5.037100316648 	  3.980000000000 	  5.031124630873 	
O	  2.211005517488 	  2.033195131445 	  2.051124630873 	
O	  3.211005517488 	  2.033195131445 	  5.031124630873 	
O	  2.211005517488 	  6.013195131445 	  2.051124630873 	
O	  3.211005517488 	  6.013195131445 	  5.031124630873 	
O	  6.191005517488 	  2.033195131445 	  2.051124630873 	
O	  7.191005517488 	  2.033195131445 	  5.031124630873 	
O	  6.191005517488 	  6.013195131445 	  2.051124630873 	
O	  7.191005517488 	  6.013195131445 	  5.031124630873 	
64 
Energy: 3.2008213844508682e-01 
Mg	  0.000000000000 	  0.000000000000 	  0.000000000000 	
Mg	  1.000000000000 	  0.000000000000 	  2.980000000000 	
Mg	  0.000000000000 	  3.980000000000 	  0.000000000000 	
Mg	  1.000000000000 	  3.980000000000 	  2.980000000000 	
Mg	  3.980000000000 	  0.000000000000 	  0.000000000000 	
Mg	  4.980000000000 	  0.000000000000 	  2.980000000000 	
Mg	  3.980000000000 	  3.980000000000 	  0.000000000000 	
Mg	  4.980000000000 	  3.980000000000 	  2.980000000000 	
Mg	  2.099500287704 	  2.105207459006 	  0.000000000000 	
Mg	  3.099500287704 	  2.105207459006 	  2.980000000000 	
Mg	  2.099500287704 	  6.085207459006 	  0.000000000000 	
Mg	  3.099500287704 	  6.085207459006 	  2.980000000000 	
Mg	  6.079500287704 	  2.105207459006 	  0.000000000000 	
Mg	  7.079500287704 	  2.105207459006 	  2.980000000000 	
Mg	  6.079500287704 	  6.085207459006 	  0.000000000000 	
Mg	  7.079500287704 	  6.085207459006 	  2.980000000000 	
Mg	  2.145157658119 	  0.000000000000 	  2.088085945100 	
Mg	  3.145157658119 	  0.000000000000 	  5.068085945100 	
Mg	  2.145157658119 	  3.980000000000 	  2.088085945100 	
Mg	  3.145157658119 	  3.980000000000 	  5.068085945100 	
Mg	  6.125157658119 	  0.000000000000 	  2.088085945100 	
Mg	  7.125157658119 	  0.000000000000 	  5.068085945100 	
Mg	  6.125157658119 	  3.980000000000 	  2.088085945100 	
Mg	  7.125157658119 	  3.980000000000 	  5.068085945100 	
Mg	  0.028535856509 	  2.116621801609 	  2.088085945100 	
Mg	  1.028535856509 	  2.116621801609 	  5.068085945100 	
Mg	  0.028535856509 	  6.096621801609 	  2.088085945100 	
Mg	  1.028535856509 	  6.096621801609 	  5.068085945100 	
Mg	  4.008535856509 	  2.116621801609 	  2.088085945100 	
Mg	  5.008535856509 	  2.116621801609 	  5.068085945100 	
Mg	  4.008535856509 	  6.096621801609 	  2.088085945100 	
Mg	  5.008535856509 	  6.096621801609 	  5.068085945100 	
O	  2.116621801609 	  0.000000000000 	  0.000000000000 	
O	  3.116621801609 	  0.000000000000 	  2.980000000000 	
O	  2.116621801609 	  3.980000000000 	  0.000000000000 	
O	  3.116621801609 	  3.980000000000 	  2.980000000000 	
O	  6.096621801609 	  0.000000000000 	  0.000000000000 	
O	  7.096621801609 	  0.000000000000 	  2.980000000000 	
O	  6.096621801609 	  3.980000000000 	  0.000000000000 	
O	  7.096621801609 	  3.980000000000 	  2.980000000000 	
O	  0.000000000000 	  2.116621801609 	  0.000000000000 	
O	  1.000000000000 	  2.116621801609 	  2.980000000000 	
O	  0.000000000000 	  6.096621801609 	  0.000000000000 	
O	  1.000000000000 	  6.096621801609 	  2.980000000000 	
O	  3.980000000000 	  2.116621801609 	  0.000000000000 	
O	  4.980000000000 	  2.116621801609 	  2.980000000000 	
O	  3.980000000000 	  6.096621801609 	  0.000000000000 	
O	  4.980000000000 	  6.096621801609 	  2.980000000000 	
O	  0.028535856509 	  0.000000000000 	  2.088085945100 	
O	  1.028535856509 	  0.000000000000 	  5.068085945100 	
O	  0.028535856509 	  3.980000000000 	  2.088085945100 	
O	  1.028535856509 	  3.980000000000 	  5.068085945100 	
O	  4.008535856509 	  0.000000000000 	  2.088085945100 	
O	  5.008535856509 	  0.000000000000 	  5.068085945100 	
O	  4.008535856509 	  3.980000000000 	  2.088085945100 	
O	  5.008535856509 	  3.980000000000 	  5.068085945100 	
O	  2.167986343326 	  2.079125686156 	  2.088085945100 	
O	  3.167986343326 	  2.079125686156 	  5.068085945100 	
O	  2.167986343326 	  6.059125686156 	  2.088085945100 	
O	  3.167986343326 	  6.059125686156 	  5.068085945100 	
O	  6.147986343326 	  2.079125686156 	  2.088085945100 	
O	  7.147986343326 	  2.079125686156 	  5.068085945100 	
O	  6.147986343326 	  6.059125686156 	  2.088085945100 	
O	  7.147986343326 	  6.059125686156 	  5.068085945100 	
64 
Energy: 0.0000000000000000e+00 
Mg	  0.000000000000 	  0.000000000000 	  0.000000000000 	
Mg	  1.000000000000 	  0.000000000000 	  2.980000000000 	
Mg	  0.000000000000 	  3.980000000000 	  0.000000000000 	
Mg	  1.000000000000 	  3.980000000000 	  2.980000000000 	
Mg	  3.980000000000 	  0.000000000000 	  0.000000000000 	
Mg	  4.980000000000 	  0.000000000000 	  2.980000000000 	
Mg	  3.980000000000 	  3.980000000000 	  0.000000000000 	
Mg	  4.980000000000 	  3.980000000000 	  2.980000000000 	
Mg	  2.125000000000 	  2.125000000000 	  0.000000000000 	
Mg	  3.125000000000 	  2.125000000000 	  2.980000000000 	
Mg	  2.125000000000 	  6.105000000000 	  0.000000000000 	
Mg	  3.125000000000 	  6.105000000000 	  2.980000000000 	
Mg	  6.105000000000 	  2.125000000000 	  0.000000000000 	
Mg	  7.105000000000 	  2.125000000000 	  2.980000000000 	
Mg	  6.105000000000 	  6.105000000000 	  0.000000000000 	
Mg	  7.105000000000 	  6.105000000000 	  2.980000000000 	
Mg	  2.125000000000 	  0.000000000000 	  2.125000000000 	
Mg	  3.125000000000 	  0.000000000000 	  5.105000000000 	
Mg	  2.125000000000 	  3.980000000000 	  2.125000000000 	
Mg	  3.125000000000 	  3.980000000000 	  5.105000000000 	
Mg	  6.105000000000 	  0.000000000000 	  2.125000000000 	
Mg	  7.105000000000 	  0.000000000000 	  5.105000000000 	
Mg	  6.105000000000 	  3.980000000000 	  2.125000000000 	
Mg	  7.105000000000 	  3.980000000000 	  5.105000000000 	
Mg	  0.000000000000 	  2.125000000000 	  2.125000000000 	
Mg	  1.000000000000 	  2.125000000000 	  5.105000000000 	
Mg	  0.000000000000 	  6.105000000000 	  2.125000000000 	
Mg	  1.000000000000 	  6.105000000000 	  5.105000000000 	
Mg	  3.980000000000 	  2.125000000000 	  2.125000000000 	
Mg	  4.980000000000 	  2.125000000000 	  5.105000000000 	
Mg	  3.980000000000 	  6.105000000000 	  2.125000000000 	
Mg	  4.980000000000 	  6.105000000000 	  5.105000000000 	
O	  2.125000000000 	  0.000000000000 	  0.000000000000 	
O	  3.125000000000 	  0.000000000000 	  2.980000000000 	
O	  2.125000000000 	  3.980000000000 	  0.000000000000 	
O	  3.125000000000 	  3.980000000000 	  2.980000000000 	
O	  6.105000000000 	  0.000000000000 	  0.000000000000 	
O	  7.105000000000 	  0.000000000000 	  2.980000000000 	
O	  6.105000000000 	  3.980000000000 	  0.000000000000 	
O	  7.105000000000 	  3.980000000000 	  2.980000000000 	
O	  0.000000000000 	  2.125000000000 	  0.000000000000 	
O	  1.000000000000 	  2.125000000000 	  2.980000000000 	
O	  0.000000000000 	  6.105000000000 	  0.000000000000 	
O	  1.000000000000 	  6.105000000000 	  2.980000000000 	
O	  3.980000000000 	  2.125000000000 	  0.000000000000 	
O	  4.980000000000 	  2.125000000000 	  2.980000000000 	
O	  3.980000000000 	  6.105000000000 	  0.000000000000 	
O	  4.980000000000 	  6.105000000000 	  2.980000000000 	
O	  0.000000000000 	  0.000000000000 	  2.125000000000 	
O	  1.000000000000 	  0.000000000000 	  5.105000000000 	
O	  0.000000000000 	  3.980000000000 	  2.125000000000 	
O	  1.000000000000 	  3.980000000000 	  5.105000000000 	
O	  3.980000000000 	  0.000000000000 	  2.125000000000 	
O	  4.980000000000 	  0.000000000000 	  5.105000000000 	
O	  3.980000000000 	  3.980000000000 	  2.125000000000 	
O	  4.980000000000 	  3.980000000000 	  5.105000000000 	
O	  2.125000000000 	  2.125000000000 	  2.125000000000 	
O	  3.125000000000 	  2.125000000000 	  5.105000000000 	
O	  2.125000000000 	  6.105000000000 	  2.125000000000 	
O	  3.125000000000 	  6.105000000000 	  5.105000000000 	
O	  6.105000000000 	  2.125000000000 	  2.125000000000 	
O	  7.105000000000 	  2.125000000000 	  5.105000000000 	
O	  6.105000000000 	  6.105000000000 	  2.125000000000 	
O	  7.105000000000 	  6.105000000000 	  5.105000000000 	
