  Invoking FHI-aims ...
  | Number of atoms                   :  96
  ...scf iterations...
  | Total energy corrected        :   -7.555743730689E+01 eV
  ...
  Total atomic forces (unitary forces cleaned)
     1  -2.3735951946E-01  5.8200297851E-01  1.8514751268E-01
     2  2.2878085805E-01  5.7359488052E-01  -1.9038866869E-01
     3  2.3735949645E-01  -5.8200290591E-01  -1.8514749893E-01
     4  -2.2878074937E-01  -5.7359484830E-01  1.9038877316E-01
     5  -8.7936884298E-01  1.1427809501E+00  8.2123875066E-02
     6  8.7085495537E-01  1.0871590772E+00  3.1213569982E-03
     7  8.7936941157E-01  -1.1427807929E+00  -8.2123349572E-02
     8  -8.7085486363E-01  -1.0871592436E+00  -3.1211359873E-03
     9  -2.3153348793E-01  1.4220629321E-01  -1.1330424363E-01
    10  1.3460552641E-01  5.0567957591E-02  1.2174242574E-01
    11  2.3153293894E-01  -1.4220651454E-01  1.1330388463E-01
    12  -1.3460579256E-01  -5.0567767783E-02  -1.2174261304E-01
    13  -4.1250452580E-01  -9.3787715809E-01  -8.8606873397E-01
    14  5.1500288654E-01  -8.4415367473E-01  8.7997668747E-01
    15  4.1250396558E-01  9.3787737171E-01  8.8606851841E-01
    16  -5.1500302655E-01  8.4415371131E-01  -8.7997647531E-01
    17  1.1949828045E+00  -1.6383508531E+00  -1.4757361992E-01
    18  -1.2495067721E+00  -1.5716924852E+00  4.2456245121E-02
    19  -1.1949826583E+00  1.6383514174E+00  1.4757398110E-01
    20  1.2495070075E+00  1.5716929639E+00  -4.2456691496E-02
    21  -2.6992650391E-01  2.4556534170E-02  -9.9245799111E-02
    22  2.8461160643E-01  5.3470500323E-02  8.9810531063E-02
    23  2.6992663943E-01  -2.4556896332E-02  9.9245670088E-02
    24  -2.8461163460E-01  -5.3470886237E-02  -8.9810508624E-02
    25  5.8713979214E-01  5.4843687240E-02  4.1072256703E-01
    26  -5.5349342054E-01  -3.7518947457E-02  -3.0583153988E-01
    27  -5.8714015013E-01  -5.4844080340E-02  -4.1072291416E-01
    28  5.5349368869E-01  3.7519293372E-02  3.0583143207E-01
    29  5.9904605523E-01  1.4045017074E+00  1.3903257879E+00
    30  -5.9752212260E-01  1.4040139203E+00  -1.3884746253E+00
    31  -5.9904578714E-01  -1.4045012130E+00  -1.3903256404E+00
    32  5.9752164514E-01  -1.4040143641E+00  1.3884744417E+00
    33  -1.3816476371E-01  -2.0225714166E-02  -6.4449435796E-02
    34  1.3830600554E-01  -2.2218981476E-02  6.4794408644E-02
    35  1.3816487498E-01  2.0225325632E-02  6.4449156486E-02
    36  -1.3830609050E-01  2.2219062895E-02  -6.4794476205E-02
    37  -1.4387995921E+00  1.5767225837E+00  3.7980295836E-02
    38  1.4361806001E+00  1.5759223550E+00  -3.8636396447E-02
    39  1.4387991972E+00  -1.5767220786E+00  -3.7980039219E-02
    40  -1.4361797473E+00  -1.5759220285E+00  3.8636792314E-02
    41  4.6824737368E-03  -3.1959314461E-02  -4.3839624246E-02
    42  -6.4588497692E-03  -3.3277984587E-02  4.4610311469E-02
    43  -4.6820836098E-03  3.1958798659E-02  4.3839567958E-02
    44  6.4585166249E-03  3.3277504728E-02  -4.4610258387E-02
    45  -1.6860308472E+00  7.9027993878E-02  -1.0683300861E+00
    46  1.5580213823E+00  -5.1214908297E-02  9.4903749992E-01
    47  1.6860267061E+00  -7.9028266160E-02  1.0683270917E+00
    48  -1.5580211356E+00  5.1215384911E-02  -9.4903777316E-01
    49  -1.2515700444E+01  -4.2200199858E+00  7.6932382439E+00
    50  2.2669209335E+01  5.3890466034E+00  -1.4101598811E+01
    51  1.2515432996E+01  4.2199668285E+00  -7.6931412470E+00
    52  -2.2669222308E+01  -5.3890260443E+00  1.4101595898E+01
    53  5.4580393442E+00  8.8858951719E+00  -4.6551213406E-01
    54  -5.4444855491E+00  9.6248147101E+00  2.5858417616E-01
    55  -5.4579223143E+00  -8.8857088003E+00  4.6550702404E-01
    56  5.4444979057E+00  -9.6248375702E+00  -2.5858708386E-01
    57  4.6833718555E-02  -1.4444682051E-02  -1.6957130542E-02
    58  -2.9978095984E-01  -3.6795282277E-02  -1.5791901306E-01
    59  -4.6820551672E-02  1.4442908189E-02  1.6967855479E-02
    60  2.9978238000E-01  3.6795180819E-02  1.5792029579E-01
    61  6.0521780381E+00  -5.5916307203E+00  -4.1525589660E+00
    62  -1.5990098567E+01  -1.5861770813E+01  1.1150472041E+01
    63  -6.0520429019E+00  5.5914970983E+00  4.1524624203E+00
    64  1.5990097862E+01  1.5861772464E+01  -1.1150467161E+01
    65  1.9893717491E+00  -6.0040729409E+00  -4.4454897148E+00
    66  -2.1404798590E+00  -5.4929705648E+00  6.3679445683E+00
    67  -1.9893924878E+00  6.0040118656E+00  4.4454397445E+00
    68  2.1404686498E+00  5.4929871239E+00  -6.3679206407E+00
    69  1.5887631740E+00  4.0139849341E+00  6.0812648193E-01
    70  -1.7249894190E+00  4.2529117101E+00  -5.5141356795E-01
    71  -1.5887390842E+00  -4.0139226629E+00  -6.0812083015E-01
    72  1.7249938216E+00  -4.2529224558E+00  5.5141268867E-01
    73  -6.5502907316E-01  -2.8566192794E-01  2.9521331541E+00
    74  1.1641917162E+00  -8.6752351973E-01  -4.9542234263E+00
    75  6.5502209876E-01  2.8565680320E-01  -2.9520959675E+00
    76  -1.1641855546E+00  8.6751790278E-01  4.9542011078E+00
    77  -5.4327616323E-01  -3.8712547273E-02  -3.9973069100E-01
    78  4.6183951252E-01  -9.0355057667E-02  3.4394469876E-01
    79  5.4328324043E-01  3.8711920876E-02  3.9973490499E-01
    80  -4.6183998487E-01  9.0354895664E-02  -3.4394481901E-01
    81  -2.7451674191E+00  1.1870216179E+01  -6.2515049414E-01
    82  2.7516569388E+00  1.1855376826E+01  6.2383577567E-01
    83  2.7450554701E+00  -1.1870029663E+01  6.2515383735E-01
    84  -2.7516608206E+00  -1.1855389440E+01  -6.2384824641E-01
    85  -1.5800816671E-01  2.1281479157E-02  -8.8406221937E-02
    86  1.6327486718E-01  1.1090134627E-02  8.3813542881E-02
    87  1.5802101415E-01  -2.1281109113E-02  8.8413358294E-02
    88  -1.6327393966E-01  -1.1090230807E-02  -8.3812854018E-02
    89  -6.3360056787E-01  -2.0775231154E+00  4.4818120391E+00
    90  6.3461813070E-01  -2.0839492405E+00  -4.4926719329E+00
    91  6.3358987389E-01  2.0774921943E+00  -4.4817399325E+00
    92  -6.3461999251E-01  2.0839533423E+00  4.4926842001E+00
    93  5.1332074738E+00  -6.6488757317E+00  -3.6437296815E+00
    94  -5.1371445990E+00  -6.6610469112E+00  3.6439019479E+00
    95  -5.1330946024E+00  6.6487265549E+00  3.6436470468E+00
    96  5.1371499510E+00  6.6610558387E+00  -3.6439031524E+00
  Stress tensor (eV/A^3):
  -1.2071929340E-04  -1.2947568676E-02  5.4761520331E-02
  -1.2947568676E-02  -4.8374117608E-02  8.8615883503E-03
  5.4761520331E-02  8.8615883503E-03  -7.5238532264E-03
