  Invoking FHI-aims ...
  | Number of atoms                   :  96
  ...scf iterations...
  | Total energy corrected        :   -9.927565053484E+01 eV
  ...
  Total atomic forces (unitary forces cleaned)
     1  -3.1170993066E-01  6.0746582819E-01  1.8917391877E-01
     2  2.3403943060E-01  5.7949854782E-01  -1.8187581311E-01
     3  3.1170988909E-01  -6.0746570997E-01  -1.8917389226E-01
     4  -2.3403931562E-01  -5.7949849476E-01  1.8187589533E-01
     5  -8.0430290304E-01  1.3751134273E+00  9.8783545717E-02
     6  1.0214638743E+00  -1.7870847093E+00  2.3924461057E+00
     7  8.0430369325E-01  -1.3751132459E+00  -9.8782815149E-02
     8  -1.0214637495E+00  1.7870845404E+00  -2.3924457684E+00
     9  -4.6532190689E-01  2.8792786547E-01  -2.0076429703E-01
    10  2.5584213492E-01  -2.8201146987E-01  1.7844454593E-01
    11  4.6532118513E-01  -2.8792822908E-01  2.0076362391E-01
    12  -2.5584227487E-01  2.8201190873E-01  -1.7844483472E-01
    13  -5.7255626935E-01  -1.1080430868E+00  -1.1164431733E+00
    14  7.2243222453E-01  -6.3035798768E-01  1.1803685607E+00
    15  5.7255545501E-01  1.1080433947E+00  1.1164428369E+00
    16  -7.2243263644E-01  6.3035789365E-01  -1.1803682075E+00
    17  4.0266458167E-01  -5.2056595244E-01  -2.5364637299E-02
    18  -8.2425702001E-01  4.1831771694E-01  -7.3532920933E-01
    19  -4.0266386693E-01  5.2056607666E-01  2.5365204825E-02
    20  8.2425725924E-01  -4.1831824948E-01  7.3532924069E-01
    21  7.3615574980E-01  -1.3158576537E+00  -2.2244824584E-01
    22  -6.9003845565E-01  -1.4221147294E+00  3.4574737546E-01
    23  -7.3615607360E-01  1.3158578552E+00  2.2244803400E-01
    24  6.9003861940E-01  1.4221149125E+00  -3.4574739832E-01
    25  1.0349476283E+00  1.0437562165E-01  7.9494077635E-01
    26  -5.0629045817E-01  -9.0771259847E-01  8.6831450759E-02
    27  -1.0349499926E+00  -1.0437609921E-01  -7.9494257208E-01
    28  5.0629103503E-01  9.0771355476E-01  -8.6831914079E-02
    29  5.0733015508E-01  3.0539675224E-01  5.8026088495E-01
    30  -4.4737251737E-01  4.0634089891E-01  -6.2217576799E-01
    31  -5.0732996445E-01  -3.0539685504E-01  -5.8026123971E-01
    32  4.4737167781E-01  -4.0634129599E-01  6.2217548768E-01
    33  2.3323292138E-01  1.1797691528E+00  1.0228888726E+00
    34  -2.1646368797E-01  1.2347027568E+00  -1.0198271190E+00
    35  -2.3323259356E-01  -1.1797691148E+00  -1.0228885095E+00
    36  2.1646386519E-01  -1.2347029982E+00  1.0198270488E+00
    37  -7.2627898358E-01  3.9197233128E-01  -2.6079664022E-01
    38  7.6209633891E-01  4.7688419684E-01  2.0521278359E-01
    39  7.2627912036E-01  -3.9197260488E-01  2.6079684659E-01
    40  -7.6209619186E-01  -4.7688481341E-01  -2.0521221059E-01
    41  -1.0069589802E+00  1.2712948360E+00  9.1130369056E-02
    42  1.0221816965E+00  1.2945192404E+00  -9.1900423621E-02
    43  1.0069588284E+00  -1.2712944498E+00  -9.1130239533E-02
    44  -1.0221813192E+00  -1.2945188982E+00  9.1900530992E-02
    45  6.8321963018E-01  1.2056567258E-01  7.2747377280E-01
    46  -4.1966999837E+00  -1.2702857999E+00  -3.5901711974E+00
    47  -6.8317860179E-01  -1.2056362670E-01  -7.2743780082E-01
    48  4.1966993744E+00  1.2702838491E+00  3.5901699277E+00
    49  -1.2830631137E+00  -1.1524432008E-01  -4.0493574241E-03
    50  1.1671330102E+00  -6.3270727618E-02  -2.4866481346E+00
    51  1.2830300843E+00  1.1524456050E-01  4.0402292773E-03
    52  -1.1671334292E+00  6.3271413456E-02  2.4866499305E+00
    53  -3.7182224249E-01  -1.2823580121E+00  -2.8135740986E-01
    54  4.7456262094E-01  -2.2519626485E+00  1.8617956150E-01
    55  3.7183899793E-01  1.2823634779E+00  2.8134617628E-01
    56  -4.7456183507E-01  2.2519608593E+00  -1.8617895702E-01
    57  1.1867776994E+00  -1.9311831655E-01  1.0561307359E+00
    58  2.2074125373E+00  5.4481035546E-01  2.6875532057E+00
    59  -1.1867781815E+00  1.9311785086E-01  -1.0561334959E+00
    60  -2.2074132202E+00  -5.4481043728E-01  -2.6875531934E+00
    61  -5.2653751154E-01  1.3342836656E+00  3.6221754978E-01
    62  -2.7196367187E+00  5.7840928490E-01  1.7282922996E+00
    63  5.2655463749E-01  -1.3342825437E+00  -3.6222921448E-01
    64  2.7196365179E+00  -5.7840820599E-01  -1.7282919582E+00
    65  -2.4846626369E-01  5.2458812225E-02  8.4964540012E-02
    66  3.9911263354E+00  1.0323946480E+00  -4.4403256318E-01
    67  2.4845108204E-01  -5.2458572039E-02  -8.4971098917E-02
    68  -3.9911269878E+00  -1.0323942390E+00  4.4403611190E-01
    69  -6.2769598231E-01  -1.4861026678E+00  3.4122293339E-01
    70  1.0221661550E+00  -1.5681582674E+00  -8.7915311808E-01
    71  6.2769951381E-01  1.4861159655E+00  -3.4121788883E-01
    72  -1.0221656413E+00  1.5681565133E+00  8.7915279091E-01
    73  6.4324361944E-01  3.8098208746E-01  -1.8278032637E+00
    74  -9.8458726656E-01  7.0623527834E-01  2.0082876677E+00
    75  -6.4324560238E-01  -3.8097939365E-01  1.8278127675E+00
    76  9.8458739069E-01  -7.0623277285E-01  -2.0082921618E+00
    77  1.1108428925E+00  -2.6285664476E-01  5.5379027097E-01
    78  -1.5164560986E+00  -4.0144303899E-01  -8.5806533044E-01
    79  -1.1108477091E+00  2.6285684480E-01  -5.5379400966E-01
    80  1.5164570976E+00  4.0144320493E-01  8.5806554239E-01
    81  -6.1992304679E-01  4.8910885314E-01  -4.3136677494E-02
    82  4.7936916433E-01  1.2005228620E+00  3.0828458574E-01
    83  6.1990029039E-01  -4.8909859699E-01  4.3126537295E-02
    84  -4.7936886559E-01  -1.2005245122E+00  -3.0828665881E-01
    85  1.2493073653E+00  1.3362020772E-01  6.5356181810E-01
    86  -1.2752474883E+00  2.6105494709E-01  -5.3705311069E-01
    87  -1.2493133394E+00  -1.3362166337E-01  -6.5356445333E-01
    88  1.2752466676E+00  -2.6105481745E-01  5.3705283453E-01
    89  4.1112679567E-01  1.8839105731E-01  -1.6953084255E+00
    90  -4.5339889253E-01  3.4295650703E-01  1.8457931792E+00
    91  -4.1112591709E-01  -1.8840244451E-01  1.6953159067E+00
    92  4.5339891606E-01  -3.4295444086E-01  -1.8457919748E+00
    93  -6.3529119573E-01  6.3110674665E-01  7.7693629205E-01
    94  6.2214087871E-01  9.1409317271E-01  -7.2073387596E-01
    95  6.3529843978E-01  -6.3112921080E-01  -7.7693536788E-01
    96  -6.2214085186E-01  -9.1409283979E-01  7.2073451991E-01
  Stress tensor (eV/A^3):
  7.3667649017E-02  -8.2560516075E-03  2.8785924462E-02
  -8.2560516075E-03  8.4051427637E-02  8.8216669569E-03
  2.8785924462E-02  8.8216669569E-03  5.6072264558E-02
