  Invoking FHI-aims ...
  | Number of atoms                   :  96
  ...scf iterations...
  | Total energy corrected        :   -1.560791354202E+01 eV
  ...
  Total atomic forces (unitary forces cleaned)
     1  -2.1333454841E-01  5.9045561736E-01  2.0441853309E-01
     2  2.1332523355E-01  5.9045125977E-01  -2.0441970899E-01
     3  2.1333463528E-01  -5.9045553300E-01  -2.0441847530E-01
     4  -2.1332511654E-01  -5.9045109049E-01  2.0441978160E-01
     5  -8.3702558950E-01  1.1698297982E+00  5.4247087562E-02
     6  8.3704813004E-01  1.1698340943E+00  -5.4250486618E-02
     7  8.3702580864E-01  -1.1698296750E+00  -5.4246816219E-02
     8  -8.3704832833E-01  -1.1698342181E+00  5.4250776763E-02
     9  -1.7180690835E-01  1.6239360824E-01  -7.8424951165E-02
    10  1.7178925999E-01  1.6236562516E-01  7.8442129593E-02
    11  1.7180660925E-01  -1.6239335796E-01  7.8424721975E-02
    12  -1.7178962828E-01  -1.6236577635E-01  -7.8442089574E-02
    13  -3.6524984954E-01  -8.6727726795E-01  -8.5375342475E-01
    14  3.6524951796E-01  -8.6726285851E-01  8.5372335903E-01
    15  3.6524933844E-01  8.6727730294E-01  8.5375315658E-01
    16  -3.6524961429E-01  8.6726312545E-01  -8.5372279395E-01
    17  2.6761398670E+00  -3.8981181569E+00  -3.6113434548E-01
    18  -2.6761011916E+00  -3.8979870938E+00  3.6117367389E-01
    19  -2.6761433792E+00  3.8981245978E+00  3.6113458022E-01
    20  2.6761016958E+00  3.8979888095E+00  -3.6117468651E-01
    21  -1.7859487181E+00  2.2973594860E+00  7.1535949206E-02
    22  1.7859230469E+00  2.2972379248E+00  -7.1530670759E-02
    23  1.7859524532E+00  -2.2973657123E+00  -7.1536237967E-02
    24  -1.7859237116E+00  -2.2972396010E+00  7.1531169775E-02
    25  4.0348352379E-01  1.5911741592E-02  3.4907490011E-01
    26  -4.0348749283E-01  1.5939803939E-02  -3.4908136834E-01
    27  -4.0348387998E-01  -1.5911927194E-02  -3.4907516551E-01
    28  4.0348801999E-01  -1.5939651884E-02  3.4908123509E-01
    29  1.0456626914E+00  3.2602930591E+00  3.1366594739E+00
    30  -1.0456719564E+00  3.2603691472E+00  -3.1366863701E+00
    31  -1.0456631546E+00  -3.2602942789E+00  -3.1366596770E+00
    32  1.0456732190E+00  -3.2603717906E+00  3.1366875267E+00
    33  -5.7806374823E-01  -1.9486410794E+00  -1.8460205503E+00
    34  5.7809807005E-01  -1.9487219271E+00  1.8460701861E+00
    35  5.7806431022E-01  1.9486420512E+00  1.8460208690E+00
    36  -5.7809934729E-01  1.9487242607E+00  -1.8460716847E+00
    37  -2.8445932263E+00  3.7050390615E+00  2.7443666612E-01
    38  2.8444847845E+00  3.7048700007E+00  -2.7445058718E-01
    39  2.8445916596E+00  -3.7050369032E+00  -2.7443575849E-01
    40  -2.8444823462E+00  -3.7048670545E+00  2.7445108447E-01
    41  1.5474443271E+00  -2.1567164439E+00  -2.7105202063E-01
    42  -1.5473489781E+00  -2.1565473790E+00  2.7103354915E-01
    43  -1.5474427602E+00  2.1567141405E+00  2.7105136464E-01
    44  1.5473468935E+00  2.1565445097E+00  -2.7103356444E-01
    45  -1.4732904274E+00  1.2181647289E-01  -9.0546921356E-01
    46  1.4732808108E+00  1.2179924034E-01  9.0547832708E-01
    47  1.4732839455E+00  -1.2181646492E-01  9.0546590572E-01
    48  -1.4732810845E+00  -1.2179860306E-01  -9.0547811062E-01
    49  -7.6308320606E+01  1.8681757570E+01  3.2867231171E+01
    50  7.6307068375E+01  1.8670589527E+01  -3.2865338407E+01
    51  7.6307517037E+01  -1.8681366732E+01  -3.2866926479E+01
    52  -7.6307107995E+01  -1.8670539837E+01  3.2865362052E+01
    53  5.1488675249E+01  4.4198172356E+01  -1.8251407346E+01
    54  -5.1490825309E+01  4.4199982794E+01  1.8251564484E+01
    55  -5.1488079194E+01  -4.4197790246E+01  1.8251193324E+01
    56  5.1490864326E+01  -4.4200024248E+01  -1.8251608544E+01
    57  -7.2921609761E-01  9.2228593003E-02  -5.1707395063E-01
    58  7.2935290780E-01  9.2262990325E-02  5.1715025159E-01
    59  7.2922165698E-01  -9.2229276848E-02  5.1707890593E-01
    60  -7.2934598986E-01  -9.2262204503E-02  -5.1714456232E-01
    61  2.4596829143E+01  -6.2513008603E+01  -1.0833465879E+01
    62  -2.4593552467E+01  -6.2503692139E+01  1.0831346692E+01
    63  -2.4596628733E+01  6.2512240080E+01  1.0833378348E+01
    64  2.4593547160E+01  6.2503682434E+01  -1.0831331771E+01
    65  -1.5658807865E+01  -4.0885493116E+01  -2.5708535900E+01
    66  1.5656717717E+01  -4.0880661745E+01  2.5705803038E+01
    67  1.5658616894E+01  4.0885175370E+01  2.5708359479E+01
    68  -1.5656742898E+01  4.0880651206E+01  -2.5705744539E+01
    69  2.7251884266E+01  3.1542812799E+01  -9.1399537311E+00
    70  -2.7248700079E+01  3.1538517879E+01  9.1381842241E+00
    71  -2.7251645495E+01  -3.1542585866E+01  9.1398474388E+00
    72  2.7248695699E+01  -3.1538509230E+01  -9.1382016077E+00
    73  -9.2892166018E+00  6.2866916502E+00  3.5171662288E+01
    74  9.2882222457E+00  6.2861777411E+00  -3.5167126798E+01
    75  9.2891693998E+00  -6.2866092111E+00  -3.5171379257E+01
    76  -9.2881948527E+00  -6.2861762032E+00  3.5167084428E+01
    77  -7.5406828672E-01  -9.2553559752E-02  -6.4753760844E-01
    78  7.5398998672E-01  -9.2548255713E-02  6.4748549252E-01
    79  7.5406896749E-01  9.2552641918E-02  6.4753791903E-01
    80  -7.5398881947E-01  9.2548122880E-02  -6.4748403620E-01
    81  -1.3856964231E+01  5.6377062635E+01  -4.1765239576E+01
    82  1.3854654589E+01  5.6374895378E+01  4.1769584005E+01
    83  1.3856826404E+01  -5.6376560377E+01  4.1764759214E+01
    84  -1.3854643315E+01  -5.6374882980E+01  -4.1769690595E+01
    85  -5.9966329461E-01  5.7284092933E-02  -4.1802446092E-01
    86  5.9944089057E-01  5.7266552892E-02  4.1788658203E-01
    87  5.9966759798E-01  -5.7283952885E-02  4.1802661438E-01
    88  -5.9943891382E-01  -5.7266676483E-02  -4.1788492166E-01
    89  -8.7638628773E+00  4.1908574065E+00  4.9336370727E+01
    90  8.7659145970E+00  4.1917714119E+00  -4.9339625085E+01
    91  8.7637812959E+00  -4.1907623638E+00  -4.9335882187E+01
    92  -8.7659232911E+00  -4.1917945959E+00  4.9339705925E+01
    93  2.5375092870E+01  -5.8140287322E+01  -8.2588790093E+00
    94  -2.5374638860E+01  -5.8139027501E+01  8.2579214768E+00
    95  -2.5374870388E+01  5.8139695078E+01  8.2588631704E+00
    96  2.5374634321E+01  5.8139039041E+01  -8.2578982478E+00
  Stress tensor (eV/A^3):
  -2.8104139160E-01  4.2718318386E-06  1.9605777026E-01
  4.2718318386E-06  -6.3435671472E-01  -2.3614979026E-06
  1.9605777026E-01  -2.3614979026E-06  -3.3947321322E-01
