  Invoking FHI-aims ...
  | Number of atoms                   :  96
  ...scf iterations...
  | Total energy corrected        :   -7.735904548259E+01 eV
  ...
  Total atomic forces (unitary forces cleaned)
     1  -2.5975892789E-01  5.8410085144E-01  1.8710191191E-01
     2  2.3693205014E-01  5.7134657391E-01  -1.8982709887E-01
     3  2.5975885526E-01  -5.8410079648E-01  -1.8710191550E-01
     4  -2.3693196227E-01  -5.7134660035E-01  1.8982722020E-01
     5  -8.9161614981E-01  1.1823026893E+00  1.0748297869E-01
     6  8.8619192280E-01  1.1470694816E+00  -6.2831763442E-02
     7  8.9161688552E-01  -1.1823025044E+00  -1.0748234533E-01
     8  -8.8619171467E-01  -1.1470696695E+00  6.2831921500E-02
     9  -2.3658999015E-01  1.3248570341E-01  -1.1087757577E-01
    10  1.9555330402E-01  9.3949203659E-02  1.1550310650E-01
    11  2.3658933778E-01  -1.3248614153E-01  1.1087719455E-01
    12  -1.9555347966E-01  -9.3948829317E-02  -1.1550340063E-01
    13  -4.0849000073E-01  -9.5550383857E-01  -8.5482266421E-01
    14  4.5238804592E-01  -9.1690798168E-01  8.5210000313E-01
    15  4.0848941139E-01  9.5550412309E-01  8.5482246401E-01
    16  -4.5238828518E-01  9.1690789719E-01  -8.5210002445E-01
    17  1.2167695222E+00  -1.6160554635E+00  -1.4106068738E-01
    18  -1.2370799266E+00  -1.5834193310E+00  9.7189710680E-02
    19  -1.2167692046E+00  1.6160557460E+00  1.4106113105E-01
    20  1.2370803053E+00  1.5834198951E+00  -9.7190058079E-02
    21  -2.5477325539E-01  3.0856046485E-02  -4.5167155426E-02
    22  2.5890853670E-01  4.0081233294E-02  4.1687548198E-02
    23  2.5477317159E-01  -3.0856076266E-02  4.5167125186E-02
    24  -2.5890875187E-01  -4.0081665110E-02  -4.1687654131E-02
    25  6.3093911762E-01  7.5935090305E-02  4.0227054009E-01
    26  -6.1636350811E-01  3.6027549356E-02  -3.5799761682E-01
    27  -6.3093937264E-01  -7.5935576819E-02  -4.0227084604E-01
    28  6.1636360381E-01  -3.6027155367E-02  3.5799754693E-01
    29  5.8464014138E-01  1.4111107362E+00  1.3644697282E+00
    30  -5.8437485526E-01  1.4103050833E+00  -1.3634677420E+00
    31  -5.8463977023E-01  -1.4111098745E+00  -1.3644695738E+00
    32  5.8437417950E-01  -1.4103054573E+00  1.3634675966E+00
    33  -1.5704602407E-01  -2.6444668150E-02  -9.4225398832E-02
    34  1.5716540028E-01  -2.6728103503E-02  9.4580006553E-02
    35  1.5704599755E-01  2.6444070254E-02  9.4224873165E-02
    36  -1.5716548922E-01  2.6728104895E-02  -9.4580033633E-02
    37  -1.4561658113E+00  1.5491755459E+00  5.4674405213E-02
    38  1.4552198713E+00  1.5483996107E+00  -5.4492972632E-02
    39  1.4561653331E+00  -1.5491748845E+00  -5.4674166316E-02
    40  -1.4552189447E+00  -1.5483993450E+00  5.4493284160E-02
    41  5.1805832300E-03  -3.2193855954E-02  -4.3931901546E-02
    42  -5.8216797200E-03  -3.2640656255E-02  4.4271684110E-02
    43  -5.1800882258E-03  3.2193231034E-02  4.3931830728E-02
    44  5.8212852928E-03  3.2640110110E-02  -4.4271627133E-02
    45  -7.6501131599E-01  1.9875856876E-02  -4.9815675528E-01
    46  7.3136031307E-01  -1.3789695347E-02  4.7205570932E-01
    47  7.6500948904E-01  -1.9876312252E-02  4.9815536753E-01
    48  -7.3136004985E-01  1.3789690611E-02  -4.7205594946E-01
    49  -1.0771660520E+00  -1.6549613134E+00  3.0544845448E+00
    50  8.1083142447E-01  -1.4680721755E+00  -3.3731377464E+00
    51  1.0771637121E+00  1.6549573476E+00  -3.0544808506E+00
    52  -8.1083274145E-01  1.4680719710E+00  3.3731367541E+00
    53  4.1386129286E-01  1.0007221939E+00  -3.7644156732E-02
    54  -3.4427572849E-01  9.0534605609E-01  4.6640090743E-02
    55  -4.1385981963E-01  -1.0007190990E+00  3.7645049968E-02
    56  3.4427568896E-01  -9.0534597754E-01  -4.6640342767E-02
    57  -6.1630439649E-01  7.9331378937E-02  -5.7197675890E-01
    58  9.5966520349E-01  1.2019178324E-01  8.3463264230E-01
    59  6.1630283590E-01  -7.9331107872E-02  5.7197581326E-01
    60  -9.5966361220E-01  -1.2019180674E-01  -8.3463157242E-01
    61  7.1296109292E-01  -3.7502671468E-01  -6.1234044535E-01
    62  -8.5485324582E-01  -4.8708477592E-01  7.1078714124E-01
    63  -7.1295895117E-01  3.7502544883E-01  6.1233870184E-01
    64  8.5485283537E-01  4.8708449903E-01  -7.1078658582E-01
    65  2.4056755354E+00  -1.8387614830E+00  -1.7896462923E+00
    66  -2.3481222616E+00  -1.6946718314E+00  1.9318182735E+00
    67  -2.4056735025E+00  1.8387592949E+00  1.7896431402E+00
    68  2.3481208973E+00  1.6946738826E+00  -1.9318161810E+00
    69  2.4539571945E-01  8.5038488270E-01  2.9725782305E-01
    70  -2.4952159378E-01  8.3463847451E-01  -2.8590342383E-01
    71  -2.4539510300E-01  -8.5038271537E-01  -2.9725719264E-01
    72  2.4952175651E-01  -8.3463911897E-01  2.8590327180E-01
    73  -2.3732214344E-01  -1.7513715629E-01  8.1598361274E-01
    74  2.7609487964E-01  -2.6251810783E-01  -9.6130320145E-01
    75  2.3732218559E-01  1.7513656424E-01  -8.1598195160E-01
    76  -2.7609445110E-01  2.6251716318E-01  9.6130153986E-01
    77  -6.5822325057E-01  1.1829547805E-02  -3.4657154303E-01
    78  6.0550336899E-01  -7.6113664247E-03  3.1359914166E-01
    79  6.5822197952E-01  -1.1829473168E-02  3.4657090637E-01
    80  -6.0550301522E-01  7.6112638814E-03  -3.1359890983E-01
    81  1.0063313363E+00  3.4507715936E+00  5.4685284932E-01
    82  -1.0060411886E+00  3.4468482157E+00  -5.4718549631E-01
    83  -1.0063325082E+00  -3.4507655273E+00  -5.4684913604E-01
    84  1.0060411467E+00  -3.4468482091E+00  5.4718460633E-01
    85  -6.2756879733E-01  -5.6049872928E-02  -3.3442007865E-01
    86  6.2849447656E-01  -5.8849160238E-02  3.3365025404E-01
    87  6.2756807466E-01  5.6049695008E-02  3.3441991293E-01
    88  -6.2849426592E-01  5.8849101882E-02  -3.3365010172E-01
    89  -1.1805838742E-01  -6.4028542639E-01  7.3760309642E-01
    90  1.1814928406E-01  -6.4233911496E-01  -7.3854846919E-01
    91  1.1805855680E-01  6.4028476274E-01  -7.3760310232E-01
    92  -1.1814926688E-01  6.4233902802E-01  7.3854848791E-01
    93  6.5022145532E-01  -6.4616759346E-01  -4.7825863546E-01
    94  -6.5053740874E-01  -6.4851826167E-01  4.7818278422E-01
    95  -6.5021883461E-01  6.4616499840E-01  4.7825627670E-01
    96  6.5053768177E-01  6.4851859999E-01  -4.7818250235E-01
  Stress tensor (eV/A^3):
  4.4700121720E-02  -4.1293356486E-04  1.9190744328E-02
  -4.1293356486E-04  4.1598452493E-02  -3.1302463268E-05
  1.9190744328E-02  -3.1302463268E-05  3.2175833305E-02
