  Invoking FHI-aims ...
  | Number of atoms                   :  96
  ...scf iterations...
  | Total energy corrected        :   -6.110413400470E+01 eV
  ...
  Total atomic forces (unitary forces cleaned)
     1  -2.3091502366E-01  5.8573465898E-01  1.8873175293E-01
     2  2.2828154781E-01  5.8121081439E-01  -1.9295098648E-01
     3  2.3091503278E-01  -5.8573458513E-01  -1.8873172922E-01
     4  -2.2828143176E-01  -5.8121074900E-01  1.9295108343E-01
     5  -8.7091311695E-01  1.0933147080E+00  4.7203562626E-02
     6  8.5615341810E-01  1.0219919119E+00  5.3530744908E-02
     7  8.7091357370E-01  -1.0933145645E+00  -4.7203118903E-02
     8  -8.5615340125E-01  -1.0219920667E+00  -5.3530508127E-02
     9  -1.9203775893E-01  1.4705814512E-01  -8.6783509771E-02
    10  7.5109914796E-02  3.3812840293E-02  9.8535339738E-02
    11  1.9203729814E-01  -1.4705822642E-01  8.6783213425E-02
    12  -7.5110212809E-02  -3.3812735045E-02  -9.8535479411E-02
    13  -3.7872970116E-01  -9.0110851181E-01  -8.4993541921E-01
    14  4.9650511634E-01  -7.8526468906E-01  8.3647999616E-01
    15  3.7872917996E-01  9.0110867205E-01  8.4993520223E-01
    16  -4.9650521756E-01  7.8526477472E-01  -8.3647967893E-01
    17  2.1756064064E+00  -3.0310511408E+00  -2.8260400174E-01
    18  -2.2207617227E+00  -2.9353537721E+00  1.5815540343E-01
    19  -2.1756073726E+00  3.0310533322E+00  2.8260433537E-01
    20  2.2207624891E+00  2.9353554190E+00  -1.5815610164E-01
    21  -1.2776381425E+00  1.4350945709E+00  1.1627587492E-02
    22  1.2857723775E+00  1.4616980899E+00  -2.9443873257E-02
    23  1.2776393976E+00  -1.4350966026E+00  -1.1627781080E-02
    24  -1.2857730031E+00  -1.4616996585E+00  2.9444161601E-02
    25  4.6711102368E-01  4.2409273517E-02  3.4283080573E-01
    26  -4.3058260337E-01  -6.6268519690E-02  -2.1783146910E-01
    27  -4.6711150398E-01  -4.2409558957E-02  -3.4283118005E-01
    28  4.3058289226E-01  6.6268815345E-02  2.1783134702E-01
    29  8.6649643187E-01  2.6272662706E+00  2.4537476291E+00
    30  -8.6733592637E-01  2.6234589440E+00  -2.4515092802E+00
    31  -8.6649609357E-01  -2.6272651161E+00  -2.4537465890E+00
    32  8.6733600506E-01  -2.6234600039E+00  2.4515094184E+00
    33  -4.1968743698E-01  -1.2782634911E+00  -1.1615807314E+00
    34  4.1894879214E-01  -1.2799074954E+00  1.1605616181E+00
    35  4.1968743967E-01  1.2782623433E+00  1.1615796223E+00
    36  -4.1894924848E-01  1.2799082164E+00  -1.1605620059E+00
    37  -2.3797987253E+00  2.8936794866E+00  2.0323945519E-01
    38  2.3778274481E+00  2.8900850972E+00  -2.0161092643E-01
    39  2.3797973418E+00  -2.8936774845E+00  -2.0323894702E-01
    40  -2.3778253861E+00  -2.8900830913E+00  2.0161125272E-01
    41  1.0182098199E+00  -1.3670590722E+00  -1.9172476890E-01
    42  -1.0195315134E+00  -1.3678491378E+00  1.9279938999E-01
    43  -1.0182084283E+00  1.3670570099E+00  1.9172446252E-01
    44  1.0195299222E+00  1.3678470525E+00  -1.9279927210E-01
    45  -1.7198728159E+00  9.3555919280E-02  -1.0785628964E+00
    46  1.5843500125E+00  -2.5053816554E-02  1.0039750601E+00
    47  1.7198671964E+00  -9.3556146320E-02  1.0785591274E+00
    48  -1.5843498358E+00  2.5054567083E-02  -1.0039752691E+00
    49  -2.9853065323E+01  -5.4606703313E+00  1.5436201381E+01
    50  3.5299904385E+01  6.5508728124E+00  -1.8720851670E+01
    51  2.9852503691E+01  5.4606066929E+00  -1.5436016723E+01
    52  -3.5299923494E+01  -6.5508255010E+00  1.8720844850E+01
    53  1.5839381165E+01  2.2041457015E+01  -1.9388216736E+00
    54  -1.3355676061E+01  1.9689666507E+01  1.4549416227E+00
    55  -1.5839084577E+01  -2.2041068806E+01  1.9387906148E+00
    56  1.3355700639E+01  -1.9689705411E+01  -1.4549513235E+00
    57  -1.5665179596E+00  1.6192552479E-01  -1.2250581612E+00
    58  4.0885733363E-01  4.8470124957E-02  3.5175386313E-01
    59  1.5665359070E+00  -1.6192724049E-01  1.2250730436E+00
    60  -4.0885192647E-01  -4.8469648205E-02  -3.5174938618E-01
    61  1.4537990616E+01  -1.7380503675E+01  -8.9702619858E+00
    62  -2.1342491257E+01  -2.6905388636E+01  1.3793215398E+01
    63  -1.4537746295E+01  1.7380179548E+01  8.9701016325E+00
    64  2.1342480660E+01  2.6905378991E+01  -1.3793202985E+01
    65  3.7455461855E-01  -1.5008943989E+01  -1.2270677339E+01
    66  -8.0474035866E-02  -1.4301045589E+01  1.2568245805E+01
    67  -3.7459766387E-01  1.5008833523E+01  1.2270606817E+01
    68  8.0456168435E-02  1.4301063235E+01  -1.2568217108E+01
    69  6.6930527271E+00  1.3330043951E+01  2.5218412366E-01
    70  -6.8577833983E+00  1.3557390706E+01  -1.5512872812E-01
    71  -6.6929957855E+00  -1.3329938491E+01  -2.5218630410E-01
    72  6.8577906331E+00  -1.3557402392E+01  1.5512299207E-01
    73  -2.7823377102E+00  -9.8434967065E-01  1.2334711214E+01
    74  2.9204765895E+00  -1.6253561947E+00  -1.2722559263E+01
    75  2.7823295590E+00  9.8434813182E-01  -1.2334640398E+01
    76  -2.9204682427E+00  1.6253502403E+00  1.2722535361E+01
    77  -1.9863854500E+00  -3.2421688425E-02  -1.4503680852E+00
    78  1.8733089913E+00  -1.6053252775E-01  1.3638660626E+00
    79  1.9863836603E+00  3.2421308010E-02  1.4503671910E+00
    80  -1.8733079370E+00  1.6053227717E-01  -1.3638646505E+00
    81  -7.6278457976E+00  2.6468423581E+01  -5.7876424172E+00
    82  7.6358429305E+00  2.6432485032E+01  5.7803285371E+00
    83  7.6276238076E+00  -2.6468045624E+01  5.7876562542E+00
    84  -7.6358482085E+00  -2.6432502095E+01  -5.7803574687E+00
    85  -1.8086983729E+00  8.8840888126E-02  -1.0440118276E+00
    86  1.8171714779E+00  7.7123933110E-02  1.0375342333E+00
    87  1.8087090534E+00  -8.8840568703E-02  1.0440181894E+00
    88  -1.8171688266E+00  -7.7124121141E-02  -1.0375324000E+00
    89  -2.1896009077E+00  -4.2923504003E+00  1.5170761154E+01
    90  2.1948678269E+00  -4.3039197921E+00  -1.5188452608E+01
    91  2.1895835856E+00  4.2923219800E+00  -1.5170640598E+01
    92  -2.1948710410E+00  4.3039222208E+00  1.5188475829E+01
    93  1.3447913239E+01  -1.9049295309E+01  -8.5503012410E+00
    94  -1.3445535607E+01  -1.9067895124E+01  8.5452175200E+00
    95  -1.3447679792E+01  1.9048953621E+01  8.5501590339E+00
    96  1.3445541948E+01  1.9067910283E+01  -8.5452144272E+00
  Stress tensor (eV/A^3):
  -9.2724192278E-02  -1.3364056701E-02  7.9609054075E-02
  -1.3364056701E-02  -2.1694009194E-01  7.3078797754E-03
  7.9609054075E-02  7.3078797754E-03  -1.0816416746E-01
