64 
Energy: 2.8649655552264583e+00 
Mg	  0.000000000000 	  0.000000000000 	  0.000000000000 	
Mg	  1.000000000000 	  0.000000000000 	  2.980000000000 	
Mg	  0.000000000000 	  3.980000000000 	  0.000000000000 	
Mg	  1.000000000000 	  3.980000000000 	  2.980000000000 	
Mg	  3.980000000000 	  0.000000000000 	  0.000000000000 	
Mg	  4.980000000000 	  0.000000000000 	  2.980000000000 	
Mg	  3.980000000000 	  3.980000000000 	  0.000000000000 	
Mg	  4.980000000000 	  3.980000000000 	  2.980000000000 	
Mg	  1.705054908288 	  1.800036605526 	  0.000000000000 	
Mg	  2.705054908288 	  1.800036605526 	  2.980000000000 	
Mg	  1.705054908288 	  5.780036605526 	  0.000000000000 	
Mg	  2.705054908288 	  5.780036605526 	  2.980000000000 	
Mg	  5.685054908288 	  1.800036605526 	  0.000000000000 	
Mg	  6.685054908288 	  1.800036605526 	  2.980000000000 	
Mg	  5.685054908288 	  5.780036605526 	  0.000000000000 	
Mg	  6.685054908288 	  5.780036605526 	  2.980000000000 	
Mg	  2.464908486186 	  0.000000000000 	  1.515091513814 	
Mg	  3.464908486186 	  0.000000000000 	  4.495091513814 	
Mg	  2.464908486186 	  3.980000000000 	  1.515091513814 	
Mg	  3.464908486186 	  3.980000000000 	  4.495091513814 	
Mg	  6.444908486186 	  0.000000000000 	  1.515091513814 	
Mg	  7.444908486186 	  0.000000000000 	  4.495091513814 	
Mg	  6.444908486186 	  3.980000000000 	  1.515091513814 	
Mg	  7.444908486186 	  3.980000000000 	  4.495091513814 	
Mg	  0.474908486186 	  1.990000000000 	  1.515091513814 	
Mg	  1.474908486186 	  1.990000000000 	  4.495091513814 	
Mg	  0.474908486186 	  5.970000000000 	  1.515091513814 	
Mg	  1.474908486186 	  5.970000000000 	  4.495091513814 	
Mg	  4.454908486186 	  1.990000000000 	  1.515091513814 	
Mg	  5.454908486186 	  1.990000000000 	  4.495091513814 	
Mg	  4.454908486186 	  5.970000000000 	  1.515091513814 	
Mg	  5.454908486186 	  5.970000000000 	  4.495091513814 	
O	  1.990000000000 	  0.000000000000 	  0.000000000000 	
O	  2.990000000000 	  0.000000000000 	  2.980000000000 	
O	  1.990000000000 	  3.980000000000 	  0.000000000000 	
O	  2.990000000000 	  3.980000000000 	  2.980000000000 	
O	  5.970000000000 	  0.000000000000 	  0.000000000000 	
O	  6.970000000000 	  0.000000000000 	  2.980000000000 	
O	  5.970000000000 	  3.980000000000 	  0.000000000000 	
O	  6.970000000000 	  3.980000000000 	  2.980000000000 	
O	  0.000000000000 	  1.990000000000 	  0.000000000000 	
O	  1.000000000000 	  1.990000000000 	  2.980000000000 	
O	  0.000000000000 	  5.970000000000 	  0.000000000000 	
O	  1.000000000000 	  5.970000000000 	  2.980000000000 	
O	  3.980000000000 	  1.990000000000 	  0.000000000000 	
O	  4.980000000000 	  1.990000000000 	  2.980000000000 	
O	  3.980000000000 	  5.970000000000 	  0.000000000000 	
O	  4.980000000000 	  5.970000000000 	  2.980000000000 	
O	  0.474908486186 	  0.000000000000 	  1.515091513814 	
O	  1.474908486186 	  0.000000000000 	  4.495091513814 	
O	  0.474908486186 	  3.980000000000 	  1.515091513814 	
O	  1.474908486186 	  3.980000000000 	  4.495091513814 	
O	  4.454908486186 	  0.000000000000 	  1.515091513814 	
O	  5.454908486186 	  0.000000000000 	  4.495091513814 	
O	  4.454908486186 	  3.980000000000 	  1.515091513814 	
O	  5.454908486186 	  3.980000000000 	  4.495091513814 	
O	  2.844835275135 	  1.365970249151 	  1.515091513814 	
O	  3.844835275135 	  1.365970249151 	  4.495091513814 	
O	  2.844835275135 	  5.345970249151 	  1.515091513814 	
O	  3.844835275135 	  5.345970249151 	  4.495091513814 	
O	  6.824835275135 	  1.365970249151 	  1.515091513814 	
O	  7.824835275135 	  1.365970249151 	  4.495091513814 	
O	  6.824835275135 	  5.345970249151 	  1.515091513814 	
O	  7.824835275135 	  5.345970249151 	  4.495091513814 	
64 
Energy: 2.8435960477420923e+00 
Mg	  0.000000000000 	  0.000000000000 	  0.000000000000 	
Mg	  1.000000000000 	  0.000000000000 	  2.980000000000 	
Mg	  0.000000000000 	  3.980000000000 	  0.000000000000 	
Mg	  1.000000000000 	  3.980000000000 	  2.980000000000 	
Mg	  3.980000000000 	  0.000000000000 	  0.000000000000 	
Mg	  4.980000000000 	  0.000000000000 	  2.980000000000 	
Mg	  3.980000000000 	  3.980000000000 	  0.000000000000 	
Mg	  4.980000000000 	  3.980000000000 	  2.980000000000 	
Mg	  1.731115501072 	  1.820241491240 	  0.000000000000 	
Mg	  2.731115501072 	  1.820241491240 	  2.980000000000 	
Mg	  1.731115501072 	  5.800241491240 	  0.000000000000 	
Mg	  2.731115501072 	  5.800241491240 	  2.980000000000 	
Mg	  5.711115501072 	  1.820241491240 	  0.000000000000 	
Mg	  6.711115501072 	  1.820241491240 	  2.980000000000 	
Mg	  5.711115501072 	  5.800241491240 	  0.000000000000 	
Mg	  6.711115501072 	  5.800241491240 	  2.980000000000 	
Mg	  2.444123422415 	  0.000000000000 	  1.552863520736 	
Mg	  3.444123422415 	  0.000000000000 	  4.532863520736 	
Mg	  2.444123422415 	  3.980000000000 	  1.552863520736 	
Mg	  3.444123422415 	  3.980000000000 	  4.532863520736 	
Mg	  6.424123422415 	  0.000000000000 	  1.552863520736 	
Mg	  7.424123422415 	  0.000000000000 	  4.532863520736 	
Mg	  6.424123422415 	  3.980000000000 	  1.552863520736 	
Mg	  7.424123422415 	  3.980000000000 	  4.532863520736 	
Mg	  0.445629950840 	  1.998493471576 	  1.552863520736 	
Mg	  1.445629950840 	  1.998493471576 	  4.532863520736 	
Mg	  0.445629950840 	  5.978493471576 	  1.552863520736 	
Mg	  1.445629950840 	  5.978493471576 	  4.532863520736 	
Mg	  4.425629950840 	  1.998493471576 	  1.552863520736 	
Mg	  5.425629950840 	  1.998493471576 	  4.532863520736 	
Mg	  4.425629950840 	  5.978493471576 	  1.552863520736 	
Mg	  5.425629950840 	  5.978493471576 	  4.532863520736 	
O	  1.998493471576 	  0.000000000000 	  0.000000000000 	
O	  2.998493471576 	  0.000000000000 	  2.980000000000 	
O	  1.998493471576 	  3.980000000000 	  0.000000000000 	
O	  2.998493471576 	  3.980000000000 	  2.980000000000 	
O	  5.978493471576 	  0.000000000000 	  0.000000000000 	
O	  6.978493471576 	  0.000000000000 	  2.980000000000 	
O	  5.978493471576 	  3.980000000000 	  0.000000000000 	
O	  6.978493471576 	  3.980000000000 	  2.980000000000 	
O	  0.000000000000 	  1.998493471576 	  0.000000000000 	
O	  1.000000000000 	  1.998493471576 	  2.980000000000 	
O	  0.000000000000 	  5.978493471576 	  0.000000000000 	
O	  1.000000000000 	  5.978493471576 	  2.980000000000 	
O	  3.980000000000 	  1.998493471576 	  0.000000000000 	
O	  4.980000000000 	  1.998493471576 	  2.980000000000 	
O	  3.980000000000 	  5.978493471576 	  0.000000000000 	
O	  4.980000000000 	  5.978493471576 	  2.980000000000 	
O	  0.445629950840 	  0.000000000000 	  1.552863520736 	
O	  1.445629950840 	  0.000000000000 	  4.532863520736 	
O	  0.445629950840 	  3.980000000000 	  1.552863520736 	
O	  1.445629950840 	  3.980000000000 	  4.532863520736 	
O	  4.425629950840 	  0.000000000000 	  1.552863520736 	
O	  5.425629950840 	  0.000000000000 	  4.532863520736 	
O	  4.425629950840 	  3.980000000000 	  1.552863520736 	
O	  5.425629950840 	  3.980000000000 	  4.532863520736 	
O	  2.800627383087 	  1.412935716173 	  1.552863520736 	
O	  3.800627383087 	  1.412935716173 	  4.532863520736 	
O	  2.800627383087 	  5.392935716173 	  1.552863520736 	
O	  3.800627383087 	  5.392935716173 	  4.532863520736 	
O	  6.780627383087 	  1.412935716173 	  1.552863520736 	
O	  7.780627383087 	  1.412935716173 	  4.532863520736 	
O	  6.780627383087 	  5.392935716173 	  1.552863520736 	
O	  7.780627383087 	  5.392935716173 	  4.532863520736 	
64 
Energy: 3.2436194078974157e+00 
Mg	  0.000000000000 	  0.000000000000 	  0.000000000000 	
Mg	  1.000000000000 	  0.000000000000 	  2.980000000000 	
Mg	  0.000000000000 	  3.980000000000 	  0.000000000000 	
Mg	  1.000000000000 	  3.980000000000 	  2.980000000000 	
Mg	  3.980000000000 	  0.000000000000 	  0.000000000000 	
Mg	  4.980000000000 	  0.000000000000 	  2.980000000000 	
Mg	  3.980000000000 	  3.980000000000 	  0.000000000000 	
Mg	  4.980000000000 	  3.980000000000 	  2.980000000000 	
Mg	  1.757326870047 	  1.840518740755 	  0.000000000000 	
Mg	  2.757326870047 	  1.840518740755 	  2.980000000000 	
Mg	  1.757326870047 	  5.820518740755 	  0.000000000000 	
Mg	  2.757326870047 	  5.820518740755 	  2.980000000000 	
Mg	  5.737326870047 	  1.840518740755 	  0.000000000000 	
Mg	  6.737326870047 	  1.840518740755 	  2.980000000000 	
Mg	  5.737326870047 	  5.820518740755 	  0.000000000000 	
Mg	  6.737326870047 	  5.820518740755 	  2.980000000000 	
Mg	  2.422861835708 	  0.000000000000 	  1.590943128632 	
Mg	  3.422861835708 	  0.000000000000 	  4.570943128632 	
Mg	  2.422861835708 	  3.980000000000 	  1.590943128632 	
Mg	  3.422861835708 	  3.980000000000 	  4.570943128632 	
Mg	  6.402861835708 	  0.000000000000 	  1.590943128632 	
Mg	  7.402861835708 	  0.000000000000 	  4.570943128632 	
Mg	  6.402861835708 	  3.980000000000 	  1.590943128632 	
Mg	  7.402861835708 	  3.980000000000 	  4.570943128632 	
Mg	  0.415959353538 	  2.006902482170 	  1.590943128632 	
Mg	  1.415959353538 	  2.006902482170 	  4.570943128632 	
Mg	  0.415959353538 	  5.986902482170 	  1.590943128632 	
Mg	  1.415959353538 	  5.986902482170 	  4.570943128632 	
Mg	  4.395959353538 	  2.006902482170 	  1.590943128632 	
Mg	  5.395959353538 	  2.006902482170 	  4.570943128632 	
Mg	  4.395959353538 	  5.986902482170 	  1.590943128632 	
Mg	  5.395959353538 	  5.986902482170 	  4.570943128632 	
O	  2.006902482170 	  0.000000000000 	  0.000000000000 	
O	  3.006902482170 	  0.000000000000 	  2.980000000000 	
O	  2.006902482170 	  3.980000000000 	  0.000000000000 	
O	  3.006902482170 	  3.980000000000 	  2.980000000000 	
O	  5.986902482170 	  0.000000000000 	  0.000000000000 	
O	  6.986902482170 	  0.000000000000 	  2.980000000000 	
O	  5.986902482170 	  3.980000000000 	  0.000000000000 	
O	  6.986902482170 	  3.980000000000 	  2.980000000000 	
O	  0.000000000000 	  2.006902482170 	  0.000000000000 	
O	  1.000000000000 	  2.006902482170 	  2.980000000000 	
O	  0.000000000000 	  5.986902482170 	  0.000000000000 	
O	  1.000000000000 	  5.986902482170 	  2.980000000000 	
O	  3.980000000000 	  2.006902482170 	  0.000000000000 	
O	  4.980000000000 	  2.006902482170 	  2.980000000000 	
O	  3.980000000000 	  5.986902482170 	  0.000000000000 	
O	  4.980000000000 	  5.986902482170 	  2.980000000000 	
O	  0.415959353538 	  0.000000000000 	  1.590943128632 	
O	  1.415959353538 	  0.000000000000 	  4.570943128632 	
O	  0.415959353538 	  3.980000000000 	  1.590943128632 	
O	  1.415959353538 	  3.980000000000 	  4.570943128632 	
O	  4.395959353538 	  0.000000000000 	  1.590943128632 	
O	  5.395959353538 	  0.000000000000 	  4.570943128632 	
O	  4.395959353538 	  3.980000000000 	  1.590943128632 	
O	  5.395959353538 	  3.980000000000 	  4.570943128632 	
O	  2.755629318539 	  1.460331891621 	  1.590943128632 	
O	  3.755629318539 	  1.460331891621 	  4.570943128632 	
O	  2.755629318539 	  5.440331891621 	  1.590943128632 	
O	  3.755629318539 	  5.440331891621 	  4.570943128632 	
O	  6.735629318539 	  1.460331891621 	  1.590943128632 	
O	  7.735629318539 	  1.460331891621 	  4.570943128632 	
O	  6.735629318539 	  5.440331891621 	  1.590943128632 	
O	  7.735629318539 	  5.440331891621 	  4.570943128632 	
64 
Energy: 3.8575999305634667e+00 
Mg	  0.000000000000 	  0.000000000000 	  0.000000000000 	
Mg	  1.000000000000 	  0.000000000000 	  2.980000000000 	
Mg	  0.000000000000 	  3.980000000000 	  0.000000000000 	
Mg	  1.000000000000 	  3.980000000000 	  2.980000000000 	
Mg	  3.980000000000 	  0.000000000000 	  0.000000000000 	
Mg	  4.980000000000 	  0.000000000000 	  2.980000000000 	
Mg	  3.980000000000 	  3.980000000000 	  0.000000000000 	
Mg	  4.980000000000 	  3.980000000000 	  2.980000000000 	
Mg	  1.783565742813 	  1.860819123883 	  0.000000000000 	
Mg	  2.783565742813 	  1.860819123883 	  2.980000000000 	
Mg	  1.783565742813 	  5.840819123883 	  0.000000000000 	
Mg	  2.783565742813 	  5.840819123883 	  2.980000000000 	
Mg	  5.763565742813 	  1.860819123883 	  0.000000000000 	
Mg	  6.763565742813 	  1.860819123883 	  2.980000000000 	
Mg	  5.763565742813 	  5.840819123883 	  0.000000000000 	
Mg	  6.763565742813 	  5.840819123883 	  2.980000000000 	
Mg	  2.401592791374 	  0.000000000000 	  1.629058980673 	
Mg	  3.401592791374 	  0.000000000000 	  4.609058980673 	
Mg	  2.401592791374 	  3.980000000000 	  1.629058980673 	
Mg	  3.401592791374 	  3.980000000000 	  4.609058980673 	
Mg	  6.381592791374 	  0.000000000000 	  1.629058980673 	
Mg	  7.381592791374 	  0.000000000000 	  4.609058980673 	
Mg	  6.381592791374 	  3.980000000000 	  1.629058980673 	
Mg	  7.381592791374 	  3.980000000000 	  4.609058980673 	
Mg	  0.386266905351 	  2.015325886023 	  1.629058980673 	
Mg	  1.386266905351 	  2.015325886023 	  4.609058980673 	
Mg	  0.386266905351 	  5.995325886023 	  1.629058980673 	
Mg	  1.386266905351 	  5.995325886023 	  4.609058980673 	
Mg	  4.366266905351 	  2.015325886023 	  1.629058980673 	
Mg	  5.366266905351 	  2.015325886023 	  4.609058980673 	
Mg	  4.366266905351 	  5.995325886023 	  1.629058980673 	
Mg	  5.366266905351 	  5.995325886023 	  4.609058980673 	
O	  2.015325886023 	  0.000000000000 	  0.000000000000 	
O	  3.015325886023 	  0.000000000000 	  2.980000000000 	
O	  2.015325886023 	  3.980000000000 	  0.000000000000 	
O	  3.015325886023 	  3.980000000000 	  2.980000000000 	
O	  5.995325886023 	  0.000000000000 	  0.000000000000 	
O	  6.995325886023 	  0.000000000000 	  2.980000000000 	
O	  5.995325886023 	  3.980000000000 	  0.000000000000 	
O	  6.995325886023 	  3.980000000000 	  2.980000000000 	
O	  0.000000000000 	  2.015325886023 	  0.000000000000 	
O	  1.000000000000 	  2.015325886023 	  2.980000000000 	
O	  0.000000000000 	  5.995325886023 	  0.000000000000 	
O	  1.000000000000 	  5.995325886023 	  2.980000000000 	
O	  3.980000000000 	  2.015325886023 	  0.000000000000 	
O	  4.980000000000 	  2.015325886023 	  2.980000000000 	
O	  3.980000000000 	  5.995325886023 	  0.000000000000 	
O	  4.980000000000 	  5.995325886023 	  2.980000000000 	
O	  0.386266905351 	  0.000000000000 	  1.629058980673 	
O	  1.386266905351 	  0.000000000000 	  4.609058980673 	
O	  0.386266905351 	  3.980000000000 	  1.629058980673 	
O	  1.386266905351 	  3.980000000000 	  4.609058980673 	
O	  4.366266905351 	  0.000000000000 	  1.629058980673 	
O	  5.366266905351 	  0.000000000000 	  4.609058980673 	
O	  4.366266905351 	  3.980000000000 	  1.629058980673 	
O	  5.366266905351 	  3.980000000000 	  4.609058980673 	
O	  2.710606315655 	  1.507771172392 	  1.629058980673 	
O	  3.710606315655 	  1.507771172392 	  4.609058980673 	
O	  2.710606315655 	  5.487771172392 	  1.629058980673 	
O	  3.710606315655 	  5.487771172392 	  4.609058980673 	
O	  6.690606315655 	  1.507771172392 	  1.629058980673 	
O	  7.690606315655 	  1.507771172392 	  4.609058980673 	
O	  6.690606315655 	  5.487771172392 	  1.629058980673 	
O	  7.690606315655 	  5.487771172392 	  4.609058980673 	
64 
Energy: 4.5223047525934916e+00 
Mg	  0.000000000000 	  0.000000000000 	  0.000000000000 	
Mg	  1.000000000000 	  0.000000000000 	  2.980000000000 	
Mg	  0.000000000000 	  3.980000000000 	  0.000000000000 	
Mg	  1.000000000000 	  3.980000000000 	  2.980000000000 	
Mg	  3.980000000000 	  0.000000000000 	  0.000000000000 	
Mg	  4.980000000000 	  0.000000000000 	  2.980000000000 	
Mg	  3.980000000000 	  3.980000000000 	  0.000000000000 	
Mg	  4.980000000000 	  3.980000000000 	  2.980000000000 	
Mg	  1.809828449809 	  1.881138819168 	  0.000000000000 	
Mg	  2.809828449809 	  1.881138819168 	  2.980000000000 	
Mg	  1.809828449809 	  5.861138819168 	  0.000000000000 	
Mg	  2.809828449809 	  5.861138819168 	  2.980000000000 	
Mg	  5.789828449809 	  1.881138819168 	  0.000000000000 	
Mg	  6.789828449809 	  1.881138819168 	  2.980000000000 	
Mg	  5.789828449809 	  5.861138819168 	  0.000000000000 	
Mg	  6.789828449809 	  5.861138819168 	  2.980000000000 	
Mg	  2.380311404679 	  0.000000000000 	  1.667207711091 	
Mg	  3.380311404679 	  0.000000000000 	  4.647207711091 	
Mg	  2.380311404679 	  3.980000000000 	  1.667207711091 	
Mg	  3.380311404679 	  3.980000000000 	  4.647207711091 	
Mg	  6.360311404679 	  0.000000000000 	  1.667207711091 	
Mg	  7.360311404679 	  0.000000000000 	  4.647207711091 	
Mg	  6.360311404679 	  3.980000000000 	  1.667207711091 	
Mg	  7.360311404679 	  3.980000000000 	  4.647207711091 	
Mg	  0.356551846794 	  2.023759557885 	  1.667207711091 	
Mg	  1.356551846794 	  2.023759557885 	  4.647207711091 	
Mg	  0.356551846794 	  6.003759557885 	  1.667207711091 	
Mg	  1.356551846794 	  6.003759557885 	  4.647207711091 	
Mg	  4.336551846794 	  2.023759557885 	  1.667207711091 	
Mg	  5.336551846794 	  2.023759557885 	  4.647207711091 	
Mg	  4.336551846794 	  6.003759557885 	  1.667207711091 	
Mg	  5.336551846794 	  6.003759557885 	  4.647207711091 	
O	  2.023759557885 	  0.000000000000 	  0.000000000000 	
O	  3.023759557885 	  0.000000000000 	  2.980000000000 	
O	  2.023759557885 	  3.980000000000 	  0.000000000000 	
O	  3.023759557885 	  3.980000000000 	  2.980000000000 	
O	  6.003759557885 	  0.000000000000 	  0.000000000000 	
O	  7.003759557885 	  0.000000000000 	  2.980000000000 	
O	  6.003759557885 	  3.980000000000 	  0.000000000000 	
O	  7.003759557885 	  3.980000000000 	  2.980000000000 	
O	  0.000000000000 	  2.023759557885 	  0.000000000000 	
O	  1.000000000000 	  2.023759557885 	  2.980000000000 	
O	  0.000000000000 	  6.003759557885 	  0.000000000000 	
O	  1.000000000000 	  6.003759557885 	  2.980000000000 	
O	  3.980000000000 	  2.023759557885 	  0.000000000000 	
O	  4.980000000000 	  2.023759557885 	  2.980000000000 	
O	  3.980000000000 	  6.003759557885 	  0.000000000000 	
O	  4.980000000000 	  6.003759557885 	  2.980000000000 	
O	  0.356551846794 	  0.000000000000 	  1.667207711091 	
O	  1.356551846794 	  0.000000000000 	  4.647207711091 	
O	  0.356551846794 	  3.980000000000 	  1.667207711091 	
O	  1.356551846794 	  3.980000000000 	  4.647207711091 	
O	  4.336551846794 	  0.000000000000 	  1.667207711091 	
O	  5.336551846794 	  0.000000000000 	  4.647207711091 	
O	  4.336551846794 	  3.980000000000 	  1.667207711091 	
O	  5.336551846794 	  3.980000000000 	  4.647207711091 	
O	  2.665552882114 	  1.555250431198 	  1.667207711091 	
O	  3.665552882114 	  1.555250431198 	  4.647207711091 	
O	  2.665552882114 	  5.535250431198 	  1.667207711091 	
O	  3.665552882114 	  5.535250431198 	  4.647207711091 	
O	  6.645552882114 	  1.555250431198 	  1.667207711091 	
O	  7.645552882114 	  1.555250431198 	  4.647207711091 	
O	  6.645552882114 	  5.535250431198 	  1.667207711091 	
O	  7.645552882114 	  5.535250431198 	  4.647207711091 	
64 
Energy: 5.1157599550973067e+00 
Mg	  0.000000000000 	  0.000000000000 	  0.000000000000 	
Mg	  1.000000000000 	  0.000000000000 	  2.980000000000 	
Mg	  0.000000000000 	  3.980000000000 	  0.000000000000 	
Mg	  1.000000000000 	  3.980000000000 	  2.980000000000 	
Mg	  3.980000000000 	  0.000000000000 	  0.000000000000 	
Mg	  4.980000000000 	  0.000000000000 	  2.980000000000 	
Mg	  3.980000000000 	  3.980000000000 	  0.000000000000 	
Mg	  4.980000000000 	  3.980000000000 	  2.980000000000 	
Mg	  1.836107148494 	  1.901471933177 	  0.000000000000 	
Mg	  2.836107148494 	  1.901471933177 	  2.980000000000 	
Mg	  1.836107148494 	  5.881471933177 	  0.000000000000 	
Mg	  2.836107148494 	  5.881471933177 	  2.980000000000 	
Mg	  5.816107148494 	  1.901471933177 	  0.000000000000 	
Mg	  6.816107148494 	  1.901471933177 	  2.980000000000 	
Mg	  5.816107148494 	  5.881471933177 	  0.000000000000 	
Mg	  6.816107148494 	  5.881471933177 	  2.980000000000 	
Mg	  2.359025425963 	  0.000000000000 	  1.705377579126 	
Mg	  3.359025425963 	  0.000000000000 	  4.685377579126 	
Mg	  2.359025425963 	  3.980000000000 	  1.705377579126 	
Mg	  3.359025425963 	  3.980000000000 	  4.685377579126 	
Mg	  6.339025425963 	  0.000000000000 	  1.705377579126 	
Mg	  7.339025425963 	  0.000000000000 	  4.685377579126 	
Mg	  6.339025425963 	  3.980000000000 	  1.705377579126 	
Mg	  7.339025425963 	  3.980000000000 	  4.685377579126 	
Mg	  0.326823923418 	  2.032201502545 	  1.705377579126 	
Mg	  1.326823923418 	  2.032201502545 	  4.685377579126 	
Mg	  0.326823923418 	  6.012201502545 	  1.705377579126 	
Mg	  1.326823923418 	  6.012201502545 	  4.685377579126 	
Mg	  4.306823923418 	  2.032201502545 	  1.705377579126 	
Mg	  5.306823923418 	  2.032201502545 	  4.685377579126 	
Mg	  4.306823923418 	  6.012201502545 	  1.705377579126 	
Mg	  5.306823923418 	  6.012201502545 	  4.685377579126 	
O	  2.032201502545 	  0.000000000000 	  0.000000000000 	
O	  3.032201502545 	  0.000000000000 	  2.980000000000 	
O	  2.032201502545 	  3.980000000000 	  0.000000000000 	
O	  3.032201502545 	  3.980000000000 	  2.980000000000 	
O	  6.012201502545 	  0.000000000000 	  0.000000000000 	
O	  7.012201502545 	  0.000000000000 	  2.980000000000 	
O	  6.012201502545 	  3.980000000000 	  0.000000000000 	
O	  7.012201502545 	  3.980000000000 	  2.980000000000 	
O	  0.000000000000 	  2.032201502545 	  0.000000000000 	
O	  1.000000000000 	  2.032201502545 	  2.980000000000 	
O	  0.000000000000 	  6.012201502545 	  0.000000000000 	
O	  1.000000000000 	  6.012201502545 	  2.980000000000 	
O	  3.980000000000 	  2.032201502545 	  0.000000000000 	
O	  4.980000000000 	  2.032201502545 	  2.980000000000 	
O	  3.980000000000 	  6.012201502545 	  0.000000000000 	
O	  4.980000000000 	  6.012201502545 	  2.980000000000 	
O	  0.326823923418 	  0.000000000000 	  1.705377579126 	
O	  1.326823923418 	  0.000000000000 	  4.685377579126 	
O	  0.326823923418 	  3.980000000000 	  1.705377579126 	
O	  1.326823923418 	  3.980000000000 	  4.685377579126 	
O	  4.306823923418 	  0.000000000000 	  1.705377579126 	
O	  5.306823923418 	  0.000000000000 	  4.685377579126 	
O	  4.306823923418 	  3.980000000000 	  1.705377579126 	
O	  5.306823923418 	  3.980000000000 	  4.685377579126 	
O	  2.620484564698 	  1.602754867173 	  1.705377579126 	
O	  3.620484564698 	  1.602754867173 	  4.685377579126 	
O	  2.620484564698 	  5.582754867173 	  1.705377579126 	
O	  3.620484564698 	  5.582754867173 	  4.685377579126 	
O	  6.600484564698 	  1.602754867173 	  1.705377579126 	
O	  7.600484564698 	  1.602754867173 	  4.685377579126 	
O	  6.600484564698 	  5.582754867173 	  1.705377579126 	
O	  7.600484564698 	  5.582754867173 	  4.685377579126 	
64 
Energy: 5.5490548719316717e+00 
Mg	  0.000000000000 	  0.000000000000 	  0.000000000000 	
Mg	  1.000000000000 	  0.000000000000 	  2.980000000000 	
Mg	  0.000000000000 	  3.980000000000 	  0.000000000000 	
Mg	  1.000000000000 	  3.980000000000 	  2.980000000000 	
Mg	  3.980000000000 	  0.000000000000 	  0.000000000000 	
Mg	  4.980000000000 	  0.000000000000 	  2.980000000000 	
Mg	  3.980000000000 	  3.980000000000 	  0.000000000000 	
Mg	  4.980000000000 	  3.980000000000 	  2.980000000000 	
Mg	  1.862397154163 	  1.921814353021 	  0.000000000000 	
Mg	  2.862397154163 	  1.921814353021 	  2.980000000000 	
Mg	  1.862397154163 	  5.901814353021 	  0.000000000000 	
Mg	  2.862397154163 	  5.901814353021 	  2.980000000000 	
Mg	  5.842397154163 	  1.921814353021 	  0.000000000000 	
Mg	  6.842397154163 	  1.921814353021 	  2.980000000000 	
Mg	  5.842397154163 	  5.901814353021 	  0.000000000000 	
Mg	  6.842397154163 	  5.901814353021 	  2.980000000000 	
Mg	  2.337734745032 	  0.000000000000 	  1.743562756445 	
Mg	  3.337734745032 	  0.000000000000 	  4.723562756445 	
Mg	  2.337734745032 	  3.980000000000 	  1.743562756445 	
Mg	  3.337734745032 	  3.980000000000 	  4.723562756445 	
Mg	  6.317734745032 	  0.000000000000 	  1.743562756445 	
Mg	  7.317734745032 	  0.000000000000 	  4.723562756445 	
Mg	  6.317734745032 	  3.980000000000 	  1.743562756445 	
Mg	  7.317734745032 	  3.980000000000 	  4.723562756445 	
Mg	  0.297085994293 	  2.040648750738 	  1.743562756445 	
Mg	  1.297085994293 	  2.040648750738 	  4.723562756445 	
Mg	  0.297085994293 	  6.020648750738 	  1.743562756445 	
Mg	  1.297085994293 	  6.020648750738 	  4.723562756445 	
Mg	  4.277085994293 	  2.040648750738 	  1.743562756445 	
Mg	  5.277085994293 	  2.040648750738 	  4.723562756445 	
Mg	  4.277085994293 	  6.020648750738 	  1.743562756445 	
Mg	  5.277085994293 	  6.020648750738 	  4.723562756445 	
O	  2.040648750738 	  0.000000000000 	  0.000000000000 	
O	  3.040648750738 	  0.000000000000 	  2.980000000000 	
O	  2.040648750738 	  3.980000000000 	  0.000000000000 	
O	  3.040648750738 	  3.980000000000 	  2.980000000000 	
O	  6.020648750738 	  0.000000000000 	  0.000000000000 	
O	  7.020648750738 	  0.000000000000 	  2.980000000000 	
O	  6.020648750738 	  3.980000000000 	  0.000000000000 	
O	  7.020648750738 	  3.980000000000 	  2.980000000000 	
O	  0.000000000000 	  2.040648750738 	  0.000000000000 	
O	  1.000000000000 	  2.040648750738 	  2.980000000000 	
O	  0.000000000000 	  6.020648750738 	  0.000000000000 	
O	  1.000000000000 	  6.020648750738 	  2.980000000000 	
O	  3.980000000000 	  2.040648750738 	  0.000000000000 	
O	  4.980000000000 	  2.040648750738 	  2.980000000000 	
O	  3.980000000000 	  6.020648750738 	  0.000000000000 	
O	  4.980000000000 	  6.020648750738 	  2.980000000000 	
O	  0.297085994293 	  0.000000000000 	  1.743562756445 	
O	  1.297085994293 	  0.000000000000 	  4.723562756445 	
O	  0.297085994293 	  3.980000000000 	  1.743562756445 	
O	  1.297085994293 	  3.980000000000 	  4.723562756445 	
O	  4.277085994293 	  0.000000000000 	  1.743562756445 	
O	  5.277085994293 	  0.000000000000 	  4.723562756445 	
O	  4.277085994293 	  3.980000000000 	  1.743562756445 	
O	  5.277085994293 	  3.980000000000 	  4.723562756445 	
O	  2.575403540466 	  1.650277754237 	  1.743562756445 	
O	  3.575403540466 	  1.650277754237 	  4.723562756445 	
O	  2.575403540466 	  5.630277754237 	  1.743562756445 	
O	  3.575403540466 	  5.630277754237 	  4.723562756445 	
O	  6.555403540466 	  1.650277754237 	  1.743562756445 	
O	  7.555403540466 	  1.650277754237 	  4.723562756445 	
O	  6.555403540466 	  5.630277754237 	  1.743562756445 	
O	  7.555403540466 	  5.630277754237 	  4.723562756445 	
64 
Energy: 5.7615752443902997e+00 
Mg	  0.000000000000 	  0.000000000000 	  0.000000000000 	
Mg	  1.000000000000 	  0.000000000000 	  2.980000000000 	
Mg	  0.000000000000 	  3.980000000000 	  0.000000000000 	
Mg	  1.000000000000 	  3.980000000000 	  2.980000000000 	
Mg	  3.980000000000 	  0.000000000000 	  0.000000000000 	
Mg	  4.980000000000 	  0.000000000000 	  2.980000000000 	
Mg	  3.980000000000 	  3.980000000000 	  0.000000000000 	
Mg	  4.980000000000 	  3.980000000000 	  2.980000000000 	
Mg	  1.888693048582 	  1.942161705122 	  0.000000000000 	
Mg	  2.888693048582 	  1.942161705122 	  2.980000000000 	
Mg	  1.888693048582 	  5.922161705122 	  0.000000000000 	
Mg	  2.888693048582 	  5.922161705122 	  2.980000000000 	
Mg	  5.868693048582 	  1.942161705122 	  0.000000000000 	
Mg	  6.868693048582 	  1.942161705122 	  2.980000000000 	
Mg	  5.868693048582 	  5.922161705122 	  0.000000000000 	
Mg	  6.868693048582 	  5.922161705122 	  2.980000000000 	
Mg	  2.316442300907 	  0.000000000000 	  1.781755735500 	
Mg	  3.316442300907 	  0.000000000000 	  4.761755735500 	
Mg	  2.316442300907 	  3.980000000000 	  1.781755735500 	
Mg	  3.316442300907 	  3.980000000000 	  4.761755735500 	
Mg	  6.296442300907 	  0.000000000000 	  1.781755735500 	
Mg	  7.296442300907 	  0.000000000000 	  4.761755735500 	
Mg	  6.296442300907 	  3.980000000000 	  1.781755735500 	
Mg	  7.296442300907 	  3.980000000000 	  4.761755735500 	
Mg	  0.267343282703 	  2.049099018204 	  1.781755735500 	
Mg	  1.267343282703 	  2.049099018204 	  4.761755735500 	
Mg	  0.267343282703 	  6.029099018204 	  1.781755735500 	
Mg	  1.267343282703 	  6.029099018204 	  4.761755735500 	
Mg	  4.247343282703 	  2.049099018204 	  1.781755735500 	
Mg	  5.247343282703 	  2.049099018204 	  4.761755735500 	
Mg	  4.247343282703 	  6.029099018204 	  1.781755735500 	
Mg	  5.247343282703 	  6.029099018204 	  4.761755735500 	
O	  2.049099018204 	  0.000000000000 	  0.000000000000 	
O	  3.049099018204 	  0.000000000000 	  2.980000000000 	
O	  2.049099018204 	  3.980000000000 	  0.000000000000 	
O	  3.049099018204 	  3.980000000000 	  2.980000000000 	
O	  6.029099018204 	  0.000000000000 	  0.000000000000 	
O	  7.029099018204 	  0.000000000000 	  2.980000000000 	
O	  6.029099018204 	  3.980000000000 	  0.000000000000 	
O	  7.029099018204 	  3.980000000000 	  2.980000000000 	
O	  0.000000000000 	  2.049099018204 	  0.000000000000 	
O	  1.000000000000 	  2.049099018204 	  2.980000000000 	
O	  0.000000000000 	  6.029099018204 	  0.000000000000 	
O	  1.000000000000 	  6.029099018204 	  2.980000000000 	
O	  3.980000000000 	  2.049099018204 	  0.000000000000 	
O	  4.980000000000 	  2.049099018204 	  2.980000000000 	
O	  3.980000000000 	  6.029099018204 	  0.000000000000 	
O	  4.980000000000 	  6.029099018204 	  2.980000000000 	
O	  0.267343282703 	  0.000000000000 	  1.781755735500 	
O	  1.267343282703 	  0.000000000000 	  4.761755735500 	
O	  0.267343282703 	  3.980000000000 	  1.781755735500 	
O	  1.267343282703 	  3.980000000000 	  4.761755735500 	
O	  4.247343282703 	  0.000000000000 	  1.781755735500 	
O	  5.247343282703 	  0.000000000000 	  4.761755735500 	
O	  4.247343282703 	  3.980000000000 	  1.781755735500 	
O	  5.247343282703 	  3.980000000000 	  4.761755735500 	
O	  2.530316927070 	  1.697809944731 	  1.781755735500 	
O	  3.530316927070 	  1.697809944731 	  4.761755735500 	
O	  2.530316927070 	  5.677809944731 	  1.781755735500 	
O	  3.530316927070 	  5.677809944731 	  4.761755735500 	
O	  6.510316927070 	  1.697809944731 	  1.781755735500 	
O	  7.510316927070 	  1.697809944731 	  4.761755735500 	
O	  6.510316927070 	  5.677809944731 	  1.781755735500 	
O	  7.510316927070 	  5.677809944731 	  4.761755735500 	
64 
Energy: 5.7169807656036546e+00 
Mg	  0.000000000000 	  0.000000000000 	  0.000000000000 	
Mg	  1.000000000000 	  0.000000000000 	  2.980000000000 	
Mg	  0.000000000000 	  3.980000000000 	  0.000000000000 	
Mg	  1.000000000000 	  3.980000000000 	  2.980000000000 	
Mg	  3.980000000000 	  0.000000000000 	  0.000000000000 	
Mg	  4.980000000000 	  0.000000000000 	  2.980000000000 	
Mg	  3.980000000000 	  3.980000000000 	  0.000000000000 	
Mg	  4.980000000000 	  3.980000000000 	  2.980000000000 	
Mg	  1.914990382422 	  1.962510201997 	  0.000000000000 	
Mg	  2.914990382422 	  1.962510201997 	  2.980000000000 	
Mg	  1.914990382422 	  5.942510201997 	  0.000000000000 	
Mg	  2.914990382422 	  5.942510201997 	  2.980000000000 	
Mg	  5.894990382422 	  1.962510201997 	  0.000000000000 	
Mg	  6.894990382422 	  1.962510201997 	  2.980000000000 	
Mg	  5.894990382422 	  5.942510201997 	  0.000000000000 	
Mg	  6.894990382422 	  5.942510201997 	  2.980000000000 	
Mg	  2.295148939027 	  0.000000000000 	  1.819950743270 	
Mg	  3.295148939027 	  0.000000000000 	  4.799950743270 	
Mg	  2.295148939027 	  3.980000000000 	  1.819950743270 	
Mg	  3.295148939027 	  3.980000000000 	  4.799950743270 	
Mg	  6.275148939027 	  0.000000000000 	  1.819950743270 	
Mg	  7.275148939027 	  0.000000000000 	  4.799950743270 	
Mg	  6.275148939027 	  3.980000000000 	  1.819950743270 	
Mg	  7.275148939027 	  3.980000000000 	  4.799950743270 	
Mg	  0.237599097878 	  2.057549841149 	  1.819950743270 	
Mg	  1.237599097878 	  2.057549841149 	  4.799950743270 	
Mg	  0.237599097878 	  6.037549841149 	  1.819950743270 	
Mg	  1.237599097878 	  6.037549841149 	  4.799950743270 	
Mg	  4.217599097878 	  2.057549841149 	  1.819950743270 	
Mg	  5.217599097878 	  2.057549841149 	  4.799950743270 	
Mg	  4.217599097878 	  6.037549841149 	  1.819950743270 	
Mg	  5.217599097878 	  6.037549841149 	  4.799950743270 	
O	  2.057549841149 	  0.000000000000 	  0.000000000000 	
O	  3.057549841149 	  0.000000000000 	  2.980000000000 	
O	  2.057549841149 	  3.980000000000 	  0.000000000000 	
O	  3.057549841149 	  3.980000000000 	  2.980000000000 	
O	  6.037549841149 	  0.000000000000 	  0.000000000000 	
O	  7.037549841149 	  0.000000000000 	  2.980000000000 	
O	  6.037549841149 	  3.980000000000 	  0.000000000000 	
O	  7.037549841149 	  3.980000000000 	  2.980000000000 	
O	  0.000000000000 	  2.057549841149 	  0.000000000000 	
O	  1.000000000000 	  2.057549841149 	  2.980000000000 	
O	  0.000000000000 	  6.037549841149 	  0.000000000000 	
O	  1.000000000000 	  6.037549841149 	  2.980000000000 	
O	  3.980000000000 	  2.057549841149 	  0.000000000000 	
O	  4.980000000000 	  2.057549841149 	  2.980000000000 	
O	  3.980000000000 	  6.037549841149 	  0.000000000000 	
O	  4.980000000000 	  6.037549841149 	  2.980000000000 	
O	  0.237599097878 	  0.000000000000 	  1.819950743270 	
O	  1.237599097878 	  0.000000000000 	  4.799950743270 	
O	  0.237599097878 	  3.980000000000 	  1.819950743270 	
O	  1.237599097878 	  3.980000000000 	  4.799950743270 	
O	  4.217599097878 	  0.000000000000 	  1.819950743270 	
O	  5.217599097878 	  0.000000000000 	  4.799950743270 	
O	  4.217599097878 	  3.980000000000 	  1.819950743270 	
O	  5.217599097878 	  3.980000000000 	  4.799950743270 	
O	  2.485228217329 	  1.745344626537 	  1.819950743270 	
O	  3.485228217329 	  1.745344626537 	  4.799950743270 	
O	  2.485228217329 	  5.725344626537 	  1.819950743270 	
O	  3.485228217329 	  5.725344626537 	  4.799950743270 	
O	  6.465228217329 	  1.745344626537 	  1.819950743270 	
O	  7.465228217329 	  1.745344626537 	  4.799950743270 	
O	  6.465228217329 	  5.725344626537 	  1.819950743270 	
O	  7.465228217329 	  5.725344626537 	  4.799950743270 	
64 
Energy: 5.4022944535667179e+00 
Mg	  0.000000000000 	  0.000000000000 	  0.000000000000 	
Mg	  1.000000000000 	  0.000000000000 	  2.980000000000 	
Mg	  0.000000000000 	  3.980000000000 	  0.000000000000 	
Mg	  1.000000000000 	  3.980000000000 	  2.980000000000 	
Mg	  3.980000000000 	  0.000000000000 	  0.000000000000 	
Mg	  4.980000000000 	  0.000000000000 	  2.980000000000 	
Mg	  3.980000000000 	  3.980000000000 	  0.000000000000 	
Mg	  4.980000000000 	  3.980000000000 	  2.980000000000 	
Mg	  1.941285007282 	  1.982856596026 	  0.000000000000 	
Mg	  2.941285007282 	  1.982856596026 	  2.980000000000 	
Mg	  1.941285007282 	  5.962856596026 	  0.000000000000 	
Mg	  2.941285007282 	  5.962856596026 	  2.980000000000 	
Mg	  5.921285007282 	  1.982856596026 	  0.000000000000 	
Mg	  6.921285007282 	  1.982856596026 	  2.980000000000 	
Mg	  5.921285007282 	  5.962856596026 	  0.000000000000 	
Mg	  6.921285007282 	  5.962856596026 	  2.980000000000 	
Mg	  2.273857717234 	  0.000000000000 	  1.858141829794 	
Mg	  3.273857717234 	  0.000000000000 	  4.838141829794 	
Mg	  2.273857717234 	  3.980000000000 	  1.858141829794 	
Mg	  3.273857717234 	  3.980000000000 	  4.838141829794 	
Mg	  6.253857717234 	  0.000000000000 	  1.858141829794 	
Mg	  7.253857717234 	  0.000000000000 	  4.838141829794 	
Mg	  6.253857717234 	  3.980000000000 	  1.858141829794 	
Mg	  7.253857717234 	  3.980000000000 	  4.838141829794 	
Mg	  0.207857943720 	  2.065999773514 	  1.858141829794 	
Mg	  1.207857943720 	  2.065999773514 	  4.838141829794 	
Mg	  0.207857943720 	  6.045999773514 	  1.858141829794 	
Mg	  1.207857943720 	  6.045999773514 	  4.838141829794 	
Mg	  4.187857943720 	  2.065999773514 	  1.858141829794 	
Mg	  5.187857943720 	  2.065999773514 	  4.838141829794 	
Mg	  4.187857943720 	  6.045999773514 	  1.858141829794 	
Mg	  5.187857943720 	  6.045999773514 	  4.838141829794 	
O	  2.065999773514 	  0.000000000000 	  0.000000000000 	
O	  3.065999773514 	  0.000000000000 	  2.980000000000 	
O	  2.065999773514 	  3.980000000000 	  0.000000000000 	
O	  3.065999773514 	  3.980000000000 	  2.980000000000 	
O	  6.045999773514 	  0.000000000000 	  0.000000000000 	
O	  7.045999773514 	  0.000000000000 	  2.980000000000 	
O	  6.045999773514 	  3.980000000000 	  0.000000000000 	
O	  7.045999773514 	  3.980000000000 	  2.980000000000 	
O	  0.000000000000 	  2.065999773514 	  0.000000000000 	
O	  1.000000000000 	  2.065999773514 	  2.980000000000 	
O	  0.000000000000 	  6.045999773514 	  0.000000000000 	
O	  1.000000000000 	  6.045999773514 	  2.980000000000 	
O	  3.980000000000 	  2.065999773514 	  0.000000000000 	
O	  4.980000000000 	  2.065999773514 	  2.980000000000 	
O	  3.980000000000 	  6.045999773514 	  0.000000000000 	
O	  4.980000000000 	  6.045999773514 	  2.980000000000 	
O	  0.207857943720 	  0.000000000000 	  1.858141829794 	
O	  1.207857943720 	  0.000000000000 	  4.838141829794 	
O	  0.207857943720 	  3.980000000000 	  1.858141829794 	
O	  1.207857943720 	  3.980000000000 	  4.838141829794 	
O	  4.187857943720 	  0.000000000000 	  1.858141829794 	
O	  5.187857943720 	  0.000000000000 	  4.838141829794 	
O	  4.187857943720 	  3.980000000000 	  1.858141829794 	
O	  5.187857943720 	  3.980000000000 	  4.838141829794 	
O	  2.440144072210 	  1.792874435466 	  1.858141829794 	
O	  3.440144072210 	  1.792874435466 	  4.838141829794 	
O	  2.440144072210 	  5.772874435466 	  1.858141829794 	
O	  3.440144072210 	  5.772874435466 	  4.838141829794 	
O	  6.420144072210 	  1.792874435466 	  1.858141829794 	
O	  7.420144072210 	  1.792874435466 	  4.838141829794 	
O	  6.420144072210 	  5.772874435466 	  1.858141829794 	
O	  7.420144072210 	  5.772874435466 	  4.838141829794 	
64 
Energy: 4.8273884193009451e+00 
Mg	  0.000000000000 	  0.000000000000 	  0.000000000000 	
Mg	  1.000000000000 	  0.000000000000 	  2.980000000000 	
Mg	  0.000000000000 	  3.980000000000 	  0.000000000000 	
Mg	  1.000000000000 	  3.980000000000 	  2.980000000000 	
Mg	  3.980000000000 	  0.000000000000 	  0.000000000000 	
Mg	  4.980000000000 	  0.000000000000 	  2.980000000000 	
Mg	  3.980000000000 	  3.980000000000 	  0.000000000000 	
Mg	  4.980000000000 	  3.980000000000 	  2.980000000000 	
Mg	  1.967573122557 	  2.003197840339 	  0.000000000000 	
Mg	  2.967573122557 	  2.003197840339 	  2.980000000000 	
Mg	  1.967573122557 	  5.983197840339 	  0.000000000000 	
Mg	  2.967573122557 	  5.983197840339 	  2.980000000000 	
Mg	  5.947573122557 	  2.003197840339 	  0.000000000000 	
Mg	  6.947573122557 	  2.003197840339 	  2.980000000000 	
Mg	  5.947573122557 	  5.983197840339 	  0.000000000000 	
Mg	  6.947573122557 	  5.983197840339 	  2.980000000000 	
Mg	  2.252570864812 	  0.000000000000 	  1.896323686993 	
Mg	  3.252570864812 	  0.000000000000 	  4.876323686993 	
Mg	  2.252570864812 	  3.980000000000 	  1.896323686993 	
Mg	  3.252570864812 	  3.980000000000 	  4.876323686993 	
Mg	  6.232570864812 	  0.000000000000 	  1.896323686993 	
Mg	  7.232570864812 	  0.000000000000 	  4.876323686993 	
Mg	  6.232570864812 	  3.980000000000 	  1.896323686993 	
Mg	  7.232570864812 	  3.980000000000 	  4.876323686993 	
Mg	  0.178123588909 	  2.074447275902 	  1.896323686993 	
Mg	  1.178123588909 	  2.074447275902 	  4.876323686993 	
Mg	  0.178123588909 	  6.054447275902 	  1.896323686993 	
Mg	  1.178123588909 	  6.054447275902 	  4.876323686993 	
Mg	  4.158123588909 	  2.074447275902 	  1.896323686993 	
Mg	  5.158123588909 	  2.074447275902 	  4.876323686993 	
Mg	  4.158123588909 	  6.054447275902 	  1.896323686993 	
Mg	  5.158123588909 	  6.054447275902 	  4.876323686993 	
O	  2.074447275902 	  0.000000000000 	  0.000000000000 	
O	  3.074447275902 	  0.000000000000 	  2.980000000000 	
O	  2.074447275902 	  3.980000000000 	  0.000000000000 	
O	  3.074447275902 	  3.980000000000 	  2.980000000000 	
O	  6.054447275902 	  0.000000000000 	  0.000000000000 	
O	  7.054447275902 	  0.000000000000 	  2.980000000000 	
O	  6.054447275902 	  3.980000000000 	  0.000000000000 	
O	  7.054447275902 	  3.980000000000 	  2.980000000000 	
O	  0.000000000000 	  2.074447275902 	  0.000000000000 	
O	  1.000000000000 	  2.074447275902 	  2.980000000000 	
O	  0.000000000000 	  6.054447275902 	  0.000000000000 	
O	  1.000000000000 	  6.054447275902 	  2.980000000000 	
O	  3.980000000000 	  2.074447275902 	  0.000000000000 	
O	  4.980000000000 	  2.074447275902 	  2.980000000000 	
O	  3.980000000000 	  6.054447275902 	  0.000000000000 	
O	  4.980000000000 	  6.054447275902 	  2.980000000000 	
O	  0.178123588909 	  0.000000000000 	  1.896323686993 	
O	  1.178123588909 	  0.000000000000 	  4.876323686993 	
O	  0.178123588909 	  3.980000000000 	  1.896323686993 	
O	  1.178123588909 	  3.980000000000 	  4.876323686993 	
O	  4.158123588909 	  0.000000000000 	  1.896323686993 	
O	  5.158123588909 	  0.000000000000 	  4.876323686993 	
O	  4.158123588909 	  3.980000000000 	  1.896323686993 	
O	  5.158123588909 	  3.980000000000 	  4.876323686993 	
O	  2.395069735939 	  1.840392880075 	  1.896323686993 	
O	  3.395069735939 	  1.840392880075 	  4.876323686993 	
O	  2.395069735939 	  5.820392880075 	  1.896323686993 	
O	  3.395069735939 	  5.820392880075 	  4.876323686993 	
O	  6.375069735939 	  1.840392880075 	  1.896323686993 	
O	  7.375069735939 	  1.840392880075 	  4.876323686993 	
O	  6.375069735939 	  5.820392880075 	  1.896323686993 	
O	  7.375069735939 	  5.820392880075 	  4.876323686993 	
64 
Energy: 4.0267662131853257e+00 
Mg	  0.000000000000 	  0.000000000000 	  0.000000000000 	
Mg	  1.000000000000 	  0.000000000000 	  2.980000000000 	
Mg	  0.000000000000 	  3.980000000000 	  0.000000000000 	
Mg	  1.000000000000 	  3.980000000000 	  2.980000000000 	
Mg	  3.980000000000 	  0.000000000000 	  0.000000000000 	
Mg	  4.980000000000 	  0.000000000000 	  2.980000000000 	
Mg	  3.980000000000 	  3.980000000000 	  0.000000000000 	
Mg	  4.980000000000 	  3.980000000000 	  2.980000000000 	
Mg	  1.993851258353 	  2.023531101346 	  0.000000000000 	
Mg	  2.993851258353 	  2.023531101346 	  2.980000000000 	
Mg	  1.993851258353 	  6.003531101346 	  0.000000000000 	
Mg	  2.993851258353 	  6.003531101346 	  2.980000000000 	
Mg	  5.973851258353 	  2.023531101346 	  0.000000000000 	
Mg	  6.973851258353 	  2.023531101346 	  2.980000000000 	
Mg	  5.973851258353 	  6.003531101346 	  0.000000000000 	
Mg	  6.973851258353 	  6.003531101346 	  2.980000000000 	
Mg	  2.231290002293 	  0.000000000000 	  1.934491572368 	
Mg	  3.231290002293 	  0.000000000000 	  4.914491572368 	
Mg	  2.231290002293 	  3.980000000000 	  1.934491572368 	
Mg	  3.231290002293 	  3.980000000000 	  4.914491572368 	
Mg	  6.211290002293 	  0.000000000000 	  1.934491572368 	
Mg	  7.211290002293 	  0.000000000000 	  4.914491572368 	
Mg	  6.211290002293 	  3.980000000000 	  1.934491572368 	
Mg	  7.211290002293 	  3.980000000000 	  4.914491572368 	
Mg	  0.148399214962 	  2.082890787331 	  1.934491572368 	
Mg	  1.148399214962 	  2.082890787331 	  4.914491572368 	
Mg	  0.148399214962 	  6.062890787331 	  1.934491572368 	
Mg	  1.148399214962 	  6.062890787331 	  4.914491572368 	
Mg	  4.128399214962 	  2.082890787331 	  1.934491572368 	
Mg	  5.128399214962 	  2.082890787331 	  4.914491572368 	
Mg	  4.128399214962 	  6.062890787331 	  1.934491572368 	
Mg	  5.128399214962 	  6.062890787331 	  4.914491572368 	
O	  2.082890787331 	  0.000000000000 	  0.000000000000 	
O	  3.082890787331 	  0.000000000000 	  2.980000000000 	
O	  2.082890787331 	  3.980000000000 	  0.000000000000 	
O	  3.082890787331 	  3.980000000000 	  2.980000000000 	
O	  6.062890787331 	  0.000000000000 	  0.000000000000 	
O	  7.062890787331 	  0.000000000000 	  2.980000000000 	
O	  6.062890787331 	  3.980000000000 	  0.000000000000 	
O	  7.062890787331 	  3.980000000000 	  2.980000000000 	
O	  0.000000000000 	  2.082890787331 	  0.000000000000 	
O	  1.000000000000 	  2.082890787331 	  2.980000000000 	
O	  0.000000000000 	  6.062890787331 	  0.000000000000 	
O	  1.000000000000 	  6.062890787331 	  2.980000000000 	
O	  3.980000000000 	  2.082890787331 	  0.000000000000 	
O	  4.980000000000 	  2.082890787331 	  2.980000000000 	
O	  3.980000000000 	  6.062890787331 	  0.000000000000 	
O	  4.980000000000 	  6.062890787331 	  2.980000000000 	
O	  0.148399214962 	  0.000000000000 	  1.934491572368 	
O	  1.148399214962 	  0.000000000000 	  4.914491572368 	
O	  0.148399214962 	  3.980000000000 	  1.934491572368 	
O	  1.148399214962 	  3.980000000000 	  4.914491572368 	
O	  4.128399214962 	  0.000000000000 	  1.934491572368 	
O	  5.128399214962 	  0.000000000000 	  4.914491572368 	
O	  4.128399214962 	  3.980000000000 	  1.934491572368 	
O	  5.128399214962 	  3.980000000000 	  4.914491572368 	
O	  2.350009374264 	  1.887894218870 	  1.934491572368 	
O	  3.350009374264 	  1.887894218870 	  4.914491572368 	
O	  2.350009374264 	  5.867894218870 	  1.934491572368 	
O	  3.350009374264 	  5.867894218870 	  4.914491572368 	
O	  6.330009374264 	  1.887894218870 	  1.934491572368 	
O	  7.330009374264 	  1.887894218870 	  4.914491572368 	
O	  6.330009374264 	  5.867894218870 	  1.934491572368 	
O	  7.330009374264 	  5.867894218870 	  4.914491572368 	
64 
Energy: 3.0624755867087372e+00 
Mg	  0.000000000000 	  0.000000000000 	  0.000000000000 	
Mg	  1.000000000000 	  0.000000000000 	  2.980000000000 	
Mg	  0.000000000000 	  3.980000000000 	  0.000000000000 	
Mg	  1.000000000000 	  3.980000000000 	  2.980000000000 	
Mg	  3.980000000000 	  0.000000000000 	  0.000000000000 	
Mg	  4.980000000000 	  0.000000000000 	  2.980000000000 	
Mg	  3.980000000000 	  3.980000000000 	  0.000000000000 	
Mg	  4.980000000000 	  3.980000000000 	  2.980000000000 	
Mg	  2.020116368255 	  2.043853859253 	  0.000000000000 	
Mg	  3.020116368255 	  2.043853859253 	  2.980000000000 	
Mg	  2.020116368255 	  6.023853859253 	  0.000000000000 	
Mg	  3.020116368255 	  6.023853859253 	  2.980000000000 	
Mg	  6.000116368255 	  2.043853859253 	  0.000000000000 	
Mg	  7.000116368255 	  2.043853859253 	  2.980000000000 	
Mg	  6.000116368255 	  6.023853859253 	  0.000000000000 	
Mg	  7.000116368255 	  6.023853859253 	  2.980000000000 	
Mg	  2.210016296239 	  0.000000000000 	  1.972641386259 	
Mg	  3.210016296239 	  0.000000000000 	  4.952641386259 	
Mg	  2.210016296239 	  3.980000000000 	  1.972641386259 	
Mg	  3.210016296239 	  3.980000000000 	  4.952641386259 	
Mg	  6.190016296239 	  0.000000000000 	  1.972641386259 	
Mg	  7.190016296239 	  0.000000000000 	  4.952641386259 	
Mg	  6.190016296239 	  3.980000000000 	  1.972641386259 	
Mg	  7.190016296239 	  3.980000000000 	  4.952641386259 	
Mg	  0.118687454990 	  2.091328841249 	  1.972641386259 	
Mg	  1.118687454990 	  2.091328841249 	  4.952641386259 	
Mg	  0.118687454990 	  6.071328841249 	  1.972641386259 	
Mg	  1.118687454990 	  6.071328841249 	  4.952641386259 	
Mg	  4.098687454990 	  2.091328841249 	  1.972641386259 	
Mg	  5.098687454990 	  2.091328841249 	  4.952641386259 	
Mg	  4.098687454990 	  6.071328841249 	  1.972641386259 	
Mg	  5.098687454990 	  6.071328841249 	  4.952641386259 	
O	  2.091328841249 	  0.000000000000 	  0.000000000000 	
O	  3.091328841249 	  0.000000000000 	  2.980000000000 	
O	  2.091328841249 	  3.980000000000 	  0.000000000000 	
O	  3.091328841249 	  3.980000000000 	  2.980000000000 	
O	  6.071328841249 	  0.000000000000 	  0.000000000000 	
O	  7.071328841249 	  0.000000000000 	  2.980000000000 	
O	  6.071328841249 	  3.980000000000 	  0.000000000000 	
O	  7.071328841249 	  3.980000000000 	  2.980000000000 	
O	  0.000000000000 	  2.091328841249 	  0.000000000000 	
O	  1.000000000000 	  2.091328841249 	  2.980000000000 	
O	  0.000000000000 	  6.071328841249 	  0.000000000000 	
O	  1.000000000000 	  6.071328841249 	  2.980000000000 	
O	  3.980000000000 	  2.091328841249 	  0.000000000000 	
O	  4.980000000000 	  2.091328841249 	  2.980000000000 	
O	  3.980000000000 	  6.071328841249 	  0.000000000000 	
O	  4.980000000000 	  6.071328841249 	  2.980000000000 	
O	  0.118687454990 	  0.000000000000 	  1.972641386259 	
O	  1.118687454990 	  0.000000000000 	  4.952641386259 	
O	  0.118687454990 	  3.980000000000 	  1.972641386259 	
O	  1.118687454990 	  3.980000000000 	  4.952641386259 	
O	  4.098687454990 	  0.000000000000 	  1.972641386259 	
O	  5.098687454990 	  0.000000000000 	  4.952641386259 	
O	  4.098687454990 	  3.980000000000 	  1.972641386259 	
O	  5.098687454990 	  3.980000000000 	  4.952641386259 	
O	  2.304966260230 	  1.935373525392 	  1.972641386259 	
O	  3.304966260230 	  1.935373525392 	  4.952641386259 	
O	  2.304966260230 	  5.915373525392 	  1.972641386259 	
O	  3.304966260230 	  5.915373525392 	  4.952641386259 	
O	  6.284966260230 	  1.935373525392 	  1.972641386259 	
O	  7.284966260230 	  1.935373525392 	  4.952641386259 	
O	  6.284966260230 	  5.915373525392 	  1.972641386259 	
O	  7.284966260230 	  5.915373525392 	  4.952641386259 	
64 
Energy: 2.0278864874957012e+00 
Mg	  0.000000000000 	  0.000000000000 	  0.000000000000 	
Mg	  1.000000000000 	  0.000000000000 	  2.980000000000 	
Mg	  0.000000000000 	  3.980000000000 	  0.000000000000 	
Mg	  1.000000000000 	  3.980000000000 	  2.980000000000 	
Mg	  3.980000000000 	  0.000000000000 	  0.000000000000 	
Mg	  4.980000000000 	  0.000000000000 	  2.980000000000 	
Mg	  3.980000000000 	  3.980000000000 	  0.000000000000 	
Mg	  4.980000000000 	  3.980000000000 	  2.980000000000 	
Mg	  2.046365800667 	  2.064163886527 	  0.000000000000 	
Mg	  3.046365800667 	  2.064163886527 	  2.980000000000 	
Mg	  2.046365800667 	  6.044163886527 	  0.000000000000 	
Mg	  3.046365800667 	  6.044163886527 	  2.980000000000 	
Mg	  6.026365800667 	  2.064163886527 	  0.000000000000 	
Mg	  7.026365800667 	  2.064163886527 	  2.980000000000 	
Mg	  6.026365800667 	  6.044163886527 	  0.000000000000 	
Mg	  7.026365800667 	  6.044163886527 	  2.980000000000 	
Mg	  2.188750487547 	  0.000000000000 	  2.010769628947 	
Mg	  3.188750487547 	  0.000000000000 	  4.990769628947 	
Mg	  2.188750487547 	  3.980000000000 	  2.010769628947 	
Mg	  3.188750487547 	  3.980000000000 	  4.990769628947 	
Mg	  6.168750487547 	  0.000000000000 	  2.010769628947 	
Mg	  7.168750487547 	  0.000000000000 	  4.990769628947 	
Mg	  6.168750487547 	  3.980000000000 	  2.010769628947 	
Mg	  7.168750487547 	  3.980000000000 	  4.990769628947 	
Mg	  0.088990429300 	  2.099760058247 	  2.010769628947 	
Mg	  1.088990429300 	  2.099760058247 	  4.990769628947 	
Mg	  0.088990429300 	  6.079760058247 	  2.010769628947 	
Mg	  1.088990429300 	  6.079760058247 	  4.990769628947 	
Mg	  4.068990429300 	  2.099760058247 	  2.010769628947 	
Mg	  5.068990429300 	  2.099760058247 	  4.990769628947 	
Mg	  4.068990429300 	  6.079760058247 	  2.010769628947 	
Mg	  5.068990429300 	  6.079760058247 	  4.990769628947 	
O	  2.099760058247 	  0.000000000000 	  0.000000000000 	
O	  3.099760058247 	  0.000000000000 	  2.980000000000 	
O	  2.099760058247 	  3.980000000000 	  0.000000000000 	
O	  3.099760058247 	  3.980000000000 	  2.980000000000 	
O	  6.079760058247 	  0.000000000000 	  0.000000000000 	
O	  7.079760058247 	  0.000000000000 	  2.980000000000 	
O	  6.079760058247 	  3.980000000000 	  0.000000000000 	
O	  7.079760058247 	  3.980000000000 	  2.980000000000 	
O	  0.000000000000 	  2.099760058247 	  0.000000000000 	
O	  1.000000000000 	  2.099760058247 	  2.980000000000 	
O	  0.000000000000 	  6.079760058247 	  0.000000000000 	
O	  1.000000000000 	  6.079760058247 	  2.980000000000 	
O	  3.980000000000 	  2.099760058247 	  0.000000000000 	
O	  4.980000000000 	  2.099760058247 	  2.980000000000 	
O	  3.980000000000 	  6.079760058247 	  0.000000000000 	
O	  4.980000000000 	  6.079760058247 	  2.980000000000 	
O	  0.088990429300 	  0.000000000000 	  2.010769628947 	
O	  1.088990429300 	  0.000000000000 	  4.990769628947 	
O	  0.088990429300 	  3.980000000000 	  2.010769628947 	
O	  1.088990429300 	  3.980000000000 	  4.990769628947 	
O	  4.068990429300 	  0.000000000000 	  2.010769628947 	
O	  5.068990429300 	  0.000000000000 	  4.990769628947 	
O	  4.068990429300 	  3.980000000000 	  2.010769628947 	
O	  5.068990429300 	  3.980000000000 	  4.990769628947 	
O	  2.259942830986 	  1.982826634147 	  2.010769628947 	
O	  3.259942830986 	  1.982826634147 	  4.990769628947 	
O	  2.259942830986 	  5.962826634147 	  2.010769628947 	
O	  3.259942830986 	  5.962826634147 	  4.990769628947 	
O	  6.239942830986 	  1.982826634147 	  2.010769628947 	
O	  7.239942830986 	  1.982826634147 	  4.990769628947 	
O	  6.239942830986 	  5.962826634147 	  2.010769628947 	
O	  7.239942830986 	  5.962826634147 	  4.990769628947 	
64 
Energy: 1.0521170094940560e+00 
Mg	  0.000000000000 	  0.000000000000 	  0.000000000000 	
Mg	  1.000000000000 	  0.000000000000 	  2.980000000000 	
Mg	  0.000000000000 	  3.980000000000 	  0.000000000000 	
Mg	  1.000000000000 	  3.980000000000 	  2.980000000000 	
Mg	  3.980000000000 	  0.000000000000 	  0.000000000000 	
Mg	  4.980000000000 	  0.000000000000 	  2.980000000000 	
Mg	  3.980000000000 	  3.980000000000 	  0.000000000000 	
Mg	  4.980000000000 	  3.980000000000 	  2.980000000000 	
Mg	  2.072597318931 	  2.084459256861 	  0.000000000000 	
Mg	  3.072597318931 	  2.084459256861 	  2.980000000000 	
Mg	  2.072597318931 	  6.064459256861 	  0.000000000000 	
Mg	  3.072597318931 	  6.064459256861 	  2.980000000000 	
Mg	  6.052597318931 	  2.084459256861 	  0.000000000000 	
Mg	  7.052597318931 	  2.084459256861 	  2.980000000000 	
Mg	  6.052597318931 	  6.064459256861 	  0.000000000000 	
Mg	  7.052597318931 	  6.064459256861 	  2.980000000000 	
Mg	  2.167492822368 	  0.000000000000 	  2.048873443072 	
Mg	  3.167492822368 	  0.000000000000 	  5.028873443072 	
Mg	  2.167492822368 	  3.980000000000 	  2.048873443072 	
Mg	  3.167492822368 	  3.980000000000 	  5.028873443072 	
Mg	  6.147492822368 	  0.000000000000 	  2.048873443072 	
Mg	  7.147492822368 	  0.000000000000 	  5.028873443072 	
Mg	  6.147492822368 	  3.980000000000 	  2.048873443072 	
Mg	  7.147492822368 	  3.980000000000 	  5.028873443072 	
Mg	  0.059309689648 	  2.108183132720 	  2.048873443072 	
Mg	  1.059309689648 	  2.108183132720 	  5.028873443072 	
Mg	  0.059309689648 	  6.088183132720 	  2.048873443072 	
Mg	  1.059309689648 	  6.088183132720 	  5.028873443072 	
Mg	  4.039309689648 	  2.108183132720 	  2.048873443072 	
Mg	  5.039309689648 	  2.108183132720 	  5.028873443072 	
Mg	  4.039309689648 	  6.088183132720 	  2.048873443072 	
Mg	  5.039309689648 	  6.088183132720 	  5.028873443072 	
O	  2.108183132720 	  0.000000000000 	  0.000000000000 	
O	  3.108183132720 	  0.000000000000 	  2.980000000000 	
O	  2.108183132720 	  3.980000000000 	  0.000000000000 	
O	  3.108183132720 	  3.980000000000 	  2.980000000000 	
O	  6.088183132720 	  0.000000000000 	  0.000000000000 	
O	  7.088183132720 	  0.000000000000 	  2.980000000000 	
O	  6.088183132720 	  3.980000000000 	  0.000000000000 	
O	  7.088183132720 	  3.980000000000 	  2.980000000000 	
O	  0.000000000000 	  2.108183132720 	  0.000000000000 	
O	  1.000000000000 	  2.108183132720 	  2.980000000000 	
O	  0.000000000000 	  6.088183132720 	  0.000000000000 	
O	  1.000000000000 	  6.088183132720 	  2.980000000000 	
O	  3.980000000000 	  2.108183132720 	  0.000000000000 	
O	  4.980000000000 	  2.108183132720 	  2.980000000000 	
O	  3.980000000000 	  6.088183132720 	  0.000000000000 	
O	  4.980000000000 	  6.088183132720 	  2.980000000000 	
O	  0.059309689648 	  0.000000000000 	  2.048873443072 	
O	  1.059309689648 	  0.000000000000 	  5.028873443072 	
O	  0.059309689648 	  3.980000000000 	  2.048873443072 	
O	  1.059309689648 	  3.980000000000 	  5.028873443072 	
O	  4.039309689648 	  0.000000000000 	  2.048873443072 	
O	  5.039309689648 	  0.000000000000 	  5.028873443072 	
O	  4.039309689648 	  3.980000000000 	  2.048873443072 	
O	  5.039309689648 	  3.980000000000 	  5.028873443072 	
O	  2.214940574086 	  2.030250200523 	  2.048873443072 	
O	  3.214940574086 	  2.030250200523 	  5.028873443072 	
O	  2.214940574086 	  6.010250200523 	  2.048873443072 	
O	  3.214940574086 	  6.010250200523 	  5.028873443072 	
O	  6.194940574086 	  2.030250200523 	  2.048873443072 	
O	  7.194940574086 	  2.030250200523 	  5.028873443072 	
O	  6.194940574086 	  6.010250200523 	  2.048873443072 	
O	  7.194940574086 	  6.010250200523 	  5.028873443072 	
64 
Energy: 3.0471025679328972e-01 
Mg	  0.000000000000 	  0.000000000000 	  0.000000000000 	
Mg	  1.000000000000 	  0.000000000000 	  2.980000000000 	
Mg	  0.000000000000 	  3.980000000000 	  0.000000000000 	
Mg	  1.000000000000 	  3.980000000000 	  2.980000000000 	
Mg	  3.980000000000 	  0.000000000000 	  0.000000000000 	
Mg	  4.980000000000 	  0.000000000000 	  2.980000000000 	
Mg	  3.980000000000 	  3.980000000000 	  0.000000000000 	
Mg	  4.980000000000 	  3.980000000000 	  2.980000000000 	
Mg	  2.098809143107 	  2.104738372647 	  0.000000000000 	
Mg	  3.098809143107 	  2.104738372647 	  2.980000000000 	
Mg	  2.098809143107 	  6.084738372647 	  0.000000000000 	
Mg	  3.098809143107 	  6.084738372647 	  2.980000000000 	
Mg	  6.078809143107 	  2.104738372647 	  0.000000000000 	
Mg	  7.078809143107 	  2.104738372647 	  2.980000000000 	
Mg	  6.078809143107 	  6.084738372647 	  0.000000000000 	
Mg	  7.078809143107 	  6.084738372647 	  2.980000000000 	
Mg	  2.146242979425 	  0.000000000000 	  2.086950684028 	
Mg	  3.146242979425 	  0.000000000000 	  5.066950684028 	
Mg	  2.146242979425 	  3.980000000000 	  2.086950684028 	
Mg	  3.146242979425 	  3.980000000000 	  5.066950684028 	
Mg	  6.126242979425 	  0.000000000000 	  2.086950684028 	
Mg	  7.126242979425 	  0.000000000000 	  5.066950684028 	
Mg	  6.126242979425 	  3.980000000000 	  2.086950684028 	
Mg	  7.126242979425 	  3.980000000000 	  5.066950684028 	
Mg	  0.029646147699 	  2.116596831726 	  2.086950684028 	
Mg	  1.029646147699 	  2.116596831726 	  5.066950684028 	
Mg	  0.029646147699 	  6.096596831726 	  2.086950684028 	
Mg	  1.029646147699 	  6.096596831726 	  5.066950684028 	
Mg	  4.009646147699 	  2.116596831726 	  2.086950684028 	
Mg	  5.009646147699 	  2.116596831726 	  5.066950684028 	
Mg	  4.009646147699 	  6.096596831726 	  2.086950684028 	
Mg	  5.009646147699 	  6.096596831726 	  5.066950684028 	
O	  2.116596831726 	  0.000000000000 	  0.000000000000 	
O	  3.116596831726 	  0.000000000000 	  2.980000000000 	
O	  2.116596831726 	  3.980000000000 	  0.000000000000 	
O	  3.116596831726 	  3.980000000000 	  2.980000000000 	
O	  6.096596831726 	  0.000000000000 	  0.000000000000 	
O	  7.096596831726 	  0.000000000000 	  2.980000000000 	
O	  6.096596831726 	  3.980000000000 	  0.000000000000 	
O	  7.096596831726 	  3.980000000000 	  2.980000000000 	
O	  0.000000000000 	  2.116596831726 	  0.000000000000 	
O	  1.000000000000 	  2.116596831726 	  2.980000000000 	
O	  0.000000000000 	  6.096596831726 	  0.000000000000 	
O	  1.000000000000 	  6.096596831726 	  2.980000000000 	
O	  3.980000000000 	  2.116596831726 	  0.000000000000 	
O	  4.980000000000 	  2.116596831726 	  2.980000000000 	
O	  3.980000000000 	  6.096596831726 	  0.000000000000 	
O	  4.980000000000 	  6.096596831726 	  2.980000000000 	
O	  0.029646147699 	  0.000000000000 	  2.086950684028 	
O	  1.029646147699 	  0.000000000000 	  5.066950684028 	
O	  0.029646147699 	  3.980000000000 	  2.086950684028 	
O	  1.029646147699 	  3.980000000000 	  5.066950684028 	
O	  4.009646147699 	  0.000000000000 	  2.086950684028 	
O	  5.009646147699 	  0.000000000000 	  5.066950684028 	
O	  4.009646147699 	  3.980000000000 	  2.086950684028 	
O	  5.009646147699 	  3.980000000000 	  5.066950684028 	
O	  2.169959897584 	  2.077641793650 	  2.086950684028 	
O	  3.169959897584 	  2.077641793650 	  5.066950684028 	
O	  2.169959897584 	  6.057641793650 	  2.086950684028 	
O	  3.169959897584 	  6.057641793650 	  5.066950684028 	
O	  6.149959897584 	  2.077641793650 	  2.086950684028 	
O	  7.149959897584 	  2.077641793650 	  5.066950684028 	
O	  6.149959897584 	  6.057641793650 	  2.086950684028 	
O	  7.149959897584 	  6.057641793650 	  5.066950684028 	
64 
Energy: 0.0000000000000000e+00 
Mg	  0.000000000000 	  0.000000000000 	  0.000000000000 	
Mg	  1.000000000000 	  0.000000000000 	  2.980000000000 	
Mg	  0.000000000000 	  3.980000000000 	  0.000000000000 	
Mg	  1.000000000000 	  3.980000000000 	  2.980000000000 	
Mg	  3.980000000000 	  0.000000000000 	  0.000000000000 	
Mg	  4.980000000000 	  0.000000000000 	  2.980000000000 	
Mg	  3.980000000000 	  3.980000000000 	  0.000000000000 	
Mg	  4.980000000000 	  3.980000000000 	  2.980000000000 	
Mg	  2.125000000000 	  2.125000000000 	  0.000000000000 	
Mg	  3.125000000000 	  2.125000000000 	  2.980000000000 	
Mg	  2.125000000000 	  6.105000000000 	  0.000000000000 	
Mg	  3.125000000000 	  6.105000000000 	  2.980000000000 	
Mg	  6.105000000000 	  2.125000000000 	  0.000000000000 	
Mg	  7.105000000000 	  2.125000000000 	  2.980000000000 	
Mg	  6.105000000000 	  6.105000000000 	  0.000000000000 	
Mg	  7.105000000000 	  6.105000000000 	  2.980000000000 	
Mg	  2.125000000000 	  0.000000000000 	  2.125000000000 	
Mg	  3.125000000000 	  0.000000000000 	  5.105000000000 	
Mg	  2.125000000000 	  3.980000000000 	  2.125000000000 	
Mg	  3.125000000000 	  3.980000000000 	  5.105000000000 	
Mg	  6.105000000000 	  0.000000000000 	  2.125000000000 	
Mg	  7.105000000000 	  0.000000000000 	  5.105000000000 	
Mg	  6.105000000000 	  3.980000000000 	  2.125000000000 	
Mg	  7.105000000000 	  3.980000000000 	  5.105000000000 	
Mg	  0.000000000000 	  2.125000000000 	  2.125000000000 	
Mg	  1.000000000000 	  2.125000000000 	  5.105000000000 	
Mg	  0.000000000000 	  6.105000000000 	  2.125000000000 	
Mg	  1.000000000000 	  6.105000000000 	  5.105000000000 	
Mg	  3.980000000000 	  2.125000000000 	  2.125000000000 	
Mg	  4.980000000000 	  2.125000000000 	  5.105000000000 	
Mg	  3.980000000000 	  6.105000000000 	  2.125000000000 	
Mg	  4.980000000000 	  6.105000000000 	  5.105000000000 	
O	  2.125000000000 	  0.000000000000 	  0.000000000000 	
O	  3.125000000000 	  0.000000000000 	  2.980000000000 	
O	  2.125000000000 	  3.980000000000 	  0.000000000000 	
O	  3.125000000000 	  3.980000000000 	  2.980000000000 	
O	  6.105000000000 	  0.000000000000 	  0.000000000000 	
O	  7.105000000000 	  0.000000000000 	  2.980000000000 	
O	  6.105000000000 	  3.980000000000 	  0.000000000000 	
O	  7.105000000000 	  3.980000000000 	  2.980000000000 	
O	  0.000000000000 	  2.125000000000 	  0.000000000000 	
O	  1.000000000000 	  2.125000000000 	  2.980000000000 	
O	  0.000000000000 	  6.105000000000 	  0.000000000000 	
O	  1.000000000000 	  6.105000000000 	  2.980000000000 	
O	  3.980000000000 	  2.125000000000 	  0.000000000000 	
O	  4.980000000000 	  2.125000000000 	  2.980000000000 	
O	  3.980000000000 	  6.105000000000 	  0.000000000000 	
O	  4.980000000000 	  6.105000000000 	  2.980000000000 	
O	  0.000000000000 	  0.000000000000 	  2.125000000000 	
O	  1.000000000000 	  0.000000000000 	  5.105000000000 	
O	  0.000000000000 	  3.980000000000 	  2.125000000000 	
O	  1.000000000000 	  3.980000000000 	  5.105000000000 	
O	  3.980000000000 	  0.000000000000 	  2.125000000000 	
O	  4.980000000000 	  0.000000000000 	  5.105000000000 	
O	  3.980000000000 	  3.980000000000 	  2.125000000000 	
O	  4.980000000000 	  3.980000000000 	  5.105000000000 	
O	  2.125000000000 	  2.125000000000 	  2.125000000000 	
O	  3.125000000000 	  2.125000000000 	  5.105000000000 	
O	  2.125000000000 	  6.105000000000 	  2.125000000000 	
O	  3.125000000000 	  6.105000000000 	  5.105000000000 	
O	  6.105000000000 	  2.125000000000 	  2.125000000000 	
O	  7.105000000000 	  2.125000000000 	  5.105000000000 	
O	  6.105000000000 	  6.105000000000 	  2.125000000000 	
O	  7.105000000000 	  6.105000000000 	  5.105000000000 	
