768 
Energy: -7.3825508041559999e+01 
S	  8.778583098100 	  1.541356859400 	  0.034410210600 	
S	  8.210038968100 	  1.541359669400 	 10.164966930600 	
S	  8.778551998100 	  7.724918619400 	  0.034407380600 	
S	  8.210007868100 	  7.724921429400 	 10.164964100600 	
S	 23.459410398100 	  1.541366089400 	  0.062540140600 	
S	 22.890866268100 	  1.541368899400 	 10.193096860600 	
S	 23.459379298100 	  7.724927849400 	  0.062537310600 	
S	 22.890835168100 	  7.724930659400 	 10.193094030600 	
S	  5.617972169000 	  4.633116300900 	  5.058959345800 	
S	  5.049428039000 	  4.633119110900 	 15.189516065800 	
S	  5.617941069000 	 10.816678060900 	  5.058956515800 	
S	  5.049396939000 	 10.816680870900 	 15.189513235800 	
S	 20.298799469000 	  4.633125530900 	  5.087089275800 	
S	 19.730255339000 	  4.633128340900 	 15.217645995800 	
S	 20.298768369000 	 10.816687290900 	  5.087086445800 	
S	 19.730224239000 	 10.816690100900 	 15.217643165800 	
S	  5.333668977500 	  4.642216569600 	 10.124273508100 	
S	  4.765124847500 	  4.642219379600 	 20.254830228100 	
S	  5.333637877500 	 10.825778329600 	 10.124270678100 	
S	  4.765093747500 	 10.825781139600 	 20.254827398100 	
S	 20.014496277500 	  4.642225799600 	 10.152403438100 	
S	 19.445952147500 	  4.642228609600 	 20.282960158100 	
S	 20.014465177500 	 10.825787559600 	 10.152400608100 	
S	 19.445921047500 	 10.825790369600 	 20.282957328100 	
S	  8.494280183300 	  1.550457870200 	  5.099724677400 	
S	  7.925736053300 	  1.550460680200 	 15.230281397400 	
S	  8.494249083300 	  7.734019630200 	  5.099721847400 	
S	  7.925704953300 	  7.734022440200 	 15.230278567400 	
S	 23.175107483300 	  1.550467100200 	  5.127854607400 	
S	 22.606563353300 	  1.550469910200 	 15.258411327400 	
S	 23.175076383300 	  7.734028860200 	  5.127851777400 	
S	 22.606532253300 	  7.734031670200 	 15.258408497400 	
C	  6.798118307500 	  2.504334010600 	  9.780797448900 	
C	  6.229574177500 	  2.504336820600 	 19.911354168900 	
C	  6.798087207500 	  8.687895770600 	  9.780794618900 	
C	  6.229543077500 	  8.687898580600 	 19.911351338900 	
C	 21.478945607500 	  2.504343240600 	  9.808927378900 	
C	 20.910401477500 	  2.504346050600 	 19.939484098900 	
C	 21.478914507500 	  8.687905000600 	  9.808924548900 	
C	 20.910370377500 	  8.687907810600 	 19.939481268900 	
C	  7.029858902800 	  5.596110217300 	  5.443156977400 	
C	  6.461314772800 	  5.596113027300 	 15.573713697400 	
C	  7.029827802800 	 11.779671977300 	  5.443154147400 	
C	  6.461283672800 	 11.779674787300 	 15.573710867400 	
C	 21.710686202800 	  5.596119447300 	  5.471286907400 	
C	 21.142142072800 	  5.596122257300 	 15.601843627400 	
C	 21.710655102800 	 11.779681207300 	  5.471284077400 	
C	 21.142110972800 	 11.779684017300 	 15.601840797400 	
C	  7.314133768200 	  3.679239356500 	  0.377886269800 	
C	  6.745589638200 	  3.679242166500 	 10.508442989800 	
C	  7.314102668200 	  9.862801116500 	  0.377883439800 	
C	  6.745558538200 	  9.862803926500 	 10.508440159800 	
C	 21.994961068200 	  3.679248586500 	  0.406016199800 	
C	 21.426416938200 	  3.679251396500 	 10.536572919800 	
C	 21.994929968200 	  9.862810346500 	  0.406013369800 	
C	 21.426385838200 	  9.862813156500 	 10.536570089800 	
C	  7.082393302600 	  0.587464077300 	  4.715527045500 	
C	  6.513849172600 	  0.587466887300 	 14.846083765500 	
C	  7.082362202600 	  6.771025837300 	  4.715524215500 	
C	  6.513818072600 	  6.771028647300 	 14.846080935500 	
C	 21.763220602600 	  0.587473307300 	  4.743656975500 	
C	 21.194676472600 	  0.587476117300 	 14.874213695500 	
C	 21.763189502600 	  6.771035067300 	  4.743654145500 	
C	 21.194645372600 	  6.771037877300 	 14.874210865500 	
C	  5.707537281800 	  2.321126042300 	  8.876603728600 	
C	  5.138993151800 	  2.321128852300 	 19.007160448600 	
C	  5.707506181800 	  8.504687802300 	  8.876600898600 	
C	  5.138962051800 	  8.504690612300 	 19.007157618600 	
C	 20.388364581800 	  2.321135272300 	  8.904733658600 	
C	 19.819820451800 	  2.321138082300 	 19.035290378600 	
C	 20.388333481800 	  8.504697032300 	  8.904730828600 	
C	 19.819789351800 	  8.504699842300 	 19.035287548600 	
C	  8.120442166400 	  5.412901958300 	  6.347351676700 	
C	  7.551898036400 	  5.412904768300 	 16.477908396700 	
C	  8.120411066400 	 11.596463718300 	  6.347348846700 	
C	  7.551866936400 	 11.596466528300 	 16.477905566700 	
C	 22.801269466400 	  5.412911188300 	  6.375481606700 	
C	 22.232725336400 	  5.412913998300 	 16.506038326700 	
C	 22.801238366400 	 11.596472948300 	  6.375478776700 	
C	 22.232694236400 	 11.596475758300 	 16.506035496700 	
C	  8.404714652800 	  3.862447386700 	  1.282079888500 	
C	  7.836170522800 	  3.862450196700 	 11.412636608500 	
C	  8.404683552800 	 10.046009146700 	  1.282077058500 	
C	  7.836139422800 	 10.046011956700 	 11.412633778500 	
C	 23.085541952800 	  3.862456616700 	  1.310209818500 	
C	 22.516997822800 	  3.862459426700 	 11.440766538500 	
C	 23.085510852800 	 10.046018376700 	  1.310206988500 	
C	 22.516966722800 	 10.046021186700 	 11.440763708500 	
C	  5.991810044800 	  0.770672274600 	  3.811332244900 	
C	  5.423265914800 	  0.770675084600 	 13.941888964900 	
C	  5.991778944800 	  6.954234034600 	  3.811329414900 	
C	  5.423234814800 	  6.954236844600 	 13.941886134900 	
C	 20.672637344800 	  0.770681504600 	  3.839462174900 	
C	 20.104093214800 	  0.770684314600 	 13.970018894900 	
C	 20.672606244800 	  6.954243264600 	  3.839459344900 	
C	 20.104062114800 	  6.954246074600 	 13.970016064900 	
C	  4.807288713200 	  3.418578044500 	  8.955234686400 	
C	  4.238744583200 	  3.418580854500 	 19.085791406400 	
C	  4.807257613200 	  9.602139804500 	  8.955231856400 	
C	  4.238713483200 	  9.602142614500 	 19.085788576400 	
C	 19.488116013200 	  3.418587274500 	  8.983364616400 	
C	 18.919571883200 	  3.418590084500 	 19.113921336400 	
C	 19.488084913200 	  9.602149034500 	  8.983361786400 	
C	 18.919540783200 	  9.602151844500 	 19.113918506400 	
C	  9.020685667900 	  0.326811214600 	  6.268754309600 	
C	  8.452141537900 	  0.326814024600 	 16.399311029600 	
C	  9.020654567900 	  6.510372974600 	  6.268751479600 	
C	  8.452110437900 	  6.510375784600 	 16.399308199600 	
C	 23.701512967900 	  0.326820444600 	  6.296884239600 	
C	 23.132968837900 	  0.326823254600 	 16.427440959600 	
C	 23.701481867900 	  6.510382204600 	  6.296881409600 	
C	 23.132937737900 	  6.510385014600 	 16.427438129600 	
C	  9.304963215700 	  2.764995446300 	  1.203449032000 	
C	  8.736419085700 	  2.764998256300 	 11.334005752000 	
C	  9.304932115700 	  8.948557206300 	  1.203446202000 	
C	  8.736387985700 	  8.948560016300 	 11.334002922000 	
C	 23.985790515700 	  2.765004676300 	  1.231578962000 	
C	 23.417246385700 	  2.765007486300 	 11.362135682000 	
C	 23.985759415700 	  8.948566436300 	  1.231576132000 	
C	 23.417215285700 	  8.948569246300 	 11.362132852000 	
C	  5.091566543200 	  5.856762956400 	  3.889929612000 	
C	  4.523022413200 	  5.856765766400 	 14.020486332000 	
C	  5.091535443200 	 12.040324716400 	  3.889926782000 	
C	  4.522991313200 	 12.040327526400 	 14.020483502000 	
C	 19.772393843200 	  5.856772186400 	  3.918059542000 	
C	 19.203849713200 	  5.856774996400 	 14.048616262000 	
C	 19.772362743200 	 12.040333946400 	  3.918056712000 	
C	 19.203818613200 	 12.040336756400 	 14.048613432000 	
C	  3.638231112900 	  3.456968704600 	  8.193277916700 	
C	  3.069686982900 	  3.456971514600 	 18.323834636700 	
C	  3.638200012900 	  9.640530464600 	  8.193275086700 	
C	  3.069655882900 	  9.640533274600 	 18.323831806700 	
C	 18.319058412900 	  3.456977934600 	  8.221407846700 	
C	 17.750514282900 	  3.456980744600 	 18.351964566700 	
C	 18.319027312900 	  9.640539694600 	  8.221405016700 	
C	 17.750483182900 	  9.640542504600 	 18.351961736700 	
C	 10.189735933600 	  0.365211363600 	  7.030719744100 	
C	  9.621191803600 	  0.365214173600 	 17.161276464100 	
C	 10.189704833600 	  6.548773123600 	  7.030716914100 	
C	  9.621160703600 	  6.548775933600 	 17.161273634100 	
C	 24.870563233600 	  0.365220593600 	  7.058849674100 	
C	 24.302019103600 	  0.365223403600 	 17.189406394100 	
C	 24.870532133600 	  6.548782353600 	  7.058846844100 	
C	 24.301988003600 	  6.548785163600 	 17.189403564100 	
C	 10.474020810300 	  2.726604848100 	  1.965405903000 	
C	  9.905476680300 	  2.726607658100 	 12.095962623000 	
C	 10.473989710300 	  8.910166608100 	  1.965403073000 	
C	  9.905445580300 	  8.910169418100 	 12.095959793000 	
C	 25.154848110300 	  2.726614078100 	  1.993535833000 	
C	 24.586303980300 	  2.726616888100 	 12.124092553000 	
C	 25.154817010300 	  8.910175838100 	  1.993533003000 	
C	 24.586272880300 	  8.910178648100 	 12.124089723000 	
C	  3.922516277600 	  5.818362745600 	  3.127964177500 	
C	  3.353972147600 	  5.818365555600 	 13.258520897500 	
C	  3.922485177600 	 12.001924505600 	  3.127961347500 	
C	  3.353941047600 	 12.001927315600 	 13.258518067500 	
C	 18.603343577600 	  5.818371975600 	  3.156094107500 	
C	 18.034799447600 	  5.818374785600 	 13.286650827500 	
C	 18.603312477600 	 12.001933735600 	  3.156091277500 	
C	 18.034768347600 	 12.001936545600 	 13.286647997500 	
H	  2.977023765500 	  4.314908014000 	  8.276816523600 	
H	  2.408479635500 	  4.314910824000 	 18.407373243600 	
H	  2.976992665500 	 10.498469774000 	  8.276813693600 	
H	  2.408448535500 	 10.498472584000 	 18.407370413600 	
H	 17.657851065500 	  4.314917244000 	  8.304946453600 	
H	 17.089306935500 	  4.314920054000 	 18.435503173600 	
H	 17.657819965500 	 10.498479004000 	  8.304943623600 	
H	 17.089275835500 	 10.498481814000 	 18.435500343600 	
H	 10.850920197100 	  1.223158377000 	  6.947191975500 	
H	 10.282376067100 	  1.223161187000 	 17.077748695500 	
H	 10.850889097100 	  7.406720137000 	  6.947189145500 	
H	 10.282344967100 	  7.406722947000 	 17.077745865500 	
H	 25.531747497100 	  1.223167607000 	  6.975321905500 	
H	 24.963203367100 	  1.223170417000 	 17.105878625500 	
H	 25.531716397100 	  7.406729367000 	  6.975319075500 	
H	 24.963172267100 	  7.406732177000 	 17.105875795500 	
H	 11.135228163400 	  1.868665538700 	  1.881867194800 	
H	 10.566684033400 	  1.868668348700 	 12.012423914800 	
H	 11.135197063400 	  8.052227298700 	  1.881864364800 	
H	 10.566652933400 	  8.052230108700 	 12.012421084800 	
H	 25.816055463400 	  1.868674768700 	  1.909997124800 	
H	 25.247511333400 	  1.868677578700 	 12.040553844800 	
H	 25.816024363400 	  8.052236528700 	  1.909994294800 	
H	 25.247480233400 	  8.052239338700 	 12.040551014800 	
H	  3.261332160800 	  4.960415670400 	  3.211491946300 	
H	  2.692788030800 	  4.960418480400 	 13.342048666300 	
H	  3.261301060800 	 11.143977430400 	  3.211489116300 	
H	  2.692756930800 	 11.143980240400 	 13.342045836300 	
H	 17.942159460800 	  4.960424900400 	  3.239621876300 	
H	 17.373615330800 	  4.960427710400 	 13.370178596300 	
H	 17.942128360800 	 11.143986660400 	  3.239619046300 	
H	 17.373584230800 	 11.143989470400 	 13.370175766300 	
C	  3.326383536000 	  2.393111112500 	  7.336713806700 	
C	  2.757839406000 	  2.393113922500 	 17.467270526700 	
C	  3.326352436000 	  8.576672872500 	  7.336710976700 	
C	  2.757808306000 	  8.576675682500 	 17.467267696700 	
C	 18.007210836000 	  2.393120342500 	  7.364843736700 	
C	 17.438666706000 	  2.393123152500 	 17.495400456700 	
C	 18.007179736000 	  8.576682102500 	  7.364840906700 	
C	 17.438635606000 	  8.576684912500 	 17.495397626700 	
C	 10.501585199000 	  5.484900443400 	  7.887257318900 	
C	  9.933041069000 	  5.484903253400 	 18.017814038900 	
C	 10.501554099000 	 11.668462203400 	  7.887254488900 	
C	  9.933009969000 	 11.668465013400 	 18.017811208900 	
C	 25.182412499000 	  5.484909673400 	  7.915387248900 	
C	 24.613868369000 	  5.484912483400 	 18.045943968900 	
C	 25.182381399000 	 11.668471433400 	  7.915384418900 	
C	 24.613837269000 	 11.668474243400 	 18.045941138900 	
C	 10.785868240400 	  3.790462378300 	  2.821970012800 	
C	 10.217324110400 	  3.790465188300 	 12.952526732800 	
C	 10.785837140400 	  9.974024138300 	  2.821967182800 	
C	 10.217293010400 	  9.974026948300 	 12.952523902800 	
C	 25.466695540400 	  3.790471608300 	  2.850099942800 	
C	 24.898151410400 	  3.790474418300 	 12.980656662800 	
C	 25.466664440400 	  9.974033368300 	  2.850097112800 	
C	 24.898120310400 	  9.974036178300 	 12.980653832800 	
C	  3.610667164600 	  0.698673603900 	  2.271426501600 	
C	  3.042123034600 	  0.698676413900 	 12.401983221600 	
C	  3.610636064600 	  6.882235363900 	  2.271423671600 	
C	  3.042091934600 	  6.882238173900 	 12.401980391600 	
C	 18.291494464600 	  0.698682833900 	  2.299556431600 	
C	 17.722950334600 	  0.698685643900 	 12.430113151600 	
C	 18.291463364600 	  6.882244593900 	  2.299553601600 	
C	 17.722919234600 	  6.882247403900 	 12.430110321600 	
C	  4.246239376200 	  1.326745920100 	  7.232392811600 	
C	  3.677695246200 	  1.326748730100 	 17.362949531600 	
C	  4.246208276200 	  7.510307680100 	  7.232389981600 	
C	  3.677664146200 	  7.510310490100 	 17.362946701600 	
C	 18.927066676200 	  1.326755150100 	  7.260522741600 	
C	 18.358522546200 	  1.326757960100 	 17.391079461600 	
C	 18.927035576200 	  7.510316910100 	  7.260519911600 	
C	 18.358491446200 	  7.510319720100 	 17.391076631600 	
C	  9.581760883400 	  4.418519382000 	  7.991559269300 	
C	  9.013216753400 	  4.418522192000 	 18.122115989300 	
C	  9.581729783400 	 10.602081142000 	  7.991556439300 	
C	  9.013185653400 	 10.602083952000 	 18.122113159300 	
C	 24.262588183400 	  4.418528612000 	  8.019689199300 	
C	 23.694044053400 	  4.418531422000 	 18.150245919300 	
C	 24.262557083400 	 10.602090372000 	  8.019686369300 	
C	 23.694012953400 	 10.602093182000 	 18.150243089300 	
C	  9.866012247700 	  4.856827447100 	  2.926291108900 	
C	  9.297468117700 	  4.856830257100 	 13.056847828900 	
C	  9.865981147700 	 11.040389207100 	  2.926288278900 	
C	  9.297437017700 	 11.040392017100 	 13.056844998900 	
C	 24.546839547700 	  4.856836677100 	  2.954421038900 	
C	 23.978295417700 	  4.856839487100 	 13.084977758900 	
C	 24.546808447700 	 11.040398437100 	  2.954418208900 	
C	 23.978264317700 	 11.040401247100 	 13.084974928900 	
C	  4.530491333400 	  1.765054665300 	  2.167124550900 	
C	  3.961947203400 	  1.765057475300 	 12.297681270900 	
C	  4.530460233400 	  7.948616425300 	  2.167121720900 	
C	  3.961916103400 	  7.948619235300 	 12.297678440900 	
C	 19.211318633400 	  1.765063895300 	  2.195254480900 	
C	 18.642774503400 	  1.765066705300 	 12.325811200900 	
C	 19.211287533400 	  7.948625655300 	  2.195251650900 	
C	 18.642743403400 	  7.948628465300 	 12.325808370900 	
H	  4.049839811700 	  0.502303909100 	  6.552247741900 	
H	  3.481295681700 	  0.502306719100 	 16.682804461900 	
H	  4.049808711700 	  6.685865669100 	  6.552244911900 	
H	  3.481264581700 	  6.685868479100 	 16.682801631900 	
H	 18.730667111700 	  0.502313139100 	  6.580377671900 	
H	 18.162122981700 	  0.502315949100 	 16.710934391900 	
H	 18.730636011700 	  6.685874899100 	  6.580374841900 	
H	 18.162091881700 	  6.685877709100 	 16.710931561900 	
H	  9.778172631800 	  3.594078723200 	  8.671703784000 	
H	  9.209628501800 	  3.594081533200 	 18.802260504000 	
H	  9.778141531800 	  9.777640483200 	  8.671700954000 	
H	  9.209597401800 	  9.777643293200 	 18.802257674000 	
H	 24.458999931800 	  3.594087953200 	  8.699833714000 	
H	 23.890455801800 	  3.594090763200 	 18.830390434000 	
H	 24.458968831800 	  9.777649713200 	  8.699830884000 	
H	 23.890424701800 	  9.777652523200 	 18.830387604000 	
H	 10.062411806500 	  5.681269458100 	  3.606436279800 	
H	  9.493867676500 	  5.681272268100 	 13.736992999800 	
H	 10.062380706500 	 11.864831218100 	  3.606433449800 	
H	  9.493836576500 	 11.864834028100 	 13.736990169800 	
H	 24.743239106500 	  5.681278688100 	  3.634566209800 	
H	 24.174694976500 	  5.681281498100 	 13.765122929800 	
H	 24.743208006500 	 11.864840448100 	  3.634563379800 	
H	 24.174663876500 	 11.864843258100 	 13.765120099800 	
H	  4.334079585100 	  2.589495324100 	  1.486980036300 	
H	  3.765535455100 	  2.589498134100 	 11.617536756300 	
H	  4.334048485100 	  8.773057084100 	  1.486977206300 	
H	  3.765504355100 	  8.773059894100 	 11.617533926300 	
H	 19.014906885100 	  2.589504554100 	  1.515109966300 	
H	 18.446362755100 	  2.589507364100 	 11.645666686300 	
H	 19.014875785100 	  8.773066314100 	  1.515107136300 	
H	 18.446331655100 	  8.773069124100 	 11.645663856300 	
C	  5.415710393500 	  1.283137318900 	  7.979564150100 	
C	  4.847166263500 	  1.283140128900 	 18.110120870100 	
C	  5.415679293500 	  7.466699078900 	  7.979561320100 	
C	  4.847135163500 	  7.466701888900 	 18.110118040100 	
C	 20.096537693500 	  1.283146548900 	  8.007694080100 	
C	 19.527993563500 	  1.283149358900 	 18.138250800100 	
C	 20.096506593500 	  7.466708308900 	  8.007691250100 	
C	 19.527962463500 	  7.466711118900 	 18.138247970100 	
C	  8.412295413000 	  4.374903959500 	  7.244378051500 	
C	  7.843751283000 	  4.374906769500 	 17.374934771500 	
C	  8.412264313000 	 10.558465719500 	  7.244375221500 	
C	  7.843720183000 	 10.558468529500 	 17.374931941500 	
C	 23.093122713000 	  4.374913189500 	  7.272507981500 	
C	 22.524578583000 	  4.374915999500 	 17.403064701500 	
C	 23.093091613000 	 10.558474949500 	  7.272505151500 	
C	 22.524547483000 	 10.558477759500 	 17.403061871500 	
C	  8.696541388600 	  4.900436048200 	  2.179119568000 	
C	  8.127997258600 	  4.900438858200 	 12.309676288000 	
C	  8.696510288600 	 11.083997808200 	  2.179116738000 	
C	  8.127966158600 	 11.084000618200 	 12.309673458000 	
C	 23.377368688600 	  4.900445278200 	  2.207249498000 	
C	 22.808824558600 	  4.900448088200 	 12.337806218000 	
C	 23.377337588600 	 11.084007038200 	  2.207246668000 	
C	 22.808793458600 	 11.084009848200 	 12.337803388000 	
C	  5.699956798100 	  1.808670211500 	  2.914305870100 	
C	  5.131412668100 	  1.808673021500 	 13.044862590100 	
C	  5.699925698100 	  7.992231971500 	  2.914303040100 	
C	  5.131381568100 	  7.992234781500 	 13.044859760100 	
C	 20.380784098100 	  1.808679441500 	  2.942435800100 	
C	 19.812239968100 	  1.808682251500 	 13.072992520100 	
C	 20.380752998100 	  7.992241201500 	  2.942432970100 	
C	 19.812208868100 	  7.992244011500 	 13.072989690100 	
H	  6.095413680900 	  0.440179673500 	  7.880948511900 	
H	  5.526869550900 	  0.440182483500 	 18.011505231900 	
H	  6.095382580900 	  6.623741433500 	  7.880945681900 	
H	  5.526838450900 	  6.623744243500 	 18.011502401900 	
H	 20.776240980900 	  0.440188903500 	  7.909078441900 	
H	 20.207696850900 	  0.440191713500 	 18.039635161900 	
H	 20.776209880900 	  6.623750663500 	  7.909075611900 	
H	 20.207665750900 	  6.623753473500 	 18.039632331900 	
H	  7.732618281700 	  3.531935504600 	  7.342985579400 	
H	  7.164074151700 	  3.531938314600 	 17.473542299400 	
H	  7.732587181700 	  9.715497264600 	  7.342982749400 	
H	  7.164043051700 	  9.715500074600 	 17.473539469400 	
H	 22.413445581700 	  3.531944734600 	  7.371115509400 	
H	 21.844901451700 	  3.531947544600 	 17.501672229400 	
H	 22.413414481700 	  9.715506494600 	  7.371112679400 	
H	 21.844870351700 	  9.715509304600 	 17.501669399400 	
H	  8.016837948600 	  5.743393631800 	  2.277735307300 	
H	  7.448293818600 	  5.743396441800 	 12.408292027300 	
H	  8.016806848600 	 11.926955391800 	  2.277732477300 	
H	  7.448262718600 	 11.926958201800 	 12.408289197300 	
H	 22.697665248600 	  5.743402861800 	  2.305865237300 	
H	 22.129121118600 	  5.743405671800 	 12.436421957300 	
H	 22.697634148600 	 11.926964621800 	  2.305862407300 	
H	 22.129090018600 	 11.926967431800 	 12.436419127300 	
H	  6.379633929400 	  2.651638728300 	  2.815698342200 	
H	  5.811089799400 	  2.651641538300 	 12.946255062200 	
H	  6.379602829400 	  8.835200488300 	  2.815695512200 	
H	  5.811058699400 	  8.835203298300 	 12.946252232200 	
H	 21.060461229400 	  2.651647958300 	  2.843828272200 	
H	 20.491917099400 	  2.651650768300 	 12.974384992200 	
H	 21.060430129400 	  8.835209718300 	  2.843825442200 	
H	 20.491885999400 	  8.835212528300 	 12.974382162200 	
C	  2.038932514800 	  2.415402770700 	  6.496426445200 	
C	  1.470388384800 	  2.415405580700 	 16.626983165200 	
C	  2.038901414800 	  8.598964530700 	  6.496423615200 	
C	  1.470357284800 	  8.598967340700 	 16.626980335200 	
C	 16.719759814800 	  2.415412000700 	  6.524556375200 	
C	 16.151215684800 	  2.415414810700 	 16.655113095200 	
C	 16.719728714800 	  8.598973760700 	  6.524553545200 	
C	 16.151184584800 	  8.598976570700 	 16.655110265200 	
C	 11.789036815200 	  5.507193873300 	  8.727543141800 	
C	 11.220492685200 	  5.507196683300 	 18.858099861800 	
C	 11.789005715200 	 11.690755633300 	  8.727540311800 	
C	 11.220461585200 	 11.690758443300 	 18.858097031800 	
C	 26.469864115200 	  5.507203103300 	  8.755673071800 	
C	 25.901319985200 	  5.507205913300 	 18.886229791800 	
C	 26.469833015200 	 11.690764863300 	  8.755670241800 	
C	 25.901288885200 	 11.690767673300 	 18.886226961800 	
C	 12.073319255900 	  3.768170843800 	  3.662257475500 	
C	 11.504775125900 	  3.768173653800 	 13.792814195500 	
C	 12.073288155900 	  9.951732603800 	  3.662254645500 	
C	 11.504744025900 	  9.951735413800 	 13.792811365500 	
C	 26.754146555900 	  3.768180073800 	  3.690387405500 	
C	 26.185602425900 	  3.768182883800 	 13.820944125500 	
C	 26.754115455900 	  9.951741833800 	  3.690384575500 	
C	 26.185571325900 	  9.951744643800 	 13.820941295500 	
C	  2.323215700900 	  0.676380050400 	  1.431140577700 	
C	  1.754671570900 	  0.676382860400 	 11.561697297700 	
C	  2.323184600900 	  6.859941810400 	  1.431137747700 	
C	  1.754640470900 	  6.859944620400 	 11.561694467700 	
C	 17.004043000900 	  0.676389280400 	  1.459270507700 	
C	 16.435498870900 	  0.676392090400 	 11.589827227700 	
C	 17.004011900900 	  6.859951040400 	  1.459267677700 	
C	 16.435467770900 	  6.859953850400 	 11.589824397700 	
C	  2.316129708800 	  3.196526817000 	  5.195239794800 	
C	  1.747585578800 	  3.196529627000 	 15.325796514800 	
C	  2.316098608800 	  9.380088577000 	  5.195236964800 	
C	  1.747554478800 	  9.380091387000 	 15.325793684800 	
C	 16.996957008800 	  3.196536047000 	  5.223369724800 	
C	 16.428412878800 	  3.196538857000 	 15.353926444800 	
C	 16.996925908800 	  9.380097807000 	  5.223366894800 	
C	 16.428381778800 	  9.380100617000 	 15.353923614800 	
C	 11.511861565400 	  0.104754769900 	 10.028731499500 	
C	 10.943317435400 	  0.104757579900 	 20.159288219500 	
C	 11.511830465400 	  6.288316529900 	 10.028728669500 	
C	 10.943286335400 	  6.288319339900 	 20.159285389500 	
C	 26.192688865400 	  0.104763999900 	 10.056861429500 	
C	 25.624144735400 	  0.104766809900 	 20.187418149500 	
C	 26.192657765400 	  6.288325759900 	 10.056858599500 	
C	 25.624113635400 	  6.288328569900 	 20.187415319500 	
C	 11.796121898000 	  2.987047354100 	  4.963444429600 	
C	 11.227577768000 	  2.987050164100 	 15.094001149600 	
C	 11.796090798000 	  9.170609114100 	  4.963441599600 	
C	 11.227546668000 	  9.170611924100 	 15.093998319600 	
C	 26.476949198000 	  2.987056584100 	  4.991574359600 	
C	 25.908405068000 	  2.987059394100 	 15.122131079600 	
C	 26.476918098000 	  9.170618344100 	  4.991571529600 	
C	 25.908373968000 	  9.170621154100 	 15.122128249600 	
C	  2.600391103200 	  6.078819463000 	  0.129952119000 	
C	  2.031846973200 	  6.078822273000 	 10.260508839000 	
C	  2.600360003200 	 12.262381223000 	  0.129949289000 	
C	  2.031815873200 	 12.262384033000 	 10.260506009000 	
C	 17.281218403200 	  6.078828693000 	  0.158082049000 	
C	 16.712674273200 	  6.078831503000 	 10.288638769000 	
C	 17.281187303200 	 12.262390453000 	  0.158079219000 	
C	 16.712643173200 	 12.262393263000 	 10.288635939000 	
H	  2.612757015800 	  4.227841415400 	  5.421537736000 	
H	  2.044212885800 	  4.227844225400 	 15.552094456000 	
H	  2.612725915800 	 10.411403175400 	  5.421534906000 	
H	  2.044181785800 	 10.411405985400 	 15.552091626000 	
H	 17.293584315800 	  4.227850645400 	  5.449667666000 	
H	 16.725040185800 	  4.227853455400 	 15.580224386000 	
H	 17.293553215800 	 10.411412405400 	  5.449664836000 	
H	 16.725009085800 	 10.411415215400 	 15.580221556000 	
H	 11.215218029300 	  1.136067184600 	  9.802432299100 	
H	 10.646673899300 	  1.136069994600 	 19.932989019100 	
H	 11.215186929300 	  7.319628944600 	  9.802429469100 	
H	 10.646642799300 	  7.319631754600 	 19.932986189100 	
H	 25.896045329300 	  1.136076414600 	  9.830562229100 	
H	 25.327501199300 	  1.136079224600 	 19.961118949100 	
H	 25.896014229300 	  7.319638174600 	  9.830559399100 	
H	 25.327470099300 	  7.319640984600 	 19.961116119100 	
H	 11.499494568300 	  1.955732631900 	  4.737146893600 	
H	 10.930950438300 	  1.955735441900 	 14.867703613600 	
H	 11.499463468300 	  8.139294391900 	  4.737144063600 	
H	 10.930919338300 	  8.139297201900 	 14.867700783600 	
H	 26.180321868300 	  1.955741861900 	  4.765276823600 	
H	 25.611777738300 	  1.955744671900 	 14.895833543600 	
H	 26.180290768300 	  8.139303621900 	  4.765273993600 	
H	 25.611746638300 	  8.139306431900 	 14.895830713600 	
H	  2.897034650700 	  5.047507048200 	  0.356251116800 	
H	  2.328490520700 	  5.047509858200 	 10.486807836800 	
H	  2.897003550700 	 11.231068808200 	  0.356248286800 	
H	  2.328459420700 	 11.231071618200 	 10.486805006800 	
H	 17.577861950700 	  5.047516278200 	  0.384381046800 	
H	 17.009317820700 	  5.047519088200 	 10.514937766800 	
H	 17.577830850700 	 11.231078038200 	  0.384378216800 	
H	 17.009286720700 	 11.231080848200 	 10.514934936800 	
H	  1.412048820700 	  3.230173843200 	  4.570178105800 	
H	  0.843504690700 	  3.230176653200 	 14.700734825800 	
H	  1.412017720700 	  9.413735603200 	  4.570175275800 	
H	  0.843473590700 	  9.413738413200 	 14.700731995800 	
H	 16.092876120700 	  3.230183073200 	  4.598308035800 	
H	 15.524331990700 	  3.230185883200 	 14.728864755800 	
H	 16.092845020700 	  9.413744833200 	  4.598305205800 	
H	 15.524300890700 	  9.413747643200 	 14.728861925800 	
H	 12.984491248900 	  0.138409911600 	  0.523233610500 	
H	 12.415947118900 	  0.138412721600 	 10.653790330500 	
H	 12.984460148900 	  6.321971671600 	  0.523230780500 	
H	 12.415916018900 	  6.321974481600 	 10.653787500500 	
H	 27.665318548900 	  0.138419141600 	  0.551363540500 	
H	 27.096774418900 	  0.138421951600 	 10.681920260500 	
H	 27.665287448900 	  6.321980901600 	  0.551360710500 	
H	 27.096743318900 	  6.321983711600 	 10.681917430500 	
H	 12.700202627900 	  2.953400575200 	  5.588506320900 	
H	 12.131658497900 	  2.953403385200 	 15.719063040900 	
H	 12.700171527900 	  9.136962335200 	  5.588503490900 	
H	 12.131627397900 	  9.136965145200 	 15.719060210900 	
H	 27.381029927900 	  2.953409805200 	  5.616636250900 	
H	 26.812485797900 	  2.953412615200 	 15.747192970900 	
H	 27.380998827900 	  9.136971565200 	  5.616633420900 	
H	 26.812454697900 	  9.136974375200 	 15.747190140900 	
H	  1.127761431100 	  6.045164321200 	  9.635449805400 	
H	  0.559217301100 	  6.045167131200 	 19.766006525400 	
H	  1.127730331100 	 12.228726081200 	  9.635446975400 	
H	  0.559186201100 	 12.228728891200 	 19.766003695400 	
H	 15.808588731100 	  6.045173551200 	  9.663579735400 	
H	 15.240044601100 	  6.045176361200 	 19.794136455400 	
H	 15.808557631100 	 12.228735311200 	  9.663576905400 	
H	 15.240013501100 	 12.228738121200 	 19.794133625400 	
H	  3.117974382100 	  2.721514149100 	  4.615664106800 	
H	  2.549430252100 	  2.721516959100 	 14.746220826800 	
H	  3.117943282100 	  8.905075909100 	  4.615661276800 	
H	  2.549399152100 	  8.905078719100 	 14.746217996800 	
H	 17.798801682100 	  2.721523379100 	  4.643794036800 	
H	 17.230257552100 	  2.721526189100 	 14.774350756800 	
H	 17.798770582100 	  8.905085139100 	  4.643791206800 	
H	 17.230226452100 	  8.905087949100 	 14.774347926800 	
H	 11.278543592100 	  5.813293234200 	  0.477751838000 	
H	 10.709999462100 	  5.813296044200 	 10.608308558000 	
H	 11.278512492100 	 11.996854994200 	  0.477749008000 	
H	 10.709968362100 	 11.996857804200 	 10.608305728000 	
H	 25.959370892100 	  5.813302464200 	  0.505881768000 	
H	 25.390826762100 	  5.813305274200 	 10.636438488000 	
H	 25.959339792100 	 11.996864224200 	  0.505878938000 	
H	 25.390795662100 	 11.996867034200 	 10.636435658000 	
H	 10.994277095000 	  3.462060207400 	  5.543019813300 	
H	 10.425732965000 	  3.462063017400 	 15.673576533300 	
H	 10.994245995000 	  9.645621967400 	  5.543016983300 	
H	 10.425701865000 	  9.645624777400 	 15.673573703300 	
H	 25.675104395000 	  3.462069437400 	  5.571149743300 	
H	 25.106560265000 	  3.462072247400 	 15.701706463300 	
H	 25.675073295000 	  9.645631197400 	  5.571146913300 	
H	 25.106529165000 	  9.645634007400 	 15.701703633300 	
H	  2.833709070800 	  0.370281122300 	  9.680931881800 	
H	  2.265164940800 	  0.370283932300 	 19.811488601800 	
H	  2.833677970800 	  6.553842882300 	  9.680929051800 	
H	  2.265133840800 	  6.553845692300 	 19.811485771800 	
H	 17.514536370800 	  0.370290352300 	  9.709061811800 	
H	 16.945992240800 	  0.370293162300 	 19.839618531800 	
H	 17.514505270800 	  6.553852112300 	  9.709058981800 	
H	 16.945961140800 	  6.553854922300 	 19.839615701800 	
C	  0.887164533100 	  3.099405811500 	  7.256915573700 	
C	  0.318620403100 	  3.099408621500 	 17.387472293700 	
C	  0.887133433100 	  9.282967571500 	  7.256912743700 	
C	  0.318589303100 	  9.282970381500 	 17.387469463700 	
C	 15.567991833100 	  3.099415041500 	  7.285045503700 	
C	 14.999447703100 	  3.099417851500 	 17.415602223700 	
C	 15.567960733100 	  9.282976801500 	  7.285042673700 	
C	 14.999416603100 	  9.282979611500 	 17.415599393700 	
C	 12.940820695000 	  0.007641134200 	  7.967052756600 	
C	 12.372276565000 	  0.007643944200 	 18.097609476600 	
C	 12.940789595000 	  6.191202894200 	  7.967049926600 	
C	 12.372245465000 	  6.191205704200 	 18.097606646600 	
C	 27.621647995000 	  0.007650364200 	  7.995182686600 	
C	 27.053103865000 	  0.007653174200 	 18.125739406600 	
C	 27.621616895000 	  6.191212124200 	  7.995179856600 	
C	 27.053072765000 	  6.191214934200 	 18.125736576600 	
C	 13.225087214900 	  3.084167431900 	  2.901768752300 	
C	 12.656543084900 	  3.084170241900 	 13.032325472300 	
C	 13.225056114900 	  9.267729191900 	  2.901765922300 	
C	 12.656511984900 	  9.267732001900 	 13.032322642300 	
C	 27.905914514900 	  3.084176661900 	  2.929898682300 	
C	 27.337370384900 	  3.084179471900 	 13.060455402300 	
C	 27.905883414900 	  9.267738421900 	  2.929895852300 	
C	 27.337339284900 	  9.267741231900 	 13.060452572300 	
C	  1.171431838100 	  6.175932418400 	  2.191630659100 	
C	  0.602887708100 	  6.175935228400 	 12.322187379100 	
C	  1.171400738100 	 12.359494178400 	  2.191627829100 	
C	  0.602856608100 	 12.359496988400 	 12.322184549100 	
C	 15.852259138100 	  6.175941648400 	  2.219760589100 	
C	 15.283715008100 	  6.175944458400 	 12.350317309100 	
C	 15.852228038100 	 12.359503408400 	  2.219757759100 	
C	 15.283683908100 	 12.359506218400 	 12.350314479100 	
H	  1.090122822200 	  4.156575733700 	  7.463856135200 	
H	  0.521578692200 	  4.156578543700 	 17.594412855200 	
H	  1.090091722200 	 10.340137493700 	  7.463853305200 	
H	  0.521547592200 	 10.340140303700 	 17.594410025200 	
H	 15.770950122200 	  4.156584963700 	  7.491986065200 	
H	 15.202405992200 	  4.156587773700 	 17.622542785200 	
H	 15.770919022200 	 10.340146723700 	  7.491983235200 	
H	 15.202374892200 	 10.340149533700 	 17.622539955200 	
H	 12.737839640600 	  1.064812279800 	  7.760118093700 	
H	 12.169295510600 	  1.064815089800 	 17.890674813700 	
H	 12.737808540600 	  7.248374039800 	  7.760115263700 	
H	 12.169264410600 	  7.248376849800 	 17.890671983700 	
H	 27.418666940600 	  1.064821509800 	  7.788248023700 	
H	 26.850122810600 	  1.064824319800 	 17.918804743700 	
H	 27.418635840600 	  7.248383269800 	  7.788245193700 	
H	 26.850091710600 	  7.248386079800 	 17.918801913700 	
H	 13.022128767600 	  2.026997447900 	  2.694828393100 	
H	 12.453584637600 	  2.027000257900 	 12.825385113100 	
H	 13.022097667600 	  8.210559207900 	  2.694825563100 	
H	 12.453553537600 	  8.210562017900 	 12.825382283100 	
H	 27.702956067600 	  2.027006677900 	  2.722958323100 	
H	 27.134411937600 	  2.027009487900 	 12.853515043100 	
H	 27.702924967600 	  8.210568437900 	  2.722955493100 	
H	 27.134380837600 	  8.210571247900 	 12.853512213100 	
H	  1.374413050700 	  5.118761334700 	  2.398565119600 	
H	  0.805868920700 	  5.118764144700 	 12.529121839600 	
H	  1.374381950700 	 11.302323094700 	  2.398562289600 	
H	  0.805837820700 	 11.302325904700 	 12.529119009600 	
H	 16.055240350700 	  5.118770564700 	  2.426695049600 	
H	 15.486696220700 	  5.118773374700 	 12.557251769600 	
H	 16.055209250700 	 11.302332324700 	  2.426692219600 	
H	 15.486665120700 	 11.302335134700 	 12.557248939600 	
H	  0.683561485800 	  2.596531593500 	  8.210188040200 	
H	  0.115017355800 	  2.596534403500 	 18.340744760200 	
H	  0.683530385800 	  8.780093353500 	  8.210185210200 	
H	  0.114986255800 	  8.780096163500 	 18.340741930200 	
H	 15.364388785800 	  2.596540823500 	  8.238317970200 	
H	 14.795844655800 	  2.596543633500 	 18.368874690200 	
H	 15.364357685800 	  8.780102583500 	  8.238315140200 	
H	 14.795813555800 	  8.780105393500 	 18.368871860200 	
H	 13.144397725400 	  5.688341754300 	  7.013772246600 	
H	 12.575853595400 	  5.688344564300 	 17.144328966600 	
H	 13.144366625400 	 11.871903514300 	  7.013769416600 	
H	 12.575822495400 	 11.871906324300 	 17.144326136600 	
H	 27.825225025400 	  5.688350984300 	  7.041902176600 	
H	 27.256680895400 	  5.688353794300 	 17.172458896600 	
H	 27.825193925400 	 11.871912744300 	  7.041899346600 	
H	 27.256649795400 	 11.871915554300 	 17.172456066600 	
H	 13.428690561400 	  3.587041340800 	  1.948496185000 	
H	 12.860146431400 	  3.587044150800 	 12.079052905000 	
H	 13.428659461400 	  9.770603100800 	  1.948493355000 	
H	 12.860115331400 	  9.770605910800 	 12.079050075000 	
H	 28.109517861400 	  3.587050570800 	  1.976626115000 	
H	 27.540973731400 	  3.587053380800 	 12.107182835000 	
H	 28.109486761400 	  9.770612330800 	  1.976623285000 	
H	 27.540942631400 	  9.770615140800 	 12.107180005000 	
H	  0.967854649600 	  0.495231612900 	  3.144911371300 	
H	  0.399310519600 	  0.495234422900 	 13.275468091300 	
H	  0.967823549600 	  6.678793372900 	  3.144908541300 	
H	  0.399279419600 	  6.678796182900 	 13.275465261300 	
H	 15.648681949600 	  0.495240842900 	  3.173041301300 	
H	 15.080137819600 	  0.495243652900 	 13.303598021300 	
H	 15.648650849600 	  6.678802602900 	  3.173038471300 	
H	 15.080106719600 	  6.678805412900 	 13.303595191300 	
H	 -0.027515277800 	  3.062154096700 	  6.650929329100 	
H	 -0.596059407800 	  3.062156906700 	 16.781486049100 	
H	 -0.027546377800 	  9.245715856700 	  6.650926499100 	
H	 -0.596090507800 	  9.245718666700 	 16.781483219100 	
H	 14.653312022200 	  3.062163326700 	  6.679059259100 	
H	 14.084767892200 	  3.062166136700 	 16.809615979100 	
H	 14.653280922200 	  9.245725086700 	  6.679056429100 	
H	 14.084736792200 	  9.245727896700 	 16.809613149100 	
H	 13.855469667900 	  6.153952088900 	  8.573035597100 	
H	 13.286925537900 	  6.153954898900 	 18.703592317100 	
H	 13.855438567900 	 12.337513848900 	  8.573032767100 	
H	 13.286894437900 	 12.337516658900 	 18.703589487100 	
H	 28.536296967900 	  6.153961318900 	  8.601165527100 	
H	 27.967752837900 	  6.153964128900 	 18.731722247100 	
H	 28.536265867900 	 12.337523078900 	  8.601162697100 	
H	 27.967721737900 	 12.337525888900 	 18.731719417100 	
H	 14.139766867500 	  3.121419146800 	  3.507755199200 	
H	 13.571222737500 	  3.121421956800 	 13.638311919200 	
H	 14.139735767500 	  9.304980906800 	  3.507752369200 	
H	 13.571191637500 	  9.304983716800 	 13.638309089200 	
H	 28.820594167500 	  3.121428376800 	  3.535885129200 	
H	 28.252050037500 	  3.121431186800 	 13.666441849200 	
H	 28.820563067500 	  9.304990136800 	  3.535882299200 	
H	 28.252018937500 	  9.304992946800 	 13.666439019200 	
H	  0.256782865300 	  0.029621463700 	  1.585647818500 	
H	 -0.311761264700 	  0.029624273700 	 11.716204538500 	
H	  0.256751765300 	  6.213183223700 	  1.585644988500 	
H	 -0.311792364700 	  6.213186033700 	 11.716201708500 	
H	 14.937610165300 	  0.029630693700 	  1.613777748500 	
H	 14.369066035300 	  0.029633503700 	 11.744334468500 	
H	 14.937579065300 	  6.213192453700 	  1.613774918500 	
H	 14.369034935300 	  6.213195263700 	 11.744331638500 	
C	  1.581473236200 	  0.991044022700 	  6.130188493600 	
C	  1.012929106200 	  0.991046832700 	 16.260745213600 	
C	  1.581442136200 	  7.174605782700 	  6.130185663600 	
C	  1.012898006200 	  7.174608592700 	 16.260742383600 	
C	 16.262300536200 	  0.991053252700 	  6.158318423600 	
C	 15.693756406200 	  0.991056062700 	 16.288875143600 	
C	 16.262269436200 	  7.174615012700 	  6.158315593600 	
C	 15.693725306200 	  7.174617822700 	 16.288872313600 	
C	 12.246521765400 	  4.082837103900 	  9.093781709700 	
C	 11.677977635400 	  4.082839913900 	 19.224338429700 	
C	 12.246490665400 	 10.266398863900 	  9.093778879700 	
C	 11.677946535400 	 10.266401673900 	 19.224335599700 	
C	 26.927349065400 	  4.082846333900 	  9.121911639700 	
C	 26.358804935400 	  4.082849143900 	 19.252468359700 	
C	 26.927317965400 	 10.266408093900 	  9.121908809700 	
C	 26.358773835400 	 10.266410903900 	 19.252465529700 	
C	 12.530778715400 	  5.192529777300 	  4.028494819600 	
C	 11.962234585400 	  5.192532587300 	 14.159051539600 	
C	 12.530747615400 	 11.376091537300 	  4.028491989600 	
C	 11.962203485400 	 11.376094347300 	 14.159048709600 	
C	 27.211606015400 	  5.192539007300 	  4.056624749600 	
C	 26.643061885400 	  5.192541817300 	 14.187181469600 	
C	 27.211574915400 	 11.376100767300 	  4.056621919600 	
C	 26.643030785400 	 11.376103577300 	 14.187178639600 	
C	  1.865730445700 	  2.100736819800 	  1.064902211900 	
C	  1.297186315700 	  2.100739629800 	 11.195458931900 	
C	  1.865699345700 	  8.284298579800 	  1.064899381900 	
C	  1.297155215700 	  8.284301389800 	 11.195456101900 	
C	 16.546557745700 	  2.100746049800 	  1.093032141900 	
C	 15.978013615700 	  2.100748859800 	 11.223588861900 	
C	 16.546526645700 	  8.284307809800 	  1.093029311900 	
C	 15.977982515700 	  8.284310619800 	 11.223586031900 	
H	  0.610675950600 	  1.034865784000 	  5.618136422600 	
H	  0.042131820600 	  1.034868594000 	 15.748693142600 	
H	  0.610644850600 	  7.218427544000 	  5.618133592600 	
H	  0.042100720600 	  7.218430354000 	 15.748690312600 	
H	 15.291503250600 	  1.034875014000 	  5.646266352600 	
H	 14.722959120600 	  1.034877824000 	 15.776823072600 	
H	 15.291472150600 	  7.218436774000 	  5.646263522600 	
H	 14.722928020600 	  7.218439584000 	 15.776820242600 	
H	 13.217317326700 	  4.126663991400 	  9.605838297400 	
H	 12.648773196700 	  4.126666801400 	 19.736395017400 	
H	 13.217286226700 	 10.310225751400 	  9.605835467400 	
H	 12.648742096700 	 10.310228561400 	 19.736392187400 	
H	 27.898144626700 	  4.126673221400 	  9.633968227400 	
H	 27.329600496700 	  4.126676031400 	 19.764524947400 	
H	 27.898113526700 	 10.310234981400 	  9.633965397400 	
H	 27.329569396700 	 10.310237791400 	 19.764522117400 	
H	 13.501575842900 	  5.148708016000 	  4.540547092900 	
H	 12.933031712900 	  5.148710826000 	 14.671103812900 	
H	 13.501544742900 	 11.332269776000 	  4.540544262900 	
H	 12.933000612900 	 11.332272586000 	 14.671100982900 	
H	 28.182403142900 	  5.148717246000 	  4.568677022900 	
H	 27.613859012900 	  5.148720056000 	 14.699233742900 	
H	 28.182372042900 	 11.332279006000 	  4.568674192900 	
H	 27.613827912900 	 11.332281816000 	 14.699230912900 	
H	  0.894934890100 	  2.056909870500 	  0.552845522900 	
H	  0.326390760100 	  2.056912680500 	 10.683402242900 	
H	  0.894903790100 	  8.240471630500 	  0.552842692900 	
H	  0.326359660100 	  8.240474440500 	 10.683399412900 	
H	 15.575762190100 	  2.056919100500 	  0.580975452900 	
H	 15.007218060100 	  2.056921910500 	 10.711532172900 	
H	 15.575731090100 	  8.240480860500 	  0.580972622900 	
H	 15.007186960100 	  8.240483670500 	 10.711529342900 	
H	  1.459783142400 	  0.369871747300 	  7.026704052400 	
H	  0.891239012400 	  0.369874557300 	 17.157260772400 	
H	  1.459752042400 	  6.553433507300 	  7.026701222400 	
H	  0.891207912400 	  6.553436317300 	 17.157257942400 	
H	 16.140610442400 	  0.369880977300 	  7.054833982400 	
H	 15.572066312400 	  0.369883787300 	 17.185390702400 	
H	 16.140579342400 	  6.553442737300 	  7.054831152400 	
H	 15.572035212400 	  6.553445547300 	 17.185387872400 	
H	 12.368224107600 	  3.461662627600 	  8.197272303400 	
H	 11.799679977600 	  3.461665437600 	 18.327829023400 	
H	 12.368193007600 	  9.645224387600 	  8.197269473400 	
H	 11.799648877600 	  9.645227197600 	 18.327826193400 	
H	 27.049051407600 	  3.461671857600 	  8.225402233400 	
H	 26.480507277600 	  3.461674667600 	 18.355958953400 	
H	 27.049020307600 	  9.645233617600 	  8.225399403400 	
H	 26.480476177600 	  9.645236427600 	 18.355956123400 	
H	 12.652468820600 	  5.813701619900 	  3.131979058100 	
H	 12.083924690600 	  5.813704429900 	 13.262535778100 	
H	 12.652437720600 	 11.997263379900 	  3.131976228100 	
H	 12.083893590600 	 11.997266189900 	 13.262532948100 	
H	 27.333296120600 	  5.813710849900 	  3.160108988100 	
H	 26.764751990600 	  5.813713659900 	 13.290665708100 	
H	 27.333265020600 	 11.997272609900 	  3.160106158100 	
H	 26.764720890600 	 11.997275419900 	 13.290662878100 	
H	  1.744027951100 	  2.721911110600 	  1.961411719200 	
H	  1.175483821100 	  2.721913920600 	 12.091968439200 	
H	  1.743996851100 	  8.905472870600 	  1.961408889200 	
H	  1.175452721100 	  8.905475680600 	 12.091965609200 	
H	 16.424855251100 	  2.721920340600 	  1.989541649200 	
H	 15.856311121100 	  2.721923150600 	 12.120098369200 	
H	 16.424824151100 	  8.905482100600 	  1.989538819200 	
H	 15.856280021100 	  8.905484910600 	 12.120095539200 	
H	  2.286177287500 	  0.494504553500 	  5.453213134500 	
H	  1.717633157500 	  0.494507363500 	 15.583769854500 	
H	  2.286146187500 	  6.678066313500 	  5.453210304500 	
H	  1.717602057500 	  6.678069123500 	 15.583767024500 	
H	 16.967004587500 	  0.494513783500 	  5.481343064500 	
H	 16.398460457500 	  0.494516593500 	 15.611899784500 	
H	 16.966973487500 	  6.678075543500 	  5.481340234500 	
H	 16.398429357500 	  6.678078353500 	 15.611896954500 	
H	 11.541823906000 	  3.586296368900 	  9.770757120400 	
H	 10.973279776000 	  3.586299178900 	 19.901313840400 	
H	 11.541792806000 	  9.769858128900 	  9.770754290400 	
H	 10.973248676000 	  9.769860938900 	 19.901311010400 	
H	 26.222651206000 	  3.586305598900 	  9.798887050400 	
H	 25.654107076000 	  3.586308408900 	 19.929443770400 	
H	 26.222620106000 	  9.769867358900 	  9.798884220400 	
H	 25.654075976000 	  9.769870168900 	 19.929440940400 	
H	 11.826074523000 	  5.689069555700 	  4.705470077100 	
H	 11.257530393000 	  5.689072365700 	 14.836026797100 	
H	 11.826043423000 	 11.872631315700 	  4.705467247100 	
H	 11.257499293000 	 11.872634125700 	 14.836023967100 	
H	 26.506901823000 	  5.689078785700 	  4.733600007100 	
H	 25.938357693000 	  5.689081595700 	 14.864156727100 	
H	 26.506870723000 	 11.872640545700 	  4.733597177100 	
H	 25.938326593000 	 11.872643355700 	 14.864153897100 	
H	  2.570428293700 	  2.597277802200 	  0.387927003800 	
H	  2.001884163700 	  2.597280612200 	 10.518483723800 	
H	  2.570397193700 	  8.780839562200 	  0.387924173800 	
H	  2.001853063700 	  8.780842372200 	 10.518480893800 	
H	 17.251255593700 	  2.597287032200 	  0.416056933800 	
H	 16.682711463700 	  2.597289842200 	 10.546613653800 	
H	 17.251224493700 	  8.780848792200 	  0.416054103800 	
H	 16.682680363700 	  8.780851602200 	 10.546610823800 	
768 
Energy: -8.2471951158430002e+01 
S	  8.729361611803 	  1.543907285118 	  0.047843982571 	
S	  8.160817481803 	  1.543910095118 	 10.178400702571 	
S	  8.729330511803 	  7.727469045118 	  0.047841152571 	
S	  8.160786381803 	  7.727471855118 	 10.178397872571 	
S	 23.410188911803 	  1.543916515118 	  0.075973912571 	
S	 22.841644781803 	  1.543919325118 	 10.206530632571 	
S	 23.410157811803 	  7.727478275118 	  0.075971082571 	
S	 22.841613681803 	  7.727481085118 	 10.206527802571 	
S	  5.611975536145 	  4.631377473057 	  5.078642986866 	
S	  5.043431406145 	  4.631380283057 	 15.209199706866 	
S	  5.611944436145 	 10.814939233057 	  5.078640156866 	
S	  5.043400306145 	 10.814942043057 	 15.209196876866 	
S	 20.292802836145 	  4.631386703057 	  5.106772916866 	
S	 19.724258706145 	  4.631389513057 	 15.237329636866 	
S	 20.292771736145 	 10.814948463057 	  5.106770086866 	
S	 19.724227606145 	 10.814951273057 	 15.237326806866 	
S	  5.334218177985 	  4.631908050881 	 10.168186016520 	
S	  4.765674047985 	  4.631910860881 	 20.298742736520 	
S	  5.334187077985 	 10.815469810881 	 10.168183186520 	
S	  4.765642947985 	 10.815472620881 	 20.298739906520 	
S	 20.015045477985 	  4.631917280881 	 10.196315946520 	
S	 19.446501347985 	  4.631920090881 	 20.326872666520 	
S	 20.015014377985 	 10.815479040881 	 10.196313116520 	
S	 19.446470247985 	 10.815481850881 	 20.326869836520 	
S	  8.451604641159 	  1.544438530852 	  5.137387251553 	
S	  7.883060511159 	  1.544441340852 	 15.267943971553 	
S	  8.451573541159 	  7.728000290852 	  5.137384421553 	
S	  7.883029411159 	  7.728003100852 	 15.267941141553 	
S	 23.132431941159 	  1.544447760852 	  5.165517181553 	
S	 22.563887811159 	  1.544450570852 	 15.296073901553 	
S	 23.132400841159 	  7.728009520852 	  5.165514351553 	
S	 22.563856711159 	  7.728012330852 	 15.296071071553 	
C	  6.753136836618 	  2.536506970996 	  9.836057234043 	
C	  6.184592706618 	  2.536509780996 	 19.966613954043 	
C	  6.753105736618 	  8.720068730996 	  9.836054404043 	
C	  6.184561606618 	  8.720071540996 	 19.966611124043 	
C	 21.433964136618 	  2.536516200996 	  9.864187164043 	
C	 20.865420006618 	  2.536519010996 	 19.994743884043 	
C	 21.433933036618 	  8.720077960996 	  9.864184334043 	
C	 20.865388906618 	  8.720080770996 	 19.994741054043 	
C	  7.031881073911 	  5.624561045456 	  5.467796402004 	
C	  6.463336943911 	  5.624563855456 	 15.598353122004 	
C	  7.031849973911 	 11.808122805456 	  5.467793572004 	
C	  6.463305843911 	 11.808125615456 	 15.598350292004 	
C	 21.712708373911 	  5.624570275456 	  5.495926332004 	
C	 21.144164243911 	  5.624573085456 	 15.626483052004 	
C	 21.712677273911 	 11.808132035456 	  5.495923502004 	
C	 21.144133143911 	 11.808134845456 	 15.626480222004 	
C	  7.310442977541 	  3.639308311859 	  0.379972765636 	
C	  6.741898847541 	  3.639311121859 	 10.510529485636 	
C	  7.310411877541 	  9.822870071859 	  0.379969935636 	
C	  6.741867747541 	  9.822872881859 	 10.510526655636 	
C	 21.991270277541 	  3.639317541859 	  0.408102695636 	
C	 21.422726147541 	  3.639320351859 	 10.538659415636 	
C	 21.991239177541 	  9.822879301859 	  0.408099865636 	
C	 21.422695047541 	  9.822882111859 	 10.538656585636 	
C	  7.031698961719 	  0.551255072360 	  4.748233819531 	
C	  6.463154831719 	  0.551257882360 	 14.878790539531 	
C	  7.031667861719 	  6.734816832360 	  4.748230989531 	
C	  6.463123731719 	  6.734819642360 	 14.878787709531 	
C	 21.712526261719 	  0.551264302360 	  4.776363749531 	
C	 21.143982131719 	  0.551267112360 	 14.906920469531 	
C	 21.712495161719 	  6.734826062360 	  4.776360919531 	
C	 21.143951031719 	  6.734828872360 	 14.906917639531 	
C	  5.684413296174 	  2.332197849266 	  8.917982355660 	
C	  5.115869166174 	  2.332200659266 	 19.048539075660 	
C	  5.684382196174 	  8.515759609266 	  8.917979525660 	
C	  5.115838066174 	  8.515762419266 	 19.048536245660 	
C	 20.365240596174 	  2.332207079266 	  8.946112285660 	
C	 19.796696466174 	  2.332209889266 	 19.076669005660 	
C	 20.365209496174 	  8.515768839266 	  8.946109455660 	
C	 19.796665366174 	  8.515771649266 	 19.076666175660 	
C	  8.103732064745 	  5.422360019331 	  6.387325346316 	
C	  7.535187934745 	  5.422362829331 	 16.517882066316 	
C	  8.103700964745 	 11.605921779331 	  6.387322516316 	
C	  7.535156834745 	 11.605924589331 	 16.517879236316 	
C	 22.784559364745 	  5.422369249331 	  6.415455276316 	
C	 22.216015234745 	  5.422372059331 	 16.546011996316 	
C	 22.784528264745 	 11.605931009331 	  6.415452446316 	
C	 22.215984134745 	 11.605933819331 	 16.546009166316 	
C	  8.379166348597 	  3.843617477139 	  1.298047520897 	
C	  7.810622218597 	  3.843620287139 	 11.428604240897 	
C	  8.379135248597 	 10.027179237139 	  1.298044690897 	
C	  7.810591118597 	 10.027182047139 	 11.428601410897 	
C	 23.059993648597 	  3.843626707139 	  1.326177450897 	
C	 22.491449518597 	  3.843629517139 	 11.456734170897 	
C	 23.059962548597 	 10.027188467139 	  1.326174620897 	
C	 22.491418418597 	 10.027191277139 	 11.456731340897 	
C	  5.959847940897 	  0.753456062862 	  3.828704795360 	
C	  5.391303810897 	  0.753458872862 	 13.959261515360 	
C	  5.959816840897 	  6.937017822862 	  3.828701965360 	
C	  5.391272710897 	  6.937020632862 	 13.959258685360 	
C	 20.640675240897 	  0.753465292862 	  3.856834725360 	
C	 20.072131110897 	  0.753468102862 	 13.987391445360 	
C	 20.640644140897 	  6.937027052862 	  3.856831895360 	
C	 20.072100010897 	  6.937029862862 	 13.987388615360 	
C	  4.787401189198 	  3.404828687930 	  8.974234638546 	
C	  4.218857059198 	  3.404831497930 	 19.104791358546 	
C	  4.787370089198 	  9.588390447930 	  8.974231808546 	
C	  4.218825959198 	  9.588393257930 	 19.104788528546 	
C	 19.468228489198 	  3.404837917930 	  9.002364568546 	
C	 18.899684359198 	  3.404840727930 	 19.132921288546 	
C	 19.468197389198 	  9.588399677930 	  9.002361738546 	
C	 18.899653259198 	  9.588402487930 	 19.132918458546 	
C	  8.994471093789 	  0.314526128021 	  6.331621765620 	
C	  8.425926963789 	  0.314528938021 	 16.462178485620 	
C	  8.994439993789 	  6.498087888021 	  6.331618935620 	
C	  8.425895863789 	  6.498090698021 	 16.462175655620 	
C	 23.675298393789 	  0.314535358021 	  6.359751695620 	
C	 23.106754263789 	  0.314538168021 	 16.490308415620 	
C	 23.675267293789 	  6.498097118021 	  6.359748865620 	
C	 23.106723163789 	  6.498099928021 	 16.490305585620 	
C	  9.276178451656 	  2.770986711284 	  1.241795336530 	
C	  8.707634321656 	  2.770989521284 	 11.372352056530 	
C	  9.276147351656 	  8.954548471284 	  1.241792506530 	
C	  8.707603221656 	  8.954551281284 	 11.372349226530 	
C	 23.957005751656 	  2.770995941284 	  1.269925266530 	
C	 23.388461621656 	  2.770998751284 	 11.400481986530 	
C	 23.956974651656 	  8.954557701284 	  1.269922436530 	
C	 23.388430521656 	  8.954560511284 	 11.400479156530 	
C	  5.069108920401 	  5.861289884616 	  3.884408401848 	
C	  4.500564790401 	  5.861292694616 	 14.014965121848 	
C	  5.069077820401 	 12.044851644616 	  3.884405571848 	
C	  4.500533690401 	 12.044854454616 	 14.014962291848 	
C	 19.749936220401 	  5.861299114616 	  3.912538331848 	
C	 19.181392090401 	  5.861301924616 	 14.043095051848 	
C	 19.749905120401 	 12.044860874616 	  3.912535501848 	
C	 19.181360990401 	 12.044863684616 	 14.043092221848 	
C	  3.670980892844 	  3.436070502738 	  8.225164143128 	
C	  3.102436762844 	  3.436073312738 	 18.355720863128 	
C	  3.670949792844 	  9.619632262738 	  8.225161313128 	
C	  3.102405662844 	  9.619635072738 	 18.355718033128 	
C	 18.351808192844 	  3.436079732738 	  8.253294073128 	
C	 17.783264062844 	  3.436082542738 	 18.383850793128 	
C	 18.351777092844 	  9.619641492738 	  8.253291243128 	
C	 17.783232962844 	  9.619644302738 	 18.383847963128 	
C	 10.114969280030 	  0.346428585380 	  7.083142772791 	
C	  9.546425150030 	  0.346431395380 	 17.213699492791 	
C	 10.114938180030 	  6.529990345380 	  7.083139942791 	
C	  9.546394050030 	  6.529993155380 	 17.213696662791 	
C	 24.795796580030 	  0.346437815380 	  7.111272702791 	
C	 24.227252450030 	  0.346440625380 	 17.241829422791 	
C	 24.795765480030 	  6.529999575380 	  7.111269872791 	
C	 24.227221350030 	  6.530002385380 	 17.241826592791 	
C	 10.392598768879 	  2.739744963496 	  1.990865961771 	
C	  9.824054638879 	  2.739747773496 	 12.121422681771 	
C	 10.392567668879 	  8.923306723496 	  1.990863131771 	
C	  9.824023538879 	  8.923309533496 	 12.121419851771 	
C	 25.073426068879 	  2.739754193496 	  2.018995891771 	
C	 24.504881938879 	  2.739757003496 	 12.149552611771 	
C	 25.073394968879 	  8.923315953496 	  2.018993061771 	
C	 24.504850838879 	  8.923318763496 	 12.149549781771 	
C	  3.948610707599 	  5.829387402651 	  3.132887438690 	
C	  3.380066577599 	  5.829390212651 	 13.263444158690 	
C	  3.948579607599 	 12.012949162651 	  3.132884608690 	
C	  3.380035477599 	 12.012951972651 	 13.263441328690 	
C	 18.629438007599 	  5.829396632651 	  3.161017368690 	
C	 18.060893877599 	  5.829399442651 	 13.291574088690 	
C	 18.629406907599 	 12.012958392651 	  3.161014538690 	
C	 18.060862777599 	 12.012961202651 	 13.291571258690 	
H	  2.973945362033 	  4.345840416562 	  8.310798819835 	
H	  2.405401232033 	  4.345843226562 	 18.441355539835 	
H	  2.973914262033 	 10.529402176562 	  8.310795989835 	
H	  2.405370132033 	 10.529404986562 	 18.441352709835 	
H	 17.654772662033 	  4.345849646562 	  8.338928749835 	
H	 17.086228532033 	  4.345852456562 	 18.469485469835 	
H	 17.654741562033 	 10.529411406562 	  8.338925919835 	
H	 17.086197432033 	 10.529414216562 	 18.469482639835 	
H	 10.810910897479 	  1.257552735168 	  6.994975061256 	
H	 10.242366767479 	  1.257555545168 	 17.125531781256 	
H	 10.810879797479 	  7.441114495168 	  6.994972231256 	
H	 10.242335667479 	  7.441117305168 	 17.125528951256 	
H	 25.491738197479 	  1.257561965168 	  7.023104991256 	
H	 24.923194067479 	  1.257564775168 	 17.153661711256 	
H	 25.491707097479 	  7.441123725168 	  7.023102161256 	
H	 24.923162967479 	  7.441126535168 	 17.153658881256 	
H	 11.089634280626 	  1.829975040540 	  1.905231204856 	
H	 10.521090150626 	  1.829977850540 	 12.035787924856 	
H	 11.089603180626 	  8.013536800540 	  1.905228374856 	
H	 10.521059050626 	  8.013539610540 	 12.035785094856 	
H	 25.770461580626 	  1.829984270540 	  1.933361134856 	
H	 25.201917450626 	  1.829987080540 	 12.063917854856 	
H	 25.770430480626 	  8.013546030540 	  1.933358304856 	
H	 25.201886350626 	  8.013548840540 	 12.063915024856 	
H	  3.252669211081 	  4.918263154262 	  3.221055175793 	
H	  2.684125081081 	  4.918265964262 	 13.351611895793 	
H	  3.252638111081 	 11.101824914262 	  3.221052345793 	
H	  2.684093981081 	 11.101827724262 	 13.351609065793 	
H	 17.933496511081 	  4.918272384262 	  3.249185105793 	
H	 17.364952381081 	  4.918275194262 	 13.379741825793 	
H	 17.933465411081 	 11.101834144262 	  3.249182275793 	
H	 17.364921281081 	 11.101836954262 	 13.379738995793 	
C	  3.342603454873 	  2.427100611759 	  7.377091846961 	
C	  2.774059324873 	  2.427103421759 	 17.507648566961 	
C	  3.342572354873 	  8.610662371759 	  7.377089016961 	
C	  2.774028224873 	  8.610665181759 	 17.507645736961 	
C	 18.023430754873 	  2.427109841759 	  7.405221776961 	
C	 17.454886624873 	  2.427112651759 	 17.535778496961 	
C	 18.023399654873 	  8.610671601759 	  7.405218946961 	
C	 17.454855524873 	  8.610674411759 	 17.535775666961 	
C	 10.441420057179 	  5.516885260596 	  7.925618802860 	
C	  9.872875927179 	  5.516888070596 	 18.056175522860 	
C	 10.441388957179 	 11.700447020596 	  7.925615972860 	
C	  9.872844827179 	 11.700449830596 	 18.056172692860 	
C	 25.122247357179 	  5.516894490596 	  7.953748732860 	
C	 24.553703227179 	  5.516897300596 	 18.084305452860 	
C	 25.122216257179 	 11.700456250596 	  7.953745902860 	
C	 24.553672127179 	 11.700459060596 	 18.084302622860 	
C	 10.720976046047 	  3.748714795346 	  2.838938209185 	
C	 10.152431916047 	  3.748717605346 	 12.969494929185 	
C	 10.720944946047 	  9.932276555346 	  2.838935379185 	
C	 10.152400816047 	  9.932279365346 	 12.969492099185 	
C	 25.401803346047 	  3.748724025346 	  2.867068139185 	
C	 24.833259216047 	  3.748726835346 	 12.997624859185 	
C	 25.401772246047 	  9.932285785346 	  2.867065309185 	
C	 24.833228116047 	  9.932288595346 	 12.997622029185 	
C	  3.622160010728 	  0.658930673462 	  2.290411350044 	
C	  3.053615880728 	  0.658933483462 	 12.420968070044 	
C	  3.622128910728 	  6.842492433462 	  2.290408520044 	
C	  3.053584780728 	  6.842495243462 	 12.420965240044 	
C	 18.302987310728 	  0.658939903462 	  2.318541280044 	
C	 17.734443180728 	  0.658942713462 	 12.449098000044 	
C	 18.302956210728 	  6.842501663462 	  2.318538450044 	
C	 17.734412080728 	  6.842504473462 	 12.449095170044 	
C	  4.252145808846 	  1.391177391353 	  7.302151690580 	
C	  3.683601678846 	  1.391180201353 	 17.432708410580 	
C	  4.252114708846 	  7.574739151353 	  7.302148860580 	
C	  3.683570578846 	  7.574741961353 	 17.432705580580 	
C	 18.932973108846 	  1.391186621353 	  7.330281620580 	
C	 18.364428978846 	  1.391189431353 	 17.460838340580 	
C	 18.932942008846 	  7.574748381353 	  7.330278790580 	
C	 18.364397878846 	  7.574751191353 	 17.460835510580 	
C	  9.532918130507 	  4.479241830533 	  8.003179812228 	
C	  8.964374000507 	  4.479244640533 	 18.133736532228 	
C	  9.532887030507 	 10.662803590533 	  8.003176982228 	
C	  8.964342900507 	 10.662806400533 	 18.133733702228 	
C	 24.213745430507 	  4.479251060533 	  8.031309742228 	
C	 23.645201300507 	  4.479253870533 	 18.161866462228 	
C	 24.213714330507 	 10.662812820533 	  8.031306912228 	
C	 23.645170200507 	 10.662815630533 	 18.161863632228 	
C	  9.811433582388 	  4.784637957570 	  2.913878459115 	
C	  9.242889452388 	  4.784640767570 	 13.044435179115 	
C	  9.811402482388 	 10.968199717570 	  2.913875629115 	
C	  9.242858352388 	 10.968202527570 	 13.044432349115 	
C	 24.492260882388 	  4.784647187570 	  2.942008389115 	
C	 23.923716752388 	  4.784649997570 	 13.072565109115 	
C	 24.492229782388 	 10.968208947570 	  2.942005559115 	
C	 23.923685652388 	 10.968211757570 	 13.072562279115 	
C	  4.530661782069 	  1.696574074625 	  2.212850302718 	
C	  3.962117652069 	  1.696576884625 	 12.343407022718 	
C	  4.530630682069 	  7.880135834625 	  2.212847472718 	
C	  3.962086552069 	  7.880138644625 	 12.343404192718 	
C	 19.211489082069 	  1.696583304625 	  2.240980232718 	
C	 18.642944952069 	  1.696586114625 	 12.371536952718 	
C	 19.211457982069 	  7.880145064625 	  2.240977402718 	
C	 18.642913852069 	  7.880147874625 	 12.371534122718 	
H	  4.033967032877 	  0.530504326079 	  6.574948926292 	
H	  3.465422902877 	  0.530507136079 	 16.705505646292 	
H	  4.033935932877 	  6.714066086079 	  6.574946096292 	
H	  3.465391802877 	  6.714068896079 	 16.705502816292 	
H	 18.714794332877 	  0.530513556079 	  6.603078856292 	
H	 18.146250202877 	  0.530516366079 	 16.733635576292 	
H	 18.714763232877 	  6.714075316079 	  6.603076026292 	
H	 18.146219102877 	  6.714078126079 	 16.733632746292 	
H	  9.751078713665 	  3.618448817085 	  8.730503196734 	
H	  9.182534583665 	  3.618451627085 	 18.861059916734 	
H	  9.751047613665 	  9.802010577085 	  8.730500366734 	
H	  9.182503483665 	  9.802013387085 	 18.861057086734 	
H	 24.431906013665 	  3.618458047085 	  8.758633126734 	
H	 23.863361883665 	  3.618460857085 	 18.889189846734 	
H	 24.431874913665 	  9.802019807085 	  8.758630296734 	
H	 23.863330783665 	  9.802022617085 	 18.889187016734 	
H	 10.029612351879 	  5.645310983959 	  3.641081259283 	
H	  9.461068221879 	  5.645313793959 	 13.771637979283 	
H	 10.029581251879 	 11.828872743959 	  3.641078429283 	
H	  9.461037121879 	 11.828875553959 	 13.771635149283 	
H	 24.710439651879 	  5.645320213959 	  3.669211189283 	
H	 24.141895521879 	  5.645323023959 	 13.799767909283 	
H	 24.710408551879 	 11.828881973959 	  3.669208359283 	
H	 24.141864421879 	 11.828884783959 	 13.799765079283 	
H	  4.312501179847 	  2.557367109993 	  1.485526947571 	
H	  3.743957049847 	  2.557369919993 	 11.616083667571 	
H	  4.312470079847 	  8.740928869993 	  1.485524117571 	
H	  3.743925949847 	  8.740931679993 	 11.616080837571 	
H	 18.993328479847 	  2.557376339993 	  1.513656877571 	
H	 18.424784349847 	  2.557379149993 	 11.644213597571 	
H	 18.993297379847 	  8.740938099993 	  1.513654047571 	
H	 18.424753249847 	  8.740940909993 	 11.644210767571 	
C	  5.356839533400 	  1.339099259542 	  8.019679620797 	
C	  4.788295403400 	  1.339102069542 	 18.150236340797 	
C	  5.356808433400 	  7.522661019542 	  8.019676790797 	
C	  4.788264303400 	  7.522663829542 	 18.150233510797 	
C	 20.037666833400 	  1.339108489542 	  8.047809550797 	
C	 19.469122703400 	  1.339111299542 	 18.178366270797 	
C	 20.037635733400 	  7.522670249542 	  8.047806720797 	
C	 19.469091603400 	  7.522673059542 	 18.178363440797 	
C	  8.428248614871 	  4.427150803011 	  7.285714597085 	
C	  7.859704484871 	  4.427153613011 	 17.416271317085 	
C	  8.428217514871 	 10.610712563011 	  7.285711767085 	
C	  7.859673384871 	 10.610715373011 	 17.416268487085 	
C	 23.109075914871 	  4.427160033011 	  7.313844527085 	
C	 22.540531784871 	  4.427162843011 	 17.444401247085 	
C	 23.109044814871 	 10.610721793011 	  7.313841697085 	
C	 22.540500684871 	 10.610724603011 	 17.444398417085 	
C	  8.706739973086 	  4.836716068743 	  2.196350341044 	
C	  8.138195843086 	  4.836718878743 	 12.326907061044 	
C	  8.706708873086 	 11.020277828743 	  2.196347511044 	
C	  8.138164743086 	 11.020280638743 	 12.326904231044 	
C	 23.387567273086 	  4.836725298743 	  2.224480271044 	
C	 22.819023143086 	  4.836728108743 	 12.355036991044 	
C	 23.387536173086 	 11.020287058743 	  2.224477441044 	
C	 22.818992043086 	 11.020289868743 	 12.355034161044 	
C	  5.635331379380 	  1.748665229477 	  2.930315579430 	
C	  5.066787249380 	  1.748668039477 	 13.060872299430 	
C	  5.635300279380 	  7.932226989477 	  2.930312749430 	
C	  5.066756149380 	  7.932229799477 	 13.060869469430 	
C	 20.316158679380 	  1.748674459477 	  2.958445509430 	
C	 19.747614549380 	  1.748677269477 	 13.089002229430 	
C	 20.316127579380 	  7.932236219477 	  2.958442679430 	
C	 19.747583449380 	  7.932239029477 	 13.088999399430 	
H	  6.072652286196 	  0.447025939491 	  7.919300368897 	
H	  5.504108156196 	  0.447028749491 	 18.049857088897 	
H	  6.072621186196 	  6.630587699491 	  7.919297538897 	
H	  5.504077056196 	  6.630590509491 	 18.049854258897 	
H	 20.753479586196 	  0.447035169491 	  7.947430298897 	
H	 20.184935456196 	  0.447037979491 	 18.077987018897 	
H	 20.753448486196 	  6.630596929491 	  7.947427468897 	
H	 20.184904356196 	  6.630599739491 	 18.077984188897 	
H	  7.712400946934 	  3.534913572079 	  7.386142050313 	
H	  7.143856816934 	  3.534916382079 	 17.516698770313 	
H	  7.712369846934 	  9.718475332079 	  7.386139220313 	
H	  7.143825716934 	  9.718478142079 	 17.516695940313 	
H	 22.393228246934 	  3.534922802079 	  7.414271980313 	
H	 21.824684116934 	  3.534925612079 	 17.544828700313 	
H	 22.393197146934 	  9.718484562079 	  7.414269150313 	
H	 21.824653016934 	  9.718487372079 	 17.544825870313 	
H	  7.990927118382 	  5.728789288006 	  2.296729648561 	
H	  7.422382988382 	  5.728792098006 	 12.427286368561 	
H	  7.990896018382 	 11.912351048006 	  2.296726818561 	
H	  7.422351888382 	 11.912353858006 	 12.427283538561 	
H	 22.671754418382 	  5.728798518006 	  2.324859578561 	
H	 22.103210288382 	  5.728801328006 	 12.455416298561 	
H	 22.671723318382 	 11.912360278006 	  2.324856748561 	
H	 22.103179188382 	 11.912363088006 	 12.455413468561 	
H	  6.351179001564 	  2.640902483366 	  2.829888102053 	
H	  5.782634871564 	  2.640905293366 	 12.960444822053 	
H	  6.351147901564 	  8.824464243366 	  2.829885272053 	
H	  5.782603771564 	  8.824467053366 	 12.960441992053 	
H	 21.032006301564 	  2.640911713366 	  2.858018032053 	
H	 20.463462171564 	  2.640914523366 	 12.988574752053 	
H	 21.031975201564 	  8.824473473366 	  2.858015202053 	
H	 20.463431071564 	  8.824476283366 	 12.988571922053 	
C	  2.018039083972 	  2.458214923917 	  6.505041974728 	
C	  1.449494953972 	  2.458217733917 	 16.635598694728 	
C	  2.018007983972 	  8.641776683917 	  6.505039144728 	
C	  1.449463853972 	  8.641779493917 	 16.635595864728 	
C	 16.698866383972 	  2.458224153917 	  6.533171904728 	
C	 16.130322253972 	  2.458226963917 	 16.663728624728 	
C	 16.698835283972 	  8.641785913917 	  6.533169074728 	
C	 16.130291153972 	  8.641788723917 	 16.663725794728 	
C	 11.768500377453 	  5.546797100403 	  8.802076918285 	
C	 11.199956247453 	  5.546799910403 	 18.932633638285 	
C	 11.768469277453 	 11.730358860403 	  8.802074088285 	
C	 11.199925147453 	 11.730361670403 	 18.932630808285 	
C	 26.449327677453 	  5.546806330403 	  8.830206848285 	
C	 25.880783547453 	  5.546809140403 	 18.960763568285 	
C	 26.449296577453 	 11.730368090403 	  8.830204018285 	
C	 25.880752447453 	 11.730370900403 	 18.960760738285 	
C	 12.045540354758 	  3.717600627856 	  3.710988161087 	
C	 11.476996224758 	  3.717603437856 	 13.841544881087 	
C	 12.045509254758 	  9.901162387856 	  3.710985331087 	
C	 11.476965124758 	  9.901165197856 	 13.841542051087 	
C	 26.726367654758 	  3.717609857856 	  3.739118091087 	
C	 26.157823524758 	  3.717612667856 	 13.869674811087 	
C	 26.726336554758 	  9.901171617856 	  3.739115261087 	
C	 26.157792424758 	  9.901174427856 	 13.869671981087 	
C	  2.295079785344 	  0.629018707531 	  1.413953190560 	
C	  1.726535655344 	  0.629021517531 	 11.544509910560 	
C	  2.295048685344 	  6.812580467531 	  1.413950360560 	
C	  1.726504555344 	  6.812583277531 	 11.544507080560 	
C	 16.975907085344 	  0.629027937531 	  1.442083120560 	
C	 16.407362955344 	  0.629030747531 	 11.572639840560 	
C	 16.975875985344 	  6.812589697531 	  1.442080290560 	
C	 16.407331855344 	  6.812592507531 	 11.572637010560 	
C	  2.265604557699 	  3.067513463265 	  5.294033135719 	
C	  1.697060427699 	  3.067516273265 	 15.424589855719 	
C	  2.265573457699 	  9.251075223265 	  5.294030305719 	
C	  1.697029327699 	  9.251078033265 	 15.424587025719 	
C	 16.946431857699 	  3.067522693265 	  5.322163065719 	
C	 16.377887727699 	  3.067525503265 	 15.452719785719 	
C	 16.946400757699 	  9.251084453265 	  5.322160235719 	
C	 16.377856627699 	  9.251087263265 	 15.452716955719 	
C	 11.514424497575 	 -0.018297365524 	  9.981843652368 	
C	 10.945880367575 	 -0.018294555524 	 20.112400372368 	
C	 11.514393397575 	  6.165264394476 	  9.981840822368 	
C	 10.945849267575 	  6.165267204476 	 20.112397542368 	
C	 26.195251797575 	 -0.018288135524 	 10.009973582368 	
C	 25.626707667575 	 -0.018285325524 	 20.140530302368 	
C	 26.195220697575 	  6.165273624476 	 10.009970752368 	
C	 25.626676567575 	  6.165276434476 	 20.140527472368 	
C	 11.797974546491 	  3.108302357366 	  4.921997471070 	
C	 11.229430416491 	  3.108305167366 	 15.052554191070 	
C	 11.797943446491 	  9.291864117366 	  4.921994641070 	
C	 11.229399316491 	  9.291866927366 	 15.052551361070 	
C	 26.478801846491 	  3.108311587366 	  4.950127401070 	
C	 25.910257716491 	  3.108314397366 	 15.080684121070 	
C	 26.478770746491 	  9.291873347366 	  4.950124571070 	
C	 25.910226616491 	  9.291876157366 	 15.080681291070 	
C	  2.549155691533 	  6.194113465163 	  0.234186340552 	
C	  1.980611561533 	  6.194116275163 	 10.364743060552 	
C	  2.549124591533 	 12.377675225163 	  0.234183510552 	
C	  1.980580461533 	 12.377678035163 	 10.364740230552 	
C	 17.229982991533 	  6.194122695163 	  0.262316270552 	
C	 16.661438861533 	  6.194125505163 	 10.392872990552 	
C	 17.229951891533 	 12.377684455163 	  0.262313440552 	
C	 16.661407761533 	 12.377687265163 	 10.392870160552 	
H	  2.672780740703 	  4.123821419635 	  5.379896231142 	
H	  2.104236610703 	  4.123824229635 	 15.510452951142 	
H	  2.672749640703 	 10.307383179635 	  5.379893401142 	
H	  2.104205510703 	 10.307385989635 	 15.510450121142 	
H	 17.353608040703 	  4.123830649635 	  5.408026161142 	
H	 16.785063910703 	  4.123833459635 	 15.538582881142 	
H	 17.353576940703 	 10.307392409635 	  5.408023331142 	
H	 16.785032810703 	 10.307395219635 	 15.538580051142 	
H	 11.111955819540 	  1.034956414381 	  9.926188281721 	
H	 10.543411689540 	  1.034959224381 	 20.056745001721 	
H	 11.111924719540 	  7.218518174381 	  9.926185451721 	
H	 10.543380589540 	  7.218520984381 	 20.056742171721 	
H	 25.792783119540 	  1.034965644381 	  9.954318211721 	
H	 25.224238989540 	  1.034968454381 	 20.084874931721 	
H	 25.792752019540 	  7.218527404381 	  9.954315381721 	
H	 25.224207889540 	  7.218530214381 	 20.084872101721 	
H	 11.390798573438 	  2.051994331524 	  4.836134633665 	
H	 10.822254443438 	  2.051997141524 	 14.966691353665 	
H	 11.390767473438 	  8.235556091524 	  4.836131803665 	
H	 10.822223343438 	  8.235558901524 	 14.966688523665 	
H	 26.071625873438 	  2.052003561524 	  4.864264563665 	
H	 25.503081743438 	  2.052006371524 	 14.994821283665 	
H	 26.071594773438 	  8.235565321524 	  4.864261733665 	
H	 25.503050643438 	  8.235568131524 	 14.994818453665 	
H	  2.951624420971 	  5.140859692220 	  0.289841510288 	
H	  2.383080290971 	  5.140862502220 	 10.420398230288 	
H	  2.951593320971 	 11.324421452220 	  0.289838680288 	
H	  2.383049190971 	 11.324424262220 	 10.420395400288 	
H	 17.632451720971 	  5.140868922220 	  0.317971440288 	
H	 17.063907590971 	  5.140871732220 	 10.448528160288 	
H	 17.632420620971 	 11.324430682220 	  0.317968610288 	
H	 17.063876490971 	 11.324433492220 	 10.448525330288 	
H	  1.403027901041 	  3.164697955930 	  4.578045201507 	
H	  0.834483771041 	  3.164700765930 	 14.708601921507 	
H	  1.402996801041 	  9.348259715930 	  4.578042371507 	
H	  0.834452671041 	  9.348262525930 	 14.708599091507 	
H	 16.083855201041 	  3.164707185930 	  4.606175131507 	
H	 15.515311071041 	  3.164709995930 	 14.736731851507 	
H	 16.083824101041 	  9.348268945930 	  4.606172301507 	
H	 15.515279971041 	  9.348271755930 	 14.736729021507 	
H	 12.959744469792 	  0.079381141506 	  0.564496092466 	
H	 12.391200339792 	  0.079383951506 	 10.695052812466 	
H	 12.959713369792 	  6.262942901506 	  0.564493262466 	
H	 12.391169239792 	  6.262945711506 	 10.695049982466 	
H	 27.640571769792 	  0.079390371506 	  0.592626022466 	
H	 27.072027639792 	  0.079393181506 	 10.723182742466 	
H	 27.640540669792 	  6.262952131506 	  0.592623192466 	
H	 27.071996539792 	  6.262954941506 	 10.723179912466 	
H	 12.660551177043 	  3.011118281512 	  5.637985471962 	
H	 12.092007047043 	  3.011121091512 	 15.768542191962 	
H	 12.660520077043 	  9.194680041512 	  5.637982641962 	
H	 12.091975947043 	  9.194682851512 	 15.768539361962 	
H	 27.341378477043 	  3.011127511512 	  5.666115401962 	
H	 26.772834347043 	  3.011130321512 	 15.796672121962 	
H	 27.341347377043 	  9.194689271512 	  5.666112571962 	
H	 26.772803247043 	  9.194692081512 	 15.796669291962 	
H	  1.103835810067 	  6.096434969392 	  9.651533815314 	
H	  0.535291680067 	  6.096437779392 	 19.782090535314 	
H	  1.103804710067 	 12.279996729392 	  9.651530985314 	
H	  0.535260580067 	 12.279999539392 	 19.782087705314 	
H	 15.784663110067 	  6.096444199392 	  9.679663745314 	
H	 15.216118980067 	  6.096447009392 	 19.810220465314 	
H	 15.784632010067 	 12.280005959392 	  9.679660915314 	
H	 15.216087880067 	 12.280008769392 	 19.810217635314 	
H	  3.077378879639 	  2.575210004215 	  4.670799669510 	
H	  2.508834749639 	  2.575212814215 	 14.801356389510 	
H	  3.077347779639 	  8.758771764215 	  4.670796839510 	
H	  2.508803649639 	  8.758774574215 	 14.801353559510 	
H	 17.758206179639 	  2.575219234215 	  4.698929599510 	
H	 17.189662049639 	  2.575222044215 	 14.829486319510 	
H	 17.758175079639 	  8.758780994215 	  4.698926769510 	
H	 17.189630949639 	  8.758783804215 	 14.829483489510 	
H	 11.250737397217 	  5.658636032225 	  0.465317938168 	
H	 10.682193267217 	  5.658638842225 	 10.595874658168 	
H	 11.250706297217 	 11.842197792225 	  0.465315108168 	
H	 10.682162167217 	 11.842200602225 	 10.595871828168 	
H	 25.931564697217 	  5.658645262225 	  0.493447868168 	
H	 25.363020567217 	  5.658648072225 	 10.624004588168 	
H	 25.931533597217 	 11.842207022225 	  0.493445038168 	
H	 25.362989467217 	 11.842209832225 	 10.624001758168 	
H	 10.986200143810 	  3.600606045826 	  5.545230584561 	
H	 10.417656013810 	  3.600608855826 	 15.675787304561 	
H	 10.986169043810 	  9.784167805826 	  5.545227754561 	
H	 10.417624913810 	  9.784170615826 	 15.675784474561 	
H	 25.667027443810 	  3.600615275826 	  5.573360514561 	
H	 25.098483313810 	  3.600618085826 	 15.703917234561 	
H	 25.666996343810 	  9.784177035826 	  5.573357684561 	
H	 25.098452213810 	  9.784179845826 	 15.703914404561 	
H	  2.812842844851 	  0.517180187558 	  9.750712206124 	
H	  2.244298714851 	  0.517182997558 	 19.881268926124 	
H	  2.812811744851 	  6.700741947558 	  9.750709376124 	
H	  2.244267614851 	  6.700744757558 	 19.881266096124 	
H	 17.493670144851 	  0.517189417558 	  9.778842136124 	
H	 16.925126014851 	  0.517192227558 	 19.909398856124 	
H	 17.493639044851 	  6.700751177558 	  9.778839306124 	
H	 16.925094914851 	  6.700753987558 	 19.909396026124 	
C	  1.015271967034 	  3.153838327258 	  7.134737367749 	
C	  0.446727837034 	  3.153841137258 	 17.265294087749 	
C	  1.015240867034 	  9.337400087258 	  7.134734537749 	
C	  0.446696737034 	  9.337402897258 	 17.265291257749 	
C	 15.696099267034 	  3.153847557258 	  7.162867297749 	
C	 15.127555137034 	  3.153850367258 	 17.293424017749 	
C	 15.696068167034 	  9.337409317258 	  7.162864467749 	
C	 15.127524037034 	  9.337412127258 	 17.293421187749 	
C	 12.767170504286 	  0.068256734878 	  8.182314354298 	
C	 12.198626374286 	  0.068259544878 	 18.312871074298 	
C	 12.767139404286 	  6.251818494878 	  8.182311524298 	
C	 12.198595274286 	  6.251821304878 	 18.312868244298 	
C	 27.447997804286 	  0.068265964878 	  8.210444284298 	
C	 26.879453674286 	  0.068268774878 	 18.341001004298 	
C	 27.447966704286 	  6.251827724878 	  8.210441454298 	
C	 26.879422574286 	  6.251830534878 	 18.340998174298 	
C	 13.048307651454 	  3.021976821489 	  3.081292906668 	
C	 12.479763521454 	  3.021979631489 	 13.211849626668 	
C	 13.048276551454 	  9.205538581489 	  3.081290076668 	
C	 12.479732421454 	  9.205541391489 	 13.211846796668 	
C	 27.729134951454 	  3.021986051489 	  3.109422836668 	
C	 27.160590821454 	  3.021988861489 	 13.239979556668 	
C	 27.729103851454 	  9.205547811489 	  3.109420006668 	
C	 27.160559721454 	  9.205550621489 	 13.239976726668 	
C	  1.296409624003 	  6.107558804928 	  2.033715554224 	
C	  0.727865494003 	  6.107561614928 	 12.164272274224 	
C	  1.296378524003 	 12.291120564928 	  2.033712724224 	
C	  0.727834394003 	 12.291123374928 	 12.164269444224 	
C	 15.977236924003 	  6.107568034928 	  2.061845484224 	
C	 15.408692794003 	  6.107570844928 	 12.192402204224 	
C	 15.977205824003 	 12.291129794928 	  2.061842654224 	
C	 15.408661694003 	 12.291132604928 	 12.192399374224 	
H	  1.223221857906 	  4.248430763233 	  7.354956010078 	
H	  0.654677727906 	  4.248433573233 	 17.485512730078 	
H	  1.223190757906 	 10.431992523233 	  7.354953180078 	
H	  0.654646627906 	 10.431995333233 	 17.485509900078 	
H	 15.904049157906 	  4.248439993233 	  7.383085940078 	
H	 15.335505027906 	  4.248442803233 	 17.513642660078 	
H	 15.904018057906 	 10.432001753233 	  7.383083110078 	
H	 15.335473927906 	 10.432004563233 	 17.513639830078 	
H	 12.562682704305 	  1.158993157453 	  7.950331031238 	
H	 11.994138574305 	  1.158995967453 	 18.080887751238 	
H	 12.562651604305 	  7.342554917453 	  7.950328201238 	
H	 11.994107474305 	  7.342557727453 	 18.080884921238 	
H	 27.243510004305 	  1.159002387453 	  7.978460961238 	
H	 26.674965874305 	  1.159005197453 	 18.109017681238 	
H	 27.243478904305 	  7.342564147453 	  7.978458131238 	
H	 26.674934774305 	  7.342566957453 	 18.109014851238 	
H	 12.840357640878 	  1.927384391326 	  2.861074524686 	
H	 12.271813510878 	  1.927387201326 	 12.991631244686 	
H	 12.840326540878 	  8.110946151326 	  2.861071694686 	
H	 12.271782410878 	  8.110948961326 	 12.991628414686 	
H	 27.521184940878 	  1.927393621326 	  2.889204454686 	
H	 26.952640810878 	  1.927396431326 	 13.019761174686 	
H	 27.521153840878 	  8.110955381326 	  2.889201624686 	
H	 26.952609710878 	  8.110958191326 	 13.019758344686 	
H	  1.500897609537 	  5.016822352083 	  2.265698571354 	
H	  0.932353479537 	  5.016825162083 	 12.396255291354 	
H	  1.500866509537 	 11.200384112083 	  2.265695741354 	
H	  0.932322379537 	 11.200386922083 	 12.396252461354 	
H	 16.181724909537 	  5.016831582083 	  2.293828501354 	
H	 15.613180779537 	  5.016834392083 	 12.424385221354 	
H	 16.181693809537 	 11.200393342083 	  2.293825671354 	
H	 15.613149679537 	 11.200396152083 	 12.424382391354 	
H	  0.740424608836 	  2.784374966157 	  8.171167734710 	
H	  0.171880478836 	  2.784377776157 	 18.301724454710 	
H	  0.740393508836 	  8.967936726157 	  8.171164904710 	
H	  0.171849378836 	  8.967939536157 	 18.301721624710 	
H	 15.421251908836 	  2.784384196157 	  8.199297664710 	
H	 14.852707778836 	  2.784387006157 	 18.329854384710 	
H	 15.421220808836 	  8.967945956157 	  8.199294834710 	
H	 14.852676678836 	  8.967948766157 	 18.329851554710 	
H	 13.046507181915 	  5.870789210416 	  7.126461636806 	
H	 12.477963051915 	  5.870792020416 	 17.257018356806 	
H	 13.046476081915 	 12.054350970416 	  7.126458806806 	
H	 12.477931951915 	 12.054353780416 	 17.257015526806 	
H	 27.727334481915 	  5.870798440416 	  7.154591566806 	
H	 27.158790351915 	  5.870801250416 	 17.285148286806 	
H	 27.727303381915 	 12.054360200416 	  7.154588736806 	
H	 27.158759251915 	 12.054363010416 	 17.285145456806 	
H	 13.323155345666 	  3.391440069369 	  2.044862625156 	
H	 12.754611215666 	  3.391442879369 	 12.175419345156 	
H	 13.323124245666 	  9.575001829369 	  2.044859795156 	
H	 12.754580115666 	  9.575004639369 	 12.175416515156 	
H	 28.003982645666 	  3.391449299369 	  2.072992555156 	
H	 27.435438515666 	  3.391452109369 	 12.203549275156 	
H	 28.003951545666 	  9.575011059369 	  2.072989725156 	
H	 27.435407415666 	  9.575013869369 	 12.203546445156 	
H	  1.017072917926 	  0.305026039709 	  3.089568334496 	
H	  0.448528787926 	  0.305028849709 	 13.220125054496 	
H	  1.017041817926 	  6.488587799709 	  3.089565504496 	
H	  0.448497687926 	  6.488590609709 	 13.220122224496 	
H	 15.697900217926 	  0.305035269709 	  3.117698264496 	
H	 15.129356087926 	  0.305038079709 	 13.248254984496 	
H	 15.697869117926 	  6.488597029709 	  3.117695434496 	
H	 15.129324987926 	  6.488599839709 	 13.248252154496 	
H	  0.038282004387 	  3.179972812854 	  6.576953748330 	
H	 -0.530262125613 	  3.179975622854 	 16.707510468330 	
H	  0.038250904387 	  9.363534572854 	  6.576950918330 	
H	 -0.530293225613 	  9.363537382854 	 16.707507638330 	
H	 14.719109304387 	  3.179982042854 	  6.605083678330 	
H	 14.150565174387 	  3.179984852854 	 16.735640398330 	
H	 14.719078204387 	  9.363543802854 	  6.605080848330 	
H	 14.150534074387 	  9.363546612854 	 16.735637568330 	
H	 13.743872009891 	  6.267748718837 	  8.726881054718 	
H	 13.175327879891 	  6.267751528837 	 18.857437774718 	
H	 13.743840909891 	 12.451310478837 	  8.726878224718 	
H	 13.175296779891 	 12.451313288837 	 18.857434944718 	
H	 28.424699309891 	  6.267757948837 	  8.755010984718 	
H	 27.856155179891 	  6.267760758837 	 18.885567704718 	
H	 28.424668209891 	 12.451319708837 	  8.755008154718 	
H	 27.856124079891 	 12.451322518837 	 18.885564874718 	
H	 14.025297404804 	  2.995842428056 	  3.639076879652 	
H	 13.456753274804 	  2.995845238056 	 13.769633599652 	
H	 14.025266304804 	  9.179404188056 	  3.639074049652 	
H	 13.456722174804 	  9.179406998056 	 13.769630769652 	
H	 28.706124704804 	  2.995851658056 	  3.667206809652 	
H	 28.137580574804 	  2.995854468056 	 13.797763529652 	
H	 28.706093604804 	  9.179413418056 	  3.667203979652 	
H	 28.137549474804 	  9.179416228056 	 13.797760699652 	
H	  0.319708136550 	 -0.091933257826 	  1.489148833237 	
H	 -0.248835993450 	 -0.091930447826 	 11.619705553237 	
H	  0.319677036550 	  6.091628502174 	  1.489146003237 	
H	 -0.248867093450 	  6.091631312174 	 11.619702723237 	
H	 15.000535436550 	 -0.091924027826 	  1.517278763237 	
H	 14.431991306550 	 -0.091921217826 	 11.647835483237 	
H	 15.000504336550 	  6.091637732174 	  1.517275933237 	
H	 14.431960206550 	  6.091640542174 	 11.647832653237 	
C	  1.536354884582 	  1.199585858403 	  6.252508387018 	
C	  0.967810754582 	  1.199588668403 	 16.383065107018 	
C	  1.536323784582 	  7.383147618403 	  6.252505557018 	
C	  0.967779654582 	  7.383150428403 	 16.383062277018 	
C	 16.217182184582 	  1.199595088403 	  6.280638317018 	
C	 15.648638054582 	  1.199597898403 	 16.411195037018 	
C	 16.217151084582 	  7.383156848403 	  6.280635487018 	
C	 15.648606954582 	  7.383159658403 	 16.411192207018 	
C	 12.248602556660 	  4.287980006436 	  9.053032606707 	
C	 11.680058426660 	  4.287982816436 	 19.183589326707 	
C	 12.248571456660 	 10.471541766436 	  9.053029776707 	
C	 11.680027326660 	 10.471544576436 	 19.183586496707 	
C	 26.929429856660 	  4.287989236436 	  9.081162536707 	
C	 26.360885726660 	  4.287992046436 	 19.211719256707 	
C	 26.929398756660 	 10.471550996436 	  9.081159706707 	
C	 26.360854626660 	 10.471553806436 	 19.211716426707 	
C	 12.527224639443 	  4.976230272408 	  3.963521361498 	
C	 11.958680509443 	  4.976233082408 	 14.094078081498 	
C	 12.527193539443 	 11.159792032408 	  3.963518531498 	
C	 11.958649409443 	 11.159794842408 	 14.094075251498 	
C	 27.208051939443 	  4.976239502408 	  3.991651291498 	
C	 26.639507809443 	  4.976242312408 	 14.122208011498 	
C	 27.208020839443 	 11.159801262408 	  3.991648461498 	
C	 26.639476709443 	 11.159804072408 	 14.122205181498 	
C	  1.814977305720 	  1.887835757288 	  1.162997701234 	
C	  1.246433175720 	  1.887838567288 	 11.293554421234 	
C	  1.814946205720 	  8.071397517288 	  1.162994871234 	
C	  1.246402075720 	  8.071400327288 	 11.293551591234 	
C	 16.495804605720 	  1.887844987288 	  1.191127631234 	
C	 15.927260475720 	  1.887847797288 	 11.321684351234 	
C	 16.495773505720 	  8.071406747288 	  1.191124801234 	
C	 15.927229375720 	  8.071409557288 	 11.321681521234 	
H	  0.547979642410 	  1.143444879794 	  5.718863073718 	
H	 -0.020564487590 	  1.143447689794 	 15.849419793718 	
H	  0.547948542410 	  7.327006639794 	  5.718860243718 	
H	 -0.020595587590 	  7.327009449794 	 15.849416963718 	
H	 15.228806942410 	  1.143454109794 	  5.746993003718 	
H	 14.660262812410 	  1.143456919794 	 15.877549723718 	
H	 15.228775842410 	  7.327015869794 	  5.746990173718 	
H	 14.660231712410 	  7.327018679794 	 15.877546893718 	
H	 13.236887798251 	  4.231598548000 	  9.586681572116 	
H	 12.668343668251 	  4.231601358000 	 19.717238292116 	
H	 13.236856698251 	 10.415160308000 	  9.586678742116 	
H	 12.668312568251 	 10.415163118000 	 19.717235462116 	
H	 27.917715098251 	  4.231607778000 	  9.614811502116 	
H	 27.349170968251 	  4.231610588000 	 19.745368222116 	
H	 27.917683998251 	 10.415169538000 	  9.614808672116 	
H	 27.349139868251 	 10.415172348000 	 19.745365392116 	
H	 13.515599824565 	  5.032371035508 	  4.497166772362 	
H	 12.947055694565 	  5.032373845508 	 14.627723492362 	
H	 13.515568724565 	 11.215932795508 	  4.497163942362 	
H	 12.947024594565 	 11.215935605508 	 14.627720662362 	
H	 28.196427124565 	  5.032380265508 	  4.525296702362 	
H	 27.627882994565 	  5.032383075508 	 14.655853422362 	
H	 28.196396024565 	 11.215942025508 	  4.525293872362 	
H	 27.627851894565 	 11.215944835508 	 14.655850592362 	
H	  0.826692085957 	  1.944217162691 	  0.629348707990 	
H	  0.258147955957 	  1.944219972691 	 10.759905427990 	
H	  0.826660985957 	  8.127778922691 	  0.629345877990 	
H	  0.258116855957 	  8.127781732691 	 10.759902597990 	
H	 15.507519385957 	  1.944226392691 	  0.657478637990 	
H	 14.938975255957 	  1.944229202691 	 10.788035357990 	
H	 15.507488285957 	  8.127788152691 	  0.657475807990 	
H	 14.938944155957 	  8.127790962691 	 10.788032527990 	
H	  1.389639831193 	  0.548564581231 	  7.171842300062 	
H	  0.821095701193 	  0.548567391231 	 17.302399020062 	
H	  1.389608731193 	  6.732126341231 	  7.171839470062 	
H	  0.821064601193 	  6.732129151231 	 17.302396190062 	
H	 16.070467131193 	  0.548573811231 	  7.199972230062 	
H	 15.501923001193 	  0.548576621231 	 17.330528950062 	
H	 16.070436031193 	  6.732135571231 	  7.199969400062 	
H	 15.501891901193 	  6.732138381231 	 17.330526120062 	
H	 12.395348972187 	  3.636713499394 	  8.133731655313 	
H	 11.826804842187 	  3.636716309394 	 18.264288375313 	
H	 12.395317872187 	  9.820275259394 	  8.133728825313 	
H	 11.826773742187 	  9.820278069394 	 18.264285545313 	
H	 27.076176272187 	  3.636722729394 	  8.161861585313 	
H	 26.507632142187 	  3.636725539394 	 18.292418305313 	
H	 27.076145172187 	  9.820284489394 	  8.161858755313 	
H	 26.507601042187 	  9.820287299394 	 18.292415475313 	
H	 12.673939800528 	  5.627251043391 	  3.044187161995 	
H	 12.105395670528 	  5.627253853391 	 13.174743881995 	
H	 12.673908700528 	 11.810812803391 	  3.044184331995 	
H	 12.105364570528 	 11.810815613391 	 13.174741051995 	
H	 27.354767100528 	  5.627260273391 	  3.072317091995 	
H	 26.786222970528 	  5.627263083391 	 13.202873811995 	
H	 27.354736000528 	 11.810822033391 	  3.072314261995 	
H	 26.786191870528 	 11.810824843391 	 13.202870981995 	
H	  1.668230785797 	  2.539102074244 	  2.082298773065 	
H	  1.099686655797 	  2.539104884244 	 12.212855493065 	
H	  1.668199685797 	  8.722663834244 	  2.082295943065 	
H	  1.099655555797 	  8.722666644244 	 12.212852663065 	
H	 16.349058085797 	  2.539111304244 	  2.110428703065 	
H	 15.780513955797 	  2.539114114244 	 12.240985423065 	
H	 16.349026985797 	  8.722673064244 	  2.110425873065 	
H	 15.780482855797 	  8.722675874244 	 12.240982593065 	
H	  2.205408375996 	  0.533089965629 	  5.621939362037 	
H	  1.636864245996 	  0.533092775629 	 15.752496082037 	
H	  2.205377275996 	  6.716651725629 	  5.621936532037 	
H	  1.636833145996 	  6.716654535629 	 15.752493252037 	
H	 16.886235675996 	  0.533099195629 	  5.650069292037 	
H	 16.317691545996 	  0.533102005629 	 15.780626012037 	
H	 16.886204575996 	  6.716660955629 	  5.650066462037 	
H	 16.317660445996 	  6.716663765629 	 15.780623182037 	
H	 11.579628148085 	  3.621207539342 	  9.683583107407 	
H	 11.011084018085 	  3.621210349342 	 19.814139827407 	
H	 11.579597048085 	  9.804769299342 	  9.683580277407 	
H	 11.011052918085 	  9.804772109342 	 19.814136997407 	
H	 26.260455448085 	  3.621216769342 	  9.711713037407 	
H	 25.691911318085 	  3.621219579342 	 19.842269757407 	
H	 26.260424348085 	  9.804778529342 	  9.711710207407 	
H	 25.691880218085 	  9.804781339342 	 19.842266927407 	
H	 11.858171105292 	  5.642726163008 	  4.594090285156 	
H	 11.289626975292 	  5.642728973008 	 14.724647005156 	
H	 11.858140005292 	 11.826287923008 	  4.594087455156 	
H	 11.289595875292 	 11.826290733008 	 14.724644175156 	
H	 26.538998405292 	  5.642735393008 	  4.622220215156 	
H	 25.970454275292 	  5.642738203008 	 14.752776935156 	
H	 26.538967305292 	 11.826297153008 	  4.622217385156 	
H	 25.970423175292 	 11.826299963008 	 14.752774105156 	
H	  2.483951714139 	  2.554608474386 	  0.532447464888 	
H	  1.915407584139 	  2.554611284386 	 10.663004184888 	
H	  2.483920614139 	  8.738170234386 	  0.532444634888 	
H	  1.915376484139 	  8.738173044386 	 10.663001354888 	
H	 17.164779014139 	  2.554617704386 	  0.560577394888 	
H	 16.596234884139 	  2.554620514386 	 10.691134114888 	
H	 17.164747914139 	  8.738179464386 	  0.560574564888 	
H	 16.596203784139 	  8.738182274386 	 10.691131284888 	
768 
Energy: -8.5869594006550003e+01 
S	  8.682950822121 	  1.529295535887 	  0.057270490456 	
S	  8.114406692121 	  1.529298345887 	 10.187827210456 	
S	  8.682919722121 	  7.712857295887 	  0.057267660456 	
S	  8.114375592121 	  7.712860105887 	 10.187824380456 	
S	 23.363778122121 	  1.529304765887 	  0.085400420456 	
S	 22.795233992121 	  1.529307575887 	 10.215957140456 	
S	 23.363747022121 	  7.712866525887 	  0.085397590456 	
S	 22.795202892121 	  7.712869335887 	 10.215954310456 	
S	  5.598266261998 	  4.612497790778 	  5.106003510855 	
S	  5.029722131998 	  4.612500600778 	 15.236560230855 	
S	  5.598235161998 	 10.796059550778 	  5.106000680855 	
S	  5.029691031998 	 10.796062360778 	 15.236557400855 	
S	 20.279093561998 	  4.612507020778 	  5.134133440855 	
S	 19.710549431998 	  4.612509830778 	 15.264690160855 	
S	 20.279062461998 	 10.796068780778 	  5.134130610855 	
S	 19.710518331998 	 10.796071590778 	 15.264687330855 	
S	  5.326580080392 	  4.637904704768 	 10.222440570118 	
S	  4.758035950392 	  4.637907514768 	 20.352997290118 	
S	  5.326548980392 	 10.821466464768 	 10.222437740118 	
S	  4.758004850392 	 10.821469274768 	 20.352994460118 	
S	 20.007407380392 	  4.637913934768 	 10.250570500118 	
S	 19.438863250392 	  4.637916744768 	 20.381127220118 	
S	 20.007376280392 	 10.821475694768 	 10.250567670118 	
S	 19.438832150392 	 10.821478504768 	 20.381124390118 	
S	  8.411265145983 	  1.554703038412 	  5.173707712652 	
S	  7.842721015983 	  1.554705848412 	 15.304264432652 	
S	  8.411234045983 	  7.738264798412 	  5.173704882652 	
S	  7.842689915983 	  7.738267608412 	 15.304261602652 	
S	 23.092092445983 	  1.554712268412 	  5.201837642652 	
S	 22.523548315983 	  1.554715078412 	 15.332394362652 	
S	 23.092061345983 	  7.738274028412 	  5.201834812652 	
S	 22.523517215983 	  7.738276838412 	 15.332391532652 	
C	  6.729332860073 	  2.533684072072 	  9.892811828618 	
C	  6.160788730073 	  2.533686882072 	 20.023368548618 	
C	  6.729301760073 	  8.717245832072 	  9.892808998618 	
C	  6.160757630073 	  8.717248642072 	 20.023365718618 	
C	 21.410160160073 	  2.533693302072 	  9.920941758618 	
C	 20.841616030073 	  2.533696112072 	 20.051498478618 	
C	 21.410129060073 	  8.717255062072 	  9.920938928618 	
C	 20.841584930073 	  8.717257872072 	 20.051495648618 	
C	  7.007805907795 	  5.616582123814 	  5.503056035796 	
C	  6.439261777795 	  5.616584933814 	 15.633612755796 	
C	  7.007774807795 	 11.800143883814 	  5.503053205796 	
C	  6.439230677795 	 11.800146693814 	 15.633609925796 	
C	 21.688633207795 	  5.616591353814 	  5.531185965796 	
C	 21.120089077795 	  5.616594163814 	 15.661742685796 	
C	 21.688602107795 	 11.800153113814 	  5.531183135796 	
C	 21.120057977795 	 11.800155923814 	 15.661739855796 	
C	  7.280198065454 	  3.633516120474 	  0.386899211795 	
C	  6.711653935454 	  3.633518930474 	 10.517455931795 	
C	  7.280166965454 	  9.817077880474 	  0.386896381795 	
C	  6.711622835454 	  9.817080690474 	 10.517453101795 	
C	 21.961025365454 	  3.633525350474 	  0.415029141795 	
C	 21.392481235454 	  3.633528160474 	 10.545585861795 	
C	 21.960994265454 	  9.817087110474 	  0.415026311795 	
C	 21.392450135454 	  9.817089920474 	 10.545583031795 	
C	  7.001725358243 	  0.550618812844 	  4.776655152171 	
C	  6.433181228243 	  0.550621622844 	 14.907211872171 	
C	  7.001694258243 	  6.734180572844 	  4.776652322171 	
C	  6.433150128243 	  6.734183382844 	 14.907209042171 	
C	 21.682552658243 	  0.550628042844 	  4.804785082171 	
C	 21.114008528243 	  0.550630852844 	 14.935341802171 	
C	 21.682521558243 	  6.734189802844 	  4.804782252171 	
C	 21.113977428243 	  6.734192612844 	 14.935338972171 	
C	  5.666426813964 	  2.340347021500 	  8.967363236175 	
C	  5.097882683964 	  2.340349831500 	 19.097919956175 	
C	  5.666395713964 	  8.523908781500 	  8.967360406175 	
C	  5.097851583964 	  8.523911591500 	 19.097917126175 	
C	 20.347254113964 	  2.340356251500 	  8.995493166175 	
C	 19.778709983964 	  2.340359061500 	 19.126049886175 	
C	 20.347223013964 	  8.523918011500 	  8.995490336175 	
C	 19.778678883964 	  8.523920821500 	 19.126047056175 	
C	  8.071898752874 	  5.424420419106 	  6.428633167803 	
C	  7.503354622874 	  5.424423229106 	 16.559189887803 	
C	  8.071867652874 	 11.607982179106 	  6.428630337803 	
C	  7.503323522874 	 11.607984989106 	 16.559187057803 	
C	 22.752726052874 	  5.424429649106 	  6.456763097803 	
C	 22.184181922874 	  5.424432459106 	 16.587319817803 	
C	 22.752694952874 	 11.607991409106 	  6.456760267803 	
C	 22.184150822874 	 11.607994219106 	 16.587316987803 	
C	  8.343103957535 	  3.826853217368 	  1.312347691219 	
C	  7.774559827535 	  3.826856027368 	 11.442904411219 	
C	  8.343072857535 	 10.010414977368 	  1.312344861219 	
C	  7.774528727535 	 10.010417787368 	 11.442901581219 	
C	 23.023931257535 	  3.826862447368 	  1.340477621219 	
C	 22.455387127535 	  3.826865257368 	 11.471034341219 	
C	 23.023900157535 	 10.010424207368 	  1.340474791219 	
C	 22.455356027535 	 10.010427017368 	 11.471031511219 	
C	  5.937632455411 	  0.742780490932 	  3.851077979259 	
C	  5.369088325411 	  0.742783300932 	 13.981634699259 	
C	  5.937601355411 	  6.926342250932 	  3.851075149259 	
C	  5.369057225411 	  6.926345060932 	 13.981631869259 	
C	 20.618459755411 	  0.742789720932 	  3.879207909259 	
C	 20.049915625411 	  0.742792530932 	 14.009764629259 	
C	 20.618428655411 	  6.926351480932 	  3.879205079259 	
C	 20.049884525411 	  6.926354290932 	 14.009761799259 	
C	  4.777742686551 	  3.418474678254 	  9.020602328369 	
C	  4.209198556551 	  3.418477488254 	 19.151159048369 	
C	  4.777711586551 	  9.602036438254 	  9.020599498369 	
C	  4.209167456551 	  9.602039248254 	 19.151156218369 	
C	 19.458569986551 	  3.418483908254 	  9.048732258369 	
C	 18.890025856551 	  3.418486718254 	 19.179288978369 	
C	 19.458538886551 	  9.602045668254 	  9.048729428369 	
C	 18.889994756551 	  9.602048478254 	 19.179286148369 	
C	  8.958581655322 	  0.334317271424 	  6.375664764311 	
C	  8.390037525322 	  0.334320081424 	 16.506221484311 	
C	  8.958550555322 	  6.517879031424 	  6.375661934311 	
C	  8.390006425322 	  6.517881841424 	 16.506218654311 	
C	 23.639408955322 	  0.334326501424 	  6.403794694311 	
C	 23.070864825322 	  0.334329311424 	 16.534351414311 	
C	 23.639377855322 	  6.517888261424 	  6.403791864311 	
C	 23.070833725322 	  6.517891071424 	 16.534348584311 	
C	  9.231788080635 	  2.748725618802 	  1.259108687830 	
C	  8.663243950635 	  2.748728428802 	 11.389665407830 	
C	  9.231756980635 	  8.932287378802 	  1.259105857830 	
C	  8.663212850635 	  8.932290188802 	 11.389662577830 	
C	 23.912615380635 	  2.748734848802 	  1.287238617830 	
C	 23.344071250635 	  2.748737658802 	 11.417795337830 	
C	 23.912584280635 	  8.932296608802 	  1.287235787830 	
C	 23.344040150635 	  8.932299418802 	 11.417792507830 	
C	  5.050949576783 	  5.832883578582 	  3.904046430502 	
C	  4.482405446783 	  5.832886388582 	 14.034603150502 	
C	  5.050918476783 	 12.016445338582 	  3.904043600502 	
C	  4.482374346783 	 12.016448148582 	 14.034600320502 	
C	 19.731776876783 	  5.832892808582 	  3.932176360502 	
C	 19.163232746783 	  5.832895618582 	 14.062733080502 	
C	 19.731745776783 	 12.016454568582 	  3.932173530502 	
C	 19.163201646783 	 12.016457378582 	 14.062730250502 	
C	  3.669968547325 	  3.461579472056 	  8.264698561676 	
C	  3.101424417325 	  3.461582282056 	 18.395255281676 	
C	  3.669937447325 	  9.645141232056 	  8.264695731676 	
C	  3.101393317325 	  9.645144042056 	 18.395252451676 	
C	 18.350795847325 	  3.461588702056 	  8.292828491676 	
C	 17.782251717325 	  3.461591512056 	 18.423385211676 	
C	 18.350764747325 	  9.645150462056 	  8.292825661676 	
C	 17.782220617325 	  9.645153272056 	 18.423382381676 	
C	 10.067274627999 	  0.377704774007 	  7.132084033297 	
C	  9.498730497999 	  0.377707584007 	 17.262640753297 	
C	 10.067243527999 	  6.561266534007 	  7.132081203297 	
C	  9.498699397999 	  6.561269344007 	 17.262637923297 	
C	 24.748101927999 	  0.377714004007 	  7.160213963297 	
C	 24.179557797999 	  0.377716814007 	 17.290770683297 	
C	 24.748070827999 	  6.561275764007 	  7.160211133297 	
C	 24.179526697999 	  6.561278574007 	 17.290767853297 	
C	 10.339562237235 	  2.705620904239 	  2.015012594700 	
C	  9.771018107235 	  2.705623714239 	 12.145569314700 	
C	 10.339531137235 	  8.889182664239 	  2.015009764700 	
C	  9.770987007235 	  8.889185474239 	 12.145566484700 	
C	 25.020389537235 	  2.705630134239 	  2.043142524700 	
C	 24.451845407235 	  2.705632944239 	 12.173699244700 	
C	 25.020358437235 	  8.889191894239 	  2.043139694700 	
C	 24.451814307235 	  8.889194704239 	 12.173696414700 	
C	  3.942256519695 	  5.789496066317 	  3.147627259099 	
C	  3.373712389695 	  5.789498876317 	 13.278183979099 	
C	  3.942225419695 	 11.973057826317 	  3.147624429099 	
C	  3.373681289695 	 11.973060636317 	 13.278181149099 	
C	 18.623083819695 	  5.789505296317 	  3.175757189099 	
C	 18.054539689695 	  5.789508106317 	 13.306313909099 	
C	 18.623052719695 	 11.973067056317 	  3.175754359099 	
C	 18.054508589695 	 11.973069866317 	 13.306311079099 	
H	  2.978221483575 	  4.378366904337 	  8.349067534960 	
H	  2.409677353575 	  4.378369714337 	 18.479624254960 	
H	  2.978190383575 	 10.561928664337 	  8.349064704960 	
H	  2.409646253575 	 10.561931474337 	 18.479621424960 	
H	 17.659048783575 	  4.378376134337 	  8.377197464960 	
H	 17.090504653575 	  4.378378944337 	 18.507754184960 	
H	 17.659017683575 	 10.561937894337 	  8.377194634960 	
H	 17.090473553575 	 10.561940704337 	 18.507751354960 	
H	 10.759075652318 	  1.294803402611 	  7.047081040554 	
H	 10.190531522318 	  1.294806212611 	 17.177637760554 	
H	 10.759044552318 	  7.478365162611 	  7.047078210554 	
H	 10.190500422318 	  7.478367972611 	 17.177634930554 	
H	 25.439902952318 	  1.294812632611 	  7.075210970554 	
H	 24.871358822318 	  1.294815442611 	 17.205767690554 	
H	 25.439871852318 	  7.478374392611 	  7.075208140554 	
H	 24.871327722318 	  7.478377202611 	 17.205764860554 	
H	 11.031309274458 	  1.788833450601 	  1.930643578626 	
H	 10.462765144458 	  1.788836260601 	 12.061200298626 	
H	 11.031278174458 	  7.972395210601 	  1.930640748626 	
H	 10.462734044458 	  7.972398020601 	 12.061197468626 	
H	 25.712136574458 	  1.788842680601 	  1.958773508626 	
H	 25.143592444458 	  1.788845490601 	 12.089330228626 	
H	 25.712105474458 	  7.972404440601 	  1.958770678626 	
H	 25.143561344458 	  7.972407250601 	 12.089327398626 	
H	  3.250455620405 	  4.872397339909 	  3.232630300765 	
H	  2.681911490405 	  4.872400149909 	 13.363187020765 	
H	  3.250424520405 	 11.055959099909 	  3.232627470765 	
H	  2.681880390405 	 11.055961909909 	 13.363184190765 	
H	 17.931282920405 	  4.872406569909 	  3.260760230765 	
H	 17.362738790405 	  4.872409379909 	 13.391316950765 	
H	 17.931251820405 	 11.055968329909 	  3.260757400765 	
H	 17.362707690405 	 11.055971139909 	 13.391314120765 	
C	  3.340252798039 	  2.462100043755 	  7.409318165292 	
C	  2.771708668039 	  2.462102853755 	 17.539874885292 	
C	  3.340221698039 	  8.645661803755 	  7.409315335292 	
C	  2.771677568039 	  8.645664613755 	 17.539872055292 	
C	 18.021080098039 	  2.462109273755 	  7.437448095292 	
C	 17.452535968039 	  2.462112083755 	 17.568004815292 	
C	 18.021048998039 	  8.645671033755 	  7.437445265292 	
C	 17.452504868039 	  8.645673843755 	 17.568001985292 	
C	 10.396736330010 	  5.545778414707 	  7.985960020274 	
C	  9.828192200010 	  5.545781224707 	 18.116516740274 	
C	 10.396705230010 	 11.729340174707 	  7.985957190274 	
C	  9.828161100010 	 11.729342984707 	 18.116513910274 	
C	 25.077563630010 	  5.545787644707 	  8.014089950274 	
C	 24.509019500010 	  5.545790454707 	 18.144646670274 	
C	 25.077532530010 	 11.729349404707 	  8.014087120274 	
C	 24.508988400010 	 11.729352214707 	 18.144643840274 	
C	 10.669277830192 	  3.705100296439 	  2.870392913087 	
C	 10.100733700192 	  3.705103106439 	 13.000949633087 	
C	 10.669246730192 	  9.888662056439 	  2.870390083087 	
C	 10.100702600192 	  9.888664866439 	 13.000946803087 	
C	 25.350105130192 	  3.705109526439 	  2.898522843087 	
C	 24.781561000192 	  3.705112336439 	 13.029079563087 	
C	 25.350074030192 	  9.888671286439 	  2.898520013087 	
C	 24.781529900192 	  9.888674096439 	 13.029076733087 	
C	  3.612794836719 	  0.621422388381 	  2.293751253134 	
C	  3.044250706719 	  0.621425198381 	 12.424307973134 	
C	  3.612763736719 	  6.804984148381 	  2.293748423134 	
C	  3.044219606719 	  6.804986958381 	 12.424305143134 	
C	 18.293622136719 	  0.621431618381 	  2.321881183134 	
C	 17.725078006719 	  0.621434428381 	 12.452437903134 	
C	 18.293591036719 	  6.804993378381 	  2.321878353134 	
C	 17.725046906719 	  6.804996188381 	 12.452435073134 	
C	  4.240947505118 	  1.420046430440 	  7.338625297588 	
C	  3.672403375118 	  1.420049240440 	 17.469182017588 	
C	  4.240916405118 	  7.603608190440 	  7.338622467588 	
C	  3.672372275118 	  7.603611000440 	 17.469179187588 	
C	 18.921774805118 	  1.420055660440 	  7.366755227588 	
C	 18.353230675118 	  1.420058470440 	 17.497311947588 	
C	 18.921743705118 	  7.603617420440 	  7.366752397588 	
C	 18.353199575118 	  7.603620230440 	 17.497309117588 	
C	  9.496448655032 	  4.503831604323 	  8.057442587604 	
C	  8.927904525032 	  4.503834414323 	 18.187999307604 	
C	  9.496417555032 	 10.687393364323 	  8.057439757604 	
C	  8.927873425032 	 10.687396174323 	 18.187996477604 	
C	 24.177275955032 	  4.503840834323 	  8.085572517604 	
C	 23.608731825032 	  4.503843644323 	 18.216129237604 	
C	 24.177244855032 	 10.687402594323 	  8.085569687604 	
C	 23.608700725032 	 10.687405404323 	 18.216126407604 	
C	  9.768583040906 	  4.747153868121 	  2.941085844576 	
C	  9.200038910906 	  4.747156678121 	 13.071642564576 	
C	  9.768551940906 	 10.930715628121 	  2.941083014576 	
C	  9.200007810906 	 10.930718438121 	 13.071639734576 	
C	 24.449410340906 	  4.747163098121 	  2.969215774576 	
C	 23.880866210906 	  4.747165908121 	 13.099772494576 	
C	 24.449379240906 	 10.930724858121 	  2.969212944576 	
C	 23.880835110906 	 10.930727668121 	 13.099769664576 	
C	  4.513082370464 	  1.663369163067 	  2.222268608760 	
C	  3.944538240464 	  1.663371973067 	 12.352825328760 	
C	  4.513051270464 	  7.846930923067 	  2.222265778760 	
C	  3.944507140464 	  7.846933733067 	 12.352822498760 	
C	 19.193909670464 	  1.663378393067 	  2.250398538760 	
C	 18.625365540464 	  1.663381203067 	 12.380955258760 	
C	 19.193878570464 	  7.846940153067 	  2.250395708760 	
C	 18.625334440464 	  7.846942963067 	 12.380952428760 	
H	  4.021022340755 	  0.563450977734 	  6.603974195353 	
H	  3.452478210755 	  0.563453787734 	 16.734530915353 	
H	  4.020991240755 	  6.747012737734 	  6.603971365353 	
H	  3.452447110755 	  6.747015547734 	 16.734528085353 	
H	 18.701849640755 	  0.563460207734 	  6.632104125353 	
H	 18.133305510755 	  0.563463017734 	 16.762660845353 	
H	 18.701818540755 	  6.747021967734 	  6.632101295353 	
H	 18.133274410755 	  6.747024777734 	 16.762658015353 	
H	  9.716313913337 	  3.647103299826 	  8.792008811380 	
H	  9.147769783337 	  3.647106109826 	 18.922565531380 	
H	  9.716282813337 	  9.830665059826 	  8.792005981380 	
H	  9.147738683337 	  9.830667869826 	 18.922562701380 	
H	 24.397141213337 	  3.647112529826 	  8.820138741380 	
H	 23.828597083337 	  3.647115339826 	 18.950695461380 	
H	 24.397110113337 	  9.830674289826 	  8.820135911380 	
H	 23.828565983337 	  9.830677099826 	 18.950692631380 	
H	  9.988508215733 	  5.603749307283 	  3.675736947811 	
H	  9.419964085733 	  5.603752117283 	 13.806293667811 	
H	  9.988477115733 	 11.787311067283 	  3.675734117811 	
H	  9.419932985733 	 11.787313877283 	 13.806290837811 	
H	 24.669335515733 	  5.603758537283 	  3.703866877811 	
H	 24.100791385733 	  5.603761347283 	 13.834423597811 	
H	 24.669304415733 	 11.787320297283 	  3.703864047811 	
H	 24.100760285733 	 11.787323107283 	 13.834420767811 	
H	  4.293217050637 	  2.520097504013 	  1.487702443098 	
H	  3.724672920637 	  2.520100314013 	 11.618259163098 	
H	  4.293185950637 	  8.703659264013 	  1.487699613098 	
H	  3.724641820637 	  8.703662074013 	 11.618256333098 	
H	 18.974044350637 	  2.520106734013 	  1.515832373098 	
H	 18.405500220637 	  2.520109544013 	 11.646389093098 	
H	 18.974013250637 	  8.703668494013 	  1.515829543098 	
H	 18.405469120637 	  8.703671304013 	 11.646386263098 	
C	  5.335917522009 	  1.355151432342 	  8.062709732725 	
C	  4.767373392009 	  1.355154242342 	 18.193266452725 	
C	  5.335886422009 	  7.538713192342 	  8.062706902725 	
C	  4.767342292009 	  7.538716002342 	 18.193263622725 	
C	 20.016744822009 	  1.355160662342 	  8.090839662725 	
C	 19.448200692009 	  1.355163472342 	 18.221396382725 	
C	 20.016713722009 	  7.538722422342 	  8.090836832725 	
C	 19.448169592009 	  7.538725232342 	 18.221393552725 	
C	  8.401347641026 	  4.438858585872 	  7.333211081264 	
C	  7.832803511026 	  4.438861395872 	 17.463767801264 	
C	  8.401316541026 	 10.622420345872 	  7.333208251264 	
C	  7.832772411026 	 10.622423155872 	 17.463764971264 	
C	 23.082174941026 	  4.438867815872 	  7.361341011264 	
C	 22.513630811026 	  4.438870625872 	 17.491897731264 	
C	 23.082143841026 	 10.622429575872 	  7.361338181264 	
C	 22.513599711026 	 10.622432385872 	 17.491894901264 	
C	  8.673613126720 	  4.812048832047 	  2.217001241506 	
C	  8.105068996720 	  4.812051642047 	 12.347557961506 	
C	  8.673582026720 	 10.995610592047 	  2.216998411506 	
C	  8.105037896720 	 10.995613402047 	 12.347555131506 	
C	 23.354440426720 	  4.812058062047 	  2.245131171506 	
C	 22.785896296720 	  4.812060872047 	 12.375687891506 	
C	 23.354409326720 	 10.995619822047 	  2.245128341506 	
C	 22.785865196720 	 10.995622632047 	 12.375685061506 	
C	  5.608183505193 	  1.728342289214 	  2.946500120237 	
C	  5.039639375193 	  1.728345099214 	 13.077056840237 	
C	  5.608152405193 	  7.911904049214 	  2.946497290237 	
C	  5.039608275193 	  7.911906859214 	 13.077054010237 	
C	 20.289010805193 	  1.728351519214 	  2.974630050237 	
C	 19.720466675193 	  1.728354329214 	 13.105186770237 	
C	 20.288979705193 	  7.911913279214 	  2.974627220237 	
C	 19.720435575193 	  7.911916089214 	 13.105183940237 	
H	  6.046776456493 	  0.456162362474 	  7.963314191459 	
H	  5.478232326493 	  0.456165172474 	 18.093870911459 	
H	  6.046745356493 	  6.639724122474 	  7.963311361459 	
H	  5.478201226493 	  6.639726932474 	 18.093868081459 	
H	 20.727603756493 	  0.456171592474 	  7.991444121459 	
H	 20.159059626493 	  0.456174402474 	 18.122000841459 	
H	 20.727572656493 	  6.639733352474 	  7.991441291459 	
H	 20.159028526493 	  6.639736162474 	 18.121998011459 	
H	  7.690499300899 	  3.539735181244 	  7.432678763887 	
H	  7.121955170899 	  3.539737991244 	 17.563235483887 	
H	  7.690468200899 	  9.723296941244 	  7.432675933887 	
H	  7.121924070899 	  9.723299751244 	 17.563232653887 	
H	 22.371326600899 	  3.539744411244 	  7.460808693887 	
H	 21.802782470899 	  3.539747221244 	 17.591365413887 	
H	 22.371295500899 	  9.723306171244 	  7.460805863887 	
H	 21.802751370899 	  9.723308981244 	 17.591362583887 	
H	  7.962754103243 	  5.711037815665 	  2.316396799156 	
H	  7.394209973243 	  5.711040625665 	 12.446953519156 	
H	  7.962723003243 	 11.894599575665 	  2.316393969156 	
H	  7.394178873243 	 11.894602385665 	 12.446950689156 	
H	 22.643581403243 	  5.711047045665 	  2.344526729156 	
H	 22.075037273243 	  5.711049855665 	 12.475083449156 	
H	 22.643550303243 	 11.894608805665 	  2.344523899156 	
H	 22.075006173243 	 11.894611615665 	 12.475080619156 	
H	  6.319031800925 	  2.627465710213 	  2.847032392056 	
H	  5.750487670925 	  2.627468520213 	 12.977589112056 	
H	  6.319000700925 	  8.811027470213 	  2.847029562056 	
H	  5.750456570925 	  8.811030280213 	 12.977586282056 	
H	 20.999859100925 	  2.627474940213 	  2.875162322056 	
H	 20.431314970925 	  2.627477750213 	 13.005719042056 	
H	 20.999828000925 	  8.811036700213 	  2.875159492056 	
H	 20.431283870925 	  8.811039510213 	 13.005716212056 	
C	  2.003690439818 	  2.505868595159 	  6.520904723334 	
C	  1.435146309818 	  2.505871405159 	 16.651461443334 	
C	  2.003659339818 	  8.689430355159 	  6.520901893334 	
C	  1.435115209818 	  8.689433165159 	 16.651458613334 	
C	 16.684517739818 	  2.505877825159 	  6.549034653334 	
C	 16.115973609818 	  2.505880635159 	 16.679591373334 	
C	 16.684486639818 	  8.689439585159 	  6.549031823334 	
C	 16.115942509818 	  8.689442395159 	 16.679588543334 	
C	 11.732686120361 	  5.586976381714 	  8.874991808314 	
C	 11.164141990361 	  5.586979191714 	 19.005548528314 	
C	 11.732655020361 	 11.770538141714 	  8.874988978314 	
C	 11.164110890361 	 11.770540951714 	 19.005545698314 	
C	 26.413513420361 	  5.586985611714 	  8.903121738314 	
C	 25.844969290361 	  5.586988421714 	 19.033678458314 	
C	 26.413482320361 	 11.770547371714 	  8.903118908314 	
C	 25.844938190361 	 11.770550181714 	 19.033675628314 	
C	 12.005840054511 	  3.661331915361 	  3.758806407617 	
C	 11.437295924511 	  3.661334725361 	 13.889363127617 	
C	 12.005808954511 	  9.844893675361 	  3.758803577617 	
C	 11.437264824511 	  9.844896485361 	 13.889360297617 	
C	 26.686667354511 	  3.661341145361 	  3.786936337617 	
C	 26.118123224511 	  3.661343955361 	 13.917493057617 	
C	 26.686636254511 	  9.844902905361 	  3.786933507617 	
C	 26.118092124511 	  9.844905715361 	 13.917490227617 	
C	  2.276845067233 	  0.580224313425 	  1.404719487599 	
C	  1.708300937233 	  0.580227123425 	 11.535276207599 	
C	  2.276813967233 	  6.763786073425 	  1.404716657599 	
C	  1.708269837233 	  6.763788883425 	 11.535273377599 	
C	 16.957672367233 	  0.580233543425 	  1.432849417599 	
C	 16.389128237233 	  0.580236353425 	 11.563406137599 	
C	 16.957641267233 	  6.763795303425 	  1.432846587599 	
C	 16.389097137233 	  6.763798113425 	 11.563403307599 	
C	  2.233058780976 	  2.970966903419 	  5.349930378816 	
C	  1.664514650976 	  2.970969713419 	 15.480487098816 	
C	  2.233027680976 	  9.154528663419 	  5.349927548816 	
C	  1.664483550976 	  9.154531473419 	 15.480484268816 	
C	 16.913886080976 	  2.970976133419 	  5.378060308816 	
C	 16.345341950976 	  2.970978943419 	 15.508617028816 	
C	 16.913854980976 	  9.154537893419 	  5.378057478816 	
C	 16.345310850976 	  9.154540703419 	 15.508614198816 	
C	 11.498402668594 	 -0.110975590956 	 10.023701487942 	
C	 10.929858538594 	 -0.110972780956 	 20.154258207942 	
C	 11.498371568594 	  6.072586169044 	 10.023698657942 	
C	 10.929827438594 	  6.072588979044 	 20.154255377942 	
C	 26.179229968594 	 -0.110966360956 	 10.051831417942 	
C	 25.610685838594 	 -0.110963550956 	 20.182388137942 	
C	 26.179198868594 	  6.072595399044 	 10.051828587942 	
C	 25.610654738594 	  6.072598209044 	 20.182385307942 	
C	 11.776471317038 	  3.196233666043 	  4.929781391033 	
C	 11.207927187038 	  3.196236476043 	 15.060338111033 	
C	 11.776440217038 	  9.379795426043 	  4.929778561033 	
C	 11.207896087038 	  9.379798236043 	 15.060335281033 	
C	 26.457298617038 	  3.196242896043 	  4.957911321033 	
C	 25.888754487038 	  3.196245706043 	 15.088468041033 	
C	 26.457267517038 	  9.379804656043 	  4.957908491033 	
C	 25.888723387038 	  9.379807466043 	 15.088465211033 	
C	  2.511128488989 	  6.278176538649 	  0.256009701203 	
C	  1.942584358989 	  6.278179348649 	 10.386566421203 	
C	  2.511097388989 	 12.461738298649 	  0.256006871203 	
C	  1.942553258989 	 12.461741108649 	 10.386563591203 	
C	 17.191955788989 	  6.278185768649 	  0.284139631203 	
C	 16.623411658989 	  6.278188578649 	 10.414696351203 	
C	 17.191924688989 	 12.461747528649 	  0.284136801203 	
C	 16.623380558989 	 12.461750338649 	 10.414693521203 	
H	  2.737614172859 	  3.982250134497 	  5.328850844962 	
H	  2.169070042859 	  3.982252944497 	 15.459407564962 	
H	  2.737583072859 	 10.165811894497 	  5.328848014962 	
H	  2.169038942859 	 10.165814704497 	 15.459404734962 	
H	 17.418441472859 	  3.982259364497 	  5.356980774962 	
H	 16.849897342859 	  3.982262174497 	 15.487537494962 	
H	 17.418410372859 	 10.165821124497 	  5.356977944962 	
H	 16.849866242859 	 10.165823934497 	 15.487534664962 	
H	 11.001256004151 	  0.896029367939 	 10.067548395956 	
H	 10.432711874151 	  0.896032177939 	 20.198105115956 	
H	 11.001224904151 	  7.079591127939 	 10.067545565956 	
H	 10.432680774151 	  7.079593937939 	 20.198102285956 	
H	 25.682083304151 	  0.896038597939 	 10.095678325956 	
H	 25.113539174151 	  0.896041407939 	 20.226235045956 	
H	 25.682052204151 	  7.079600357939 	 10.095675495956 	
H	 25.113508074151 	  7.079603167939 	 20.226232215956 	
H	 11.271916237815 	  2.184950045478 	  4.950860926619 	
H	 10.703372107815 	  2.184952855478 	 15.081417646619 	
H	 11.271885137815 	  8.368511805478 	  4.950858096619 	
H	 10.703341007815 	  8.368514615478 	 15.081414816619 	
H	 25.952743537815 	  2.184959275478 	  4.978990856619 	
H	 25.384199407815 	  2.184962085478 	 15.109547576619 	
H	 25.952712437815 	  8.368521035478 	  4.978988026619 	
H	 25.384168307815 	  8.368523845478 	 15.109544746619 	
H	  3.008275167387 	  5.271171634474 	  0.212162563152 	
H	  2.439731037387 	  5.271174444474 	 10.342719283152 	
H	  3.008244067387 	 11.454733394474 	  0.212159733152 	
H	  2.439699937387 	 11.454736204474 	 10.342716453152 	
H	 17.689102467387 	  5.271180864474 	  0.240292493152 	
H	 17.120558337387 	  5.271183674474 	 10.370849213152 	
H	 17.689071367387 	 11.454742624474 	  0.240289663152 	
H	 17.120527237387 	 11.454745434474 	 10.370846383152 	
H	  1.397323408530 	  3.090352707570 	  4.593749052962 	
H	  0.828779278530 	  3.090355517570 	 14.724305772962 	
H	  1.397292308530 	  9.273914467570 	  4.593746222962 	
H	  0.828748178530 	  9.273917277570 	 14.724302942962 	
H	 16.078150708530 	  3.090361937570 	  4.621878982962 	
H	 15.509606578530 	  3.090364747570 	 14.752435702962 	
H	 16.078119608530 	  9.273923697570 	  4.621876152962 	
H	 15.509575478530 	  9.273926507570 	 14.752432872962 	
H	 12.899504223540 	  0.009598228238 	  0.583193400083 	
H	 12.330960093540 	  0.009601038238 	 10.713750120083 	
H	 12.899473123540 	  6.193159988238 	  0.583190570083 	
H	 12.330928993540 	  6.193162798238 	 10.713747290083 	
H	 27.580331523540 	  0.009607458238 	  0.611323330083 	
H	 27.011787393540 	  0.009610268238 	 10.741880050083 	
H	 27.580300423540 	  6.193169218238 	  0.611320500083 	
H	 27.011756293540 	  6.193172028238 	 10.741877220083 	
H	 12.612206717599 	  3.076848336096 	  5.685962665904 	
H	 12.043662587599 	  3.076851146096 	 15.816519385904 	
H	 12.612175617599 	  9.260410096096 	  5.685959835904 	
H	 12.043631487599 	  9.260412906096 	 15.816516555904 	
H	 27.293034017599 	  3.076857566096 	  5.714092595904 	
H	 26.724489887599 	  3.076860376096 	 15.844649315904 	
H	 27.293002917599 	  9.260419326096 	  5.714089765904 	
H	 26.724458787599 	  9.260422136096 	 15.844646485904 	
H	  1.110026977317 	  6.157602758134 	  9.696517770863 	
H	  0.541482847317 	  6.157605568134 	 19.827074490863 	
H	  1.109995877317 	 12.341164518134 	  9.696514940863 	
H	  0.541451747317 	 12.341167328134 	 19.827071660863 	
H	 15.790854277317 	  6.157611988134 	  9.724647700863 	
H	 15.222310147317 	  6.157614798134 	 19.855204420863 	
H	 15.790823177317 	 12.341173748134 	  9.724644870863 	
H	 15.222279047317 	 12.341176558134 	 19.855201590863 	
H	  3.017520751191 	  2.420120034442 	  4.747562030461 	
H	  2.448976621191 	  2.420122844442 	 14.878118750461 	
H	  3.017489651191 	  8.603681794442 	  4.747559200461 	
H	  2.448945521191 	  8.603684604442 	 14.878115920461 	
H	 17.698348051191 	  2.420129264442 	  4.775691960461 	
H	 17.129803921191 	  2.420132074442 	 14.906248680461 	
H	 17.698316951191 	  8.603691024442 	  4.775689130461 	
H	 17.129772821191 	  8.603693834442 	 14.906245850461 	
H	 11.253789932699 	  5.502727691672 	  0.424374849830 	
H	 10.685245802699 	  5.502730501672 	 10.554931569830 	
H	 11.253758832699 	 11.686289451672 	  0.424372019830 	
H	 10.685214702699 	 11.686292261672 	 10.554928739830 	
H	 25.934617232699 	  5.502736921672 	  0.452504779830 	
H	 25.366073102699 	  5.502739731672 	 10.583061499830 	
H	 25.934586132699 	 11.686298681672 	  0.452501949830 	
H	 25.366042002699 	 11.686301491672 	 10.583058669830 	
H	 10.992009057927 	  3.747080846464 	  5.532149450879 	
H	 10.423464927927 	  3.747083656464 	 15.662706170879 	
H	 10.991977957927 	  9.930642606464 	  5.532146620879 	
H	 10.423433827927 	  9.930645416464 	 15.662703340879 	
H	 25.672836357927 	  3.747090076464 	  5.560279380879 	
H	 25.104292227927 	  3.747092886464 	 15.690836100879 	
H	 25.672805257927 	  9.930651836464 	  5.560276550879 	
H	 25.104261127927 	  9.930654646464 	 15.690833270879 	
H	  2.755741273818 	  0.664473381676 	  9.855336509476 	
H	  2.187197143818 	  0.664476191676 	 19.985893229476 	
H	  2.755710173818 	  6.848035141676 	  9.855333679476 	
H	  2.187166043818 	  6.848037951676 	 19.985890399476 	
H	 17.436568573818 	  0.664482611676 	  9.883466439476 	
H	 16.868024443818 	  0.664485421676 	 20.014023159476 	
H	 17.436537473818 	  6.848044371676 	  9.883463609476 	
H	 16.867993343818 	  6.848047181676 	 20.014020329476 	
C	  1.105989172789 	  3.242193872182 	  7.042275027974 	
C	  0.537445042789 	  3.242196682182 	 17.172831747974 	
C	  1.105958072789 	  9.425755632182 	  7.042272197974 	
C	  0.537413942789 	  9.425758442182 	 17.172828917974 	
C	 15.786816472789 	  3.242203102182 	  7.070404957974 	
C	 15.218272342789 	  3.242205912182 	 17.200961677974 	
C	 15.786785372789 	  9.425764862182 	  7.070402127974 	
C	 15.218241242789 	  9.425767672182 	 17.200958847974 	
C	 12.634749730206 	  0.162728591131 	  8.355551594677 	
C	 12.066205600206 	  0.162731401131 	 18.486108314677 	
C	 12.634718630206 	  6.346290351131 	  8.355548764677 	
C	 12.066174500206 	  6.346293161131 	 18.486105484677 	
C	 27.315577030206 	  0.162737821131 	  8.383681524677 	
C	 26.747032900206 	  0.162740631131 	 18.514238244677 	
C	 27.315545930206 	  6.346299581131 	  8.383678694677 	
C	 26.747001800206 	  6.346302391131 	 18.514235414677 	
C	 12.903541738167 	  2.925006213683 	  3.237436041043 	
C	 12.334997608167 	  2.925009023683 	 13.367992761043 	
C	 12.903510638167 	  9.108567973683 	  3.237433211043 	
C	 12.334966508167 	  9.108570783683 	 13.367989931043 	
C	 27.584369038167 	  2.925015443683 	  3.265565971043 	
C	 27.015824908167 	  2.925018253683 	 13.396122691043 	
C	 27.584337938167 	  9.108577203683 	  3.265563141043 	
C	 27.015793808167 	  9.108580013683 	 13.396119861043 	
C	  1.374781419516 	  6.004471834646 	  1.924159518132 	
C	  0.806237289516 	  6.004474644646 	 12.054716238132 	
C	  1.374750319516 	 12.188033594646 	  1.924156688132 	
C	  0.806206189516 	 12.188036404646 	 12.054713408132 	
C	 16.055608719516 	  6.004481064646 	  1.952289448132 	
C	 15.487064589516 	  6.004483874646 	 12.082846168132 	
C	 16.055577619516 	 12.188042824646 	  1.952286618132 	
C	 15.487033489516 	 12.188045634646 	 12.082843338132 	
H	  1.368959286970 	  4.333916031516 	  7.228189524703 	
H	  0.800415156970 	  4.333918841516 	 17.358746244703 	
H	  1.368928186970 	 10.517477791516 	  7.228186694703 	
H	  0.800384056970 	 10.517480601516 	 17.358743414703 	
H	 16.049786586970 	  4.333925261516 	  7.256319454703 	
H	 15.481242456970 	  4.333928071516 	 17.386876174703 	
H	 16.049755486970 	 10.517487021516 	  7.256316624703 	
H	 15.481211356970 	 10.517489831516 	 17.386873344703 	
H	 12.368438054447 	  1.250203337533 	  8.167817786558 	
H	 11.799893924447 	  1.250206147533 	 18.298374506558 	
H	 12.368406954447 	  7.433765097533 	  8.167814956558 	
H	 11.799862824447 	  7.433767907533 	 18.298371676558 	
H	 27.049265354447 	  1.250212567533 	  8.195947716558 	
H	 26.480721224447 	  1.250215377533 	 18.326504436558 	
H	 27.049234254447 	  7.433774327533 	  8.195944886558 	
H	 26.480690124447 	  7.433777137533 	 18.326501606558 	
H	 12.640571499653 	  1.833283961734 	  3.051521763067 	
H	 12.072027369653 	  1.833286771734 	 13.182078483067 	
H	 12.640540399653 	  8.016845721734 	  3.051518933067 	
H	 12.071996269653 	  8.016848531734 	 13.182075653067 	
H	 27.321398799653 	  1.833293191734 	  3.079651693067 	
H	 26.752854669653 	  1.833296001734 	 13.210208413067 	
H	 27.321367699653 	  8.016854951734 	  3.079648863067 	
H	 26.752823569653 	  8.016857761734 	 13.210205583067 	
H	  1.641093254997 	  4.916997104404 	  2.111892990246 	
H	  1.072549124997 	  4.916999914404 	 12.242449710246 	
H	  1.641062154997 	 11.100558864404 	  2.111890160246 	
H	  1.072518024997 	 11.100561674404 	 12.242446880246 	
H	 16.321920554997 	  4.917006334404 	  2.140022920246 	
H	 15.753376424997 	  4.917009144404 	 12.270579640246 	
H	 16.321889454997 	 11.100568094404 	  2.140020090246 	
H	 15.753345324997 	 11.100570904404 	 12.270576810246 	
H	  0.809005159011 	  3.000824524733 	  8.115184858591 	
H	  0.240461029011 	  3.000827334733 	 18.245741578591 	
H	  0.808974059011 	  9.184386284733 	  8.115182028591 	
H	  0.240429929011 	  9.184389094733 	 18.245738748591 	
H	 15.489832459011 	  3.000833754733 	  8.143314788591 	
H	 14.921288329011 	  3.000836564733 	 18.273871508591 	
H	 15.489801359011 	  9.184395514733 	  8.143311958591 	
H	 14.921257229011 	  9.184398324733 	 18.273868678591 	
H	 12.928691645886 	  6.082835437107 	  7.281242945640 	
H	 12.360147515886 	  6.082838247107 	 17.411799665640 	
H	 12.928660545886 	 12.266397197107 	  7.281240115640 	
H	 12.360116415886 	 12.266400007107 	 17.411796835640 	
H	 27.609518945886 	  6.082844667107 	  7.309372875640 	
H	 27.040974815886 	  6.082847477107 	 17.439929595640 	
H	 27.609487845886 	 12.266406427107 	  7.309370045640 	
H	 27.040943715886 	 12.266409237107 	 17.439926765640 	
H	 13.200526141475 	  3.166375706639 	  2.164526319730 	
H	 12.631982011475 	  3.166378516639 	 12.295083039730 	
H	 13.200495041475 	  9.349937466639 	  2.164523489730 	
H	 12.631950911475 	  9.349940276639 	 12.295080209730 	
H	 27.881353441475 	  3.166384936639 	  2.192656249730 	
H	 27.312809311475 	  3.166387746639 	 12.323212969730 	
H	 27.881322341475 	  9.349946696639 	  2.192653419730 	
H	 27.312778211475 	  9.349949506639 	 12.323210139730 	
H	  1.080839558227 	  0.084364746095 	  2.998468258435 	
H	  0.512295428227 	  0.084367556095 	 13.129024978435 	
H	  1.080808458227 	  6.267926506095 	  2.998465428435 	
H	  0.512264328227 	  6.267929316095 	 13.129022148435 	
H	 15.761666858227 	  0.084373976095 	  3.026598188435 	
H	 15.193122728227 	  0.084376786095 	 13.157154908435 	
H	 15.761635758227 	  6.267935736095 	  3.026595358435 	
H	 15.193091628227 	  6.267938546095 	 13.157152078435 	
H	  0.118195705481 	  3.309703297143 	  6.495186593585 	
H	 -0.450348424519 	  3.309706107143 	 16.625743313585 	
H	  0.118164605481 	  9.493265057143 	  6.495183763585 	
H	 -0.450379524519 	  9.493267867143 	 16.625740483585 	
H	 14.799023005481 	  3.309712527143 	  6.523316523585 	
H	 14.230478875481 	  3.309715337143 	 16.653873243585 	
H	 14.798991905481 	  9.493274287143 	  6.523313693585 	
H	 14.230447775481 	  9.493277097143 	 16.653870413585 	
H	 13.615425238087 	  6.391778259949 	  8.898572809911 	
H	 13.046881108087 	  6.391781069949 	 19.029129529911 	
H	 13.615394138087 	 12.575340019949 	  8.898569979911 	
H	 13.046850008087 	 12.575342829949 	 19.029126699911 	
H	 28.296252538087 	  6.391787489949 	  8.926702739911 	
H	 27.727708408087 	  6.391790299949 	 19.057259459911 	
H	 28.296221438087 	 12.575349249949 	  8.926699909911 	
H	 27.727677308087 	 12.575352059949 	 19.057256629911 	
H	 13.891334938794 	  2.857496944107 	  3.784524893886 	
H	 13.322790808794 	  2.857499754107 	 13.915081613886 	
H	 13.891303838794 	  9.041058704107 	  3.784522063886 	
H	 13.322759708794 	  9.041061514107 	 13.915078783886 	
H	 28.572162238794 	  2.857506174107 	  3.812654823886 	
H	 28.003618108794 	  2.857508984107 	 13.943211543886 	
H	 28.572131138794 	  9.041067934107 	  3.812651993886 	
H	 28.003587008794 	  9.041070744107 	 13.943208713886 	
H	  0.394105895030 	 -0.224577891364 	  1.381138347369 	
H	 -0.174438234970 	 -0.224575081364 	 11.511695067369 	
H	  0.394074795030 	  5.958983868636 	  1.381135517369 	
H	 -0.174469334970 	  5.958986678636 	 11.511692237369 	
H	 15.074933195030 	 -0.224568661364 	  1.409268277369 	
H	 14.506389065030 	 -0.224565851364 	 11.539824997369 	
H	 15.074902095030 	  5.958993098636 	  1.409265447369 	
H	 14.506357965030 	  5.958995908636 	 11.539822167369 	
C	  1.476941643339 	  1.359369958162 	  6.365564580091 	
C	  0.908397513339 	  1.359372768162 	 16.496121300091 	
C	  1.476910543339 	  7.542931718162 	  6.365561750091 	
C	  0.908366413339 	  7.542934528162 	 16.496118470091 	
C	 16.157768943339 	  1.359379188162 	  6.393694510091 	
C	 15.589224813339 	  1.359381998162 	 16.524251230091 	
C	 16.157737843339 	  7.542940948162 	  6.393691680091 	
C	 15.589193713339 	  7.542943758162 	 16.524248400091 	
C	 12.260218743091 	  4.443522138895 	  9.030519115605 	
C	 11.691674613091 	  4.443524948895 	 19.161075835605 	
C	 12.260187643091 	 10.627083898895 	  9.030516285605 	
C	 11.691643513091 	 10.627086708895 	 19.161073005605 	
C	 26.941046043091 	  4.443531368895 	  9.058649045605 	
C	 26.372501913091 	  4.443534178895 	 19.189205765605 	
C	 26.941014943091 	 10.627093128895 	  9.058646215605 	
C	 26.372470813091 	 10.627095938895 	 19.189202935605 	
C	 12.532589006051 	  4.807831390067 	  3.914146237962 	
C	 11.964044876051 	  4.807834200067 	 14.044702957962 	
C	 12.532557906051 	 10.991393150067 	  3.914143407962 	
C	 11.964013776051 	 10.991395960067 	 14.044700127962 	
C	 27.213416306051 	  4.807840620067 	  3.942276167962 	
C	 26.644872176051 	  4.807843430067 	 14.072832887962 	
C	 27.213385206051 	 10.991402380067 	  3.942273337962 	
C	 26.644841076051 	 10.991405190067 	 14.072830057962 	
C	  1.749312183964 	  1.723678470807 	  1.249192396953 	
C	  1.180768053964 	  1.723681280807 	 11.379749116953 	
C	  1.749281083964 	  7.907240230807 	  1.249189566953 	
C	  1.180736953964 	  7.907243040807 	 11.379746286953 	
C	 16.430139483964 	  1.723687700807 	  1.277322326953 	
C	 15.861595353964 	  1.723690510807 	 11.407879046953 	
C	 16.430108383964 	  7.907249460807 	  1.277319496953 	
C	 15.861564253964 	  7.907252270807 	 11.407876216953 	
H	  0.482747857568 	  1.267085708674 	  5.832839453068 	
H	 -0.085796272432 	  1.267088518674 	 15.963396173068 	
H	  0.482716757568 	  7.450647468674 	  5.832836623068 	
H	 -0.085827372432 	  7.450650278674 	 15.963393343068 	
H	 15.163575157568 	  1.267094938674 	  5.860969383068 	
H	 14.595031027568 	  1.267097748674 	 15.991526103068 	
H	 15.163544057568 	  7.450656698674 	  5.860966553068 	
H	 14.594999927568 	  7.450659508674 	 15.991523273068 	
H	 13.254473603846 	  4.350763369542 	  9.563181888382 	
H	 12.685929473846 	  4.350766179542 	 19.693738608382 	
H	 13.254442503846 	 10.534325129542 	  9.563179058382 	
H	 12.685898373846 	 10.534327939542 	 19.693735778382 	
H	 27.935300903846 	  4.350772599542 	  9.591311818382 	
H	 27.366756773846 	  4.350775409542 	 19.721868538382 	
H	 27.935269803846 	 10.534334359542 	  9.591308988382 	
H	 27.366725673846 	 10.534337169542 	 19.721865708382 	
H	 13.526782679235 	  4.900115353160 	  4.446871506455 	
H	 12.958238549235 	  4.900118163160 	 14.577428226455 	
H	 13.526751579235 	 11.083677113160 	  4.446868676455 	
H	 12.958207449235 	 11.083679923160 	 14.577425396455 	
H	 28.207609979235 	  4.900124583160 	  4.475001436455 	
H	 27.639065849235 	  4.900127393160 	 14.605558156455 	
H	 28.207578879235 	 11.083686343160 	  4.474998606455 	
H	 27.639034749235 	 11.083689153160 	 14.605555326455 	
H	  0.755057318800 	  1.816437181922 	  0.716529642237 	
H	  0.186513188800 	  1.816439991922 	 10.847086362237 	
H	  0.755026218800 	  7.999998941922 	  0.716526812237 	
H	  0.186482088800 	  8.000001751922 	 10.847083532237 	
H	 15.435884618800 	  1.816446411922 	  0.744659572237 	
H	 14.867340488800 	  1.816449221922 	 10.875216292237 	
H	 15.435853518800 	  8.000008171922 	  0.744656742237 	
H	 14.867309388800 	  8.000010981922 	 10.875213462237 	
H	  1.315794255105 	  0.761758734232 	  7.320491159293 	
H	  0.747250125105 	  0.761761544232 	 17.451047879293 	
H	  1.315763155105 	  6.945320494232 	  7.320488329293 	
H	  0.747219025105 	  6.945323304232 	 17.451045049293 	
H	 15.996621555105 	  0.761767964232 	  7.348621089293 	
H	 15.428077425105 	  0.761770774232 	 17.479177809293 	
H	 15.996590455105 	  6.945329724232 	  7.348618259293 	
H	 15.428046325105 	  6.945332534232 	 17.479174979293 	
H	 12.421443348459 	  3.845464971253 	  8.075546069757 	
H	 11.852899218459 	  3.845467781253 	 18.206102789757 	
H	 12.421412248459 	 10.029026731253 	  8.075543239757 	
H	 11.852868118459 	 10.029029541253 	 18.206099959757 	
H	 27.102270648459 	  3.845474201253 	  8.103675999757 	
H	 26.533726518459 	  3.845477011253 	 18.234232719757 	
H	 27.102239548459 	 10.029035961253 	  8.103673169757 	
H	 26.533695418459 	 10.029038771253 	 18.234229889757 	
H	 12.693736464300 	  5.405442217075 	  2.959219354128 	
H	 12.125192334300 	  5.405445027075 	 13.089776074128 	
H	 12.693705364300 	 11.589003977075 	  2.959216524128 	
H	 12.125161234300 	 11.589006787075 	 13.089773244128 	
H	 27.374563764300 	  5.405451447075 	  2.987349284128 	
H	 26.806019634300 	  5.405454257075 	 13.117906004128 	
H	 27.374532664300 	 11.589013207075 	  2.987346454128 	
H	 26.805988534300 	 11.589016017075 	 13.117903174128 	
H	  1.588087507173 	  2.321735423833 	  2.204165541235 	
H	  1.019543377173 	  2.321738233833 	 12.334722261235 	
H	  1.588056407173 	  8.505297183833 	  2.204162711235 	
H	  1.019512277173 	  8.505299993833 	 12.334719431235 	
H	 16.268914807173 	  2.321744653833 	  2.232295471235 	
H	 15.700370677173 	  2.321747463833 	 12.362852191235 	
H	 16.268883707173 	  8.505306413833 	  2.232292641235 	
H	 15.700339577173 	  8.505309223833 	 12.362849361235 	
H	  2.099917880418 	  0.584223621051 	  5.825482540915 	
H	  1.531373750418 	  0.584226431051 	 15.956039260915 	
H	  2.099886780418 	  6.767785381051 	  5.825479710915 	
H	  1.531342650418 	  6.767788191051 	 15.956036430915 	
H	 16.780745180418 	  0.584232851051 	  5.853612470915 	
H	 16.212201050418 	  0.584235661051 	 15.984169190915 	
H	 16.780714080418 	  6.767794611051 	  5.853609640915 	
H	 16.212169950418 	  6.767797421051 	 15.984166360915 	
H	 11.637348793765 	  3.667922505765 	  9.570594449307 	
H	 11.068804663765 	  3.667925315765 	 19.701151169307 	
H	 11.637317693765 	  9.851484265765 	  9.570591619307 	
H	 11.068773563765 	  9.851487075765 	 19.701148339307 	
H	 26.318176093765 	  3.667931735765 	  9.598724379307 	
H	 25.749631963765 	  3.667934545765 	 19.729281099307 	
H	 26.318144993765 	  9.851493495765 	  9.598721549307 	
H	 25.749600863765 	  9.851496305765 	 19.729278269307 	
H	 11.909612465435 	  5.582977646423 	  4.454228555350 	
H	 11.341068335435 	  5.582980456423 	 14.584785275350 	
H	 11.909581365435 	 11.766539406423 	  4.454225725350 	
H	 11.341037235435 	 11.766542216423 	 14.584782445350 	
H	 26.590439765435 	  5.582986876423 	  4.482358485350 	
H	 26.021895635435 	  5.582989686423 	 14.612915205350 	
H	 26.590408665435 	 11.766548636423 	  4.482355655350 	
H	 26.021864535435 	 11.766551446423 	 14.612912375350 	
H	  2.372182099616 	  2.499278327609 	  0.709117382959 	
H	  1.803637969616 	  2.499281137609 	 10.839674102959 	
H	  2.372150999616 	  8.682840087609 	  0.709114552959 	
H	  1.803606869616 	  8.682842897609 	 10.839671272959 	
H	 17.053009399616 	  2.499287557609 	  0.737247312959 	
H	 16.484465269616 	  2.499290367609 	 10.867804032959 	
H	 17.052978299616 	  8.682849317609 	  0.737244482959 	
H	 16.484434169616 	  8.682852127609 	 10.867801202959 	
768 
Energy: -8.9199967021570004e+01 
S	  8.636415912507 	  1.514114867770 	  0.066553595327 	
S	  8.067871782507 	  1.514117677770 	 10.197110315327 	
S	  8.636384812507 	  7.697676627770 	  0.066550765327 	
S	  8.067840682507 	  7.697679437770 	 10.197107485327 	
S	 23.317243212507 	  1.514124097770 	  0.094683525327 	
S	 22.748699082507 	  1.514126907770 	 10.225240245327 	
S	 23.317212112507 	  7.697685857770 	  0.094680695327 	
S	 22.748667982507 	  7.697688667770 	 10.225237415327 	
S	  5.584296938183 	  4.592949801304 	  5.133635100093 	
S	  5.015752808183 	  4.592952611304 	 15.264191820093 	
S	  5.584265838183 	 10.776511561304 	  5.133632270093 	
S	  5.015721708183 	 10.776514371304 	 15.264188990093 	
S	 20.265124238183 	  4.592959031304 	  5.161765030093 	
S	 19.696580108183 	  4.592961841304 	 15.292321750093 	
S	 20.265093138183 	 10.776520791304 	  5.161762200093 	
S	 19.696549008183 	 10.776523601304 	 15.292318920093 	
S	  5.318886206855 	  4.644441602803 	 10.277050482726 	
S	  4.750342076855 	  4.644444412803 	 20.407607202726 	
S	  5.318855106855 	 10.828003362803 	 10.277047652726 	
S	  4.750310976855 	 10.828006172803 	 20.407604372726 	
S	 19.999713506855 	  4.644450832803 	 10.305180412726 	
S	 19.431169376855 	  4.644453642803 	 20.435737132726 	
S	 19.999682406855 	 10.828012592803 	 10.305177582726 	
S	 19.431138276855 	 10.828015402803 	 20.435734302726 	
S	  8.371005804594 	  1.565607178568 	  5.209969064009 	
S	  7.802461674594 	  1.565609988568 	 15.340525784009 	
S	  8.370974704594 	  7.749168938568 	  5.209966234009 	
S	  7.802430574594 	  7.749171748568 	 15.340522954009 	
S	 23.051833104594 	  1.565616408568 	  5.238098994009 	
S	 22.483288974594 	  1.565619218568 	 15.368655714009 	
S	 23.051802004594 	  7.749178168568 	  5.238096164009 	
S	 22.483257874594 	  7.749180978568 	 15.368652884009 	
C	  6.706521119443 	  2.530097191119 	  9.949699301344 	
C	  6.137976989443 	  2.530100001119 	 20.080256021344 	
C	  6.706490019443 	  8.713658951119 	  9.949696471344 	
C	  6.137945889443 	  8.713661761119 	 20.080253191344 	
C	 21.387348419443 	  2.530106421119 	  9.977829231344 	
C	 20.818804289443 	  2.530109231119 	 20.108385951344 	
C	 21.387317319443 	  8.713668181119 	  9.977826401344 	
C	 20.818773189443 	  8.713670991119 	 20.108383121344 	
C	  6.982674297321 	  5.608127647346 	  5.537661114759 	
C	  6.414130167321 	  5.608130457346 	 15.668217834759 	
C	  6.982643197321 	 11.791689407346 	  5.537658284759 	
C	  6.414099067321 	 11.791692217346 	 15.668215004759 	
C	 21.663501597321 	  5.608136877346 	  5.565791044759 	
C	 21.094957467321 	  5.608139687346 	 15.696347764759 	
C	 21.663470497321 	 11.791698637346 	  5.565788214759 	
C	 21.094926367321 	 11.791701447346 	 15.696344934759 	
C	  7.248781020283 	  3.628459236521 	  0.393904734760 	
C	  6.680236890283 	  3.628462046521 	 10.524461454760 	
C	  7.248749920283 	  9.812020996521 	  0.393901904760 	
C	  6.680205790283 	  9.812023806521 	 10.524458624760 	
C	 21.929608320283 	  3.628468466521 	  0.422034664760 	
C	 21.361064190283 	  3.628471276521 	 10.552591384760 	
C	 21.929577220283 	  9.812030226521 	  0.422031834760 	
C	 21.361033090283 	  9.812033036521 	 10.552588554760 	
C	  6.972628302862 	  0.550429433626 	  4.805942994956 	
C	  6.404084172862 	  0.550432243626 	 14.936499714956 	
C	  6.972597202862 	  6.733991193626 	  4.805940164956 	
C	  6.404053072862 	  6.733994003626 	 14.936496884956 	
C	 21.653455602862 	  0.550438663626 	  4.834072924956 	
C	 21.084911472862 	  0.550441473626 	 14.964629644956 	
C	 21.653424502862 	  6.734000423626 	  4.834070094956 	
C	 21.084880372862 	  6.734003233626 	 14.964626814956 	
C	  5.648683971693 	  2.348378215112 	  9.017048939121 	
C	  5.080139841693 	  2.348381025112 	 19.147605659121 	
C	  5.648652871693 	  8.531939975112 	  9.017046109121 	
C	  5.080108741693 	  8.531942785112 	 19.147602829121 	
C	 20.329511271693 	  2.348387445112 	  9.045178869121 	
C	 19.760967141693 	  2.348390255112 	 19.175735589121 	
C	 20.329480171693 	  8.531949205112 	  9.045176039121 	
C	 19.760936041693 	  8.531952015112 	 19.175732759121 	
C	  8.040901880754 	  5.427339668835 	  6.469843376129 	
C	  7.472357750754 	  5.427342478835 	 16.600400096129 	
C	  8.040870780754 	 11.610901428835 	  6.469840546129 	
C	  7.472326650754 	 11.610904238835 	 16.600397266129 	
C	 22.721729180754 	  5.427348898835 	  6.497973306129 	
C	 22.153185050754 	  5.427351708835 	 16.628530026129 	
C	 22.721698080754 	 11.610910658835 	  6.497970476129 	
C	 22.153153950754 	 11.610913468835 	 16.628527196129 	
C	  8.306618031250 	  3.810178262503 	  1.326554995611 	
C	  7.738073901250 	  3.810181072503 	 11.457111715611 	
C	  8.306586931250 	  9.993740022503 	  1.326552165611 	
C	  7.738042801250 	  9.993742832503 	 11.457108885611 	
C	 22.987445331250 	  3.810187492503 	  1.354684925611 	
C	 22.418901201250 	  3.810190302503 	 11.485241645611 	
C	 22.987414231250 	  9.993749252503 	  1.354682095611 	
C	 22.418870101250 	  9.993752062503 	 11.485238815611 	
C	  5.914400634659 	  0.731217393701 	  3.873760732538 	
C	  5.345856504659 	  0.731220203701 	 14.004317452538 	
C	  5.914369534659 	  6.914779153701 	  3.873757902538 	
C	  5.345825404659 	  6.914781963701 	 14.004314622538 	
C	 20.595227934659 	  0.731226623701 	  3.901890662538 	
C	 20.026683804659 	  0.731229433701 	 14.032447382538 	
C	 20.595196834659 	  6.914788383701 	  3.901887832538 	
C	 20.026652704659 	  6.914791193701 	 14.032444552538 	
C	  4.768522006830 	  3.433237072179 	  9.068250529499 	
C	  4.199977876830 	  3.433239882179 	 19.198807249499 	
C	  4.768490906830 	  9.616798832179 	  9.068247699499 	
C	  4.199946776830 	  9.616801642179 	 19.198804419499 	
C	 19.449349306830 	  3.433246302179 	  9.096380459499 	
C	 18.880805176830 	  3.433249112179 	 19.226937179499 	
C	 19.449318206830 	  9.616808062179 	  9.096377629499 	
C	 18.880774076830 	  9.616810872179 	 19.226934349499 	
C	  8.920796887958 	  0.354208795769 	  6.418812272159 	
C	  8.352252757958 	  0.354211605769 	 16.549368992159 	
C	  8.920765787958 	  6.537770555769 	  6.418809442159 	
C	  8.352221657958 	  6.537773365769 	 16.549366162159 	
C	 23.601624187958 	  0.354218025769 	  6.446942202159 	
C	 23.033080057958 	  0.354220835769 	 16.577498922159 	
C	 23.601593087958 	  6.537779785769 	  6.446939372159 	
C	 23.033048957958 	  6.537782595769 	 16.577496092159 	
C	  9.186779991240 	  2.725319447854 	  1.275353483941 	
C	  8.618235861240 	  2.725322257854 	 11.405910203941 	
C	  9.186748891240 	  8.908881207854 	  1.275350653941 	
C	  8.618204761240 	  8.908884017854 	 11.405907373941 	
C	 23.867607291240 	  2.725328677854 	  1.303483413941 	
C	 23.299063161240 	  2.725331487854 	 11.434040133941 	
C	 23.867576191240 	  8.908890437854 	  1.303480583941 	
C	 23.299032061240 	  8.908893247854 	 11.434037303941 	
C	  5.034505666096 	  5.804348217148 	  3.924791905815 	
C	  4.465961536096 	  5.804351027148 	 14.055348625815 	
C	  5.034474566096 	 11.987909977148 	  3.924789075815 	
C	  4.465930436096 	 11.987912787148 	 14.055345795815 	
C	 19.715332966096 	  5.804357447148 	  3.952921835815 	
C	 19.146788836096 	  5.804360257148 	 14.083478555815 	
C	 19.715301866096 	 11.987919207148 	  3.952919005815 	
C	 19.146757736096 	 11.987922017148 	 14.083475725815 	
C	  3.667642511215 	  3.488870258808 	  8.304480647504 	
C	  3.099098381215 	  3.488873068808 	 18.435037367504 	
C	  3.667611411215 	  9.672432018808 	  8.304477817504 	
C	  3.099067281215 	  9.672434828808 	 18.435034537504 	
C	 18.348469811215 	  3.488879488808 	  8.332610577504 	
C	 17.779925681215 	  3.488882298808 	 18.463167297504 	
C	 18.348438711215 	  9.672441248808 	  8.332607747504 	
C	 17.779894581215 	  9.672444058808 	 18.463164467504 	
C	 10.021260930522 	  0.409935173931 	  7.182257113795 	
C	  9.452716800522 	  0.409937983931 	 17.312813833795 	
C	 10.021229830522 	  6.593496933931 	  7.182254283795 	
C	  9.452685700522 	  6.593499743931 	 17.312811003795 	
C	 24.702088230522 	  0.409944403931 	  7.210387043795 	
C	 24.133544100522 	  0.409947213931 	 17.340943763795 	
C	 24.702057130522 	  6.593506163931 	  7.210384213795 	
C	 24.133513000522 	  6.593508973931 	 17.340940933795 	
C	 10.287659499841 	  2.669686352864 	  2.039123515615 	
C	  9.719115369841 	  2.669689162864 	 12.169680235615 	
C	 10.287628399841 	  8.853248112864 	  2.039120685615 	
C	  9.719084269841 	  8.853250922864 	 12.169677405615 	
C	 24.968486799841 	  2.669695582864 	  2.067253445615 	
C	 24.399942669841 	  2.669698392864 	 12.197810165615 	
C	 24.968455699841 	  8.853257342864 	  2.067250615615 	
C	 24.399911569841 	  8.853260152864 	 12.197807335615 	
C	  3.934041480866 	  5.748621842795 	  3.161347215937 	
C	  3.365497350866 	  5.748624652795 	 13.291903935937 	
C	  3.934010380866 	 11.932183602795 	  3.161344385937 	
C	  3.365466250866 	 11.932186412795 	 13.291901105937 	
C	 18.614868780866 	  5.748631072795 	  3.189477145937 	
C	 18.046324650866 	  5.748633882795 	 13.320033865937 	
C	 18.614837680866 	 11.932192832795 	  3.189474315937 	
C	 18.046293550866 	 11.932195642795 	 13.320031035937 	
H	  2.983071883240 	  4.410967876745 	  8.387216849640 	
H	  2.414527753240 	  4.410970686745 	 18.517773569640 	
H	  2.983040783240 	 10.594529636745 	  8.387214019640 	
H	  2.414496653240 	 10.594532446745 	 18.517770739640 	
H	 17.663899183240 	  4.410977106745 	  8.415346779640 	
H	 17.095355053240 	  4.410979916745 	 18.545903499640 	
H	 17.663868083240 	 10.594538866745 	  8.415343949640 	
H	 17.095323953240 	 10.594541676745 	 18.545900669640 	
H	 10.706416430874 	  1.331838621010 	  7.099724106470 	
H	 10.137872300874 	  1.331841431010 	 17.230280826470 	
H	 10.706385330874 	  7.515400381010 	  7.099721276470 	
H	 10.137841200874 	  7.515403191010 	 17.230277996470 	
H	 25.387243730874 	  1.331847851010 	  7.127854036470 	
H	 24.818699600874 	  1.331850661010 	 17.258410756470 	
H	 25.387212630874 	  7.515409611010 	  7.127851206470 	
H	 24.818668500874 	  7.515412421010 	 17.258407926470 	
H	 10.972230094896 	  1.747588701229 	  1.956387309471 	
H	 10.403685964896 	  1.747591511229 	 12.086944029471 	
H	 10.972198994896 	  7.931150461229 	  1.956384479471 	
H	 10.403654864896 	  7.931153271229 	 12.086941199471 	
H	 25.653057394896 	  1.747597931229 	  1.984517239471 	
H	 25.084513264896 	  1.747600741229 	 12.115073959471 	
H	 25.653026294896 	  7.931159691229 	  1.984514409471 	
H	 25.084482164896 	  7.931162501229 	 12.115071129471 	
H	  3.248886109416 	  4.826718300723 	  3.243880296031 	
H	  2.680341979416 	  4.826721110723 	 13.374437016031 	
H	  3.248855009416 	 11.010280060723 	  3.243877466031 	
H	  2.680310879416 	 11.010282870723 	 13.374434186031 	
H	 17.929713409416 	  4.826727530723 	  3.272010226031 	
H	 17.361169279416 	  4.826730340723 	 13.402566946031 	
H	 17.929682309416 	 11.010289290723 	  3.272007396031 	
H	 17.361138179416 	 11.010292100723 	 13.402564116031 	
C	  3.337041362422 	  2.497128433322 	  7.441114313812 	
C	  2.768497232422 	  2.497131243322 	 17.571671033812 	
C	  3.337010262422 	  8.680690193322 	  7.441111483812 	
C	  2.768466132422 	  8.680693003322 	 17.571668203812 	
C	 18.017868662422 	  2.497137663322 	  7.469244243812 	
C	 17.449324532422 	  2.497140473322 	 17.599800963812 	
C	 18.017837562422 	  8.680699423322 	  7.469241413812 	
C	 17.449293432422 	  8.680702233322 	 17.599798133812 	
C	 10.352356460194 	  5.575680536889 	  8.045859061111 	
C	  9.783812330194 	  5.575683346889 	 18.176415781111 	
C	 10.352325360194 	 11.759242296889 	  8.045856231111 	
C	  9.783781230194 	 11.759245106889 	 18.176412951111 	
C	 25.033183760194 	  5.575689766889 	  8.073988991111 	
C	 24.464639630194 	  5.575692576889 	 18.204545711111 	
C	 25.033152660194 	 11.759251526889 	  8.073986161111 	
C	 24.464608530194 	 11.759254336889 	 18.204542881111 	
C	 10.618260495803 	  3.661428166121 	  2.902489741798 	
C	 10.049716365803 	  3.661430976121 	 13.033046461798 	
C	 10.618229395803 	  9.844989926121 	  2.902486911798 	
C	 10.049685265803 	  9.844992736121 	 13.033043631798 	
C	 25.299087795803 	  3.661437396121 	  2.930619671798 	
C	 24.730543665803 	  3.661440206121 	 13.061176391798 	
C	 25.299056695803 	  9.844999156121 	  2.930616841798 	
C	 24.730512565803 	  9.845001966121 	 13.061173561798 	
C	  3.602945908777 	  0.582876460366 	  2.297745289122 	
C	  3.034401778777 	  0.582879270366 	 12.428302009122 	
C	  3.602914808777 	  6.766438220366 	  2.297742459122 	
C	  3.034370678777 	  6.766441030366 	 12.428299179122 	
C	 18.283773208777 	  0.582885690366 	  2.325875219122 	
C	 17.715229078777 	  0.582888500366 	 12.456431939122 	
C	 18.283742108777 	  6.766447450366 	  2.325872389122 	
C	 17.715197978777 	  6.766450260366 	 12.456429109122 	
C	  4.229107645958 	  1.447544908185 	  7.373475272606 	
C	  3.660563515958 	  1.447547718185 	 17.504031992606 	
C	  4.229076545958 	  7.631106668185 	  7.373472442606 	
C	  3.660532415958 	  7.631109478185 	 17.504029162606 	
C	 18.909934945958 	  1.447554138185 	  7.401605202606 	
C	 18.341390815958 	  1.447556948185 	 17.532161922606 	
C	 18.909903845958 	  7.631115898185 	  7.401602372606 	
C	 18.341359715958 	  7.631118708185 	 17.532159092606 	
C	  9.460355613813 	  4.526951212427 	  8.113362464781 	
C	  8.891811483813 	  4.526954022427 	 18.243919184781 	
C	  9.460324513813 	 10.710512972427 	  8.113359634781 	
C	  8.891780383813 	 10.710515782427 	 18.243916354781 	
C	 24.141182913813 	  4.526960442427 	  8.141492394781 	
C	 23.572638783813 	  4.526963252427 	 18.272049114781 	
C	 24.141151813813 	 10.710522202427 	  8.141489564781 	
C	 23.572607683813 	 10.710525012427 	 18.272046284781 	
C	  9.726194158099 	  4.711011664091 	  2.970128817440 	
C	  9.157650028099 	  4.711014474091 	 13.100685537440 	
C	  9.726163058099 	 10.894573424091 	  2.970125987440 	
C	  9.157618928099 	 10.894576234091 	 13.100682707440 	
C	 24.407021458099 	  4.711020894091 	  2.998258747440 	
C	 23.838477328099 	  4.711023704091 	 13.128815467440 	
C	 24.406990358099 	 10.894582654091 	  2.998255917440 	
C	 23.838446228099 	 10.894585464091 	 13.128812637440 	
C	  4.494946629599 	  1.631605742792 	  2.230241769230 	
C	  3.926402499599 	  1.631608552792 	 12.360798489230 	
C	  4.494915529599 	  7.815167502792 	  2.230238939230 	
C	  3.926371399599 	  7.815170312792 	 12.360795659230 	
C	 19.175773929599 	  1.631614972792 	  2.258371699230 	
C	 18.607229799599 	  1.631617782792 	 12.388928419230 	
C	 19.175742829599 	  7.815176732792 	  2.258368869230 	
C	 18.607198699599 	  7.815179542792 	 12.388925589230 	
H	  4.008470269118 	  0.596473813971 	  6.633068165172 	
H	  3.439926139118 	  0.596476623971 	 16.763624885172 	
H	  4.008439169118 	  6.780035573971 	  6.633065335172 	
H	  3.439895039118 	  6.780038383971 	 16.763622055172 	
H	 18.689297569118 	  0.596483043971 	  6.661198095172 	
H	 18.120753439118 	  0.596485853971 	 16.791754815172 	
H	 18.689266469118 	  6.780044803971 	  6.661195265172 	
H	 18.120722339118 	  6.780047613971 	 16.791751985172 	
H	  9.680931848231 	  3.675775534820 	  8.853776122929 	
H	  9.112387718231 	  3.675778344820 	 18.984332842929 	
H	  9.680900748231 	  9.859337294820 	  8.853773292929 	
H	  9.112356618231 	  9.859340104820 	 18.984330012929 	
H	 24.361759148231 	  3.675784764820 	  8.881906052929 	
H	 23.793215018231 	  3.675787574820 	 19.012462772929 	
H	 24.361728048231 	  9.859346524820 	  8.881903222929 	
H	 23.793183918231 	  9.859349334820 	 19.012459942929 	
H	  9.946831564402 	  5.562082772776 	  3.710535892642 	
H	  9.378287434402 	  5.562085582776 	 13.841092612642 	
H	  9.946800464402 	 11.745644532776 	  3.710533062642 	
H	  9.378256334402 	 11.745647342776 	 13.841089782642 	
H	 24.627658864402 	  5.562092002776 	  3.738665822642 	
H	 24.059114734402 	  5.562094812776 	 13.869222542642 	
H	 24.627627764402 	 11.745653762776 	  3.738662992642 	
H	 24.059083634402 	 11.745656572776 	 13.869219712642 	
H	  4.274370290536 	  2.482781471451 	  1.489828197477 	
H	  3.705826160536 	  2.482784281451 	 11.620384917477 	
H	  4.274339190536 	  8.666343231451 	  1.489825367477 	
H	  3.705795060536 	  8.666346041451 	 11.620382087477 	
H	 18.955197590536 	  2.482790701451 	  1.517958127477 	
H	 18.386653460536 	  2.482793511451 	 11.648514847477 	
H	 18.955166490536 	  8.666352461451 	  1.517955297477 	
H	 18.386622360536 	  8.666355271451 	 11.648512017477 	
C	  5.316606702846 	  1.369587236991 	  8.105858020324 	
C	  4.748062572846 	  1.369590046991 	 18.236414740324 	
C	  5.316575602846 	  7.553148996991 	  8.105855190324 	
C	  4.748031472846 	  7.553151806991 	 18.236411910324 	
C	 19.997434002846 	  1.369596466991 	  8.133987950324 	
C	 19.428889872846 	  1.369599276991 	 18.264544670324 	
C	 19.997402902846 	  7.553158226991 	  8.133985120324 	
C	 19.428858772846 	  7.553161036991 	 18.264541840324 	
C	  8.372724062141 	  4.448964181228 	  7.380890851543 	
C	  7.804179932141 	  4.448966991228 	 17.511447571543 	
C	  8.372692962141 	 10.632525941228 	  7.380888021543 	
C	  7.804148832141 	 10.632528751228 	 17.511444741543 	
C	 23.053551362141 	  4.448973411228 	  7.409020781543 	
C	 22.485007232141 	  4.448976221228 	 17.539577501543 	
C	 23.053520262141 	 10.632535171228 	  7.409017951543 	
C	 22.484976132141 	 10.632537981228 	 17.539574671543 	
C	  8.638695192719 	  4.788969288143 	  2.237745921767 	
C	  8.070151062719 	  4.788972098143 	 12.368302641767 	
C	  8.638664092719 	 10.972531048143 	  2.237743091767 	
C	  8.070119962719 	 10.972533858143 	 12.368299811767 	
C	 23.319522492719 	  4.788978518143 	  2.265875851767 	
C	 22.750978362719 	  4.788981328143 	 12.396432571767 	
C	 23.319491392719 	 10.972540278143 	  2.265873021767 	
C	 22.750947262719 	 10.972543088143 	 12.396429741767 	
C	  5.582578338412 	  1.709592861304 	  2.962713330213 	
C	  5.014034208412 	  1.709595671304 	 13.093270050213 	
C	  5.582547238412 	  7.893154621304 	  2.962710500213 	
C	  5.014003108412 	  7.893157431304 	 13.093267220213 	
C	 20.263405638412 	  1.709602091304 	  2.990843260213 	
C	 19.694861508412 	  1.709604901304 	 13.121399980213 	
C	 20.263374538412 	  7.893163851304 	  2.990840430213 	
C	 19.694830408412 	  7.893166661304 	 13.121397150213 	
H	  6.020864481568 	  0.465305266475 	  8.007510386875 	
H	  5.452320351568 	  0.465308076475 	 18.138067106875 	
H	  6.020833381568 	  6.648867026475 	  8.007507556875 	
H	  5.452289251568 	  6.648869836475 	 18.138064276875 	
H	 20.701691781568 	  0.465314496475 	  8.035640316875 	
H	 20.133147651568 	  0.465317306475 	 18.166197036875 	
H	 20.701660681568 	  6.648876256475 	  8.035637486875 	
H	 20.133116551568 	  6.648879066475 	 18.166194206875 	
H	  7.668490926136 	  3.544557099878 	  7.479326152153 	
H	  7.099946796136 	  3.544559909878 	 17.609882872153 	
H	  7.668459826136 	  9.728118859878 	  7.479323322153 	
H	  7.099915696136 	  9.728121669878 	 17.609880042153 	
H	 22.349318226136 	  3.544566329878 	  7.507456082153 	
H	 21.780774096136 	  3.544569139878 	 17.638012802153 	
H	 22.349287126136 	  9.728128089878 	  7.507453252153 	
H	 21.780742996136 	  9.728130899878 	 17.638009972153 	
H	  7.934437336662 	  5.693251188821 	  2.336093532565 	
H	  7.365893206662 	  5.693253998821 	 12.466650252565 	
H	  7.934406236662 	 11.876812948821 	  2.336090702565 	
H	  7.365862106662 	 11.876815758821 	 12.466647422565 	
H	 22.615264636662 	  5.693260418821 	  2.364223462565 	
H	 22.046720506662 	  5.693263228821 	 12.494780182565 	
H	 22.615233536662 	 11.876822178821 	  2.364220632565 	
H	 22.046689406662 	 11.876824988821 	 12.494777352565 	
H	  6.286811433542 	  2.613999953764 	  2.864277962956 	
H	  5.718267303542 	  2.614002763764 	 12.994834682956 	
H	  6.286780333542 	  8.797561713764 	  2.864275132956 	
H	  5.718236203542 	  8.797564523764 	 12.994831852956 	
H	 20.967638733542 	  2.614009183764 	  2.892407892956 	
H	 20.399094603542 	  2.614011993764 	 13.022964612956 	
H	 20.967607633542 	  8.797570943764 	  2.892405062956 	
H	 20.399063503542 	  8.797573753764 	 13.022961782956 	
C	  1.995127659775 	  2.553962868211 	  6.539682333478 	
C	  1.426583529775 	  2.553965678211 	 16.670239053478 	
C	  1.995096559775 	  8.737524628211 	  6.539679503478 	
C	  1.426552429775 	  8.737527438211 	 16.670236223478 	
C	 16.675954959775 	  2.553972098211 	  6.567812263478 	
C	 16.107410829775 	  2.553974908211 	 16.698368983478 	
C	 16.675923859775 	  8.737533858211 	  6.567809433478 	
C	 16.107379729775 	  8.737536668211 	 16.698366153478 	
C	 11.689609832422 	  5.626793660936 	  8.945953092353 	
C	 11.121065702422 	  5.626796470936 	 19.076509812353 	
C	 11.689578732422 	 11.810355420936 	  8.945950262353 	
C	 11.121034602422 	 11.810358230936 	 19.076506982353 	
C	 26.370437132422 	  5.626802890936 	  8.974083022353 	
C	 25.801893002422 	  5.626805700936 	 19.104639742353 	
C	 26.370406032422 	 11.810364650936 	  8.974080192353 	
C	 25.801861902422 	 11.810367460936 	 19.104636912353 	
C	 11.960174061581 	  3.604593937419 	  3.803921784215 	
C	 11.391629931581 	  3.604596747419 	 13.934478504215 	
C	 11.960142961581 	  9.788155697419 	  3.803918954215 	
C	 11.391598831581 	  9.788158507419 	 13.934475674215 	
C	 26.641001361581 	  3.604603167419 	  3.832051714215 	
C	 26.072457231581 	  3.604605977419 	 13.962608434215 	
C	 26.640970261581 	  9.788164927419 	  3.832048884215 	
C	 26.072426131581 	  9.788167737419 	 13.962605604215 	
C	  2.265692473349 	  0.531763237084 	  1.397651353251 	
C	  1.697148343349 	  0.531766047084 	 11.528208073251 	
C	  2.265661373349 	  6.715324997084 	  1.397648523251 	
C	  1.697117243349 	  6.715327807084 	 11.528205243251 	
C	 16.946519773349 	  0.531772467084 	  1.425781283251 	
C	 16.377975643349 	  0.531775277084 	 11.556338003251 	
C	 16.946488673349 	  6.715334227084 	  1.425778453251 	
C	 16.377944543349 	  6.715337037084 	 11.556335173251 	
C	  2.212710857342 	  2.887692244635 	  5.400519957865 	
C	  1.644166727342 	  2.887695054635 	 15.531076677865 	
C	  2.212679757342 	  9.071254004635 	  5.400517127865 	
C	  1.644135627342 	  9.071256814635 	 15.531073847865 	
C	 16.893538157342 	  2.887701474635 	  5.428649887865 	
C	 16.324994027342 	  2.887704284635 	 15.559206607865 	
C	 16.893507057342 	  9.071263234635 	  5.428647057865 	
C	 16.324962927342 	  9.071266044635 	 15.559203777865 	
C	 11.475724650363 	 -0.183524771441 	 10.061911786708 	
C	 10.907180520363 	 -0.183521961441 	 20.192468506708 	
C	 11.475693550363 	  6.000036988559 	 10.061908956708 	
C	 10.907149420363 	  6.000039798559 	 20.192465676708 	
C	 26.156551950363 	 -0.183515541441 	 10.090041716708 	
C	 25.588007820363 	 -0.183512731441 	 20.220598436708 	
C	 26.156520850363 	  6.000046218559 	 10.090038886708 	
C	 25.587976720363 	  6.000049028559 	 20.220595606708 	
C	 11.742590277318 	  3.270864381543 	  4.943085055765 	
C	 11.174046147318 	  3.270867191543 	 15.073641775765 	
C	 11.742559177318 	  9.454426141543 	  4.943082225765 	
C	 11.174015047318 	  9.454428951543 	 15.073638945765 	
C	 26.423417577318 	  3.270873611543 	  4.971214985765 	
C	 25.854873447318 	  3.270876421543 	 15.101771705765 	
C	 26.423386477318 	  9.454435371543 	  4.971212155765 	
C	 25.854842347318 	  9.454438181543 	 15.101768875765 	
C	  2.479577578397 	  6.342081899793 	  0.281692559614 	
C	  1.911033448397 	  6.342084709793 	 10.412249279614 	
C	  2.479546478397 	 12.525643659793 	  0.281689729614 	
C	  1.911002348397 	 12.525646469793 	 10.412246449614 	
C	 17.160404878397 	  6.342091129793 	  0.309822489614 	
C	 16.591860748397 	  6.342093939793 	 10.440379209614 	
C	 17.160373778397 	 12.525652889793 	  0.309819659614 	
C	 16.591829648397 	 12.525655699793 	 10.440376379614 	
H	  2.799036487182 	  3.812492714353 	  5.267298611842 	
H	  2.230492357182 	  3.812495524353 	 15.397855331842 	
H	  2.799005387182 	  9.996054474353 	  5.267295781842 	
H	  2.230461257182 	  9.996057284353 	 15.397852501842 	
H	 17.479863787182 	  3.812501944353 	  5.295428541842 	
H	 16.911319657182 	  3.812504754353 	 15.425985261842 	
H	 17.479832687182 	  9.996063704353 	  5.295425711842 	
H	 16.911288557182 	  9.996066514353 	 15.425982431842 	
H	 10.894051111541 	  0.734410827194 	 10.218512224307 	
H	 10.325506981541 	  0.734413637194 	 20.349068944307 	
H	 10.894020011541 	  6.917972587194 	 10.218509394307 	
H	 10.325475881541 	  6.917975397194 	 20.349066114307 	
H	 25.574878411541 	  0.734420057194 	 10.246642154307 	
H	 25.006334281541 	  0.734422867194 	 20.377198874307 	
H	 25.574847311541 	  6.917981817194 	 10.246639324307 	
H	 25.006303181541 	  6.917984627194 	 20.377196044307 	
H	 11.156265133837 	  2.346063007072 	  5.076305864311 	
H	 10.587721003837 	  2.346065817072 	 15.206862584311 	
H	 11.156234033837 	  8.529624767072 	  5.076303034311 	
H	 10.587689903837 	  8.529627577072 	 15.206859754311 	
H	 25.837092433837 	  2.346072237072 	  5.104435794311 	
H	 25.268548303837 	  2.346075047072 	 15.234992514311 	
H	 25.837061333837 	  8.529633997072 	  5.104432964311 	
H	 25.268517203837 	  8.529636807072 	 15.234989684311 	
H	  3.061251101530 	  5.424146391347 	  0.125091860557 	
H	  2.492706971530 	  5.424149201347 	 10.255648580557 	
H	  3.061220001530 	 11.607708151347 	  0.125089030557 	
H	  2.492675871530 	 11.607710961347 	 10.255645750557 	
H	 17.742078401530 	  5.424155621347 	  0.153221790557 	
H	 17.173534271530 	  5.424158431347 	 10.283778510557 	
H	 17.742047301530 	 11.607717381347 	  0.153218960557 	
H	 17.173503171530 	 11.607720191347 	 10.283775680557 	
H	  1.396431114753 	  3.015751606146 	  4.613431858695 	
H	  0.827886984753 	  3.015754416146 	 14.743988578695 	
H	  1.396400014753 	  9.199313366146 	  4.613429028695 	
H	  0.827855884753 	  9.199316176146 	 14.743985748695 	
H	 16.077258414753 	  3.015760836146 	  4.641561788695 	
H	 15.508714284753 	  3.015763646146 	 14.772118508695 	
H	 16.077227314753 	  9.199322596146 	  4.641558958695 	
H	 15.508683184753 	  9.199325406146 	 14.772115678695 	
H	 12.836624570667 	 -0.060713621717 	  0.599790829404 	
H	 12.268080440667 	 -0.060710811717 	 10.730347549404 	
H	 12.836593470667 	  6.122848138283 	  0.599787999404 	
H	 12.268049340667 	  6.122850948283 	 10.730344719404 	
H	 27.517451870667 	 -0.060704391717 	  0.627920759404 	
H	 26.948907740667 	 -0.060701581717 	 10.758477479404 	
H	 27.517420770667 	  6.122857368283 	  0.627917929404 	
H	 26.948876640667 	  6.122860178283 	 10.758474649404 	
H	 12.558870209818 	  3.142805561621 	  5.730172899964 	
H	 11.990326079818 	  3.142808371621 	 15.860729619964 	
H	 12.558839109818 	  9.326367321621 	  5.730170069964 	
H	 11.990294979818 	  9.326370131621 	 15.860726789964 	
H	 27.239697509818 	  3.142814791621 	  5.758302829964 	
H	 26.671153379818 	  3.142817601621 	 15.888859549964 	
H	 27.239666409818 	  9.326376551621 	  5.758299999964 	
H	 26.671122279818 	  9.326379361621 	 15.888856719964 	
H	  1.118677648305 	  6.219270808202 	  9.743813556294 	
H	  0.550133518305 	  6.219273618202 	 19.874370276294 	
H	  1.118646548305 	 12.402832568202 	  9.743810726294 	
H	  0.550102418305 	 12.402835378202 	 19.874367446294 	
H	 15.799504948305 	  6.219280038202 	  9.771943486294 	
H	 15.230960818305 	  6.219282848202 	 19.902500206294 	
H	 15.799473848305 	 12.402841798202 	  9.771940656294 	
H	 15.230929718305 	 12.402844608202 	 19.902497376294 	
H	  2.945085696221 	  2.284873658869 	  4.832538456936 	
H	  2.376541566221 	  2.284876468869 	 14.963095176936 	
H	  2.945054596221 	  8.468435418869 	  4.832535626936 	
H	  2.376510466221 	  8.468438228869 	 14.963092346936 	
H	 17.625912996221 	  2.284882888869 	  4.860668386936 	
H	 17.057368866221 	  2.284885698869 	 14.991225106936 	
H	 17.625881896221 	  8.468444648869 	  4.860665556936 	
H	 17.057337766221 	  8.468447458869 	 14.991222276936 	
H	 11.261316452268 	  5.353590780612 	  0.383871069044 	
H	 10.692772322268 	  5.353593590612 	 10.514427789044 	
H	 11.261285352268 	 11.537152540612 	  0.383868239044 	
H	 10.692741222268 	 11.537155350612 	 10.514424959044 	
H	 25.942143752268 	  5.353600010612 	  0.412000999044 	
H	 25.373599622268 	  5.353602820612 	 10.542557719044 	
H	 25.942112652268 	 11.537161770612 	  0.411998169044 	
H	 25.373568522268 	 11.537164580612 	 10.542554889044 	
H	 11.010215004693 	  3.873683651430 	  5.511066169916 	
H	 10.441670874693 	  3.873686461430 	 15.641622889916 	
H	 11.010183904693 	 10.057245411430 	  5.511063339916 	
H	 10.441639774693 	 10.057248221430 	 15.641620059916 	
H	 25.691042304693 	  3.873692881430 	  5.539196099916 	
H	 25.122498174693 	  3.873695691430 	 15.669752819916 	
H	 25.691011204693 	 10.057254641430 	  5.539193269916 	
H	 25.122467074693 	 10.057257451430 	 15.669749989916 	
H	  2.693985823025 	  0.804966471556 	  9.959733461738 	
H	  2.125441693025 	  0.804969281556 	 20.090290181738 	
H	  2.693954723025 	  6.988528231556 	  9.959730631738 	
H	  2.125410593025 	  6.988531041556 	 20.090287351738 	
H	 17.374813123025 	  0.804975701556 	  9.987863391738 	
H	 16.806268993025 	  0.804978511556 	 20.118420111738 	
H	 17.374782023025 	  6.988537461556 	  9.987860561738 	
H	 16.806237893025 	  6.988540271556 	 20.118417281738 	
C	  1.189387758065 	  3.337283979397 	  6.966111560734 	
C	  0.620843628065 	  3.337286789397 	 17.096668280734 	
C	  1.189356658065 	  9.520845739397 	  6.966108730734 	
C	  0.620812528065 	  9.520848549397 	 17.096665450734 	
C	 15.870215058065 	  3.337293209397 	  6.994241490734 	
C	 15.301670928065 	  3.337296019397 	 17.124798210734 	
C	 15.870183958065 	  9.520854969397 	  6.994238660734 	
C	 15.301639828065 	  9.520857779397 	 17.124795380734 	
C	 12.509692027730 	  0.268840801019 	  8.517381347207 	
C	 11.941147897730 	  0.268843611019 	 18.647938067207 	
C	 12.509660927730 	  6.452402561019 	  8.517378517207 	
C	 11.941116797730 	  6.452405371019 	 18.647935237207 	
C	 27.190519327730 	  0.268850031019 	  8.545511277207 	
C	 26.621975197730 	  0.268852841019 	 18.676067997207 	
C	 27.190488227730 	  6.452411791019 	  8.545508447207 	
C	 26.621944097730 	  6.452414601019 	 18.676065167207 	
C	 12.765914531522 	  2.821272393077 	  3.377492334672 	
C	 12.197370401522 	  2.821275203077 	 13.508049054672 	
C	 12.765883431522 	  9.004834153077 	  3.377489504672 	
C	 12.197339301522 	  9.004836963077 	 13.508046224672 	
C	 27.446741831522 	  2.821281623077 	  3.405622264672 	
C	 26.878197701522 	  2.821284433077 	 13.536178984672 	
C	 27.446710731522 	  9.004843383077 	  3.405619434672 	
C	 26.878166601522 	  9.004846193077 	 13.536176154672 	
C	  1.445610260659 	  5.889715846933 	  1.826222913325 	
C	  0.877066130659 	  5.889718656933 	 11.956779633325 	
C	  1.445579160659 	 12.073277606933 	  1.826220083325 	
C	  0.877035030659 	 12.073280416933 	 11.956776803325 	
C	 16.126437560659 	  5.889725076933 	  1.854352843325 	
C	 15.557893430659 	  5.889727886933 	 11.984909563325 	
C	 16.126406460659 	 12.073286836933 	  1.854350013325 	
C	 15.557862330659 	 12.073289646933 	 11.984906733325 	
H	  1.508916437768 	  4.404712512539 	  7.101592816874 	
H	  0.940372307768 	  4.404715322539 	 17.232149536874 	
H	  1.508885337768 	 10.588274272539 	  7.101589986874 	
H	  0.940341207768 	 10.588277082539 	 17.232146706874 	
H	 16.189743737768 	  4.404721742539 	  7.129722746874 	
H	 15.621199607768 	  4.404724552539 	 17.260279466874 	
H	 16.189712637768 	 10.588283502539 	  7.129719916874 	
H	 15.621168507768 	 10.588286312539 	 17.260276636874 	
H	 12.178792517096 	  1.328584358166 	  8.385774788926 	
H	 11.610248387096 	  1.328587168166 	 18.516331508926 	
H	 12.178761417096 	  7.512146118166 	  8.385771958926 	
H	 11.610217287096 	  7.512148928166 	 18.516328678926 	
H	 26.859619817096 	  1.328593588166 	  8.413904718926 	
H	 26.291075687096 	  1.328596398166 	 18.544461438926 	
H	 26.859588717096 	  7.512155348166 	  8.413901888926 	
H	 26.291044587096 	  7.512158158166 	 18.544458608926 	
H	 12.446385656927 	  1.753843551793 	  3.242011234922 	
H	 11.877841526927 	  1.753846361793 	 13.372567954922 	
H	 12.446354556927 	  7.937405311793 	  3.242008404922 	
H	 11.877810426927 	  7.937408121793 	 13.372565124922 	
H	 27.127212956927 	  1.753852781793 	  3.270141164922 	
H	 26.558668826927 	  1.753855591793 	 13.400697884922 	
H	 27.127181856927 	  7.937414541793 	  3.270138334922 	
H	 26.558637726927 	  7.937417351793 	 13.400695054922 	
H	  1.776509890300 	  4.829972334794 	  1.957829124471 	
H	  1.207965760300 	  4.829975144794 	 12.088385844471 	
H	  1.776478790300 	 11.013534094794 	  1.957826294471 	
H	  1.207934660300 	 11.013536904794 	 12.088383014471 	
H	 16.457337190300 	  4.829981564794 	  1.985959054471 	
H	 15.888793060300 	  4.829984374794 	 12.116515774471 	
H	 16.457306090300 	 11.013543324794 	  1.985956224471 	
H	 15.888761960300 	 11.013546134794 	 12.116512944471 	
H	  0.881597713084 	  3.227505811445 	  8.045997491047 	
H	  0.313053583084 	  3.227508621445 	 18.176554211047 	
H	  0.881566613084 	  9.411067571445 	  8.045994661047 	
H	  0.313022483084 	  9.411070381445 	 18.176551381047 	
H	 15.562425013084 	  3.227515041445 	  8.074127421047 	
H	 14.993880883084 	  3.227517851445 	 18.204684141047 	
H	 15.562393913084 	  9.411076801445 	  8.074124591047 	
H	 14.993849783084 	  9.411079611445 	 18.204681311047 	
H	 12.807783752809 	  6.299769617030 	  7.443558435445 	
H	 12.239239622809 	  6.299772427030 	 17.574115155445 	
H	 12.807752652809 	 12.483331377030 	  7.443555605445 	
H	 12.239208522809 	 12.483334187030 	 17.574112325445 	
H	 27.488611052809 	  6.299778847030 	  7.471688365445 	
H	 26.920066922809 	  6.299781657030 	 17.602245085445 	
H	 27.488579952809 	 12.483340607030 	  7.471685535445 	
H	 26.920035822809 	 12.483343417030 	 17.602242255445 	
H	 13.073705068242 	  2.931051027815 	  2.297606339917 	
H	 12.505160938242 	  2.931053837815 	 12.428163059917 	
H	 13.073673968242 	  9.114612787815 	  2.297603509917 	
H	 12.505129838242 	  9.114615597815 	 12.428160229917 	
H	 27.754532368242 	  2.931060257815 	  2.325736269917 	
H	 27.185988238242 	  2.931063067815 	 12.456292989917 	
H	 27.754501268242 	  9.114622017815 	  2.325733439917 	
H	 27.185957138242 	  9.114624827815 	 12.456290159917 	
H	  1.147518659729 	 -0.141213172836 	  2.900045956858 	
H	  0.578974529729 	 -0.141210362836 	 13.030602676858 	
H	  1.147487559729 	  6.042348587164 	  2.900043126858 	
H	  0.578943429729 	  6.042351397164 	 13.030599846858 	
H	 15.828345959729 	 -0.141203942836 	  2.928175886858 	
H	 15.259801829729 	 -0.141201132836 	 13.058732606858 	
H	 15.828314859729 	  6.042357817164 	  2.928173056858 	
H	 15.259770729729 	  6.042360627164 	 13.058729776858 	
H	  0.201002972089 	  3.439596363910 	  6.415208417981 	
H	 -0.367541157911 	  3.439599173910 	 16.545765137981 	
H	  0.200971872089 	  9.623158123910 	  6.415205587981 	
H	 -0.367572257911 	  9.623160933910 	 16.545762307981 	
H	 14.881830272089 	  3.439605593910 	  6.443338347981 	
H	 14.313286142089 	  3.439608403910 	 16.573895067981 	
H	 14.881799172089 	  9.623167353910 	  6.443335517981 	
H	 14.313255042089 	  9.623170163910 	 16.573892237981 	
H	 13.485003243275 	  6.516317201312 	  9.069447062223 	
H	 12.916459113275 	  6.516320011312 	 19.200003782223 	
H	 13.484972143275 	 12.699878961312 	  9.069444232223 	
H	 12.916428013275 	 12.699881771312 	 19.200000952223 	
H	 28.165830543275 	  6.516326431312 	  9.097576992223 	
H	 27.597286413275 	  6.516329241312 	 19.228133712223 	
H	 28.165799443275 	 12.699888191312 	  9.097574162223 	
H	 27.597255313275 	 12.699891001312 	 19.228130882223 	
H	 13.754299036332 	  2.718960199463 	  3.928395898405 	
H	 13.185754906332 	  2.718963009463 	 14.058952618405 	
H	 13.754267936332 	  8.902521959463 	  3.928393068405 	
H	 13.185723806332 	  8.902524769463 	 14.058949788405 	
H	 28.435126336332 	  2.718969429463 	  3.956525828405 	
H	 27.866582206332 	  2.718972239463 	 14.087082548405 	
H	 28.435095236332 	  8.902531189463 	  3.956522998405 	
H	 27.866551106332 	  8.902533999463 	 14.087079718405 	
H	  0.470298978991 	 -0.357760599244 	  1.274157320995 	
H	 -0.098245151009 	 -0.357757789244 	 11.404714040995 	
H	  0.470267878991 	  5.825801160756 	  1.274154490995 	
H	 -0.098276251009 	  5.825803970756 	 11.404711210995 	
H	 15.151126278991 	 -0.357751369244 	  1.302287250995 	
H	 14.582582148991 	 -0.357748559244 	 11.432843970995 	
H	 15.151095178991 	  5.825810390756 	  1.302284420995 	
H	 14.582551048991 	  5.825813200756 	 11.432841140995 	
C	  1.425036333240 	  1.500127237710 	  6.474560067856 	
C	  0.856492203240 	  1.500130047710 	 16.605116787856 	
C	  1.425005233240 	  7.683688997710 	  6.474557237856 	
C	  0.856461103240 	  7.683691807710 	 16.605113957856 	
C	 16.105863633240 	  1.500136467710 	  6.502689997856 	
C	 15.537319503240 	  1.500139277710 	 16.633246717856 	
C	 16.105832533240 	  7.683698227710 	  6.502687167856 	
C	 15.537288403240 	  7.683701037710 	 16.633243887856 	
C	 12.264212064965 	  4.579921765578 	  9.012414822027 	
C	 11.695667934965 	  4.579924575578 	 19.142971542027 	
C	 12.264180964965 	 10.763483525578 	  9.012411992027 	
C	 11.695636834965 	 10.763486335578 	 19.142968712027 	
C	 26.945039364965 	  4.579930995578 	  9.040544752027 	
C	 26.376495234965 	  4.579933805578 	 19.171101472027 	
C	 26.945008264965 	 10.763492755578 	  9.040541922027 	
C	 26.376464134965 	 10.763495565578 	 19.171098642027 	
C	 12.530265554744 	  4.658430664157 	  3.869043792854 	
C	 11.961721424744 	  4.658433474157 	 13.999600512854 	
C	 12.530234454744 	 10.841992424157 	  3.869040962854 	
C	 11.961690324744 	 10.841995234157 	 13.999597682854 	
C	 27.211092854744 	  4.658439894157 	  3.897173722854 	
C	 26.642548724744 	  4.658442704157 	 14.027730442854 	
C	 27.211061754744 	 10.842001654157 	  3.897170892854 	
C	 26.642517624744 	 10.842004464157 	 14.027727612854 	
C	  1.691090024483 	  1.578635012086 	  1.331189863470 	
C	  1.122545894483 	  1.578637822086 	 11.461746583470 	
C	  1.691058924483 	  7.762196772086 	  1.331187033470 	
C	  1.122514794483 	  7.762199582086 	 11.461743753470 	
C	 16.371917324483 	  1.578644242086 	  1.359319793470 	
C	 15.803373194483 	  1.578647052086 	 11.489876513470 	
C	 16.371886224483 	  7.762206002086 	  1.359316963470 	
C	 15.803342094483 	  7.762208812086 	 11.489873683470 	
H	  0.421486336437 	  1.390864069522 	  5.949005295322 	
H	 -0.147057793563 	  1.390866879522 	 16.079562015322 	
H	  0.421455236437 	  7.574425829522 	  5.949002465322 	
H	 -0.147088893563 	  7.574428639522 	 16.079559185322 	
H	 15.102313636437 	  1.390873299522 	  5.977135225322 	
H	 14.533769506437 	  1.390876109522 	 16.107691945322 	
H	 15.102282536437 	  7.574435059522 	  5.977132395322 	
H	 14.533738406437 	  7.574437869522 	 16.107689115322 	
H	 13.267828801216 	  4.470178804950 	  9.537852788750 	
H	 12.699284671216 	  4.470181614950 	 19.668409508750 	
H	 13.267797701216 	 10.653740564950 	  9.537849958750 	
H	 12.699253571216 	 10.653743374950 	 19.668406678750 	
H	 27.948656101216 	  4.470188034950 	  9.565982718750 	
H	 27.380111971216 	  4.470190844950 	 19.696539438750 	
H	 27.948625001216 	 10.653749794950 	  9.565979888750 	
H	 27.380080871216 	 10.653752604950 	 19.696536608750 	
H	 13.533815410229 	  4.767693466461 	  4.394598751748 	
H	 12.965271280229 	  4.767696276461 	 14.525155471748 	
H	 13.533784310229 	 10.951255226461 	  4.394595921748 	
H	 12.965240180229 	 10.951258036461 	 14.525152641748 	
H	 28.214642710229 	  4.767702696461 	  4.422728681748 	
H	 27.646098580229 	  4.767705506461 	 14.553285401748 	
H	 28.214611610229 	 10.951264456461 	  4.422725851748 	
H	 27.646067480229 	 10.951267266461 	 14.553282571748 	
H	  0.687473265790 	  1.688377912330 	  0.805751950133 	
H	  0.118929135790 	  1.688380722330 	 10.936308670133 	
H	  0.687442165790 	  7.871939672330 	  0.805749120133 	
H	  0.118898035790 	  7.871942482330 	 10.936305840133 	
H	 15.368300565790 	  1.688387142330 	  0.833881880133 	
H	 14.799756435790 	  1.688389952330 	 10.964438600133 	
H	 15.368269465790 	  7.871948902330 	  0.833879050133 	
H	 14.799725335790 	  7.871951712330 	 10.964435770133 	
H	  1.245340640429 	  0.980854307307 	  7.449354470632 	
H	  0.676796510429 	  0.980857117307 	 17.579911190632 	
H	  1.245309540429 	  7.164416067307 	  7.449351640632 	
H	  0.676765410429 	  7.164418877307 	 17.579908360632 	
H	 15.926167940429 	  0.980863537307 	  7.477484400632 	
H	 15.357623810429 	  0.980866347307 	 17.608041120632 	
H	 15.926136840429 	  7.164425297307 	  7.477481570632 	
H	 15.357592710429 	  7.164428107307 	 17.608038290632 	
H	 12.444009834734 	  4.060218952334 	  8.037489817079 	
H	 11.875465704734 	  4.060221762334 	 18.168046537079 	
H	 12.443978734734 	 10.243780712334 	  8.037486987079 	
H	 11.875434604734 	 10.243783522334 	 18.168043707079 	
H	 27.124837134734 	  4.060228182334 	  8.065619747079 	
H	 26.556293004734 	  4.060230992334 	 18.196176467079 	
H	 27.124806034734 	 10.243789942334 	  8.065616917079 	
H	 26.556261904734 	 10.243792752334 	 18.196173637079 	
H	 12.709961315653 	  5.177703262305 	  2.894248832351 	
H	 12.141417185653 	  5.177706072305 	 13.024805552351 	
H	 12.709930215653 	 11.361265022305 	  2.894246002351 	
H	 12.141386085653 	 11.361267832305 	 13.024802722351 	
H	 27.390788615653 	  5.177712492305 	  2.922378762351 	
H	 26.822244485653 	  5.177715302305 	 13.052935482351 	
H	 27.390757515653 	 11.361274252305 	  2.922375932351 	
H	 26.822213385653 	 11.361277062305 	 13.052932652351 	
H	  1.511292228525 	  2.098337603379 	  2.306114913379 	
H	  0.942748098525 	  2.098340413379 	 12.436671633379 	
H	  1.511261128525 	  8.281899363379 	  2.306112083379 	
H	  0.942716998525 	  8.281902173379 	 12.436668803379 	
H	 16.192119528525 	  2.098346833379 	  2.334244843379 	
H	 15.623575398525 	  2.098349643379 	 12.464801563379 	
H	 16.192088428525 	  8.281908593379 	  2.334242013379 	
H	 15.623544298525 	  8.281911403379 	 12.464798733379 	
H	  1.976889552810 	  0.642458497782 	  6.047408370371 	
H	  1.408345422810 	  0.642461307782 	 16.177965090371 	
H	  1.976858452810 	  6.826020257782 	  6.047405540371 	
H	  1.408314322810 	  6.826023067782 	 16.177962260371 	
H	 16.657716852810 	  0.642467727782 	  6.075538300371 	
H	 16.089172722810 	  0.642470537782 	 16.206095020371 	
H	 16.657685752810 	  6.826029487782 	  6.075535470371 	
H	 16.089141622810 	  6.826032297782 	 16.206092190371 	
H	 11.712446856701 	  3.721834221249 	  9.439443765333 	
H	 11.143902726701 	  3.721837031249 	 19.570000485333 	
H	 11.712415756701 	  9.905395981249 	  9.439440935333 	
H	 11.143871626701 	  9.905398791249 	 19.569997655333 	
H	 26.393274156701 	  3.721843451249 	  9.467573695333 	
H	 25.824730026701 	  3.721846261249 	 19.598130415333 	
H	 26.393243056701 	  9.905405211249 	  9.467570865333 	
H	 25.824698926701 	  9.905408021249 	 19.598127585333 	
H	 11.978411648145 	  5.516099200100 	  4.296196284136 	
H	 11.409867518145 	  5.516102010100 	 14.426753004136 	
H	 11.978380548145 	 11.699660960100 	  4.296193454136 	
H	 11.409836418145 	 11.699663770100 	 14.426750174136 	
H	 26.659238948145 	  5.516108430100 	  4.324326214136 	
H	 26.090694818145 	  5.516111240100 	 14.454882934136 	
H	 26.659207848145 	 11.699670190100 	  4.324323384136 	
H	 26.090663718145 	 11.699673000100 	 14.454880104136 	
H	  2.242855165755 	  2.436722748700 	  0.904161288844 	
H	  1.674311035755 	  2.436725558700 	 11.034718008844 	
H	  2.242824065755 	  8.620284508700 	  0.904158458844 	
H	  1.674279935755 	  8.620287318700 	 11.034715178844 	
H	 16.923682465755 	  2.436731978700 	  0.932291218844 	
H	 16.355138335755 	  2.436734788700 	 11.062847938844 	
H	 16.923651365755 	  8.620293738700 	  0.932288388844 	
H	 16.355107235755 	  8.620296548700 	 11.062845108844 	
768 
Energy: -9.1107979370570007e+01 
S	  8.589579724814 	  1.498891105491 	  0.075903822959 	
S	  8.021035594814 	  1.498893915491 	 10.206460542959 	
S	  8.589548624814 	  7.682452865491 	  0.075900992959 	
S	  8.021004494814 	  7.682455675491 	 10.206457712959 	
S	 23.270407024814 	  1.498900335491 	  0.104033752959 	
S	 22.701862894814 	  1.498903145491 	 10.234590472959 	
S	 23.270375924814 	  7.682462095491 	  0.104030922959 	
S	 22.701831794814 	  7.682464905491 	 10.234587642959 	
S	  5.570267757063 	  4.573330767492 	  5.161403947468 	
S	  5.001723627063 	  4.573333577492 	 15.291960667468 	
S	  5.570236657063 	 10.756892527492 	  5.161401117468 	
S	  5.001692527063 	 10.756895337492 	 15.291957837468 	
S	 20.251095057063 	  4.573339997492 	  5.189533877468 	
S	 19.682550927063 	  4.573342807492 	 15.320090597468 	
S	 20.251063957063 	 10.756901757492 	  5.189531047468 	
S	 19.682519827063 	 10.756904567492 	 15.320087767468 	
S	  5.311207564704 	  4.650976000676 	 10.331930296335 	
S	  4.742663434704 	  4.650978810676 	 20.462487016335 	
S	  5.311176464704 	 10.834537760676 	 10.331927466335 	
S	  4.742632334704 	 10.834540570676 	 20.462484186335 	
S	 19.992034864704 	  4.650985230676 	 10.360060226335 	
S	 19.423490734704 	  4.650988040676 	 20.490616946335 	
S	 19.992003764704 	 10.834546990676 	 10.360057396335 	
S	 19.423459634704 	 10.834549800676 	 20.490614116335 	
S	  8.330520274442 	  1.576536768450 	  5.246430180580 	
S	  7.761976144442 	  1.576539578450 	 15.376986900580 	
S	  8.330489174442 	  7.760098528450 	  5.246427350580 	
S	  7.761945044442 	  7.760101338450 	 15.376984070580 	
S	 23.011347574442 	  1.576545998450 	  5.274560110580 	
S	 22.442803444442 	  1.576548808450 	 15.405116830580 	
S	 23.011316474442 	  7.760107758450 	  5.274557280580 	
S	 22.442772344442 	  7.760110568450 	 15.405114000580 	
C	  6.683606031706 	  2.526769244988 	 10.006963761323 	
C	  6.115061901706 	  2.526772054988 	 20.137520481323 	
C	  6.683574931706 	  8.710331004988 	 10.006960931323 	
C	  6.115030801706 	  8.710333814988 	 20.137517651323 	
C	 21.364433331706 	  2.526778474988 	 10.035093691323 	
C	 20.795889201706 	  2.526781284988 	 20.165650411323 	
C	 21.364402231706 	  8.710340234988 	 10.035090861323 	
C	 20.795858101706 	  8.710343044988 	 20.165647581323 	
C	  6.957405494505 	  5.600305205575 	  5.571887378009 	
C	  6.388861364505 	  5.600308015575 	 15.702444098009 	
C	  6.957374394505 	 11.783866965575 	  5.571884548009 	
C	  6.388830264505 	 11.783869775575 	 15.702441268009 	
C	 21.638232794505 	  5.600314435575 	  5.600017308009 	
C	 21.069688664505 	  5.600317245575 	 15.730574028009 	
C	 21.638201694505 	 11.783876195575 	  5.600014478009 	
C	 21.069657564505 	 11.783879005575 	 15.730571198009 	
C	  7.217181275548 	  3.623097823575 	  0.400870294068 	
C	  6.648637145548 	  3.623100633575 	 10.531427014068 	
C	  7.217150175548 	  9.806659583575 	  0.400867464068 	
C	  6.648606045548 	  9.806662393575 	 10.531424184068 	
C	 21.898008575548 	  3.623107053575 	  0.429000224068 	
C	 21.329464445548 	  3.623109863575 	 10.559556944068 	
C	 21.897977475548 	  9.806668813575 	  0.428997394068 	
C	 21.329433345548 	  9.806671623575 	 10.559554114068 	
C	  6.943382393610 	  0.549562424972 	  4.835946676553 	
C	  6.374838263610 	  0.549565234972 	 14.966503396553 	
C	  6.943351293610 	  6.733124184972 	  4.835943846553 	
C	  6.374807163610 	  6.733126994972 	 14.966500566553 	
C	 21.624209693610 	  0.549571654972 	  4.864076606553 	
C	 21.055665563610 	  0.549574464972 	 14.994633326553 	
C	 21.624178593610 	  6.733133414972 	  4.864073776553 	
C	 21.055634463610 	  6.733136224972 	 14.994630496553 	
C	  5.630834850646 	  2.356454729799 	  9.066987537999 	
C	  5.062290720646 	  2.356457539799 	 19.197544257999 	
C	  5.630803750646 	  8.540016489799 	  9.066984707999 	
C	  5.062259620646 	  8.540019299799 	 19.197541427999 	
C	 20.311662150646 	  2.356463959799 	  9.095117467999 	
C	 19.743118020646 	  2.356466769799 	 19.225674187999 	
C	 20.311631050646 	  8.540025719799 	  9.095114637999 	
C	 19.743086920646 	  8.540028529799 	 19.225671357999 	
C	  8.010397126413 	  5.430882181999 	  6.511244137551 	
C	  7.441852996413 	  5.430884991999 	 16.641800857551 	
C	  8.010366026413 	 11.614443941999 	  6.511241307551 	
C	  7.441821896413 	 11.614446751999 	 16.641798027551 	
C	 22.691224426413 	  5.430891411999 	  6.539374067551 	
C	 22.122680296413 	  5.430894221999 	 16.669930787551 	
C	 22.691193326413 	 11.614453171999 	  6.539371237551 	
C	 22.122649196413 	 11.614455981999 	 16.669927957551 	
C	  8.269952337117 	  3.793412392363 	  1.340846427871 	
C	  7.701408207117 	  3.793415202363 	 11.471403147871 	
C	  8.269921237117 	  9.976974152363 	  1.340843597871 	
C	  7.701377107117 	  9.976976962363 	 11.471400317871 	
C	 22.950779637117 	  3.793421622363 	  1.368976357871 	
C	 22.382235507117 	  3.793424432363 	 11.499533077871 	
C	 22.950748537117 	  9.976983382363 	  1.368973527871 	
C	 22.382204407117 	  9.976986192363 	 11.499530247871 	
C	  5.890390650118 	  0.718985438393 	  3.896589956259 	
C	  5.321846520118 	  0.718988248393 	 14.027146676259 	
C	  5.890359550118 	  6.902547198393 	  3.896587126259 	
C	  5.321815420118 	  6.902550008393 	 14.027143846259 	
C	 20.571217950118 	  0.718994668393 	  3.924719886259 	
C	 20.002673820118 	  0.718997478393 	 14.055276606259 	
C	 20.571186850118 	  6.902556428393 	  3.924717056259 	
C	 20.002642720118 	  6.902559238393 	 14.055273776259 	
C	  4.759244146169 	  3.448034339113 	  9.116236351965 	
C	  4.190700016169 	  3.448037149113 	 19.246793071965 	
C	  4.759213046169 	  9.631596099113 	  9.116233521965 	
C	  4.190668916169 	  9.631598909113 	 19.246790241965 	
C	 19.440071446169 	  3.448043569113 	  9.144366281965 	
C	 18.871527316169 	  3.448046379113 	 19.274923001965 	
C	 19.440040346169 	  9.631605329113 	  9.144363451965 	
C	 18.871496216169 	  9.631608139113 	 19.274920171965 	
C	  8.882141039073 	  0.373543619124 	  6.462124879303 	
C	  8.313596909073 	  0.373546429124 	 16.592681599303 	
C	  8.882109939073 	  6.557105379124 	  6.462122049303 	
C	  8.313565809073 	  6.557108189124 	 16.592678769303 	
C	 23.562968339073 	  0.373552849124 	  6.490254809303 	
C	 22.994424209073 	  0.373555659124 	 16.620811529303 	
C	 23.562937239073 	  6.557114609124 	  6.490251979303 	
C	 22.994393109073 	  6.557117419124 	 16.620808699303 	
C	  9.141543036117 	  2.701832809598 	  1.291597682330 	
C	  8.572998906117 	  2.701835619598 	 11.422154402330 	
C	  9.141511936117 	  8.885394569598 	  1.291594852330 	
C	  8.572967806117 	  8.885397379598 	 11.422151572330 	
C	 23.822370336117 	  2.701842039598 	  1.319727612330 	
C	 23.253826206117 	  2.701844849598 	 11.450284332330 	
C	 23.822339236117 	  8.885403799598 	  1.319724782330 	
C	 23.253795106117 	  8.885406609598 	 11.450281502330 	
C	  5.018646790319 	  5.776323962075 	  3.945709305182 	
C	  4.450102660319 	  5.776326772075 	 14.076266025182 	
C	  5.018615690319 	 11.959885722075 	  3.945706475182 	
C	  4.450071560319 	 11.959888532075 	 14.076263195182 	
C	 19.699474090319 	  5.776333192075 	  3.973839235182 	
C	 19.130929960319 	  5.776336002075 	 14.104395955182 	
C	 19.699442990319 	 11.959894952075 	  3.973836405182 	
C	 19.130898860319 	 11.959897762075 	 14.104393125182 	
C	  3.665335766161 	  3.516302703615 	  8.344462684742 	
C	  3.096791636161 	  3.516305513615 	 18.475019404742 	
C	  3.665304666161 	  9.699864463615 	  8.344459854742 	
C	  3.096760536161 	  9.699867273615 	 18.475016574742 	
C	 18.346163066161 	  3.516311933615 	  8.372592614742 	
C	 17.777618936161 	  3.516314743615 	 18.503149334742 	
C	 18.346131966161 	  9.699873693615 	  8.372589784742 	
C	 17.777587836161 	  9.699876503615 	 18.503146504742 	
C	  9.975326938075 	  0.441915207831 	  7.233315619363 	
C	  9.406782808075 	  0.441918017831 	 17.363872339363 	
C	  9.975295838075 	  6.625476967831 	  7.233312789363 	
C	  9.406751708075 	  6.625479777831 	 17.363869509363 	
C	 24.656154238075 	  0.441924437831 	  7.261445549363 	
C	 24.087610108075 	  0.441927247831 	 17.392002269363 	
C	 24.656123138075 	  6.625486197831 	  7.261442719363 	
C	 24.087579008075 	  6.625489007831 	 17.391999439363 	
C	 10.235451425120 	  2.633564549184 	  2.063371508890 	
C	  9.666907295120 	  2.633567359184 	 12.193928228890 	
C	 10.235420325120 	  8.817126309184 	  2.063368678890 	
C	  9.666876195120 	  8.817129119184 	 12.193925398890 	
C	 24.916278725120 	  2.633573779184 	  2.091501438890 	
C	 24.347734595120 	  2.633576589184 	 12.222058158890 	
C	 24.916247625120 	  8.817135539184 	  2.091498608890 	
C	 24.347703495120 	  8.817138349184 	 12.222055328890 	
C	  3.925460690672 	  5.707952390537 	  3.174518771683 	
C	  3.356916560672 	  5.707955200537 	 13.305075491683 	
C	  3.925429590672 	 11.891514150537 	  3.174515941683 	
C	  3.356885460672 	 11.891516960537 	 13.305072661683 	
C	 18.606287990672 	  5.707961620537 	  3.202648701683 	
C	 18.037743860672 	  5.707964430537 	 13.333205421683 	
C	 18.606256890672 	 11.891523380537 	  3.202645871683 	
C	 18.037712760672 	 11.891526190537 	 13.333202591683 	
H	  2.988224996452 	  4.443788567389 	  8.425913976073 	
H	  2.419680866452 	  4.443791377389 	 18.556470696073 	
H	  2.988193896452 	 10.627350327389 	  8.425911146073 	
H	  2.419649766452 	 10.627353137389 	 18.556467866073 	
H	 17.669052296452 	  4.443797797389 	  8.454043906073 	
H	 17.100508166452 	  4.443800607389 	 18.584600626073 	
H	 17.669021196452 	 10.627359557389 	  8.454041076073 	
H	 17.100477066452 	 10.627362367389 	 18.584597796073 	
H	 10.653146893727 	  1.369212199397 	  7.152181398424 	
H	 10.084602763727 	  1.369215009397 	 17.282738118424 	
H	 10.653115793727 	  7.552773959397 	  7.152178568424 	
H	 10.084571663727 	  7.552776769397 	 17.282735288424 	
H	 25.333974193727 	  1.369221429397 	  7.180311328424 	
H	 24.765430063727 	  1.369224239397 	 17.310868048424 	
H	 25.333943093727 	  7.552783189397 	  7.180308498424 	
H	 24.765398963727 	  7.552785999397 	 17.310865218424 	
H	 10.912562154303 	  1.706078639185 	  1.981920253409 	
H	 10.344018024303 	  1.706081449185 	 12.112476973409 	
H	 10.912531054303 	  7.889640399185 	  1.981917423409 	
H	 10.343986924303 	  7.889643209185 	 12.112474143409 	
H	 25.593389454303 	  1.706087869185 	  2.010050183409 	
H	 25.024845324303 	  1.706090679185 	 12.140606903409 	
H	 25.593358354303 	  7.889649629185 	  2.010047353409 	
H	 25.024814224303 	  7.889652439185 	 12.140604073409 	
H	  3.247640865766 	  4.780655307569 	  3.255653088035 	
H	  2.679096735766 	  4.780658117569 	 13.386209808035 	
H	  3.247609765766 	 10.964217067569 	  3.255650258035 	
H	  2.679065635766 	 10.964219877569 	 13.386206978035 	
H	 17.928468165766 	  4.780664537569 	  3.283783018035 	
H	 17.359924035766 	  4.780667347569 	 13.414339738035 	
H	 17.928437065766 	 10.964226297569 	  3.283780188035 	
H	 17.359892935766 	 10.964229107569 	 13.414336908035 	
C	  3.333785191305 	  2.532359981201 	  7.473059463044 	
C	  2.765241061305 	  2.532362791201 	 17.603616183044 	
C	  3.333754091305 	  8.715921741201 	  7.473056633044 	
C	  2.765209961305 	  8.715924551201 	 17.603613353044 	
C	 18.014612491305 	  2.532369211201 	  7.501189393044 	
C	 17.446068361305 	  2.532372021201 	 17.631746113044 	
C	 18.014581391305 	  8.715930971201 	  7.501186563044 	
C	 17.446037261305 	  8.715933781201 	 17.631743283044 	
C	 10.307528393759 	  5.606321183983 	  8.105479780567 	
C	  9.738984263759 	  5.606323993983 	 18.236036500567 	
C	 10.307497293759 	 11.789882943983 	  8.105476950567 	
C	  9.738953163759 	 11.789885753983 	 18.236033670567 	
C	 24.988355693759 	  5.606330413983 	  8.133609710567 	
C	 24.419811563759 	  5.606333223983 	 18.264166430567 	
C	 24.988324593759 	 11.789892173983 	  8.133606880567 	
C	 24.419780463759 	 11.789894983983 	 18.264163600567 	
C	 10.567001848912 	  3.617507283317 	  2.934774592375 	
C	  9.998457718912 	  3.617510093317 	 13.065331312375 	
C	 10.566970748912 	  9.801069043317 	  2.934771762375 	
C	  9.998426618912 	  9.801071853317 	 13.065328482375 	
C	 25.247829148912 	  3.617516513317 	  2.962904522375 	
C	 24.679285018912 	  3.617519323317 	 13.093461242375 	
C	 25.247798048912 	  9.801078273317 	  2.962901692375 	
C	 24.679253918912 	  9.801081083317 	 13.093458412375 	
C	  3.593259130547 	  0.543546412904 	  2.302354670735 	
C	  3.024715000547 	  0.543549222904 	 12.432911390735 	
C	  3.593228030547 	  6.727108172904 	  2.302351840735 	
C	  3.024683900547 	  6.727110982904 	 12.432908560735 	
C	 18.274086430547 	  0.543555642904 	  2.330484600735 	
C	 17.705542300547 	  0.543558452904 	 12.461041320735 	
C	 18.274055330547 	  6.727117402904 	  2.330481770735 	
C	 17.705511200547 	  6.727120212904 	 12.461038490735 	
C	  4.217063355674 	  1.474993174929 	  7.408724296727 	
C	  3.648519225674 	  1.474995984929 	 17.539281016727 	
C	  4.217032255674 	  7.658554934929 	  7.408721466727 	
C	  3.648488125674 	  7.658557744929 	 17.539278186727 	
C	 18.897890655674 	  1.475002404929 	  7.436854226727 	
C	 18.329346525674 	  1.475005214929 	 17.567410946727 	
C	 18.897859555674 	  7.658564164929 	  7.436851396727 	
C	 18.329315425674 	  7.658566974929 	 17.567408116727 	
C	  9.424250588437 	  4.550060294238 	  8.169433478716 	
C	  8.855706458437 	  4.550063104238 	 18.299990198716 	
C	  9.424219488437 	 10.733622054238 	  8.169430648716 	
C	  8.855675358437 	 10.733624864238 	 18.299987368716 	
C	 24.105077888437 	  4.550069524238 	  8.197563408716 	
C	 23.536533758437 	  4.550072334238 	 18.328120128716 	
C	 24.105046788437 	 10.733631284238 	  8.197560578716 	
C	 23.536502658437 	 10.733634094238 	 18.328117298716 	
C	  9.683723659540 	  4.674874076946 	  2.999109764025 	
C	  9.115179529540 	  4.674876886946 	 13.129666484025 	
C	  9.683692559540 	 10.858435836946 	  2.999106934025 	
C	  9.115148429540 	 10.858438646946 	 13.129663654025 	
C	 24.364550959540 	  4.674883306946 	  3.027239694025 	
C	 23.796006829540 	  4.674886116946 	 13.157796414025 	
C	 24.364519859540 	 10.858445066946 	  3.027236864025 	
C	 23.795975729540 	 10.858447876946 	 13.157793584025 	
C	  4.476536826609 	  1.599807254241 	  2.238400817286 	
C	  3.907992696609 	  1.599810064241 	 12.368957537286 	
C	  4.476505726609 	  7.783369014241 	  2.238397987286 	
C	  3.907961596609 	  7.783371824241 	 12.368954707286 	
C	 19.157364126609 	  1.599816484241 	  2.266530747286 	
C	 18.588819996609 	  1.599819294241 	 12.397087467286 	
C	 19.157333026609 	  7.783378244241 	  2.266527917286 	
C	 18.588788896609 	  7.783381054241 	 12.397084637286 	
H	  3.996293959985 	  0.629628812733 	  6.662080452808 	
H	  3.427749829985 	  0.629631622733 	 16.792637172808 	
H	  3.996262859985 	  6.813190572733 	  6.662077622808 	
H	  3.427718729985 	  6.813193382733 	 16.792634342808 	
H	 18.677121259985 	  0.629638042733 	  6.690210382808 	
H	 18.108577129985 	  0.629640852733 	 16.820767102808 	
H	 18.677090159985 	  6.813199802733 	  6.690207552808 	
H	 18.108546029985 	  6.813202612733 	 16.820764272808 	
H	  9.644954603659 	  3.704586522239 	  8.916124229306 	
H	  9.076410473659 	  3.704589332239 	 19.046680949306 	
H	  9.644923503659 	  9.888148282239 	  8.916121399306 	
H	  9.076379373659 	  9.888151092239 	 19.046678119306 	
H	 24.325781903659 	  3.704595752239 	  8.944254159306 	
H	 23.757237773659 	  3.704598562239 	 19.074810879306 	
H	 24.325750803659 	  9.888157512239 	  8.944251329306 	
H	 23.757206673659 	  9.888160322239 	 19.074808049306 	
H	  9.904493104371 	  5.520238481642 	  3.745753542698 	
H	  9.335948974371 	  5.520241291642 	 13.876310262698 	
H	  9.904462004371 	 11.703800241642 	  3.745750712698 	
H	  9.335917874371 	 11.703803051642 	 13.876307432698 	
H	 24.585320404371 	  5.520247711642 	  3.773883472698 	
H	 24.016776274371 	  5.520250521642 	 13.904440192698 	
H	 24.585289304371 	 11.703809471642 	  3.773880642698 	
H	 24.016745174371 	 11.703812281642 	 13.904437362698 	
H	  4.255832662902 	  2.445281092080 	  1.491710180609 	
H	  3.687288532902 	  2.445283902080 	 11.622266900609 	
H	  4.255801562902 	  8.628842852080 	  1.491707350609 	
H	  3.687257432902 	  8.628845662080 	 11.622264070609 	
H	 18.936659962902 	  2.445290322080 	  1.519840110609 	
H	 18.368115832902 	  2.445293132080 	 11.650396830609 	
H	 18.936628862902 	  8.628852082080 	  1.519837280609 	
H	 18.368084732902 	  8.628854892080 	 11.650394000609 	
C	  5.297209145719 	  1.384100359158 	  8.149256326804 	
C	  4.728665015719 	  1.384103169158 	 18.279813046804 	
C	  5.297178045719 	  7.567662119158 	  8.149253496804 	
C	  4.728633915719 	  7.567664929158 	 18.279810216804 	
C	 19.978036445719 	  1.384109589158 	  8.177386256804 	
C	 19.409492315719 	  1.384112399158 	 18.307942976804 	
C	 19.978005345719 	  7.567671349158 	  8.177383426804 	
C	 19.409461215719 	  7.567674159158 	 18.307940146804 	
C	  8.343953531345 	  4.459136610454 	  7.428802146850 	
C	  7.775409401345 	  4.459139420454 	 17.559358866850 	
C	  8.343922431345 	 10.642698370454 	  7.428799316850 	
C	  7.775378301345 	 10.642701180454 	 17.559356036850 	
C	 23.024780831345 	  4.459145840454 	  7.456932076850 	
C	 22.456236701345 	  4.459148650454 	 17.587488796850 	
C	 23.024749731345 	 10.642707600454 	  7.456929246850 	
C	 22.456205601345 	 10.642710410454 	 17.587485966850 	
C	  8.603577950060 	  4.765766832749 	  2.258577606666 	
C	  8.035033820060 	  4.765769642749 	 12.389134326666 	
C	  8.603546850060 	 10.949328592749 	  2.258574776666 	
C	  8.035002720060 	 10.949331402749 	 12.389131496666 	
C	 23.284405250060 	  4.765776062749 	  2.286707536666 	
C	 22.715861120060 	  4.765778872749 	 12.417264256666 	
C	 23.284374150060 	 10.949337822749 	  2.286704706666 	
C	 22.715830020060 	 10.949340632749 	 12.417261426666 	
C	  5.556834076743 	  1.690731004859 	  2.979032038455 	
C	  4.988289946743 	  1.690733814859 	 13.109588758455 	
C	  5.556802976743 	  7.874292764859 	  2.979029208455 	
C	  4.988258846743 	  7.874295574859 	 13.109585928455 	
C	 20.237661376743 	  1.690740234859 	  3.007161968455 	
C	 19.669117246743 	  1.690743044859 	 13.137718688455 	
C	 20.237630276743 	  7.874301994859 	  3.007159138455 	
C	 19.669086146743 	  7.874304804859 	 13.137715858455 	
H	  5.994804569112 	  0.474519962397 	  8.051938420915 	
H	  5.426260439112 	  0.474522772397 	 18.182495140915 	
H	  5.994773469112 	  6.658081722397 	  8.051935590915 	
H	  5.426229339112 	  6.658084532397 	 18.182492310915 	
H	 20.675631869112 	  0.474529192397 	  8.080068350916 	
H	 20.107087739112 	  0.474532002397 	 18.210625070915 	
H	 20.675600769112 	  6.658090952397 	  8.080065520916 	
H	 20.107056639112 	  6.658093762397 	 18.210622240915 	
H	  7.646384803613 	  3.549431321645 	  7.526217779360 	
H	  7.077840673613 	  3.549434131645 	 17.656774499360 	
H	  7.646353703613 	  9.732993081645 	  7.526214949360 	
H	  7.077809573613 	  9.732995891645 	 17.656771669360 	
H	 22.327212103613 	  3.549440551645 	  7.554347709360 	
H	 21.758667973613 	  3.549443361645 	 17.684904429360 	
H	 22.327181003613 	  9.733002311645 	  7.554344879360 	
H	 21.758636873613 	  9.733005121645 	 17.684901599360 	
H	  7.905982461359 	  5.675347175815 	  2.355895450591 	
H	  7.337438331359 	  5.675349985815 	 12.486452170591 	
H	  7.905951361359 	 11.858908935815 	  2.355892620591 	
H	  7.337407231359 	 11.858911745815 	 12.486449340591 	
H	 22.586809761359 	  5.675356405815 	  2.384025380591 	
H	 22.018265631359 	  5.675359215815 	 12.514582100591 	
H	 22.586778661359 	 11.858918165815 	  2.384022550591 	
H	 22.018234531359 	 11.858920975815 	 12.514579270591 	
H	  6.254402767361 	  2.600436299537 	  2.881616318338 	
H	  5.685858637361 	  2.600439109537 	 13.012173038338 	
H	  6.254371667361 	  8.783998059537 	  2.881613488338 	
H	  5.685827537361 	  8.784000869537 	 13.012170208338 	
H	 20.935230067361 	  2.600445529537 	  2.909746248338 	
H	 20.366685937361 	  2.600448339537 	 13.040302968338 	
H	 20.935198967361 	  8.784007289537 	  2.909743418338 	
H	 20.366654837361 	  8.784010099537 	 13.040300138338 	
C	  1.994400180468 	  2.602293822656 	  6.564407761446 	
C	  1.425856050468 	  2.602296632656 	 16.694964481446 	
C	  1.994369080468 	  8.785855582656 	  6.564404931446 	
C	  1.425824950468 	  8.785858392656 	 16.694961651446 	
C	 16.675227480468 	  2.602303052656 	  6.592537691446 	
C	 16.106683350468 	  2.602305862656 	 16.723094411446 	
C	 16.675196380468 	  8.785864812656 	  6.592534861446 	
C	 16.106652250468 	  8.785867622656 	 16.723091581446 	
C	 11.637458103910 	  5.665531841139 	  9.010914840723 	
C	 11.068913973910 	  5.665534651139 	 19.141471560723 	
C	 11.637427003910 	 11.849093601139 	  9.010912010723 	
C	 11.068882873910 	 11.849096411139 	 19.141468730723 	
C	 26.318285403910 	  5.665541071139 	  9.039044770723 	
C	 25.749741273910 	  5.665543881139 	 19.169601490723 	
C	 26.318254303910 	 11.849102831139 	  9.039041940723 	
C	 25.749710173910 	 11.849105641139 	 19.169598660723 	
C	 11.906386824010 	  3.547573708005 	  3.843426509165 	
C	 11.337842694010 	  3.547576518005 	 13.973983229165 	
C	 11.906355724010 	  9.731135468005 	  3.843423679165 	
C	 11.337811594010 	  9.731138278005 	 13.973980399165 	
C	 26.587214124010 	  3.547582938005 	  3.871556439165 	
C	 26.018669994010 	  3.547585748005 	 14.002113159165 	
C	 26.587183024010 	  9.731144698005 	  3.871553609165 	
C	 26.018638894010 	  9.731147508005 	 14.002110329165 	
C	  2.263329270351 	  0.484335648927 	  1.396919775356 	
C	  1.694785140351 	  0.484338458927 	 11.527476495356 	
C	  2.263298170351 	  6.667897408927 	  1.396916945356 	
C	  1.694754040351 	  6.667900218927 	 11.527473665356 	
C	 16.944156570351 	  0.484344878927 	  1.425049705356 	
C	 16.375612440351 	  0.484347688927 	 11.555606425356 	
C	 16.944125470351 	  6.667906638927 	  1.425046875356 	
C	 16.375581340351 	  6.667909448927 	 11.555603595356 	
C	  2.194672232343 	  2.812286878592 	  5.451936675391 	
C	  1.626128102343 	  2.812289688592 	 15.582493395391 	
C	  2.194641132343 	  8.995848638592 	  5.451933845391 	
C	  1.626097002343 	  8.995851448592 	 15.582490565391 	
C	 16.875499532343 	  2.812296108592 	  5.480066605391 	
C	 16.306955402343 	  2.812298918592 	 15.610623325391 	
C	 16.875468432343 	  8.995857868592 	  5.480063775391 	
C	 16.306924302343 	  8.995860678592 	 15.610620495391 	
C	 11.447143766740 	 -0.258004739756 	 10.101376392340 	
C	 10.878599636740 	 -0.258001929756 	 20.231933112340 	
C	 11.447112666740 	  5.925557020244 	 10.101373562340 	
C	 10.878568536740 	  5.925559830244 	 20.231930282340 	
C	 26.127971066740 	 -0.257995509756 	 10.129506322340 	
C	 25.559426936740 	 -0.257992699756 	 20.260063042340 	
C	 26.127939966740 	  5.925566250244 	 10.129503492340 	
C	 25.559395836740 	  5.925569060244 	 20.260060212340 	
C	 11.706113928272 	  3.337580299563 	  4.955898723754 	
C	 11.137569798272 	  3.337583109563 	 15.086455443754 	
C	 11.706082828272 	  9.521142059563 	  4.955895893754 	
C	 11.137538698272 	  9.521144869563 	 15.086452613754 	
C	 26.386941228272 	  3.337589529563 	  4.984028653754 	
C	 25.818397098272 	  3.337592339563 	 15.114585373754 	
C	 26.386910128272 	  9.521151289563 	  4.984025823754 	
C	 25.818365998272 	  9.521154099563 	 15.114582543754 	
C	  2.453643491580 	  6.407872434203 	  0.306458140505 	
C	  1.885099361580 	  6.407875244203 	 10.437014860505 	
C	  2.453612391580 	 12.591434194203 	  0.306455310505 	
C	  1.885068261580 	 12.591437004203 	 10.437012030505 	
C	 17.134470791580 	  6.407881664203 	  0.334588070505 	
C	 16.565926661580 	  6.407884474203 	 10.465144790505 	
C	 17.134439691580 	 12.591443424203 	  0.334585240505 	
C	 16.565895561580 	 12.591446234203 	 10.465141960505 	
H	  2.856955769028 	  3.628770518963 	  5.200557507198 	
H	  2.288411639028 	  3.628773328963 	 15.331114227198 	
H	  2.856924669028 	  9.812332278963 	  5.200554677198 	
H	  2.288380539028 	  9.812335088963 	 15.331111397198 	
H	 17.537783069028 	  3.628779748963 	  5.228687437198 	
H	 16.969238939028 	  3.628782558963 	 15.359244157198 	
H	 17.537751969028 	  9.812341508963 	  5.228684607198 	
H	 16.969207839028 	  9.812344318963 	 15.359241327198 	
H	 10.790015784080 	  0.563449786192 	 10.372644094302 	
H	 10.221471654080 	  0.563452596192 	 20.503200814302 	
H	 10.789984684080 	  6.747011546192 	 10.372641264302 	
H	 10.221440554081 	  6.747014356192 	 20.503197984302 	
H	 25.470843084080 	  0.563459016192 	 10.400774024302 	
H	 24.902298954080 	  0.563461826192 	 20.531330744302 	
H	 25.470811984080 	  6.747020776192 	 10.400771194302 	
H	 24.902267854080 	  6.747023586192 	 20.531327914302 	
H	 11.043830939350 	  2.521094938815 	  5.207276587582 	
H	 10.475286809350 	  2.521097748815 	 15.337833307582 	
H	 11.043799839350 	  8.704656698815 	  5.207273757582 	
H	 10.475255709350 	  8.704659508815 	 15.337830477582 	
H	 25.724658239350 	  2.521104168815 	  5.235406517582 	
H	 25.156114109350 	  2.521106978815 	 15.365963237582 	
H	 25.724627139350 	  8.704665928815 	  5.235403687582 	
H	 25.156083009350 	  8.704668738815 	 15.365960407582 	
H	  3.110771420172 	  5.586418051583 	  0.035190145271 	
H	  2.542227290172 	  5.586420861583 	 10.165746865271 	
H	  3.110740320172 	 11.769979811583 	  0.035187315271 	
H	  2.542196190172 	 11.769982621583 	 10.165744035271 	
H	 17.791598720172 	  5.586427281583 	  0.063320075271 	
H	 17.223054590172 	  5.586430091583 	 10.193876795271 	
H	 17.791567620172 	 11.769989041583 	  0.063317245271 	
H	 17.223023490172 	 11.769991851583 	 10.193873965271 	
H	  1.397613147340 	  2.940733200253 	  4.634769612918 	
H	  0.829069017340 	  2.940736010253 	 14.765326332918 	
H	  1.397582047340 	  9.124294960253 	  4.634766782918 	
H	  0.829037917340 	  9.124297770253 	 14.765323502918 	
H	 16.078440447340 	  2.940742430253 	  4.662899542918 	
H	 15.509896317340 	  2.940745240253 	 14.793456262918 	
H	 16.078409347340 	  9.124304190253 	  4.662896712918 	
H	 15.509865217340 	  9.124307000253 	 14.793453432918 	
H	 12.771989628586 	 -0.131579757756 	  0.615232243595 	
H	 12.203445498586 	 -0.131576947756 	 10.745788963595 	
H	 12.771958528586 	  6.051982002244 	  0.615229413595 	
H	 12.203414398586 	  6.051984812244 	 10.745786133595 	
H	 27.452816928586 	 -0.131570527756 	  0.643362173595 	
H	 26.884272798586 	 -0.131567717756 	 10.773918893595 	
H	 27.452785828586 	  6.051991232244 	  0.643359343595 	
H	 26.884241698586 	  6.051994042244 	 10.773916063595 	
H	 12.503173305635 	  3.209134499698 	  5.773065195811 	
H	 11.934629175635 	  3.209137309698 	 15.903621915811 	
H	 12.503142205635 	  9.392696259698 	  5.773062365811 	
H	 11.934598075635 	  9.392699069698 	 15.903619085811 	
H	 27.184000605635 	  3.209143729698 	  5.801195125811 	
H	 26.615456475635 	  3.209146539698 	 15.931751845811 	
H	 27.183969505635 	  9.392705489698 	  5.801192295811 	
H	 26.615425375635 	  9.392708299698 	 15.931749015811 	
H	  1.128797560203 	  6.281447548668 	  9.792602379720 	
H	  0.560253430203 	  6.281450358668 	 19.923159099720 	
H	  1.128766460203 	 12.465009308668 	  9.792599549720 	
H	  0.560222330203 	 12.465012118668 	 19.923156269720 	
H	 15.809624860203 	  6.281456778668 	  9.820732309720 	
H	 15.241080730203 	  6.281459588668 	 19.951289029720 	
H	 15.809593760203 	 12.465018538668 	  9.820729479720 	
H	 15.241049630203 	 12.465021348668 	 19.951286199720 	
H	  2.873292772126 	  2.159789114347 	  4.912619812699 	
H	  2.304748642126 	  2.159791924347 	 15.043176532699 	
H	  2.873261672126 	  8.343350874347 	  4.912616982699 	
H	  2.304717542126 	  8.343353684347 	 15.043173702699 	
H	 17.554120072126 	  2.159798344347 	  4.940749742699 	
H	 16.985575942126 	  2.159801154347 	 15.071306462699 	
H	 17.554088972126 	  8.343360104347 	  4.940746912699 	
H	 16.985544842126 	  8.343362914347 	 15.071303632699 	
H	 11.270287506523 	  5.218885728071 	  0.349613154685 	
H	 10.701743376523 	  5.218888538071 	 10.480169874685 	
H	 11.270256406523 	 11.402447488071 	  0.349610324685 	
H	 10.701712276523 	 11.402450298071 	 10.480167044685 	
H	 25.951114806523 	  5.218894958071 	  0.377743084685 	
H	 25.382570676523 	  5.218897768071 	 10.508299804685 	
H	 25.951083706523 	 11.402456718071 	  0.377740254685 	
H	 25.382539576523 	 11.402459528071 	 10.508296974685 	
H	 11.027492861676 	  3.990079191953 	  5.495214830301 	
H	 10.458948731676 	  3.990082001953 	 15.625771550301 	
H	 11.027461761676 	 10.173640951953 	  5.495212000301 	
H	 10.458917631676 	 10.173643761953 	 15.625768720301 	
H	 25.708320161676 	  3.990088421953 	  5.523344760301 	
H	 25.139776031676 	  3.990091231953 	 15.653901480301 	
H	 25.708289061676 	 10.173650181953 	  5.523341930301 	
H	 25.139744931676 	 10.173652991953 	 15.653898650301 	
H	  2.630499787256 	  0.930982134721 	 10.058221571686 	
H	  2.061955657256 	  0.930984944721 	 20.188778291686 	
H	  2.630468687256 	  7.114543894721 	 10.058218741686 	
H	  2.061924557256 	  7.114546704721 	 20.188775461686 	
H	 17.311327087256 	  0.930991364721 	 10.086351501686 	
H	 16.742782957256 	  0.930994174721 	 20.216908221686 	
H	 17.311295987256 	  7.114553124721 	 10.086348671686 	
H	 16.742751857256 	  7.114555934721 	 20.216905391686 	
C	  1.266905399485 	  3.436832441732 	  6.899157746184 	
C	  0.698361269485 	  3.436835251732 	 17.029714466184 	
C	  1.266874299485 	  9.620394201732 	  6.899154916184 	
C	  0.698330169485 	  9.620397011732 	 17.029711636184 	
C	 15.947732699485 	  3.436841671732 	  6.927287676184 	
C	 15.379188569485 	  3.436844481732 	 17.057844396184 	
C	 15.947701599485 	  9.620403431732 	  6.927284846184 	
C	 15.379157469485 	  9.620406241732 	 17.057841566184 	
C	 12.391796951398 	  0.383316307071 	  8.672038560213 	
C	 11.823252821398 	  0.383319117071 	 18.802595280213 	
C	 12.391765851398 	  6.566878067071 	  8.672035730213 	
C	 11.823221721398 	  6.566880877071 	 18.802592450213 	
C	 27.072624251398 	  0.383325537071 	  8.700168490213 	
C	 26.504080121398 	  0.383328347071 	 18.830725210213 	
C	 27.072593151398 	  6.566887297071 	  8.700165660213 	
C	 26.504049021398 	  6.566890107071 	 18.830722380213 	
C	 12.633882188077 	  2.713034564408 	  3.508675980592 	
C	 12.065338058077 	  2.713037374408 	 13.639232700592 	
C	 12.633851088077 	  8.896596324408 	  3.508673150592 	
C	 12.065306958077 	  8.896599134408 	 13.639229870592 	
C	 27.314709488077 	  2.713043794408 	  3.536805910592 	
C	 26.746165358077 	  2.713046604408 	 13.667362630592 	
C	 27.314678388077 	  8.896605554408 	  3.536803080592 	
C	 26.746134258077 	  8.896608364408 	 13.667359800592 	
C	  1.508990431689 	  5.766550991181 	  1.735795876854 	
C	  0.940446301689 	  5.766553801181 	 11.866352596854 	
C	  1.508959331689 	 11.950112751181 	  1.735793046854 	
C	  0.940415201689 	 11.950115561181 	 11.866349766854 	
C	 16.189817731689 	  5.766560221181 	  1.763925806854 	
C	 15.621273601689 	  5.766563031181 	 11.894482526854 	
C	 16.189786631689 	 11.950121981181 	  1.763922976854 	
C	 15.621242501689 	 11.950124791181 	 11.894479696854 	
H	  1.644256291066 	  4.472101139517 	  6.976231805236 	
H	  1.075712161066 	  4.472103949517 	 17.106788525236 	
H	  1.644225191066 	 10.655662899517 	  6.976228975236 	
H	  1.075681061066 	 10.655665709517 	 17.106785695236 	
H	 16.325083591066 	  4.472110369517 	  7.004361735236 	
H	 15.756539461066 	  4.472113179517 	 17.134918455236 	
H	 16.325052491066 	 10.655672129517 	  7.004358905236 	
H	 15.756508361066 	 10.655674939517 	 17.134915625236 	
H	 11.991858038342 	  1.404707148921 	  8.603429635230 	
H	 11.423313908342 	  1.404709958921 	 18.733986355230 	
H	 11.991826938342 	  7.588268908921 	  8.603426805230 	
H	 11.423282808342 	  7.588271718921 	 18.733983525230 	
H	 26.672685338342 	  1.404716378921 	  8.631559565230 	
H	 26.104141208342 	  1.404719188921 	 18.762116285230 	
H	 26.672654238342 	  7.588278138921 	  8.631556735230 	
H	 26.104110108342 	  7.588280948921 	 18.762113455230 	
H	 12.256531029800 	  1.677765491131 	  3.431602095603 	
H	 11.687986899800 	  1.677768301131 	 13.562158815603 	
H	 12.256499929800 	  7.861327251131 	  3.431599265603 	
H	 11.687955799800 	  7.861330061131 	 13.562155985603 	
H	 26.937358329800 	  1.677774721131 	  3.459732025603 	
H	 26.368814199800 	  1.677777531131 	 13.590288745603 	
H	 26.937327229800 	  7.861336481131 	  3.459729195603 	
H	 26.368783099800 	  7.861339291131 	 13.590285915603 	
H	  1.908929427647 	  4.745160190864 	  1.804404443611 	
H	  1.340385297647 	  4.745163000864 	 11.934961163611 	
H	  1.908898327647 	 10.928721950864 	  1.804401613611 	
H	  1.340354197647 	 10.928724760864 	 11.934958333611 	
H	 16.589756727647 	  4.745169420864 	  1.832534373611 	
H	 16.021212597647 	  4.745172230864 	 11.963091093611 	
H	 16.589725627647 	 10.928731180864 	  1.832531543611 	
H	 16.021181497647 	 10.928733990864 	 11.963088263611 	
H	  0.957211889798 	  3.458968065186 	  7.967624627653 	
H	  0.388667759798 	  3.458970875186 	 18.098181347653 	
H	  0.957180789798 	  9.642529825186 	  7.967621797653 	
H	  0.388636659798 	  9.642532635186 	 18.098178517653 	
H	 15.638039189798 	  3.458977295186 	  7.995754557653 	
H	 15.069495059798 	  3.458980105186 	 18.126311277653 	
H	 15.638008089798 	  9.642539055186 	  7.995751727653 	
H	 15.069463959798 	  9.642541865186 	 18.126308447653 	
H	 12.683935896063 	  6.518618307102 	  7.612732572157 	
H	 12.115391766063 	  6.518621117102 	 17.743289292157 	
H	 12.683904796063 	 12.702180067102 	  7.612729742157 	
H	 12.115360666063 	 12.702182877102 	 17.743286462157 	
H	 27.364763196063 	  6.518627537102 	  7.640862502157 	
H	 26.796219066063 	  6.518630347102 	 17.771419222157 	
H	 27.364732096063 	 12.702189297102 	  7.640859672157 	
H	 26.796187966063 	 12.702192107102 	 17.771416392157 	
H	 12.943576335837 	  2.690899810529 	  2.440208858468 	
H	 12.375032205837 	  2.690902620529 	 12.570765578468 	
H	 12.943545235837 	  8.874461570529 	  2.440206028468 	
H	 12.375001105837 	  8.874464380529 	 12.570762748468 	
H	 27.624403635837 	  2.690909040529 	  2.468338788468 	
H	 27.055859505837 	  2.690911850529 	 12.598895508468 	
H	 27.624372535837 	  8.874470800529 	  2.468335958468 	
H	 27.055828405837 	  8.874473610529 	 12.598892678468 	
H	  1.216851677383 	 -0.368751200309 	  2.795102020465 	
H	  0.648307547383 	 -0.368748390309 	 12.925658740465 	
H	  1.216820577383 	  5.814810559691 	  2.795099190465 	
H	  0.648276447383 	  5.814813369691 	 12.925655910465 	
H	 15.897678977383 	 -0.368741970309 	  2.823231950465 	
H	 15.329134847383 	 -0.368739160309 	 12.953788670465 	
H	 15.897647877383 	  5.814819789691 	  2.823229120465 	
H	 15.329103747383 	  5.814822599691 	 12.953785840465 	
H	  0.286118876639 	  3.570157762836 	  6.336522148929 	
H	 -0.282425253361 	  3.570160572836 	 16.467078868929 	
H	  0.286087776639 	  9.753719522836 	  6.336519318929 	
H	 -0.282456353361 	  9.753722332836 	 16.467076038929 	
H	 14.966946176639 	  3.570166992836 	  6.364652078929 	
H	 14.398402046639 	  3.570169802836 	 16.495208798929 	
H	 14.966915076639 	  9.753728752836 	  6.364649248929 	
H	 14.398370946639 	  9.753731562836 	 16.495205968929 	
H	 13.353035438540 	  6.641901264553 	  9.240212836838 	
H	 12.784491308540 	  6.641904074553 	 19.370769556838 	
H	 13.353004338540 	 12.825463024553 	  9.240210006838 	
H	 12.784460208540 	 12.825465834553 	 19.370766726838 	
H	 28.033862738540 	  6.641910494553 	  9.268342766838 	
H	 27.465318608540 	  6.641913304553 	 19.398899486838 	
H	 28.033831638540 	 12.825472254553 	  9.268339936838 	
H	 27.465287508540 	 12.825475064553 	 19.398896656838 	
H	 13.614668453138 	  2.579709525960 	  4.071312023158 	
H	 13.046124323138 	  2.579712335960 	 14.201868743158 	
H	 13.614637353138 	  8.763271285960 	  4.071309193158 	
H	 13.046093223138 	  8.763274095960 	 14.201865913158 	
H	 28.295495753138 	  2.579718755960 	  4.099441953158 	
H	 27.726951623138 	  2.579721565960 	 14.229998673158 	
H	 28.295464653138 	  8.763280515960 	  4.099439123158 	
H	 27.726920523138 	  8.763283325960 	 14.229995843158 	
H	  0.547751825638 	 -0.492034022507 	  1.167621797054 	
H	 -0.020792304362 	 -0.492031212507 	 11.298178517054 	
H	  0.547720725638 	  5.691527737493 	  1.167618967054 	
H	 -0.020823404362 	  5.691530547493 	 11.298175687054 	
H	 15.228579125638 	 -0.492024792507 	  1.195751727054 	
H	 14.660034995638 	 -0.492021982507 	 11.326308447054 	
H	 15.228548025638 	  5.691536967493 	  1.195748897054 	
H	 14.660003895638 	  5.691539777493 	 11.326305617054 	
C	  1.375687163819 	  1.633352399969 	  6.580096661193 	
C	  0.807143033819 	  1.633355209969 	 16.710653381193 	
C	  1.375656063819 	  7.816914159969 	  6.580093831193 	
C	  0.807111933819 	  7.816916969969 	 16.710650551193 	
C	 16.056514463819 	  1.633361629969 	  6.608226591193 	
C	 15.487970333819 	  1.633364439969 	 16.738783311193 	
C	 16.056483363819 	  7.816923389969 	  6.608223761193 	
C	 15.487939233819 	  7.816926199969 	 16.738780481193 	
C	 12.265483188361 	  4.708458893692 	  8.998181184825 	
C	 11.696939058361 	  4.708461703692 	 19.128737904825 	
C	 12.265452088361 	 10.892020653692 	  8.998178354825 	
C	 11.696907958361 	 10.892023463692 	 19.128735074825 	
C	 26.946310488361 	  4.708468123692 	  9.026311114825 	
C	 26.377766358361 	  4.708470933692 	 19.156867834825 	
C	 26.946279388361 	 10.892029883692 	  9.026308284825 	
C	 26.377735258361 	 10.892032693692 	 19.156865004825 	
C	 12.525099977744 	  4.516516499639 	  3.827737121084 	
C	 11.956555847744 	  4.516519309639 	 13.958293841084 	
C	 12.525068877744 	 10.700078259639 	  3.827734291084 	
C	 11.956524747744 	 10.700081069639 	 13.958291011084 	
C	 27.205927277744 	  4.516525729639 	  3.855867051084 	
C	 26.637383147744 	  4.516528539639 	 13.986423771084 	
C	 27.205896177744 	 10.700087489639 	  3.855864221084 	
C	 26.637352047744 	 10.700090299639 	 13.986420941084 	
C	  1.635304016604 	  1.441408447665 	  1.409653689210 	
C	  1.066759886604 	  1.441411257665 	 11.540210409210 	
C	  1.635272916604 	  7.624970207665 	  1.409650859210 	
C	  1.066728786604 	  7.624973017665 	 11.540207579210 	
C	 16.316131316604 	  1.441417677665 	  1.437783619210 	
C	 15.747587186604 	  1.441420487665 	 11.568340339210 	
C	 16.316100216604 	  7.624979437665 	  1.437780789210 	
C	 15.747556086604 	  7.624982247665 	 11.568337509210 	
H	  0.362126741590 	  1.514759142342 	  6.066711306498 	
H	 -0.206417388410 	  1.514761952342 	 16.197268026498 	
H	  0.362095641590 	  7.698320902342 	  6.066708476498 	
H	 -0.206448488410 	  7.698323712342 	 16.197265196498 	
H	 15.042954041590 	  1.514768372342 	  6.094841236498 	
H	 14.474409911590 	  1.514771182342 	 16.225397956498 	
H	 15.042922941590 	  7.698330132342 	  6.094838406498 	
H	 14.474378811590 	  7.698332942342 	 16.225395126498 	
H	 13.279082255181 	  4.589709738425 	  9.511485707335 	
H	 12.710538125181 	  4.589712548425 	 19.642042427335 	
H	 13.279051155181 	 10.773271498425 	  9.511482877335 	
H	 12.710507025181 	 10.773274308425 	 19.642039597335 	
H	 27.959909555181 	  4.589718968425 	  9.539615637335 	
H	 27.391365425181 	  4.589721778425 	 19.670172357335 	
H	 27.959878455181 	 10.773280728425 	  9.539612807335 	
H	 27.391334325181 	 10.773283538425 	 19.670169527335 	
H	 13.538660153236 	  4.635109272901 	  4.341122839149 	
H	 12.970116023236 	  4.635112082901 	 14.471679559149 	
H	 13.538629053236 	 10.818671032901 	  4.341120009149 	
H	 12.970084923236 	 10.818673842901 	 14.471676729149 	
H	 28.219487453236 	  4.635118502901 	  4.369252769149 	
H	 27.650943323236 	  4.635121312901 	 14.499809489149 	
H	 28.219456353236 	 10.818680262901 	  4.369249939149 	
H	 27.650912223236 	 10.818683072901 	 14.499806659149 	
H	  0.621704907853 	  1.560157550235 	  0.896349263463 	
H	  0.053160777853 	  1.560160360235 	 11.026905983463 	
H	  0.621673807853 	  7.743719310235 	  0.896346433463 	
H	  0.053129677853 	  7.743722120235 	 11.026903153463 	
H	 15.302532207853 	  1.560166780235 	  0.924479193463 	
H	 14.733988077853 	  1.560169590235 	 11.055035913463 	
H	 15.302501107853 	  7.743728540235 	  0.924476363463 	
H	 14.733956977853 	  7.743731350235 	 11.055033083463 	
H	  1.174926356070 	  1.197272319026 	  7.570892184445 	
H	  0.606382226070 	  1.197275129026 	 17.701448904445 	
H	  1.174895256070 	  7.380834079026 	  7.570889354445 	
H	  0.606351126070 	  7.380836889026 	 17.701446074445 	
H	 15.855753656070 	  1.197281549026 	  7.599022114445 	
H	 15.287209526070 	  1.197284359026 	 17.729578834445 	
H	 15.855722556070 	  7.380843309026 	  7.599019284445 	
H	 15.287178426070 	  7.380846119026 	 17.729576004445 	
H	 12.466380670848 	  4.272212422334 	  8.007064968394 	
H	 11.897836540848 	  4.272215232334 	 18.137621688394 	
H	 12.466349570848 	 10.455774182334 	  8.007062138394 	
H	 11.897805440848 	 10.455776992334 	 18.137618858394 	
H	 27.147207970848 	  4.272221652334 	  8.035194898394 	
H	 26.578663840848 	  4.272224462334 	 18.165751618394 	
H	 27.147176870848 	 10.455783412334 	  8.035192068394 	
H	 26.578632740848 	 10.455786222334 	 18.165748788394 	
H	 12.725860773029 	  4.952596100254 	  2.836940966192 	
H	 12.157316643029 	  4.952598910254 	 12.967497686192 	
H	 12.725829673029 	 11.136157860254 	  2.836938136192 	
H	 12.157285543029 	 11.136160670254 	 12.967494856192 	
H	 27.406688073029 	  4.952605330254 	  2.865070896192 	
H	 26.838143943029 	  4.952608140254 	 12.995627616192 	
H	 27.406656973029 	 11.136167090254 	  2.865068066192 	
H	 26.838112843029 	 11.136169900254 	 12.995624786192 	
H	  1.434406549183 	  1.877654723820 	  2.400769919138 	
H	  0.865862419183 	  1.877657533820 	 12.531326639138 	
H	  1.434375449183 	  8.061216483820 	  2.400767089138 	
H	  0.865831319183 	  8.061219293820 	 12.531323809138 	
H	 16.115233849183 	  1.877663953820 	  2.428899849138 	
H	 15.546689719183 	  1.877666763820 	 12.559456569138 	
H	 16.115202749183 	  8.061225713820 	  2.428897019138 	
H	 15.546658619183 	  8.061228523820 	 12.559453739138 	
H	  1.845232860468 	  0.704225036412 	  6.278884424831 	
H	  1.276688730468 	  0.704227846412 	 16.409441144831 	
H	  1.845201760468 	  6.887786796412 	  6.278881594831 	
H	  1.276657630468 	  6.887789606412 	 16.409438314831 	
H	 16.526060160468 	  0.704234266412 	  6.307014354831 	
H	 15.957516030468 	  0.704237076412 	 16.437571074831 	
H	 16.526029060468 	  6.887796026412 	  6.307011524831 	
H	 15.957484930468 	  6.887798836412 	 16.437568244831 	
H	 11.795884503983 	  3.779097385461 	  9.299351562820 	
H	 11.227340373983 	  3.779100195461 	 19.429908282820 	
H	 11.795853403983 	  9.962659145461 	  9.299348732820 	
H	 11.227309273983 	  9.962661955461 	 19.429905452820 	
H	 26.476711803983 	  3.779106615461 	  9.327481492820 	
H	 25.908167673983 	  3.779109425461 	 19.458038212820 	
H	 26.476680703983 	  9.962668375461 	  9.327478662820 	
H	 25.908136573983 	  9.962671185461 	 19.458035382820 	
H	 12.055553047900 	  5.445643521216 	  4.128950923850 	
H	 11.487008917900 	  5.445646331216 	 14.259507643850 	
H	 12.055521947900 	 11.629205281216 	  4.128948093850 	
H	 11.486977817900 	 11.629208091216 	 14.259504813850 	
H	 26.736380347900 	  5.445652751216 	  4.157080853850 	
H	 26.167836217900 	  5.445655561216 	 14.287637573850 	
H	 26.736349247900 	 11.629214511216 	  4.157078023850 	
H	 26.167805117900 	 11.629217321216 	 14.287634743850 	
H	  2.104902600257 	  2.370770116425 	  1.108483736232 	
H	  1.536358470257 	  2.370772926425 	 11.239040456232 	
H	  2.104871500257 	  8.554331876425 	  1.108480906232 	
H	  1.536327370257 	  8.554334686425 	 11.239037626232 	
H	 16.785729900257 	  2.370779346425 	  1.136613666232 	
H	 16.217185770257 	  2.370782156425 	 11.267170386232 	
H	 16.785698800257 	  8.554341106425 	  1.136610836232 	
H	 16.217154670257 	  8.554343916425 	 11.267167556232 	
768 
Energy: -9.1285158606419998e+01 
S	  8.542440381391 	  1.483571911877 	  0.085305738908 	
S	  7.973896251391 	  1.483574721877 	 10.215862458908 	
S	  8.542409281391 	  7.667133671877 	  0.085302908908 	
S	  7.973865151391 	  7.667136481877 	 10.215859628908 	
S	 23.223267681391 	  1.483581141877 	  0.113435668908 	
S	 22.654723551391 	  1.483583951877 	 10.243992388908 	
S	 23.223236581391 	  7.667142901877 	  0.113432838908 	
S	 22.654692451391 	  7.667145711877 	 10.243989558908 	
S	  5.556147804385 	  4.553634486411 	  5.189359424861 	
S	  4.987603674385 	  4.553637296411 	 15.319916144861 	
S	  5.556116704385 	 10.737196246411 	  5.189356594861 	
S	  4.987572574385 	 10.737199056411 	 15.319913314861 	
S	 20.236975104385 	  4.553643716411 	  5.217489354861 	
S	 19.668430974385 	  4.553646526411 	 15.348046074861 	
S	 20.236944004385 	 10.737205476411 	  5.217486524861 	
S	 19.668399874385 	 10.737208286411 	 15.348043244861 	
S	  5.303491802296 	  4.657551591715 	 10.387159338961 	
S	  4.734947672296 	  4.657554401715 	 20.517716058961 	
S	  5.303460702296 	 10.841113351715 	 10.387156508961 	
S	  4.734916572296 	 10.841116161715 	 20.517713228961 	
S	 19.984319102296 	  4.657560821715 	 10.415289268961 	
S	 19.415774972296 	  4.657563631715 	 20.545845988961 	
S	 19.984288002296 	 10.841122581715 	 10.415286438961 	
S	 19.415743872296 	 10.841125391715 	 20.545843158961 	
S	  8.289785240673 	  1.587489367052 	  5.283105583971 	
S	  7.721241110673 	  1.587492177052 	 15.413662303971 	
S	  8.289754140673 	  7.771051127052 	  5.283102753971 	
S	  7.721210010673 	  7.771053937052 	 15.413659473971 	
S	 22.970612540673 	  1.587498597052 	  5.311235513971 	
S	 22.402068410673 	  1.587501407052 	 15.441792233971 	
S	 22.970581440673 	  7.771060357052 	  5.311232683971 	
S	 22.402037310673 	  7.771063167052 	 15.441789403971 	
C	  6.660534180517 	  2.523392410184 	 10.064646595683 	
C	  6.091990050517 	  2.523395220184 	 20.195203315683 	
C	  6.660503080517 	  8.706954170184 	 10.064643765683 	
C	  6.091958950517 	  8.706956980184 	 20.195200485683 	
C	 21.341361480517 	  2.523401640184 	 10.092776525683 	
C	 20.772817350517 	  2.523404450184 	 20.223333245683 	
C	 21.341330380517 	  8.706963400184 	 10.092773695683 	
C	 20.772786250517 	  8.706966210184 	 20.223330415683 	
C	  6.931967378255 	  5.592577352313 	  5.606011707438 	
C	  6.363423248255 	  5.592580162313 	 15.736568427438 	
C	  6.931936278255 	 11.776139112313 	  5.606008877438 	
C	  6.363392148255 	 11.776141922313 	 15.736565597438 	
C	 21.612794678255 	  5.592586582313 	  5.634141637438 	
C	 21.044250548255 	  5.592589392313 	 15.764698357438 	
C	 21.612763578255 	 11.776148342313 	  5.634138807438 	
C	 21.044219448255 	 11.776151152313 	 15.764695527438 	
C	  7.185398018346 	  3.617731061295 	  0.407818396159 	
C	  6.616853888346 	  3.617733871295 	 10.538375116159 	
C	  7.185366918346 	  9.801292821295 	  0.407815566159 	
C	  6.616822788346 	  9.801295631295 	 10.538372286159 	
C	 21.866225318346 	  3.617740291295 	  0.435948326159 	
C	 21.297681188346 	  3.617743101295 	 10.566505046159 	
C	 21.866194218346 	  9.801302051295 	  0.435945496159 	
C	 21.297650088346 	  9.801304861295 	 10.566502216159 	
C	  6.913965522477 	  0.548546589141 	  4.866453208533 	
C	  6.345421392477 	  0.548549399141 	 14.997009928533 	
C	  6.913934422477 	  6.732108349141 	  4.866450378533 	
C	  6.345390292477 	  6.732111159141 	 14.997007098533 	
C	 21.594792822477 	  0.548555819141 	  4.894583138533 	
C	 21.026248692477 	  0.548558629141 	 15.025139858533 	
C	 21.594761722477 	  6.732117579141 	  4.894580308533 	
C	 21.026217592477 	  6.732120389141 	 15.025137028533 	
C	  5.612864089488 	  2.364570006335 	  9.117228362587 	
C	  5.044319959488 	  2.364572816335 	 19.247785082587 	
C	  5.612832989488 	  8.548131766335 	  9.117225532587 	
C	  5.044288859488 	  8.548134576335 	 19.247782252587 	
C	 20.293691389488 	  2.364579236335 	  9.145358292587 	
C	 19.725147259488 	  2.364582046335 	 19.275915012587 	
C	 20.293660289488 	  8.548140996335 	  9.145355462587 	
C	 19.725116159488 	  8.548143806335 	 19.275912182587 	
C	  7.980305359915 	  5.434908982195 	  6.552864758974 	
C	  7.411761229915 	  5.434911792195 	 16.683421478974 	
C	  7.980274259915 	 11.618470742195 	  6.552861928974 	
C	  7.411730129915 	 11.618473552195 	 16.683418648974 	
C	 22.661132659915 	  5.434918212195 	  6.580994688974 	
C	 22.092588529915 	  5.434921022195 	 16.711551408974 	
C	 22.661101559915 	 11.618479972195 	  6.580991858974 	
C	 22.092557429915 	 11.618482782195 	 16.711548578974 	
C	  8.233068007218 	  3.776553522297 	  1.355236551782 	
C	  7.664523877218 	  3.776556332297 	 11.485793271782 	
C	  8.233036907218 	  9.960115282297 	  1.355233721782 	
C	  7.664492777218 	  9.960118092297 	 11.485790441782 	
C	 22.913895307218 	  3.776562752297 	  1.383366481782 	
C	 22.345351177218 	  3.776565562297 	 11.513923201782 	
C	 22.913864207218 	  9.960124512297 	  1.383363651782 	
C	 22.345320077218 	  9.960127322297 	 11.513920371782 	
C	  5.865627402561 	  0.706214957527 	  3.919600237062 	
C	  5.297083272561 	  0.706217767527 	 14.050156957062 	
C	  5.865596302561 	  6.889776717527 	  3.919597407062 	
C	  5.297052172561 	  6.889779527527 	 14.050154127062 	
C	 20.546454702561 	  0.706224187527 	  3.947730167062 	
C	 19.977910572561 	  0.706226997527 	 14.078286887062 	
C	 20.546423602561 	  6.889785947527 	  3.947727337062 	
C	 19.977879472561 	  6.889788757527 	 14.078284057062 	
C	  4.749936259275 	  3.462929640350 	  9.164553171147 	
C	  4.181392129275 	  3.462932450350 	 19.295109891147 	
C	  4.749905159275 	  9.646491400350 	  9.164550341147 	
C	  4.181361029275 	  9.646494210350 	 19.295107061147 	
C	 19.430763559275 	  3.462938870350 	  9.192683101147 	
C	 18.862219429275 	  3.462941680350 	 19.323239821147 	
C	 19.430732459275 	  9.646500630350 	  9.192680271147 	
C	 18.862188329275 	  9.646503440350 	 19.323236991147 	
C	  8.842591642095 	  0.392517554062 	  6.505721349297 	
C	  8.274047512095 	  0.392520364062 	 16.636278069297 	
C	  8.842560542095 	  6.576079314062 	  6.505718519297 	
C	  8.274016412095 	  6.576082124062 	 16.636275239297 	
C	 23.523418942095 	  0.392526784062 	  6.533851279297 	
C	 22.954874812095 	  0.392529594062 	 16.664407999297 	
C	 23.523387842095 	  6.576088544062 	  6.533848449297 	
C	 22.954843712095 	  6.576091354062 	 16.664405169297 	
C	  9.095995831326 	  2.678193898884 	  1.307911801173 	
C	  8.527451701326 	  2.678196708884 	 11.438468521173 	
C	  9.095964731326 	  8.861755658884 	  1.307908971173 	
C	  8.527420601326 	  8.861758468884 	 11.438465691173 	
C	 23.776823131326 	  2.678203128884 	  1.336041731173 	
C	 23.208279001326 	  2.678205938884 	 11.466598451173 	
C	 23.776792031326 	  8.861764888884 	  1.336038901173 	
C	 23.208247901326 	  8.861767698884 	 11.466595621173 	
C	  5.003341186912 	  5.748606356864 	  3.966743758496 	
C	  4.434797056912 	  5.748609166864 	 14.097300478496 	
C	  5.003310086912 	 11.932168116864 	  3.966740928496 	
C	  4.434765956912 	 11.932170926864 	 14.097297648496 	
C	 19.684168486912 	  5.748615586864 	  3.994873688496 	
C	 19.115624356912 	  5.748618396864 	 14.125430408496 	
C	 19.684137386912 	 11.932177346864 	  3.994870858496 	
C	 19.115593256912 	 11.932180156864 	 14.125427578496 	
C	  3.663018068540 	  3.543977166117 	  8.384709313901 	
C	  3.094473938540 	  3.543979976117 	 18.515266033901 	
C	  3.662986968540 	  9.727538926117 	  8.384706483901 	
C	  3.094442838540 	  9.727541736117 	 18.515263203901 	
C	 18.343845368540 	  3.543986396117 	  8.412839243901 	
C	 17.775301238540 	  3.543989206117 	 18.543395963901 	
C	 18.343814268540 	  9.727548156117 	  8.412836413901 	
C	 17.775270138540 	  9.727550966117 	 18.543393133901 	
C	  9.929270377743 	  0.473854115488 	  7.285205466548 	
C	  9.360726247743 	  0.473856925488 	 17.415762186548 	
C	  9.929239277743 	  6.657415875488 	  7.285202636548 	
C	  9.360695147743 	  6.657418685488 	 17.415759356548 	
C	 24.610097677743 	  0.473863345488 	  7.313335396548 	
C	 24.041553547743 	  0.473866155488 	 17.443892116548 	
C	 24.610066577743 	  6.657425105488 	  7.313332566548 	
C	 24.041522447743 	  6.657427915488 	 17.443889286548 	
C	 10.182914027400 	  2.597146489899 	  2.087755827702 	
C	  9.614369897400 	  2.597149299899 	 12.218312547702 	
C	 10.182882927400 	  8.780708249899 	  2.087752997702 	
C	  9.614338797400 	  8.780711059899 	 12.218309717702 	
C	 24.863741327400 	  2.597155719899 	  2.115885757702 	
C	 24.295197197400 	  2.597158529899 	 12.246442477702 	
C	 24.863710227400 	  8.780717479899 	  2.115882927702 	
C	 24.295166097400 	  8.780720289899 	 12.246439647702 	
C	  3.916662192687 	  5.667269825932 	  3.187259903423 	
C	  3.348118062687 	  5.667272635932 	 13.317816623423 	
C	  3.916631092687 	 11.850831585932 	  3.187257073423 	
C	  3.348086962687 	 11.850834395932 	 13.317813793423 	
C	 18.597489492687 	  5.667279055932 	  3.215389833423 	
C	 18.028945362687 	  5.667281865932 	 13.345946553423 	
C	 18.597458392687 	 11.850840815932 	  3.215387003423 	
C	 18.028914262687 	 11.850843625932 	 13.345943723423 	
H	  2.993476959382 	  4.476900884826 	  8.465138725772 	
H	  2.424932829382 	  4.476903694826 	 18.595695445772 	
H	  2.993445859382 	 10.660462644826 	  8.465135895772 	
H	  2.424901729382 	 10.660465454826 	 18.595692615772 	
H	 17.674304259382 	  4.476910114826 	  8.493268655772 	
H	 17.105760129382 	  4.476912924826 	 18.623825375772 	
H	 17.674273159382 	 10.660471874826 	  8.493265825772 	
H	 17.105729029382 	 10.660474684826 	 18.623822545772 	
H	 10.599429271417 	  1.406586637914 	  7.204895223849 	
H	 10.030885141417 	  1.406589447914 	 17.335451943849 	
H	 10.599398171417 	  7.590148397914 	  7.204892393849 	
H	 10.030854041417 	  7.590151207914 	 17.335449113849 	
H	 25.280256571417 	  1.406595867914 	  7.233025153849 	
H	 24.711712441417 	  1.406598677914 	 17.363581873849 	
H	 25.280225471417 	  7.590157627914 	  7.233022323849 	
H	 24.711681341417 	  7.590160437914 	 17.363579043849 	
H	 10.852455086326 	  1.664222712330 	  2.007326491469 	
H	 10.283910956326 	  1.664225522330 	 12.137883211469 	
H	 10.852423986326 	  7.847784472330 	  2.007323661469 	
H	 10.283879856326 	  7.847787282330 	 12.137880381469 	
H	 25.533282386326 	  1.664231942330 	  2.035456421469 	
H	 24.964738256326 	  1.664234752330 	 12.166013141469 	
H	 25.533251286326 	  7.847793702330 	  2.035453591469 	
H	 24.964707156326 	  7.847796512330 	 12.166010311469 	
H	  3.246503430559 	  4.734537216008 	  3.267570262680 	
H	  2.677959300559 	  4.734540026008 	 13.398126982680 	
H	  3.246472330559 	 10.918098976008 	  3.267567432680 	
H	  2.677928200559 	 10.918101786008 	 13.398124152680 	
H	 17.927330730559 	  4.734546446008 	  3.295700192680 	
H	 17.358786600559 	  4.734549256008 	 13.426256912680 	
H	 17.927299630559 	 10.918108206008 	  3.295697362680 	
H	 17.358755500559 	 10.918111016008 	 13.426254082680 	
C	  3.330594256236 	  2.567832339492 	  7.505243276822 	
C	  2.762050126236 	  2.567835149492 	 17.635799996822 	
C	  3.330563156236 	  8.751394099492 	  7.505240446822 	
C	  2.762019026236 	  8.751396909492 	 17.635797166822 	
C	 18.011421556236 	  2.567841569492 	  7.533373206822 	
C	 17.442877426236 	  2.567844379492 	 17.663929926822 	
C	 18.011390456236 	  8.751403329492 	  7.533370376822 	
C	 17.442846326236 	  8.751406139492 	 17.663927096822 	
C	 10.262181096904 	  5.637483175848 	  8.164924292621 	
C	  9.693636966904 	  5.637485985848 	 18.295481012621 	
C	 10.262149996904 	 11.821044935848 	  8.164921462621 	
C	  9.693605866904 	 11.821047745848 	 18.295478182621 	
C	 24.943008396904 	  5.637492405848 	  8.193054222621 	
C	 24.374464266904 	  5.637495215848 	 18.323610942621 	
C	 24.942977296904 	 11.821054165848 	  8.193051392621 	
C	 24.374433166904 	 11.821056975848 	 18.323608112621 	
C	 10.515337690399 	  3.573291351982 	  2.967221695224 	
C	  9.946793560399 	  3.573294161982 	 13.097778415224 	
C	 10.515306590399 	  9.756853111982 	  2.967218865224 	
C	  9.946762460399 	  9.756855921982 	 13.097775585224 	
C	 25.196164990399 	  3.573300581982 	  2.995351625224 	
C	 24.627620860399 	  3.573303391982 	 13.125908345224 	
C	 25.196133890399 	  9.756862341982 	  2.995348795224 	
C	 24.627589760399 	  9.756865151982 	 13.125905515224 	
C	  3.583751306651 	  0.503640782167 	  2.307541177462 	
C	  3.015207176651 	  0.503643592167 	 12.438097897462 	
C	  3.583720206651 	  6.687202542167 	  2.307538347462 	
C	  3.015176076651 	  6.687205352167 	 12.438095067462 	
C	 18.264578606651 	  0.503650012167 	  2.335671107462 	
C	 17.696034476651 	  0.503652822167 	 12.466227827462 	
C	 18.264547506651 	  6.687211772167 	  2.335668277462 	
C	 17.696003376651 	  6.687214582167 	 12.466224997462 	
C	  4.205071463558 	  1.502533584433 	  7.444166781300 	
C	  3.636527333558 	  1.502536394433 	 17.574723501300 	
C	  4.205040363558 	  7.686095344433 	  7.444163951300 	
C	  3.636496233558 	  7.686098154433 	 17.574720671300 	
C	 18.885898763558 	  1.502542814433 	  7.472296711300 	
C	 18.317354633558 	  1.502545624433 	 17.602853431300 	
C	 18.885867663558 	  7.686104574433 	  7.472293881300 	
C	 18.317323533558 	  7.686107384433 	 17.602850601300 	
C	  9.387819146581 	  4.573276974283 	  8.225883763449 	
C	  8.819275016581 	  4.573279784283 	 18.356440483449 	
C	  9.387788046581 	 10.756838734283 	  8.225880933449 	
C	  8.819243916581 	 10.756841544283 	 18.356437653449 	
C	 24.068646446581 	  4.573286204283 	  8.254013693449 	
C	 23.500102316581 	  4.573289014283 	 18.384570413449 	
C	 24.068615346581 	 10.756847964283 	  8.254010863449 	
C	 23.500071216581 	 10.756850774283 	 18.384567583449 	
C	  9.640860486797 	  4.638590109164 	  3.028298166603 	
C	  9.072316356797 	  4.638592919164 	 13.158854886603 	
C	  9.640829386797 	 10.822151869164 	  3.028295336603 	
C	  9.072285256797 	 10.822154679164 	 13.158852056603 	
C	 24.321687786797 	  4.638599339164 	  3.056428096603 	
C	 23.753143656797 	  4.638602149164 	 13.186984816603 	
C	 24.321656686797 	 10.822161099164 	  3.056425266603 	
C	 23.753112556797 	 10.822163909164 	 13.186981986603 	
C	  4.458113164351 	  1.567846929067 	  2.246581512277 	
C	  3.889569034351 	  1.567849739067 	 12.377138232277 	
C	  4.458082064351 	  7.751408689067 	  2.246578682277 	
C	  3.889537934351 	  7.751411499067 	 12.377135402277 	
C	 19.138940464351 	  1.567856159067 	  2.274711442277 	
C	 18.570396334351 	  1.567858969067 	 12.405268162277 	
C	 19.138909364351 	  7.751417919067 	  2.274708612277 	
C	 18.570365234351 	  7.751420729067 	 12.405265332277 	
H	  3.983644969159 	  0.663056648744 	  6.691214906295 	
H	  3.415100839159 	  0.663059458744 	 16.821771626295 	
H	  3.983613869159 	  6.846618408744 	  6.691212076295 	
H	  3.415069739159 	  6.846621218744 	 16.821768796295 	
H	 18.664472269159 	  0.663065878744 	  6.719344836295 	
H	 18.095928139159 	  0.663068688744 	 16.849901556295 	
H	 18.664441169159 	  6.846627638744 	  6.719342006295 	
H	 18.095897039159 	  6.846630448744 	 16.849898726295 	
H	  9.609161080699 	  3.733712670378 	  8.978924994654 	
H	  9.040616950699 	  3.733715480378 	 19.109481714654 	
H	  9.609129980699 	  9.917274430378 	  8.978922164654 	
H	  9.040585850699 	  9.917277240378 	 19.109478884654 	
H	 24.289988380699 	  3.733721900378 	  9.007054924654 	
H	 23.721444250699 	  3.733724710378 	 19.137611644654 	
H	 24.289957280699 	  9.917283660378 	  9.007052094654 	
H	 23.721413150699 	  9.917286470378 	 19.137608814654 	
H	  9.862287049825 	  5.478067115835 	  3.781249943308 	
H	  9.293742919825 	  5.478069925835 	 13.911806663308 	
H	  9.862255949825 	 11.661628875835 	  3.781247113308 	
H	  9.293711819825 	 11.661631685835 	 13.911803833308 	
H	 24.543114349825 	  5.478076345835 	  3.809379873308 	
H	 23.974570219825 	  5.478079155835 	 13.939936593308 	
H	 24.543083249825 	 11.661638105835 	  3.809377043308 	
H	 23.974539119825 	 11.661640915835 	 13.939933763308 	
H	  4.236771037382 	  2.407411313727 	  1.493540421976 	
H	  3.668226907382 	  2.407414123727 	 11.624097141976 	
H	  4.236739937382 	  8.590973073727 	  1.493537591976 	
H	  3.668195807382 	  8.590975883727 	 11.624094311976 	
H	 18.917598337382 	  2.407420543727 	  1.521670351976 	
H	 18.349054207382 	  2.407423353727 	 11.652227071976 	
H	 18.917567237382 	  8.590982303727 	  1.521667521976 	
H	 18.349023107382 	  8.590985113727 	 11.652224241976 	
C	  5.277735714998 	  1.398658165542 	  8.192943575974 	
C	  4.709191584998 	  1.398660975542 	 18.323500295974 	
C	  5.277704614998 	  7.582219925542 	  8.192940745974 	
C	  4.709160484998 	  7.582222735542 	 18.323497465974 	
C	 19.958563014998 	  1.398667395542 	  8.221073505974 	
C	 19.390018884998 	  1.398670205542 	 18.351630225974 	
C	 19.958531914998 	  7.582229155542 	  8.221070675974 	
C	 19.389987784998 	  7.582231965542 	 18.351627395974 	
C	  8.314977976099 	  4.469349594992 	  7.476987630394 	
C	  7.746433846099 	  4.469352404992 	 17.607544350394 	
C	  8.314946876099 	 10.652911354992 	  7.476984800394 	
C	  7.746402746099 	 10.652914164992 	 17.607541520394 	
C	 22.995805276099 	  4.469358824992 	  7.505117560394 	
C	 22.427261146099 	  4.469361634992 	 17.635674280394 	
C	 22.995774176099 	 10.652920584992 	  7.505114730394 	
C	 22.427230046099 	 10.652923394992 	 17.635671450394 	
C	  8.568196305142 	  4.742465455367 	  2.279521265901 	
C	  7.999652175142 	  4.742468265367 	 12.410077985901 	
C	  8.568165205142 	 10.926027215367 	  2.279518435901 	
C	  7.999621075142 	 10.926030025367 	 12.410075155901 	
C	 23.249023605142 	  4.742474685367 	  2.307651195901 	
C	 22.680479475142 	  4.742477495367 	 12.438207915901 	
C	 23.248992505142 	 10.926036445367 	  2.307648365901 	
C	 22.680448375142 	 10.926039255367 	 12.438205085901 	
C	  5.530954563531 	  1.671774354486 	  2.995477475272 	
C	  4.962410433531 	  1.671777164486 	 13.126034195272 	
C	  5.530923463531 	  7.855336114486 	  2.995474645272 	
C	  4.962379333531 	  7.855338924486 	 13.126031365272 	
C	 20.211781863531 	  1.671783584486 	  3.023607405272 	
C	 19.643237733531 	  1.671786394486 	 13.154164125272 	
C	 20.211750763531 	  7.855345344486 	  3.023604575272 	
C	 19.643206633531 	  7.855348154486 	 13.154161295272 	
H	  5.968573959855 	  0.483817046970 	  8.096643431200 	
H	  5.400029829855 	  0.483819856970 	 18.227200151200 	
H	  5.968542859855 	  6.667378806970 	  8.096640601200 	
H	  5.399998729855 	  6.667381616970 	 18.227197321200 	
H	 20.649401259855 	  0.483826276970 	  8.124773361200 	
H	 20.080857129855 	  0.483829086970 	 18.255330081200 	
H	 20.649370159855 	  6.667388036970 	  8.124770531200 	
H	 20.080826029855 	  6.667390846970 	 18.255327251200 	
H	  7.624155038028 	  3.554363707540 	  7.573398577821 	
H	  7.055610908028 	  3.554366517540 	 17.703955297821 	
H	  7.624123938028 	  9.737925467540 	  7.573395747821 	
H	  7.055579808028 	  9.737928277540 	 17.703952467821 	
H	 22.304982338028 	  3.554372937540 	  7.601528507821 	
H	 21.736438208028 	  3.554375747540 	 17.732085227821 	
H	 22.304951238028 	  9.737934697540 	  7.601525677821 	
H	 21.736407108028 	  9.737937507540 	 17.732082397821 	
H	  7.877358007376 	  5.657306536115 	  2.375821309116 	
H	  7.308813877376 	  5.657309346115 	 12.506378029116 	
H	  7.877326907376 	 11.840868296115 	  2.375818479116 	
H	  7.308782777376 	 11.840871106115 	 12.506375199116 	
H	 22.558185307376 	  5.657315766115 	  2.403951239116 	
H	 21.989641177376 	  5.657318576115 	 12.534507959116 	
H	 22.558154207376 	 11.840877526115 	  2.403948409116 	
H	 21.989610077376 	 11.840880336115 	 12.534505129116 	
H	  6.221777468470 	  2.586760242625 	  2.899066419411 	
H	  5.653233338470 	  2.586763052625 	 13.029623139411 	
H	  6.221746368470 	  8.770322002625 	  2.899063589411 	
H	  5.653202238470 	  8.770324812625 	 13.029620309411 	
H	 20.902604768470 	  2.586769472625 	  2.927196349411 	
H	 20.334060638470 	  2.586772282625 	 13.057753069411 	
H	 20.902573668470 	  8.770331232625 	  2.927193519411 	
H	 20.334029538470 	  8.770334042625 	 13.057750239411 	
C	  1.998352526383 	  2.651194067874 	  6.594016836407 	
C	  1.429808396383 	  2.651196877874 	 16.724573556407 	
C	  1.998321426383 	  8.834755827874 	  6.594014006407 	
C	  1.429777296383 	  8.834758637874 	 16.724570726407 	
C	 16.679179826383 	  2.651203297874 	  6.622146766407 	
C	 16.110635696383 	  2.651206107874 	 16.752703486407 	
C	 16.679148726383 	  8.834765057874 	  6.622143936407 	
C	 16.110604596383 	  8.834767867874 	 16.752700656407 	
C	 11.578884424552 	  5.702469374720 	  9.070777997119 	
C	 11.010340294552 	  5.702472184720 	 19.201334717119 	
C	 11.578853324552 	 11.886031134720 	  9.070775167119 	
C	 11.010309194552 	 11.886033944720 	 19.201331887119 	
C	 26.259711724552 	  5.702478604720 	  9.098907927119 	
C	 25.691167594552 	  5.702481414720 	 19.229464647119 	
C	 26.259680624552 	 11.886040364720 	  9.098905097119 	
C	 25.691136494552 	 11.886043174720 	 19.229461817119 	
C	 11.847579534259 	  3.489929974395 	  3.878448565653 	
C	 11.279035404259 	  3.489932784395 	 14.009005285653 	
C	 11.847548434259 	  9.673491734395 	  3.878445735653 	
C	 11.279004304259 	  9.673494544395 	 14.009002455653 	
C	 26.528406834259 	  3.489939204395 	  3.906578495653 	
C	 25.959862704259 	  3.489942014395 	 14.037135215653 	
C	 26.528375734259 	  9.673500964395 	  3.906575665653 	
C	 25.959831604259 	  9.673503774395 	 14.037132385653 	
C	  2.267047755333 	  0.438654467441 	  1.401687660779 	
C	  1.698503625333 	  0.438657277441 	 11.532244380779 	
C	  2.267016655333 	  6.622216227441 	  1.401684830779 	
C	  1.698472525333 	  6.622219037441 	 11.532241550779 	
C	 16.947875055333 	  0.438663697441 	  1.429817590779 	
C	 16.379330925333 	  0.438666507441 	 11.560374310779 	
C	 16.947843955333 	  6.622225457441 	  1.429814760779 	
C	 16.379299825333 	  6.622228267441 	 11.560371480779 	
C	  2.185370388830 	  2.744479746466 	  5.495687892494 	
C	  1.616826258830 	  2.744482556466 	 15.626244612494 	
C	  2.185339288830 	  8.928041506466 	  5.495685062494 	
C	  1.616795158830 	  8.928044316466 	 15.626241782494 	
C	 16.866197688830 	  2.744488976466 	  5.523817822494 	
C	 16.297653558830 	  2.744491786466 	 15.654374542494 	
C	 16.866166588830 	  8.928050736466 	  5.523814992494 	
C	 16.297622458830 	  8.928053546466 	 15.654371712494 	
C	 11.415516308312 	 -0.336869676897 	 10.140699071832 	
C	 10.846972178312 	 -0.336866866897 	 20.271255791832 	
C	 11.415485208312 	  5.846692083103 	 10.140696241832 	
C	 10.846941078312 	  5.846694893103 	 20.271252961832 	
C	 26.096343608312 	 -0.336860446897 	 10.168829001832 	
C	 25.527799478312 	 -0.336857636897 	 20.299385721832 	
C	 26.096312508312 	  5.846701313103 	 10.168826171832 	
C	 25.527768378312 	  5.846704123103 	 20.299382891832 	
C	 11.660560587751 	  3.396643781799 	  4.976779105769 	
C	 11.092016457751 	  3.396646591799 	 15.107335825769 	
C	 11.660529487751 	  9.580205541799 	  4.976776275769 	
C	 11.091985357751 	  9.580208351799 	 15.107332995769 	
C	 26.341387887751 	  3.396653011799 	  5.004909035769 	
C	 25.772843757751 	  3.396655821799 	 15.135465755769 	
C	 26.341356787751 	  9.580214771799 	  5.004906205769 	
C	 25.772812657751 	  9.580217581799 	 15.135462925769 	
C	  2.430415375164 	  6.477993339546 	  0.331766834954 	
C	  1.861871245164 	  6.477996149546 	 10.462323554954 	
C	  2.430384275164 	 12.661555099546 	  0.331764004954 	
C	  1.861840145164 	 12.661557909546 	 10.462320724954 	
C	 17.111242675164 	  6.478002569546 	  0.359896764954 	
C	 16.542698545164 	  6.478005379546 	 10.490453484954 	
C	 17.111211575164 	 12.661564329546 	  0.359893934954 	
C	 16.542667445164 	 12.661567139546 	 10.490450654954 	
H	  2.907888122408 	  3.443982807000 	  5.138225178467 	
H	  2.339343992408 	  3.443985617000 	 15.268781898467 	
H	  2.907857022408 	  9.627544567000 	  5.138222348467 	
H	  2.339312892408 	  9.627547377000 	 15.268779068467 	
H	 17.588715422408 	  3.443992037000 	  5.166355108467 	
H	 17.020171292408 	  3.443994847000 	 15.296911828467 	
H	 17.588684322408 	  9.627553797000 	  5.166352278467 	
H	 17.020140192408 	  9.627556607000 	 15.296908998467 	
H	 10.697058095002 	  0.377943079374 	 10.523556854834 	
H	 10.128513965002 	  0.377945889374 	 20.654113574834 	
H	 10.697026995002 	  6.561504839374 	 10.523554024834 	
H	 10.128482865002 	  6.561507649374 	 20.654110744834 	
H	 25.377885395002 	  0.377952309374 	 10.551686784834 	
H	 24.809341265002 	  0.377955119374 	 20.682243504834 	
H	 25.377854295002 	  6.561514069374 	 10.551683954834 	
H	 24.809310165002 	  6.561516879374 	 20.682240674834 	
H	 10.938043289250 	  2.697138076087 	  5.334239328638 	
H	 10.369499159250 	  2.697140886087 	 15.464796048638 	
H	 10.938012189250 	  8.880699836087 	  5.334236498638 	
H	 10.369468059250 	  8.880702646087 	 15.464793218638 	
H	 25.618870589250 	  2.697147306087 	  5.362369258638 	
H	 25.050326459250 	  2.697150116087 	 15.492925978638 	
H	 25.618839489250 	  8.880709066087 	  5.362366428638 	
H	 25.050295359250 	  8.880711876087 	 15.492923148638 	
H	  3.148873811893 	  5.763181144879 	 -0.051091551165 	
H	  2.580329681893 	  5.763183954879 	 10.079465168835 	
H	  3.148842711893 	 11.946742904879 	 -0.051094381165 	
H	  2.580298581893 	 11.946745714879 	 10.079462338835 	
H	 17.829701111893 	  5.763190374879 	 -0.022961621165 	
H	 17.261156981893 	  5.763193184879 	 10.107595098835 	
H	 17.829670011893 	 11.946752134879 	 -0.022964451165 	
H	 17.261125881893 	 11.946754944879 	 10.107592268835 	
H	  1.398327182480 	  2.865606064541 	  4.655527252087 	
H	  0.829783052480 	  2.865608874541 	 14.786083972087 	
H	  1.398296082480 	  9.049167824541 	  4.655524422087 	
H	  0.829751952480 	  9.049170634541 	 14.786081142087 	
H	 16.079154482480 	  2.865615294541 	  4.683657182087 	
H	 15.510610352480 	  2.865618104541 	 14.814213902087 	
H	 16.079123382480 	  9.049177054541 	  4.683654352087 	
H	 15.510579252480 	  9.049179864541 	 14.814211072087 	
H	 12.704853155522 	 -0.203292415242 	  0.628290499199 	
H	 12.136309025522 	 -0.203289605242 	 10.758847219199 	
H	 12.704822055522 	  5.980269344758 	  0.628287669199 	
H	 12.136277925522 	  5.980272154758 	 10.758844389199 	
H	 27.385680455522 	 -0.203283185242 	  0.656420429199 	
H	 26.817136325522 	 -0.203280375242 	 10.786977149199 	
H	 27.385649355522 	  5.980278574758 	  0.656417599199 	
H	 26.817105225522 	  5.980281384758 	 10.786974319199 	
H	 12.447604115639 	  3.275517931134 	  5.816938516319 	
H	 11.879059985639 	  3.275520741134 	 15.947495236319 	
H	 12.447573015639 	  9.459079691134 	  5.816935686319 	
H	 11.879028885639 	  9.459082501134 	 15.947492406319 	
H	 27.128431415639 	  3.275527161134 	  5.845068446319 	
H	 26.559887285639 	  3.275529971134 	 15.975625166319 	
H	 27.128400315639 	  9.459088921134 	  5.845065616319 	
H	 26.559856185639 	  9.459091731134 	 15.975622336319 	
H	  1.141078737697 	  6.344416573227 	  9.844175289421 	
H	  0.572534607697 	  6.344419383227 	 19.974732009421 	
H	  1.141047637697 	 12.527978333227 	  9.844172459421 	
H	  0.572503507697 	 12.527981143227 	 19.974729179421 	
H	 15.821906037697 	  6.344425803227 	  9.872305219421 	
H	 15.253361907697 	  6.344428613227 	 20.002861939421 	
H	 15.821874937697 	 12.527987563227 	  9.872302389421 	
H	 15.253330807697 	 12.527990373227 	 20.002859109421 	
H	  2.802920633640 	  2.028019021784 	  4.988741239907 	
H	  2.234376503640 	  2.028021831784 	 15.119297959907 	
H	  2.802889533640 	  8.211580781784 	  4.988738409907 	
H	  2.234345403640 	  8.211583591784 	 15.119295129907 	
H	 17.483747933640 	  2.028028251784 	  5.016871169907 	
H	 16.915203803640 	  2.028031061784 	 15.147427889907 	
H	 17.483716833640 	  8.211590011784 	  5.016868339907 	
H	 16.915172703640 	  8.211592821784 	 15.147425059907 	
H	 11.270249551521 	  5.102250162692 	  0.330108071056 	
H	 10.701705421521 	  5.102252972692 	 10.460664791056 	
H	 11.270218451521 	 11.285811922692 	  0.330105241056 	
H	 10.701674321521 	 11.285814732692 	 10.460661961056 	
H	 25.951076851521 	  5.102259392692 	  0.358238001056 	
H	 25.382532721521 	  5.102262202692 	 10.488794721056 	
H	 25.951045751521 	 11.285821152692 	  0.358235171056 	
H	 25.382501621521 	 11.285823962692 	 10.488791891056 	
H	 11.043009723003 	  4.113106060275 	  5.483724074631 	
H	 10.474465593003 	  4.113108870275 	 15.614280794631 	
H	 11.042978623003 	 10.296667820275 	  5.483721244631 	
H	 10.474434493003 	 10.296670630275 	 15.614277964631 	
H	 25.723837023003 	  4.113115290275 	  5.511854004631 	
H	 25.155292893003 	  4.113118100275 	 15.642410724631 	
H	 25.723805923003 	 10.296677050275 	  5.511851174631 	
H	 25.155261793003 	 10.296679860275 	 15.642407894631 	
H	  2.575682804926 	  1.038874423388 	 10.142357539582 	
H	  2.007138674926 	  1.038877233388 	 20.272914259582 	
H	  2.575651704926 	  7.222436183388 	 10.142354709582 	
H	  2.007107574926 	  7.222438993388 	 20.272911429582 	
H	 17.256510104926 	  1.038883653388 	 10.170487469582 	
H	 16.687965974926 	  1.038886463388 	 20.301044189582 	
H	 17.256479004926 	  7.222445413388 	 10.170484639582 	
H	 16.687934874926 	  7.222448223388 	 20.301041359582 	
C	  1.339046617633 	  3.541813306526 	  6.837511497596 	
C	  0.770502487633 	  3.541816116526 	 16.968068217596 	
C	  1.339015517633 	  9.725375066526 	  6.837508667596 	
C	  0.770471387633 	  9.725377876526 	 16.968065387596 	
C	 16.019873917633 	  3.541822536526 	  6.865641427596 	
C	 15.451329787633 	  3.541825346526 	 16.996198147596 	
C	 16.019842817633 	  9.725384296526 	  6.865638597596 	
C	 15.451298687633 	  9.725387106526 	 16.996195317596 	
C	 12.280640911149 	  0.506624632515 	  8.822475636947 	
C	 11.712096781149 	  0.506627442515 	 18.953032356947 	
C	 12.280609811149 	  6.690186392515 	  8.822472806947 	
C	 11.712065681149 	  6.690189202515 	 18.953029526947 	
C	 26.961468211149 	  0.506633862515 	  8.850605566947 	
C	 26.392924081149 	  0.506636672515 	 18.981162286947 	
C	 26.961437111149 	  6.690195622515 	  8.850602736947 	
C	 26.392892981149 	  6.690198432515 	 18.981159456947 	
C	 12.506885964379 	  2.599310123370 	  3.634952986958 	
C	 11.938341834379 	  2.599312933370 	 13.765509706958 	
C	 12.506854864379 	  8.782871883370 	  3.634950156958 	
C	 11.938310734379 	  8.782874693370 	 13.765506876958 	
C	 27.187713264379 	  2.599319353370 	  3.663082916958 	
C	 26.619169134379 	  2.599322163370 	 13.793639636958 	
C	 27.187682164379 	  8.782881113370 	  3.663080086958 	
C	 26.619138034379 	  8.782883923370 	 13.793636806958 	
C	  1.565291288633 	  5.634499076651 	  1.649989903732 	
C	  0.996747158633 	  5.634501886651 	 11.780546623732 	
C	  1.565260188633 	 11.818060836651 	  1.649987073732 	
C	  0.996716058633 	 11.818063646651 	 11.780543793732 	
C	 16.246118588633 	  5.634508306651 	  1.678119833732 	
C	 15.677574458633 	  5.634511116651 	 11.808676553732 	
C	 16.246087488633 	 11.818070066651 	  1.678117003732 	
C	 15.677543358633 	 11.818072876651 	 11.808673723732 	
H	  1.781232421636 	  4.543574388920 	  6.847472899605 	
H	  1.212688291636 	  4.543577198920 	 16.978029619605 	
H	  1.781201321636 	 10.727136148920 	  6.847470069605 	
H	  1.212657191636 	 10.727138958920 	 16.978026789605 	
H	 16.462059721636 	  4.543583618920 	  6.875602829605 	
H	 15.893515591636 	  4.543586428920 	 17.006159549605 	
H	 16.462028621636 	 10.727145378920 	  6.875599999605 	
H	 15.893484491636 	 10.727148188920 	 17.006156719605 	
H	 11.803122517362 	  1.483422246880 	  8.824624899367 	
H	 11.234578387362 	  1.483425056880 	 18.955181619367 	
H	 11.803091417362 	  7.666984006880 	  8.824622069367 	
H	 11.234547287362 	  7.666986816880 	 18.955178789367 	
H	 26.483949817362 	  1.483431476880 	  8.852754829367 	
H	 25.915405687362 	  1.483434286880 	 18.983311549367 	
H	 26.483918717362 	  7.666993236880 	  8.852751999367 	
H	 25.915374587362 	  7.666996046880 	 18.983308719367 	
H	 12.064699888892 	  1.597548638730 	  3.624991720882 	
H	 11.496155758892 	  1.597551448730 	 13.755548440882 	
H	 12.064668788892 	  7.781110398730 	  3.624988890882 	
H	 11.496124658892 	  7.781113208730 	 13.755545610882 	
H	 26.745527188892 	  1.597557868730 	  3.653121650882 	
H	 26.176983058892 	  1.597560678730 	 13.783678370882 	
H	 26.745496088892 	  7.781119628730 	  3.653118820882 	
H	 26.176951958892 	  7.781122438730 	 13.783675540882 	
H	  2.042809734681 	  4.657701509626 	  1.647840262424 	
H	  1.474265604681 	  4.657704319626 	 11.778396982424 	
H	  2.042778634681 	 10.841263269626 	  1.647837432424 	
H	  1.474234504681 	 10.841266079626 	 11.778394152424 	
H	 16.723637034681 	  4.657710739626 	  1.675970192424 	
H	 16.155092904681 	  4.657713549626 	 11.806526912424 	
H	 16.723605934681 	 10.841272499626 	  1.675967362424 	
H	 16.155061804681 	 10.841275309626 	 11.806524082424 	
H	  1.033563160403 	  3.688191284368 	  7.888190794635 	
H	  0.465019030403 	  3.688194094368 	 18.018747514635 	
H	  1.033532060403 	  9.871753044368 	  7.888187964635 	
H	  0.464987930403 	  9.871755854368 	 18.018744684635 	
H	 15.714390460403 	  3.688200514368 	  7.916320724635 	
H	 15.145846330403 	  3.688203324368 	 18.046877444635 	
H	 15.714359360403 	  9.871762274368 	  7.916317894635 	
H	 15.145815230403 	  9.871765084368 	 18.046874614635 	
H	 12.558627296429 	  6.736318431574 	  7.784329088643 	
H	 11.990083166429 	  6.736321241574 	 17.914885808643 	
H	 12.558596196429 	 12.919880191574 	  7.784326258643 	
H	 11.990052066429 	 12.919883001574 	 17.914882978643 	
H	 27.239454596429 	  6.736327661574 	  7.812459018643 	
H	 26.670910466429 	  6.736330471574 	 17.943015738643 	
H	 27.239423496429 	 12.919889421574 	  7.812456188643 	
H	 26.670879366429 	 12.919892231574 	 17.943012908643 	
H	 12.812370229778 	  2.452933330538 	  2.584273315632 	
H	 12.243826099778 	  2.452936140538 	 12.714830035632 	
H	 12.812339129778 	  8.636495090538 	  2.584270485632 	
H	 12.243794999778 	  8.636497900538 	 12.714827205632 	
H	 27.493197529778 	  2.452942560538 	  2.612403245632 	
H	 26.924653399778 	  2.452945370538 	 12.742959965632 	
H	 27.493166429778 	  8.636504320538 	  2.612400415632 	
H	 26.924622299778 	  8.636507130538 	 12.742957135632 	
H	  1.287305158880 	 -0.595194904747 	  2.688136620096 	
H	  0.718761028880 	 -0.595192094747 	 12.818693340096 	
H	  1.287274058880 	  5.588366855253 	  2.688133790096 	
H	  0.718729928880 	  5.588369665253 	 12.818690510096 	
H	 15.968132458880 	 -0.595185674747 	  2.716266550096 	
H	 15.399588328880 	 -0.595182864747 	 12.846823270096 	
H	 15.968101358880 	  5.588376085253 	  2.716263720096 	
H	 15.399557228880 	  5.588378895253 	 12.846820440096 	
H	  0.371769203011 	  3.701959223013 	  6.258165557120 	
H	 -0.196774926989 	  3.701962033013 	 16.388722277120 	
H	  0.371738103011 	  9.885520983013 	  6.258162727120 	
H	 -0.196806026989 	  9.885523793013 	 16.388719447120 	
H	 15.052596503011 	  3.701968453013 	  6.286295487120 	
H	 14.484052373011 	  3.701971263013 	 16.416852207120 	
H	 15.052565403011 	  9.885530213013 	  6.286292657120 	
H	 14.484021273011 	  9.885533023013 	 16.416849377120 	
H	 13.219929035014 	  6.768708883925 	  9.411042445564 	
H	 12.651384905014 	  6.768711693925 	 19.541599165564 	
H	 13.219897935014 	 12.952270643925 	  9.411039615564 	
H	 12.651353805014 	 12.952273453925 	 19.541596335564 	
H	 27.900756335014 	  6.768718113925 	  9.439172375564 	
H	 27.332212205014 	  6.768720923925 	 19.569729095564 	
H	 27.900725235014 	 12.952279873925 	  9.439169545564 	
H	 27.332181105014 	 12.952282683925 	 19.569726265564 	
H	 13.474163152479 	  2.439164557219 	  4.214299379549 	
H	 12.905619022479 	  2.439167367219 	 14.344856099549 	
H	 13.474132052479 	  8.622726317219 	  4.214296549549 	
H	 12.905587922479 	  8.622729127219 	 14.344853269549 	
H	 28.154990452479 	  2.439173787219 	  4.242429309549 	
H	 27.586446322479 	  2.439176597219 	 14.372986029549 	
H	 28.154959352479 	  8.622735547219 	  4.242426479549 	
H	 27.586415222479 	  8.622738357219 	 14.372983199549 	
H	  0.626002993699 	 -0.627585239325 	  1.061423356662 	
H	  0.057458863699 	 -0.627582429325 	 11.191980076662 	
H	  0.625971893699 	  5.555976520675 	  1.061420526662 	
H	  0.057427763699 	  5.555979330675 	 11.191977246662 	
H	 15.306830293699 	 -0.627576009325 	  1.089553286662 	
H	 14.738286163699 	 -0.627573199325 	 11.220110006662 	
H	 15.306799193699 	  5.555985750675 	  1.089550456662 	
H	 14.738255063699 	  5.555988560675 	 11.220107176662 	
C	  1.326287662471 	  1.753804824898 	  6.684194629591 	
C	  0.757743532471 	  1.753807634898 	 16.814751349591 	
C	  1.326256562471 	  7.937366584898 	  6.684191799591 	
C	  0.757712432471 	  7.937369394898 	 16.814748519591 	
C	 16.007114962471 	  1.753814054898 	  6.712324559591 	
C	 15.438570832471 	  1.753816864898 	 16.842881279591 	
C	 16.007083862471 	  7.937375814898 	  6.712321729591 	
C	 15.438539732471 	  7.937378624898 	 16.842878449591 	
C	 12.266419510533 	  4.824651593577 	  8.986309023926 	
C	 11.697875380533 	  4.824654403577 	 19.116865743926 	
C	 12.266388410533 	 11.008213353577 	  8.986306193926 	
C	 11.697844280533 	 11.008216163577 	 19.116862913926 	
C	 26.947246810533 	  4.824660823577 	  9.014438953926 	
C	 26.378702680533 	  4.824663633577 	 19.144995673926 	
C	 26.947215710533 	 11.008222583577 	  9.014436123926 	
C	 26.378671580533 	 11.008225393577 	 19.144992843926 	
C	 12.519644576897 	  4.387320621184 	  3.788269929828 	
C	 11.951100446897 	  4.387323431184 	 13.918826649828 	
C	 12.519613476897 	 10.570882381184 	  3.788267099828 	
C	 11.951069346897 	 10.570885191184 	 13.918823819828 	
C	 27.200471876897 	  4.387329851184 	  3.816399859828 	
C	 26.631927746897 	  4.387332661184 	 13.946956579828 	
C	 27.200440776897 	 10.570891611184 	  3.816397029828 	
C	 26.631896646897 	 10.570894421184 	 13.946953749828 	
C	  1.579512533796 	  1.316472089377 	  1.486156965828 	
C	  1.010968403796 	  1.316474899377 	 11.616713685828 	
C	  1.579481433796 	  7.500033849377 	  1.486154135828 	
C	  1.010937303796 	  7.500036659377 	 11.616710855828 	
C	 16.260339833796 	  1.316481319377 	  1.514286895828 	
C	 15.691795703796 	  1.316484129377 	 11.644843615828 	
C	 16.260308733796 	  7.500043079377 	  1.514284065828 	
C	 15.691764603796 	  7.500045889377 	 11.644840785828 	
H	  0.301735966509 	  1.638711059802 	  6.184753121202 	
H	 -0.266808163491 	  1.638713869802 	 16.315309841202 	
H	  0.301704866509 	  7.822272819802 	  6.184750291202 	
H	 -0.266839263491 	  7.822275629802 	 16.315307011202 	
H	 14.982563266509 	  1.638720289802 	  6.212883051202 	
H	 14.414019136509 	  1.638723099802 	 16.343439771202 	
H	 14.982532166509 	  7.822282049802 	  6.212880221202 	
H	 14.413988036509 	  7.822284859802 	 16.343436941202 	
H	 13.291021502300 	  4.709303526593 	  9.485373958108 	
H	 12.722477372300 	  4.709306336593 	 19.615930678108 	
H	 13.290990402300 	 10.892865286593 	  9.485371128108 	
H	 12.722446272300 	 10.892868096593 	 19.615927848108 	
H	 27.971848802300 	  4.709312756593 	  9.513503888108 	
H	 27.403304672300 	  4.709315566593 	 19.644060608108 	
H	 27.971817702300 	 10.892874516593 	  9.513501058108 	
H	 27.403273572300 	 10.892877326593 	 19.644057778108 	
H	 13.544195780680 	  4.502413991860 	  4.287712024382 	
H	 12.975651650680 	  4.502416801860 	 14.418268744382 	
H	 13.544164680680 	 10.685975751860 	  4.287709194382 	
H	 12.975620550680 	 10.685978561860 	 14.418265914382 	
H	 28.225023080680 	  4.502423221860 	  4.315841954382 	
H	 27.656478950680 	  4.502426031860 	 14.446398674382 	
H	 28.224991980680 	 10.685984981860 	  4.315839124382 	
H	 27.656447850680 	 10.685987791860 	 14.446395844382 	
H	  0.554910478239 	  1.431820094962 	  0.987092161686 	
H	 -0.013633651761 	  1.431822904962 	 11.117648881686 	
H	  0.554879378239 	  7.615381854962 	  0.987089331686 	
H	 -0.013664751761 	  7.615384664962 	 11.117646051686 	
H	 15.235737778239 	  1.431829324962 	  1.015222091686 	
H	 14.667193648239 	  1.431832134962 	 11.145778811686 	
H	 15.235706678239 	  7.615391084962 	  1.015219261686 	
H	 14.667162548239 	  7.615393894962 	 11.145775981686 	
H	  1.101445914958 	  1.414503020652 	  7.699013284947 	
H	  0.532901784958 	  1.414505830652 	 17.829570004947 	
H	  1.101414814958 	  7.598064780652 	  7.699010454947 	
H	  0.532870684958 	  7.598067590652 	 17.829567174947 	
H	 15.782273214958 	  1.414512250652 	  7.727143214947 	
H	 15.213729084958 	  1.414515060652 	 17.857699934947 	
H	 15.782242114958 	  7.598074010652 	  7.727140384947 	
H	 15.213697984958 	  7.598076820652 	 17.857697104947 	
H	 12.491281200892 	  4.485250457268 	  7.971034113051 	
H	 11.922737070892 	  4.485253267268 	 18.101590833051 	
H	 12.491250100892 	 10.668812217268 	  7.971031283051 	
H	 11.922705970892 	 10.668815027268 	 18.101588003051 	
H	 27.172108500892 	  4.485259687268 	  7.999164043051 	
H	 26.603564370892 	  4.485262497268 	 18.129720763051 	
H	 27.172077400892 	 10.668821447268 	  7.999161213051 	
H	 26.603533270892 	 10.668824257268 	 18.129717933051 	
H	 12.744486079647 	  4.726622022030 	  2.773450708800 	
H	 12.175941949647 	  4.726624832030 	 12.904007428800 	
H	 12.744454979647 	 10.910183782030 	  2.773447878800 	
H	 12.175910849647 	 10.910186592030 	 12.904004598800 	
H	 27.425313379647 	  4.726631252030 	  2.801580638800 	
H	 26.856769249647 	  4.726634062030 	 12.932137358800 	
H	 27.425282279647 	 10.910193012030 	  2.801577808800 	
H	 26.856738149647 	 10.910195822030 	 12.932134528800 	
H	  1.354650892734 	  1.655873036337 	  2.501431858841 	
H	  0.786106762734 	  1.655875846337 	 12.631988578841 	
H	  1.354619792734 	  7.839434796337 	  2.501429028841 	
H	  0.786075662734 	  7.839437606337 	 12.631985748841 	
H	 16.035478192734 	  1.655882266337 	  2.529561788841 	
H	 15.466934062734 	  1.655885076337 	 12.660118508841 	
H	 16.035447092734 	  7.839444026337 	  2.529558958841 	
H	 15.466902962734 	  7.839446836337 	 12.660115678841 	
H	  1.712887325860 	  0.772945325110 	  6.508493010903 	
H	  1.144343195860 	  0.772948135110 	 16.639049730903 	
H	  1.712856225860 	  6.956507085110 	  6.508490180903 	
H	  1.144312095860 	  6.956509895110 	 16.639046900903 	
H	 16.393714625860 	  0.772954555110 	  6.536622940903 	
H	 15.825170495860 	  0.772957365110 	 16.667179660903 	
H	 16.393683525860 	  6.956516315110 	  6.536620110903 	
H	 15.825139395860 	  6.956519125110 	 16.667176830903 	
H	 11.879739023584 	  3.843635108271 	  9.161597156031 	
H	 11.311194893584 	  3.843637918271 	 19.292153876031 	
H	 11.879707923584 	 10.027196868271 	  9.161594326031 	
H	 11.311163793584 	 10.027199678271 	 19.292151046031 	
H	 26.560566323584 	  3.843644338271 	  9.189727086031 	
H	 25.992022193584 	  3.843647148271 	 19.320283806031 	
H	 26.560535223584 	 10.027206098271 	  9.189724256031 	
H	 25.991991093584 	 10.027208908271 	 19.320280976031 	
H	 12.133042891717 	  5.368180015081 	  3.963973976576 	
H	 11.564498761717 	  5.368182825081 	 14.094530696576 	
H	 12.133011791717 	 11.551741775081 	  3.963971146576 	
H	 11.564467661717 	 11.551744585081 	 14.094527866576 	
H	 26.813870191717 	  5.368189245081 	  3.992103906576 	
H	 26.245326061717 	  5.368192055081 	 14.122660626576 	
H	 26.813839091717 	 11.551751005081 	  3.992101076576 	
H	 26.245294961717 	 11.551753815081 	 14.122657796576 	
H	  1.966192890332 	  2.297488676344 	  1.310869292996 	
H	  1.397648760332 	  2.297491486344 	 11.441426012996 	
H	  1.966161790332 	  8.481050436344 	  1.310866462996 	
H	  1.397617660332 	  8.481053246344 	 11.441423182996 	
H	 16.647020190332 	  2.297497906344 	  1.338999222996 	
H	 16.078476060332 	  2.297500716344 	 11.469555942996 	
H	 16.646989090332 	  8.481059666344 	  1.338996392996 	
H	 16.078444960332 	  8.481062476344 	 11.469553112996 	
768 
Energy: -9.0649156738160002e+01 
S	  8.495106459087 	  1.468164914494 	  0.094760313057 	
S	  7.926562329087 	  1.468167724494 	 10.225317033057 	
S	  8.495075359087 	  7.651726674494 	  0.094757483057 	
S	  7.926531229087 	  7.651729484494 	 10.225314203057 	
S	 23.175933759087 	  1.468174144494 	  0.122890243057 	
S	 22.607389629087 	  1.468176954494 	 10.253446963057 	
S	 23.175902659087 	  7.651735904494 	  0.122887413057 	
S	 22.607358529087 	  7.651738714494 	 10.253444133057 	
S	  5.541967906628 	  4.533840894716 	  5.217443029668 	
S	  4.973423776628 	  4.533843704716 	 15.347999749668 	
S	  5.541936806628 	 10.717402654716 	  5.217440199668 	
S	  4.973392676628 	 10.717405464716 	 15.347996919668 	
S	 20.222795206628 	  4.533850124716 	  5.245572959668 	
S	 19.654251076628 	  4.533852934716 	 15.376129679668 	
S	 20.222764106628 	 10.717411884716 	  5.245570129668 	
S	 19.654219976628 	 10.717414694716 	 15.376126849668 	
S	  5.295724612969 	  4.664175774524 	 10.442625570430 	
S	  4.727180482969 	  4.664178584524 	 20.573182290430 	
S	  5.295693512969 	 10.847737534524 	 10.442622740430 	
S	  4.727149382969 	 10.847740344524 	 20.573179460430 	
S	 19.976551912969 	  4.664185004524 	 10.470755500430 	
S	 19.408007782969 	  4.664187814524 	 20.601312220430 	
S	 19.976520812969 	 10.847746764524 	 10.470752670430 	
S	 19.407976682969 	 10.847749574524 	 20.601309390430 	
S	  8.248864146616 	  1.598500063980 	  5.319942706637 	
S	  7.680320016616 	  1.598502873980 	 15.450499426637 	
S	  8.248833046616 	  7.782061823980 	  5.319939876637 	
S	  7.680288916616 	  7.782064633980 	 15.450496596637 	
S	 22.929691446616 	  1.598509293980 	  5.348072636637 	
S	 22.361147316616 	  1.598512103980 	 15.478629356637 	
S	 22.929660346616 	  7.782071053980 	  5.348069806637 	
S	 22.361116216616 	  7.782073863980 	 15.478626526637 	
C	  6.637371262148 	  2.520141487158 	 10.122666302322 	
C	  6.068827132148 	  2.520144297158 	 20.253223022322 	
C	  6.637340162148 	  8.703703247158 	 10.122663472322 	
C	  6.068796032148 	  8.703706057158 	 20.253220192322 	
C	 21.318198562148 	  2.520150717158 	 10.150796232322 	
C	 20.749654432148 	  2.520153527158 	 20.281352952322 	
C	 21.318167462148 	  8.703712477158 	 10.150793402322 	
C	 20.749623332148 	  8.703715287158 	 20.281350122322 	
C	  6.906425806640 	  5.585019780398 	  5.640174910111 	
C	  6.337881676640 	  5.585022590398 	 15.770731630111 	
C	  6.906394706640 	 11.768581540398 	  5.640172080111 	
C	  6.337850576640 	 11.768584350398 	 15.770728800111 	
C	 21.587253106640 	  5.585029010398 	  5.668304840111 	
C	 21.018708976640 	  5.585031820398 	 15.798861560111 	
C	 21.587222006640 	 11.768590770398 	  5.668302010111 	
C	 21.018677876640 	 11.768593580398 	 15.798858730111 	
C	  7.153459822557 	  3.612199175361 	  0.414719472842 	
C	  6.584915692557 	  3.612201985361 	 10.545276192842 	
C	  7.153428722557 	  9.795760935361 	  0.414716642842 	
C	  6.584884592557 	  9.795763745361 	 10.545273362842 	
C	 21.834287122557 	  3.612208405361 	  0.442849402842 	
C	 21.265742992557 	  3.612211215361 	 10.573406122842 	
C	 21.834256022557 	  9.795770165361 	  0.442846572842 	
C	 21.265711892557 	  9.795772975361 	 10.573403292842 	
C	  6.884406101347 	  0.547321259593 	  4.897210713713 	
C	  6.315861971347 	  0.547324069593 	 15.027767433713 	
C	  6.884375001347 	  6.730883019593 	  4.897207883713 	
C	  6.315830871347 	  6.730885829593 	 15.027764603713 	
C	 21.565233401347 	  0.547330489593 	  4.925340643713 	
C	 20.996689271347 	  0.547333299593 	 15.055897363713 	
C	 21.565202301347 	  6.730892249593 	  4.925337813713 	
C	 20.996658171347 	  6.730895059593 	 15.055894533713 	
C	  5.594806519820 	  2.372715295762 	  9.167685594227 	
C	  5.026262389820 	  2.372718105762 	 19.298242314227 	
C	  5.594775419820 	  8.556277055762 	  9.167682764227 	
C	  5.026231289820 	  8.556279865762 	 19.298239484227 	
C	 20.275633819820 	  2.372724525762 	  9.195815524227 	
C	 19.707089689820 	  2.372727335762 	 19.326372244227 	
C	 20.275602719820 	  8.556286285762 	  9.195812694227 	
C	 19.707058589820 	  8.556289095762 	 19.326369414227 	
C	  7.950031288773 	  5.438941596485 	  6.594674900473 	
C	  7.381487158773 	  5.438944406485 	 16.725231620473 	
C	  7.950000188773 	 11.622503356485 	  6.594672070473 	
C	  7.381456058773 	 11.622506166485 	 16.725228790473 	
C	 22.630858588773 	  5.438950826485 	  6.622804830473 	
C	 22.062314458773 	  5.438953636485 	 16.753361550473 	
C	 22.630827488773 	 11.622512586485 	  6.622802000473 	
C	 22.062283358773 	 11.622515396485 	 16.753358720473 	
C	  8.196024480146 	  3.759625427458 	  1.369700115737 	
C	  7.627480350146 	  3.759628237458 	 11.500256835737 	
C	  8.195993380146 	  9.943187187458 	  1.369697285737 	
C	  7.627449250146 	  9.943189997458 	 11.500254005737 	
C	 22.876851780146 	  3.759634657458 	  1.397830045737 	
C	 22.308307650146 	  3.759637467458 	 11.528386765737 	
C	 22.876820680146 	  9.943196417458 	  1.397827215737 	
C	 22.308276550146 	  9.943199227458 	 11.528383935737 	
C	  5.840800454456 	  0.693399450327 	  3.942710844651 	
C	  5.272256324456 	  0.693402260327 	 14.073267564651 	
C	  5.840769354456 	  6.876961210327 	  3.942708014651 	
C	  5.272225224456 	  6.876964020327 	 14.073264734651 	
C	 20.521627754456 	  0.693408680327 	  3.970840774651 	
C	 19.953083624456 	  0.693411490327 	 14.101397494651 	
C	 20.521596654456 	  6.876970440327 	  3.970837944651 	
C	 19.953052524456 	  6.876973250327 	 14.101394664651 	
C	  4.740615830690 	  3.477901659501 	  9.213115685865 	
C	  4.172071700690 	  3.477904469501 	 19.343672405865 	
C	  4.740584730690 	  9.661463419501 	  9.213112855865 	
C	  4.172040600690 	  9.661466229501 	 19.343669575865 	
C	 19.421443130690 	  3.477910889501 	  9.241245615865 	
C	 18.852899000690 	  3.477913699501 	 19.371802335865 	
C	 19.421412030690 	  9.661472649501 	  9.241242785865 	
C	 18.852867900690 	  9.661475459501 	 19.371799505865 	
C	  8.802879475696 	  0.411596230676 	  6.549480349800 	
C	  8.234335345696 	  0.411599040676 	 16.680037069800 	
C	  8.802848375696 	  6.595157990676 	  6.549477519800 	
C	  8.234304245696 	  6.595160800676 	 16.680034239800 	
C	 23.483706775696 	  0.411605460676 	  6.577610279800 	
C	 22.915162645696 	  0.411608270676 	 16.708166999800 	
C	 23.483675675696 	  6.595167220676 	  6.577607449800 	
C	 22.915131545696 	  6.595170030676 	 16.708164169800 	
C	  9.050215162497 	  2.654439058241 	  1.324270071383 	
C	  8.481671032497 	  2.654441868241 	 11.454826791383 	
C	  9.050184062497 	  8.838000818241 	  1.324267241383 	
C	  8.481639932497 	  8.838003628241 	 11.454823961383 	
C	 23.731042462497 	  2.654448288241 	  1.352400001383 	
C	 23.162498332497 	  2.654451098241 	 11.482956721383 	
C	 23.731011362497 	  8.838010048241 	  1.352397171383 	
C	 23.162467232497 	  8.838012858241 	 11.482953891383 	
C	  4.987952347263 	  5.720744797656 	  3.987905527968 	
C	  4.419408217263 	  5.720747607656 	 14.118462247968 	
C	  4.987921247263 	 11.904306557656 	  3.987902697968 	
C	  4.419377117263 	 11.904309367656 	 14.118459417968 	
C	 19.668779647263 	  5.720754027656 	  4.016035457968 	
C	 19.100235517263 	  5.720756837656 	 14.146592177968 	
C	 19.668748547263 	 11.904315787656 	  4.016032627968 	
C	 19.100204417263 	 11.904318597656 	 14.146589347968 	
C	  3.660644732793 	  3.571903992961 	  8.425170258639 	
C	  3.092100602793 	  3.571906802961 	 18.555726978639 	
C	  3.660613632793 	  9.755465752961 	  8.425167428639 	
C	  3.092069502793 	  9.755468562961 	 18.555724148639 	
C	 18.341472032793 	  3.571913222961 	  8.453300188639 	
C	 17.772927902793 	  3.571916032961 	 18.583856908639 	
C	 18.341440932793 	  9.755474982961 	  8.453297358639 	
C	 17.772896802793 	  9.755477792961 	 18.583854078639 	
C	  9.883080784183 	  0.506037772380 	  7.337322947865 	
C	  9.314536654183 	  0.506040582380 	 17.467879667865 	
C	  9.883049684183 	  6.689599532380 	  7.337320117865 	
C	  9.314505554183 	  6.689602342380 	 17.467876837865 	
C	 24.563908084183 	  0.506047002380 	  7.365452877865 	
C	 23.995363954183 	  0.506049812380 	 17.496009597865 	
C	 24.563876984183 	  6.689608762380 	  7.365450047865 	
C	 23.995332854183 	  6.689611572380 	 17.496006767865 	
C	 10.130186262459 	  2.560436854582 	  2.112215678203 	
C	  9.561642132459 	  2.560439664582 	 12.242772398203 	
C	 10.130155162459 	  8.743998614582 	  2.112212848203 	
C	  9.561611032459 	  8.744001424582 	 12.242769568203 	
C	 24.811013562459 	  2.560446084582 	  2.140345608203 	
C	 24.242469432459 	  2.560448894582 	 12.270902328203 	
C	 24.810982462459 	  8.744007844582 	  2.140342778203 	
C	 24.242438332459 	  8.744010654582 	 12.270899498203 	
C	  3.907750722565 	  5.626303300108 	  3.200063248145 	
C	  3.339206592565 	  5.626306110108 	 13.330619968145 	
C	  3.907719622565 	 11.809865060108 	  3.200060418145 	
C	  3.339175492565 	 11.809867870108 	 13.330617138145 	
C	 18.588578022565 	  5.626312530108 	  3.228193178145 	
C	 18.020033892565 	  5.626315340108 	 13.358749898145 	
C	 18.588546922565 	 11.809874290108 	  3.228190348145 	
C	 18.020002792565 	 11.809877100108 	 13.358747068145 	
H	  2.998618455262 	  4.510232984437 	  8.504866944256 	
H	  2.430074325262 	  4.510235794437 	 18.635423664256 	
H	  2.998587355262 	 10.693794744437 	  8.504864114256 	
H	  2.430043225262 	 10.693797554437 	 18.635420834256 	
H	 17.679445755262 	  4.510242214437 	  8.532996874256 	
H	 17.110901625262 	  4.510245024437 	 18.663553594256 	
H	 17.679414655262 	 10.693803974437 	  8.532994044256 	
H	 17.110870525262 	 10.693806784437 	 18.663550764256 	
H	 10.545605878255 	  1.444261250931 	  7.257460916419 	
H	  9.977061748255 	  1.444264060931 	 17.388017636419 	
H	 10.545574778255 	  7.627823010931 	  7.257458086419 	
H	  9.977030648255 	  7.627825820931 	 17.388014806419 	
H	 25.226433178255 	  1.444270480931 	  7.285590846419 	
H	 24.657889048255 	  1.444273290931 	 17.416147566419 	
H	 25.226402078255 	  7.627832240931 	  7.285588016419 	
H	 24.657857948255 	  7.627835050931 	 17.416144736419 	
H	 10.792212478488 	  1.622107791805 	  2.032519106728 	
H	 10.223668348488 	  1.622110601805 	 12.163075826728 	
H	 10.792181378488 	  7.805669551805 	  2.032516276728 	
H	 10.223637248488 	  7.805672361805 	 12.163072996728 	
H	 25.473039778488 	  1.622117021805 	  2.060649036728 	
H	 24.904495648488 	  1.622119831805 	 12.191205756728 	
H	 25.473008678488 	  7.805678781805 	  2.060646206728 	
H	 24.904464548488 	  7.805681591805 	 12.191202926728 	
H	  3.245225760399 	  4.688079738380 	  3.279925415873 	
H	  2.676681630399 	  4.688082548380 	 13.410482135873 	
H	  3.245194660399 	 10.871641498380 	  3.279922585873 	
H	  2.676650530399 	 10.871644308380 	 13.410479305873 	
H	 17.926053060399 	  4.688088968380 	  3.308055345873 	
H	 17.357508930399 	  4.688091778380 	 13.438612065873 	
H	 17.926021960399 	 10.871650728380 	  3.308052515873 	
H	 17.357477830399 	 10.871653538380 	 13.438609235873 	
C	  3.327626377793 	  2.603449266505 	  7.537708584710 	
C	  2.759082247793 	  2.603452076505 	 17.668265304710 	
C	  3.327595277793 	  8.787011026505 	  7.537705754710 	
C	  2.759051147793 	  8.787013836505 	 17.668262474710 	
C	 18.008453677793 	  2.603458496505 	  7.565838514710 	
C	 17.439909547793 	  2.603461306505 	 17.696395234710 	
C	 18.008422577793 	  8.787020256505 	  7.565835684710 	
C	 17.439878447793 	  8.787023066505 	 17.696392404710 	
C	 10.216404570893 	  5.668853927950 	  8.224465927745 	
C	  9.647860440893 	  5.668856737950 	 18.355022647745 	
C	 10.216373470893 	 11.852415687950 	  8.224463097745 	
C	  9.647829340893 	 11.852418497950 	 18.355019817745 	
C	 24.897231870893 	  5.668863157950 	  8.252595857745 	
C	 24.328687740893 	  5.668865967950 	 18.383152577745 	
C	 24.897200770893 	 11.852424917950 	  8.252593027745 	
C	 24.328656640893 	 11.852427727950 	 18.383149747745 	
C	 10.463204473929 	  3.528891639571 	  2.999677153601 	
C	  9.894660343929 	  3.528894449571 	 13.130233873601 	
C	 10.463173373929 	  9.712453399571 	  2.999674323601 	
C	  9.894629243929 	  9.712456209571 	 13.130231043601 	
C	 25.144031773929 	  3.528900869571 	  3.027807083601 	
C	 24.575487643929 	  3.528903679571 	 13.158363803601 	
C	 25.144000673929 	  9.712462629571 	  3.027804253601 	
C	 24.575456543929 	  9.712465439571 	 13.158360973601 	
C	  3.574426706051 	  0.463487178768 	  2.312920408404 	
C	  3.005882576051 	  0.463489988768 	 12.443477128404 	
C	  3.574395606051 	  6.647048938768 	  2.312917578404 	
C	  3.005851476051 	  6.647051748768 	 12.443474298404 	
C	 18.255254006051 	  0.463496408768 	  2.341050338404 	
C	 17.686709876051 	  0.463499218768 	 12.471607058404 	
C	 18.255222906051 	  6.647058168768 	  2.341047508404 	
C	 17.686678776051 	  6.647060978768 	 12.471604228404 	
C	  4.192919763819 	  1.530139614905 	  7.479668305621 	
C	  3.624375633819 	  1.530142424905 	 17.610225025621 	
C	  4.192888663819 	  7.713701374905 	  7.479665475621 	
C	  3.624344533819 	  7.713704184905 	 17.610222195621 	
C	 18.873747063819 	  1.530148844905 	  7.507798235621 	
C	 18.305202933819 	  1.530151654905 	 17.638354955621 	
C	 18.873715963819 	  7.713710604905 	  7.507795405621 	
C	 18.305171833819 	  7.713713414905 	 17.638352125621 	
C	  9.351320596820 	  4.596532492519 	  8.282685992951 	
C	  8.782776466820 	  4.596535302519 	 18.413242712951 	
C	  9.351289496820 	 10.780094252519 	  8.282683162951 	
C	  8.782745366820 	 10.780097062519 	 18.413239882951 	
C	 24.032147896820 	  4.596541722519 	  8.310815922951 	
C	 23.463603766820 	  4.596544532519 	 18.441372642951 	
C	 24.032116796820 	 10.780103482519 	  8.310813092951 	
C	 23.463572666820 	 10.780106292519 	 18.441369812951 	
C	  9.597911115890 	  4.602201308524 	  3.057717375638 	
C	  9.029366985890 	  4.602204118524 	 13.188274095638 	
C	  9.597880015890 	 10.785763068524 	  3.057714545638 	
C	  9.029335885890 	 10.785765878524 	 13.188271265638 	
C	 24.278738415890 	  4.602210538524 	  3.085847305638 	
C	 23.710194285890 	  4.602213348524 	 13.216404025638 	
C	 24.278707315890 	 10.785772298524 	  3.085844475638 	
C	 23.710163185890 	 10.785775108524 	 13.216401195638 	
C	  4.439510604510 	  1.535808553517 	  2.254700109975 	
C	  3.870966474510 	  1.535811363517 	 12.385256829975 	
C	  4.439479504510 	  7.719370313517 	  2.254697279975 	
C	  3.870935374510 	  7.719373123517 	 12.385253999975 	
C	 19.120337904510 	  1.535817783517 	  2.282830039975 	
C	 18.551793774510 	  1.535820593517 	 12.413386759975 	
C	 19.120306804510 	  7.719379543517 	  2.282827209975 	
C	 18.551762674510 	  7.719382353517 	 12.413383929975 	
H	  3.970549652008 	  0.696772770324 	  6.720172085492 	
H	  3.402005522008 	  0.696775580324 	 16.850728805492 	
H	  3.970518552008 	  6.880334530324 	  6.720169255492 	
H	  3.401974422008 	  6.880337340324 	 16.850725975492 	
H	 18.651376952008 	  0.696782000324 	  6.748302015492 	
H	 18.082832822008 	  0.696784810324 	 16.878858735492 	
H	 18.651345852008 	  6.880343760324 	  6.748299185492 	
H	 18.082801722008 	  6.880346570324 	 16.878855905492 	
H	  9.573429503213 	  3.763078405060 	  9.042243674301 	
H	  9.004885373213 	  3.763081215060 	 19.172800394301 	
H	  9.573398403213 	  9.946640165060 	  9.042240844301 	
H	  9.004854273213 	  9.946642975060 	 19.172797564301 	
H	 24.254256803213 	  3.763087635060 	  9.070373604301 	
H	 23.685712673213 	  3.763090445060 	 19.200930324301 	
H	 24.254225703213 	  9.946649395060 	  9.070370774301 	
H	 23.685681573213 	  9.946652205060 	 19.200927494301 	
H	  9.820281314573 	  5.435568253144 	  3.817213464805 	
H	  9.251737184573 	  5.435571063144 	 13.947770184805 	
H	  9.820250214573 	 11.619130013144 	  3.817210634805 	
H	  9.251706084573 	 11.619132823144 	 13.947767354805 	
H	 24.501108614573 	  5.435577483144 	  3.845343394805 	
H	 23.932564484573 	  5.435580293144 	 13.975900114805 	
H	 24.501077514573 	 11.619139243144 	  3.845340564805 	
H	 23.932533384573 	 11.619142053144 	 13.975897284805 	
H	  4.217401459896 	  2.369262736804 	  1.495142595995 	
H	  3.648857329896 	  2.369265546804 	 11.625699315995 	
H	  4.217370359896 	  8.552824496804 	  1.495139765995 	
H	  3.648826229896 	  8.552827306804 	 11.625696485995 	
H	 18.898228759896 	  2.369271966804 	  1.523272525995 	
H	 18.329684629896 	  2.369274776804 	 11.653829245995 	
H	 18.898197659896 	  8.552833726804 	  1.523269695995 	
H	 18.329653529896 	  8.552836536804 	 11.653826415995 	
C	  5.258244995024 	  1.413243378900 	  8.236857141267 	
C	  4.689700865024 	  1.413246188900 	 18.367413861267 	
C	  5.258213895024 	  7.596805138900 	  8.236854311267 	
C	  4.689669765024 	  7.596807948900 	 18.367411031267 	
C	 19.939072295024 	  1.413252608900 	  8.264987071267 	
C	 19.370528165024 	  1.413255418900 	 18.395543791267 	
C	 19.939041195024 	  7.596814368900 	  8.264984241267 	
C	 19.370497065024 	  7.596817178900 	 18.395540961267 	
C	  8.285802466228 	  4.479559100163 	  7.525367207203 	
C	  7.717258336228 	  4.479561910163 	 17.655923927203 	
C	  8.285771366228 	 10.663120860163 	  7.525364377203 	
C	  7.717227236228 	 10.663123670163 	 17.655921097203 	
C	 22.966629766228 	  4.479568330163 	  7.553497137203 	
C	 22.398085636228 	  4.479571140163 	 17.684053857203 	
C	 22.966598666228 	 10.663130090163 	  7.553494307203 	
C	 22.398054536228 	 10.663132900163 	 17.684051027203 	
C	  8.532585943779 	  4.719097459276 	  2.300528455838 	
C	  7.964041813779 	  4.719100269276 	 12.431085175838 	
C	  8.532554843779 	 10.902659219276 	  2.300525625838 	
C	  7.964010713779 	 10.902662029276 	 12.431082345838 	
C	 23.213413243779 	  4.719106689276 	  2.328658385838 	
C	 22.644869113779 	  4.719109499276 	 12.459215105838 	
C	 23.213382143779 	 10.902668449276 	  2.328655555838 	
C	 22.644838013779 	 10.902671259276 	 12.459212275838 	
C	  5.505028999051 	  1.652781971129 	  3.012018665415 	
C	  4.936484869051 	  1.652784781129 	 13.142575385415 	
C	  5.504997899051 	  7.836343731129 	  3.012015835415 	
C	  4.936453769051 	  7.836346541129 	 13.142572555415 	
C	 20.185856299051 	  1.652791201129 	  3.040148595415 	
C	 19.617312169051 	  1.652794011129 	 13.170705315415 	
C	 20.185825199051 	  7.836352961129 	  3.040145765415 	
C	 19.617281069051 	  7.836355771129 	 13.170702485415 	
H	  5.942214862867 	  0.493175677773 	  8.141552761333 	
H	  5.373670732867 	  0.493178487773 	 18.272109481333 	
H	  5.942183762867 	  6.676737437773 	  8.141549931333 	
H	  5.373639632867 	  6.676740247773 	 18.272106651333 	
H	 20.623042162867 	  0.493184907773 	  8.169682691333 	
H	 20.054498032867 	  0.493187717773 	 18.300239411333 	
H	 20.623011062867 	  6.676746667773 	  8.169679861333 	
H	 20.054466932867 	  6.676749477773 	 18.300236581333 	
H	  7.601837520505 	  3.559338876029 	  7.620786853472 	
H	  7.033293390505 	  3.559341686029 	 17.751343573472 	
H	  7.601806420505 	  9.742900636029 	  7.620784023472 	
H	  7.033262290505 	  9.742903446029 	 17.751340743472 	
H	 22.282664820505 	  3.559348106029 	  7.648916783472 	
H	 21.714120690505 	  3.559350916029 	 17.779473503472 	
H	 22.282633720505 	  9.742909866029 	  7.648913953472 	
H	 21.714089590505 	  9.742912676029 	 17.779470673472 	
H	  7.848616035724 	  5.639165138247 	  2.395832694382 	
H	  7.280071905724 	  5.639167948247 	 12.526389414382 	
H	  7.848584935724 	 11.822726898247 	  2.395829864382 	
H	  7.280040805724 	 11.822729708247 	 12.526386584382 	
H	 22.529443335724 	  5.639174368247 	  2.423962624382 	
H	 21.960899205724 	  5.639177178247 	 12.554519344382 	
H	 22.529412235724 	 11.822736128247 	  2.423959794382 	
H	 21.960868105724 	 11.822738938247 	 12.554516514382 	
H	  6.188993915890 	  2.573002190854 	  2.916598890035 	
H	  5.620449785890 	  2.573005000854 	 13.047155610035 	
H	  6.188962815890 	  8.756563950854 	  2.916596060035 	
H	  5.620418685890 	  8.756566760854 	 13.047152780035 	
H	 20.869821215890 	  2.573011420854 	  2.944728820035 	
H	 20.301277085890 	  2.573014230854 	 13.075285540035 	
H	 20.869790115890 	  8.756573180854 	  2.944725990035 	
H	 20.301245985890 	  8.756575990854 	 13.075282710035 	
C	  2.000366548366 	  2.699512169512 	  6.620603552484 	
C	  1.431822418366 	  2.699514979512 	 16.751160272484 	
C	  2.000335448366 	  8.883073929512 	  6.620600722484 	
C	  1.431791318366 	  8.883076739512 	 16.751157442484 	
C	 16.681193848366 	  2.699521399512 	  6.648733482484 	
C	 16.112649718366 	  2.699524209512 	 16.779290202484 	
C	 16.681162748366 	  8.883083159512 	  6.648730652484 	
C	 16.112618618366 	  8.883085969512 	 16.779287372484 	
C	 11.526041034738 	  5.741219734725 	  9.138487920581 	
C	 10.957496904738 	  5.741222544725 	 19.269044640581 	
C	 11.526009934738 	 11.924781494725 	  9.138485090581 	
C	 10.957465804738 	 11.924784304725 	 19.269041810581 	
C	 26.206868334738 	  5.741228964725 	  9.166617850581 	
C	 25.638324204738 	  5.741231774725 	 19.297174570581 	
C	 26.206837234738 	 11.924790724725 	  9.166615020581 	
C	 25.638293104738 	 11.924793534725 	 19.297171740581 	
C	 11.790464399889 	  3.432829116160 	  3.916782614298 	
C	 11.221920269889 	  3.432831926160 	 14.047339334298 	
C	 11.790433299889 	  9.616390876160 	  3.916779784298 	
C	 11.221889169889 	  9.616393686160 	 14.047336504298 	
C	 26.471291699889 	  3.432838346160 	  3.944912544298 	
C	 25.902747569889 	  3.432841156160 	 14.075469264298 	
C	 26.471260599889 	  9.616400106160 	  3.944909714298 	
C	 25.902716469889 	  9.616402916160 	 14.075466434298 	
C	  2.264789935579 	  0.391121262690 	  1.398898711379 	
C	  1.696245805579 	  0.391124072690 	 11.529455431379 	
C	  2.264758835579 	  6.574683022690 	  1.398895881379 	
C	  1.696214705579 	  6.574685832690 	 11.529452601379 	
C	 16.945617235579 	  0.391130492690 	  1.427028641379 	
C	 16.377073105579 	  0.391133302690 	 11.557585361379 	
C	 16.945586135579 	  6.574692252690 	  1.427025811379 	
C	 16.377042005579 	  6.574695062690 	 11.557582531379 	
C	  2.183187703114 	  2.678539516359 	  5.518131475722 	
C	  1.614643573114 	  2.678542326359 	 15.648688195722 	
C	  2.183156603114 	  8.862101276359 	  5.518128645722 	
C	  1.614612473114 	  8.862104086359 	 15.648685365722 	
C	 16.864015003114 	  2.678548746359 	  5.546261405722 	
C	 16.295470873114 	  2.678551556359 	 15.676818125722 	
C	 16.863983903114 	  8.862110506359 	  5.546258575722 	
C	 16.295439773114 	  8.862113316359 	 15.676815295722 	
C	 11.376452561485 	 -0.397977695212 	 10.198699203326 	
C	 10.807908431485 	 -0.397974885212 	 20.329255923326 	
C	 11.376421461485 	  5.785584064788 	 10.198696373326 	
C	 10.807877331485 	  5.785586874788 	 20.329253093326 	
C	 26.057279861485 	 -0.397968465212 	 10.226829133326 	
C	 25.488735731485 	 -0.397965655212 	 20.357385853326 	
C	 26.057248761485 	  5.785593294788 	 10.226826303326 	
C	 25.488704631485 	  5.785596104788 	 20.357383023326 	
C	 11.607642097643 	  3.453801225339 	  5.019256320184 	
C	 11.039097967643 	  3.453804035339 	 15.149813040184 	
C	 11.607610997643 	  9.637362985339 	  5.019253490184 	
C	 11.039066867643 	  9.637365795339 	 15.149810210184 	
C	 26.288469397643 	  3.453810455339 	  5.047386250184 	
C	 25.719925267643 	  3.453813265339 	 15.177942970184 	
C	 26.288438297643 	  9.637372215339 	  5.047383420184 	
C	 25.719894167643 	  9.637375025339 	 15.177940140184 	
C	  2.414378182423 	  6.530318665811 	  0.338687387902 	
C	  1.845834052423 	  6.530321475811 	 10.469244107902 	
C	  2.414347082423 	 12.713880425811 	  0.338684557902 	
C	  1.845802952423 	 12.713883235811 	 10.469241277902 	
C	 17.095205482423 	  6.530327895811 	  0.366817317902 	
C	 16.526661352423 	  6.530330705811 	 10.497374037902 	
C	 17.095174382423 	 12.713889655811 	  0.366814487902 	
C	 16.526630252423 	 12.713892465811 	 10.497371207902 	
H	  2.956284161018 	  3.279513085110 	  5.092946399141 	
H	  2.387740031018 	  3.279515895110 	 15.223503119141 	
H	  2.956253061018 	  9.463074845110 	  5.092943569141 	
H	  2.387708931018 	  9.463077655110 	 15.223500289141 	
H	 17.637111461018 	  3.279522315110 	  5.121076329141 	
H	 17.068567331018 	  3.279525125110 	 15.251633049141 	
H	 17.637080361018 	  9.463084075110 	  5.121073499141 	
H	 17.068536231018 	  9.463086885110 	 15.251630219141 	
H	 10.600980929564 	  0.215211716329 	 10.661606007018 	
H	 10.032436799564 	  0.215214526329 	 20.792162727018 	
H	 10.600949829564 	  6.398773476329 	 10.661603177018 	
H	 10.032405699564 	  6.398776286329 	 20.792159897018 	
H	 25.281808229564 	  0.215220946329 	 10.689735937018 	
H	 24.713264099564 	  0.215223756329 	 20.820292657018 	
H	 25.281777129564 	  6.398782706329 	 10.689733107018 	
H	 24.713232999564 	  6.398785516329 	 20.820289827018 	
H	 10.834545935921 	  2.852824541379 	  5.444438980764 	
H	 10.266001805921 	  2.852827351379 	 15.574995700764 	
H	 10.834514835921 	  9.036386301379 	  5.444436150764 	
H	 10.265970705921 	  9.036389111379 	 15.574992870764 	
H	 25.515373235921 	  2.852833771379 	  5.472568910764 	
H	 24.946829105921 	  2.852836581379 	 15.603125630764 	
H	 25.515342135921 	  9.036395531379 	  5.472566080764 	
H	 24.946798005921 	  9.036398341379 	 15.603122800764 	
H	  3.189849666592 	  5.917129672935 	 -0.124219764169 	
H	  2.621305536592 	  5.917132482935 	 10.006336955831 	
H	  3.189818566592 	 12.100691432935 	 -0.124222594169 	
H	  2.621274436592 	 12.100694242935 	 10.006334125831 	
H	 17.870676966592 	  5.917138902935 	 -0.096089834169 	
H	 17.302132836592 	  5.917141712935 	 10.034466885831 	
H	 17.870645866592 	 12.100700662935 	 -0.096092664169 	
H	 17.302101736592 	 12.100703472935 	 10.034464055831 	
H	  1.397879332058 	  2.790432624286 	  4.674724643254 	
H	  0.829335202058 	  2.790435434286 	 14.805281363254 	
H	  1.397848232058 	  8.973994384286 	  4.674721813254 	
H	  0.829304102058 	  8.973997194286 	 14.805278533254 	
H	 16.078706632058 	  2.790441854286 	  4.702854573254 	
H	 15.510162502058 	  2.790444664286 	 14.833411293254 	
H	 16.078675532058 	  8.974003614286 	  4.702851743254 	
H	 15.510131402058 	  8.974006424286 	 14.833408463254 	
H	 12.643000029725 	 -0.274516305986 	  0.646254966729 	
H	 12.074455899725 	 -0.274513495986 	 10.776811686729 	
H	 12.642968929725 	  5.909045454014 	  0.646252136729 	
H	 12.074424799725 	  5.909048264014 	 10.776808856729 	
H	 27.323827329725 	 -0.274507075986 	  0.674384896729 	
H	 26.755283199725 	 -0.274504265986 	 10.804941616729 	
H	 27.323796229725 	  5.909054684014 	  0.674382066729 	
H	 26.755252099725 	  5.909057494014 	 10.804938786729 	
H	 12.392950785043 	  3.341908458069 	  5.862661909894 	
H	 11.824406655043 	  3.341911268069 	 15.993218629894 	
H	 12.392919685043 	  9.525470218069 	  5.862659079894 	
H	 11.824375555043 	  9.525473028069 	 15.993215799894 	
H	 27.073778085043 	  3.341917688069 	  5.890791839894 	
H	 26.505233955043 	  3.341920498069 	 16.021348559894 	
H	 27.073746985043 	  9.525479448069 	  5.890789009894 	
H	 26.505202855043 	  9.525482258069 	 16.021345729894 	
H	  1.147830545125 	  6.406857617820 	  9.891131817502 	
H	  0.579286415125 	  6.406860427820 	 20.021688537502 	
H	  1.147799445125 	 12.590419377820 	  9.891128987502 	
H	  0.579255315125 	 12.590422187820 	 20.021685707502 	
H	 15.828657845125 	  6.406866847820 	  9.919261747502 	
H	 15.260113715125 	  6.406869657820 	 20.049818467502 	
H	 15.828626745125 	 12.590428607820 	  9.919258917502 	
H	 15.260082615125 	 12.590431417820 	 20.049815637502 	
H	  2.731220476612 	  1.872104837463 	  5.070963761488 	
H	  2.162676346612 	  1.872107647463 	 15.201520481488 	
H	  2.731189376612 	  8.055666597463 	  5.070960931488 	
H	  2.162645246612 	  8.055669407463 	 15.201517651488 	
H	 17.412047776612 	  1.872114067463 	  5.099093691488 	
H	 16.843503646612 	  1.872116877463 	 15.229650411488 	
H	 17.412016676612 	  8.055675827463 	  5.099090861488 	
H	 16.843472546612 	  8.055678637463 	 15.229647581488 	
H	 11.273347950416 	  4.943879891305 	  0.294051369051 	
H	 10.704803820416 	  4.943882701305 	 10.424608089051 	
H	 11.273316850416 	 11.127441651305 	  0.294048539051 	
H	 10.704772720416 	 11.127444461305 	 10.424605259051 	
H	 25.954175250416 	  4.943889121305 	  0.322181299051 	
H	 25.385631120416 	  4.943891931305 	 10.452738019051 	
H	 25.954144150416 	 11.127450881305 	  0.322178469051 	
H	 25.385600020416 	 11.127453691305 	 10.452735189051 	
H	 11.059608596005 	  4.260237156405 	  5.466422344325 	
H	 10.491064466005 	  4.260239966405 	 15.596979064325 	
H	 11.059577496005 	 10.443798916405 	  5.466419514325 	
H	 10.491033366005 	 10.443801726405 	 15.596976234325 	
H	 25.740435896005 	  4.260246386405 	  5.494552274325 	
H	 25.171891766005 	  4.260249196405 	 15.625108994325 	
H	 25.740404796005 	 10.443808146405 	  5.494549444325 	
H	 25.171860666005 	 10.443810956405 	 15.625106164325 	
H	  2.517482858093 	  1.188461666291 	 10.243335410374 	
H	  1.948938728093 	  1.188464476291 	 20.373892130374 	
H	  2.517451758093 	  7.372023426291 	 10.243332580374 	
H	  1.948907628093 	  7.372026236291 	 20.373889300374 	
H	 17.198310158093 	  1.188470896291 	 10.271465340374 	
H	 16.629766028093 	  1.188473706291 	 20.402022060374 	
H	 17.198279058093 	  7.372032656291 	 10.271462510374 	
H	 16.629734928093 	  7.372035466291 	 20.402019230374 	
C	  1.407691526909 	  3.654050718454 	  6.780761661083 	
C	  0.839147396909 	  3.654053528454 	 16.911318381083 	
C	  1.407660426909 	  9.837612478454 	  6.780758831083 	
C	  0.839116296909 	  9.837615288454 	 16.911315551083 	
C	 16.088518826909 	  3.654059948454 	  6.808891591083 	
C	 15.519974696909 	  3.654062758454 	 16.939448311083 	
C	 16.088487726909 	  9.837621708454 	  6.808888761083 	
C	 15.519943596909 	  9.837624518454 	 16.939445481083 	
C	 12.165347317382 	  0.632087995862 	  8.972822208047 	
C	 11.596803187382 	  0.632090805862 	 19.103378928047 	
C	 12.165316217382 	  6.815649755862 	  8.972819378047 	
C	 11.596772087382 	  6.815652565862 	 19.103376098047 	
C	 26.846174617382 	  0.632097225862 	  9.000952138047 	
C	 26.277630487382 	  0.632100035862 	 19.131508858047 	
C	 26.846143517382 	  6.815658985862 	  9.000949308047 	
C	 26.277599387382 	  6.815661795862 	 19.131506028047 	
C	 12.383140037292 	  2.478289954214 	  3.756623481410 	
C	 11.814595907292 	  2.478292764214 	 13.887180201410 	
C	 12.383108937292 	  8.661851714214 	  3.756620651410 	
C	 11.814564807292 	  8.661854524214 	 13.887177371410 	
C	 27.063967337292 	  2.478299184214 	  3.784753411410 	
C	 26.495423207292 	  2.478301994214 	 13.915310131410 	
C	 27.063936237292 	  8.661860944214 	  3.784750581410 	
C	 26.495392107292 	  8.661863754214 	 13.915307301410 	
C	  1.625483685211 	  5.500252913624 	  1.564564288326 	
C	  1.056939555211 	  5.500255723624 	 11.695121008326 	
C	  1.625452585211 	 11.683814673624 	  1.564561458326 	
C	  1.056908455211 	 11.683817483624 	 11.695118178326 	
C	 16.306310985211 	  5.500262143624 	  1.592694218326 	
C	 15.737766855211 	  5.500264953624 	 11.723250938326 	
C	 16.306279885211 	 11.683823903624 	  1.592691388326 	
C	 15.737735755211 	 11.683826713624 	 11.723248108326 	
H	  1.924194409088 	  4.617092831575 	  6.710977574126 	
H	  1.355650279088 	  4.617095641575 	 16.841534294126 	
H	  1.924163309088 	 10.800654591575 	  6.710974744126 	
H	  1.355619179088 	 10.800657401575 	 16.841531464126 	
H	 16.605021709088 	  4.617102061575 	  6.739107504126 	
H	 16.036477579088 	  4.617104871575 	 16.869664224126 	
H	 16.604990609088 	 10.800663821575 	  6.739104674126 	
H	 16.036446479088 	 10.800666631575 	 16.869661394126 	
H	 11.610188891975 	  1.561583590952 	  9.053323717145 	
H	 11.041644761975 	  1.561586400952 	 19.183880437145 	
H	 11.610157791975 	  7.745145350952 	  9.053320887145 	
H	 11.041613661975 	  7.745148160952 	 19.183877607145 	
H	 26.291016191975 	  1.561592820952 	  9.081453647145 	
H	 25.722472061975 	  1.561595630952 	 19.212010367145 	
H	 26.290985091975 	  7.745154580952 	  9.081450817145 	
H	 25.722440961975 	  7.745157390952 	 19.212007537145 	
H	 11.866636981457 	  1.515247396428 	  3.826407495549 	
H	 11.298092851457 	  1.515250206428 	 13.956964215549 	
H	 11.866605881457 	  7.698809156428 	  3.826404665549 	
H	 11.298061751457 	  7.698811966428 	 13.956961385549 	
H	 26.547464281457 	  1.515256626428 	  3.854537425549 	
H	 25.978920151457 	  1.515259436428 	 13.985094145549 	
H	 26.547433181457 	  7.698818386428 	  3.854534595549 	
H	 25.978889051457 	  7.698821196428 	 13.985091315549 	
H	  2.180642141709 	  4.570757375165 	  1.484062371877 	
H	  1.612098011709 	  4.570760185165 	 11.614619091877 	
H	  2.180611041709 	 10.754319135165 	  1.484059541877 	
H	  1.612066911709 	 10.754321945165 	 11.614616261877 	
H	 16.861469441709 	  4.570766605165 	  1.512192301877 	
H	 16.292925311709 	  4.570769415165 	 11.642749021877 	
H	 16.861438341709 	 10.754328365165 	  1.512189471877 	
H	 16.292894211709 	 10.754331175165 	 11.642746191877 	
H	  1.108346094288 	  3.911569871889 	  7.811819410107 	
H	  0.539801964288 	  3.911572681889 	 17.942376130107 	
H	  1.108314994288 	 10.095131631889 	  7.811816580107 	
H	  0.539770864288 	 10.095134441889 	 17.942373300107 	
H	 15.789173394288 	  3.911579101889 	  7.839949340107 	
H	 15.220629264288 	  3.911581911889 	 17.970506060107 	
H	 15.789142294288 	 10.095140861889 	  7.839946510107 	
H	 15.220598164288 	 10.095143671889 	 17.970503230107 	
H	 12.434899405429 	  6.952203218971 	  7.952161659607 	
H	 11.866355275429 	  6.952206028971 	 18.082718379607 	
H	 12.434868305429 	 13.135764978971 	  7.952158829607 	
H	 11.866324175429 	 13.135767788971 	 18.082715549607 	
H	 27.115726705429 	  6.952212448971 	  7.980291589607 	
H	 26.547182575429 	  6.952215258971 	 18.110848309607 	
H	 27.115695605429 	 13.135774208971 	  7.980288759607 	
H	 26.547151475429 	 13.135777018971 	 18.110845479607 	
H	 12.682486440495 	  2.220772159862 	  2.725565217842 	
H	 12.113942310495 	  2.220774969862 	 12.856121937842 	
H	 12.682455340495 	  8.404333919862 	  2.725562387842 	
H	 12.113911210495 	  8.404336729862 	 12.856119107842 	
H	 27.363313740495 	  2.220781389862 	  2.753695147842 	
H	 26.794769610495 	  2.220784199862 	 12.884251867842 	
H	 27.363282640495 	  8.404343149862 	  2.753692317842 	
H	 26.794738510495 	  8.404345959862 	 12.884249037842 	
H	  1.355931923091 	 -0.819862498344 	  2.585225020197 	
H	  0.787387793091 	 -0.819859688344 	 12.715781740197 	
H	  1.355900823091 	  5.363699261656 	  2.585222190197 	
H	  0.787356693091 	  5.363702071656 	 12.715778910197 	
H	 16.036759223091 	 -0.819853268344 	  2.613354950197 	
H	 15.468215093091 	 -0.819850458344 	 12.743911670197 	
H	 16.036728123091 	  5.363708491656 	  2.613352120197 	
H	 15.468183993091 	  5.363711301656 	 12.743908840197 	
H	  0.457327700448 	  3.835112202764 	  6.179914533552 	
H	 -0.111216429552 	  3.835115012764 	 16.310471253552 	
H	  0.457296600448 	 10.018673962764 	  6.179911703552 	
H	 -0.111247529552 	 10.018676772764 	 16.310468423552 	
H	 15.138155000448 	  3.835121432764 	  6.208044463552 	
H	 14.569610870448 	  3.835124242764 	 16.338601183552 	
H	 15.138123900448 	 10.018683192764 	  6.208041633552 	
H	 14.569579770448 	 10.018686002764 	 16.338598353552 	
H	 13.086817769506 	  6.897258360487 	  9.582296169369 	
H	 12.518273639506 	  6.897261170487 	 19.712852889369 	
H	 13.086786669506 	 13.080820120487 	  9.582293339369 	
H	 12.518242539506 	 13.080822930487 	 19.712850059369 	
H	 27.767645069506 	  6.897267590487 	  9.610426099369 	
H	 27.199100939506 	  6.897270400487 	 19.740982819369 	
H	 27.767613969506 	 13.080829350487 	  9.610423269369 	
H	 27.199069839506 	 13.080832160487 	 19.740979989369 	
H	 13.333503666698 	  2.297228862874 	  4.357471013039 	
H	 12.764959536698 	  2.297231672874 	 14.488027733039 	
H	 13.333472566698 	  8.480790622874 	  4.357468183039 	
H	 12.764928436698 	  8.480793432874 	 14.488024903039 	
H	 28.014330966698 	  2.297238092874 	  4.385600943039 	
H	 27.445786836698 	  2.297240902874 	 14.516157663039 	
H	 28.014299866698 	  8.480799852874 	  4.385598113039 	
H	 27.445755736698 	  8.480802662874 	 14.516154833039 	
H	  0.704013016161 	 -0.764917524531 	  0.955090648051 	
H	  0.135468886161 	 -0.764914714531 	 11.085647368051 	
H	  0.703981916161 	  5.418644235469 	  0.955087818051 	
H	  0.135437786161 	  5.418647045469 	 11.085644538051 	
H	 15.384840316161 	 -0.764908294531 	  0.983220578051 	
H	 14.816296186161 	 -0.764905484531 	 11.113777298051 	
H	 15.384809216161 	  5.418653465469 	  0.983217748051 	
H	 14.816265086161 	  5.418656275469 	 11.113774468051 	
C	  1.269342530429 	  1.861803640552 	  6.796107540252 	
C	  0.700798400429 	  1.861806450552 	 16.926664260252 	
C	  1.269311430429 	  8.045365400552 	  6.796104710252 	
C	  0.700767300429 	  8.045368210552 	 16.926661430252 	
C	 15.950169830429 	  1.861812870552 	  6.824237470252 	
C	 15.381625700429 	  1.861815680552 	 16.954794190252 	
C	 15.950138730429 	  8.045374630552 	  6.824234640252 	
C	 15.381594600429 	  8.045377440552 	 16.954791360252 	
C	 12.274700889687 	  4.928191515545 	  8.966679903976 	
C	 11.706156759687 	  4.928194325545 	 19.097236623976 	
C	 12.274669789687 	 11.111753275545 	  8.966677073976 	
C	 11.706125659687 	 11.111756085545 	 19.097233793976 	
C	 26.955528189687 	  4.928200745545 	  8.994809833976 	
C	 26.386984059687 	  4.928203555545 	 19.125366553976 	
C	 26.955497089687 	 11.111762505545 	  8.994807003976 	
C	 26.386952959687 	 11.111765315545 	 19.125363723976 	
C	 12.521488545669 	  4.270539116749 	  3.741277875320 	
C	 11.952944415669 	  4.270541926749 	 13.871834595320 	
C	 12.521457445669 	 10.454100876749 	  3.741275045320 	
C	 11.952913315669 	 10.454103686749 	 13.871831765320 	
C	 27.202315845669 	  4.270548346749 	  3.769407805320 	
C	 26.633771715669 	  4.270551156749 	 13.899964525320 	
C	 27.202284745669 	 10.454110106749 	  3.769404975320 	
C	 26.633740615669 	 10.454112916749 	 13.899961695320 	
C	  1.516129978646 	  1.204149294270 	  1.570707055383 	
C	  0.947585848646 	  1.204152104270 	 11.701263775383 	
C	  1.516098878646 	  7.387711054270 	  1.570704225383 	
C	  0.947554748646 	  7.387713864270 	 11.701260945383 	
C	 16.196957278646 	  1.204158524270 	  1.598836985383 	
C	 15.628413148646 	  1.204161334270 	 11.729393705383 	
C	 16.196926178646 	  7.387720284270 	  1.598834155383 	
C	 15.628382048646 	  7.387723094270 	 11.729390875383 	
H	  0.239790754744 	  1.762553920980 	  6.303058055844 	
H	 -0.328753375256 	  1.762556730980 	 16.433614775844 	
H	  0.239759654744 	  7.946115680980 	  6.303055225844 	
H	 -0.328784475256 	  7.946118490980 	 16.433611945844 	
H	 14.920618054744 	  1.762563150980 	  6.331187985844 	
H	 14.352073924744 	  1.762565960980 	 16.461744705844 	
H	 14.920586954744 	  7.946124910980 	  6.331185155844 	
H	 14.352042824744 	  7.946127720980 	 16.461741875844 	
H	 13.304279344658 	  4.828748714145 	  9.459391855404 	
H	 12.735735214658 	  4.828751524145 	 19.589948575404 	
H	 13.304248244658 	 11.012310474145 	  9.459389025404 	
H	 12.735704114658 	 11.012313284145 	 19.589945745404 	
H	 27.985106644658 	  4.828757944145 	  9.487521785404 	
H	 27.416562514658 	  4.828760754145 	 19.618078505404 	
H	 27.985075544658 	 11.012319704145 	  9.487518955404 	
H	 27.416531414658 	 11.012322514145 	 19.618075675404 	
H	 13.551039825215 	  4.369788553208 	  4.234327939282 	
H	 12.982495695215 	  4.369791363208 	 14.364884659282 	
H	 13.551008725215 	 10.553350313208 	  4.234325109282 	
H	 12.982464595215 	 10.553353123208 	 14.364881829282 	
H	 28.231867125215 	  4.369797783208 	  4.262457869282 	
H	 27.663322995215 	  4.369800593208 	 14.393014589282 	
H	 28.231836025215 	 10.553359543208 	  4.262455039282 	
H	 27.663291895215 	 10.553362353208 	 14.393011759282 	
H	  0.486551447043 	  1.303592028081 	  1.077995261145 	
H	 -0.081992682957 	  1.303594838081 	 11.208551981145 	
H	  0.486520347043 	  7.487153788081 	  1.077992431145 	
H	 -0.082023782957 	  7.487156598081 	 11.208549151145 	
H	 15.167378747043 	  1.303601258081 	  1.106125191145 	
H	 14.598834617043 	  1.303604068081 	 11.236681911145 	
H	 15.167347647043 	  7.487163018081 	  1.106122361145 	
H	 14.598803517043 	  7.487165828081 	 11.236679081145 	
H	  1.024000836053 	  1.641302714582 	  7.838385117308 	
H	  0.455456706053 	  1.641305524582 	 17.968941837308 	
H	  1.023969736053 	  7.824864474582 	  7.838382287308 	
H	  0.455425606053 	  7.824867284582 	 17.968939007308 	
H	 15.704828136053 	  1.641311944582 	  7.866515047308 	
H	 15.136284006053 	  1.641314754582 	 17.997071767308 	
H	 15.704797036053 	  7.824873704582 	  7.866512217308 	
H	 15.136252906053 	  7.824876514582 	 17.997068937308 	
H	 12.520216940529 	  4.707617808972 	  7.924048871443 	
H	 11.951672810529 	  4.707620618972 	 18.054605591443 	
H	 12.520185840529 	 10.891179568972 	  7.924046041443 	
H	 11.951641710529 	 10.891182378972 	 18.054602761443 	
H	 27.201044240529 	  4.707627038972 	  7.952178801443 	
H	 26.632500110529 	  4.707629848972 	 18.082735521443 	
H	 27.201013140529 	 10.891188798972 	  7.952175971443 	
H	 26.632469010529 	 10.891191608972 	 18.082732691443 	
H	 12.766829945765 	  4.491039891350 	  2.698999800242 	
H	 12.198285815765 	  4.491042701350 	 12.829556520242 	
H	 12.766798845765 	 10.674601651350 	  2.698996970242 	
H	 12.198254715765 	 10.674604461350 	 12.829553690242 	
H	 27.447657245765 	  4.491049121350 	  2.727129730242 	
H	 26.879113115765 	  4.491051931350 	 12.857686450242 	
H	 27.447626145765 	 10.674610881350 	  2.727126900242 	
H	 26.879082015765 	 10.674613691350 	 12.857683620242 	
H	  1.270614014585 	  1.424722799546 	  2.613338049146 	
H	  0.702069884585 	  1.424725609546 	 12.743894769146 	
H	  1.270582914585 	  7.608284559546 	  2.613335219146 	
H	  0.702038784585 	  7.608287369546 	 12.743891939146 	
H	 15.951441314585 	  1.424732029546 	  2.641467979146 	
H	 15.382897184585 	  1.424734839546 	 12.772024699146 	
H	 15.951410214585 	  7.608293789546 	  2.641465149146 	
H	 15.382866084585 	  7.608296599546 	 12.772021869146 	
H	  1.592941707930 	  0.845566087513 	  6.722383672789 	
H	  1.024397577930 	  0.845568897513 	 16.852940392789 	
H	  1.592910607930 	  7.029127847513 	  6.722380842789 	
H	  1.024366477930 	  7.029130657513 	 16.852937562789 	
H	 16.273769007930 	  0.845575317513 	  6.750513602789 	
H	 15.705224877930 	  0.845578127513 	 16.881070322789 	
H	 16.273737907930 	  7.029137077513 	  6.750510772789 	
H	 15.705193777930 	  7.029139887513 	 16.881067492789 	
H	 11.951039887938 	  3.911896495529 	  9.039986506963 	
H	 11.382495757938 	  3.911899305529 	 19.170543226963 	
H	 11.951008787938 	 10.095458255529 	  9.039983676963 	
H	 11.382464657938 	 10.095461065529 	 19.170540396963 	
H	 26.631867187938 	  3.911905725529 	  9.068116436963 	
H	 26.063323057938 	  3.911908535529 	 19.198673156963 	
H	 26.631836087938 	 10.095467485529 	  9.068113606963 	
H	 26.063291957938 	 10.095470295529 	 19.198670326963 	
H	 12.197887267633 	  5.286776856751 	  3.815004346481 	
H	 11.629343137633 	  5.286779666751 	 13.945561066481 	
H	 12.197856167633 	 11.470338616751 	  3.815001516481 	
H	 11.629312037633 	 11.470341426751 	 13.945558236481 	
H	 26.878714567633 	  5.286786086751 	  3.843134276481 	
H	 26.310170437633 	  5.286788896751 	 13.973690996481 	
H	 26.878683467633 	 11.470347846751 	  3.843131446481 	
H	 26.310139337633 	 11.470350656751 	 13.973688166481 	
H	  1.839790850379 	  2.220444373227 	  1.497400916660 	
H	  1.271246720379 	  2.220447183227 	 11.627957636660 	
H	  1.839759750379 	  8.404006133227 	  1.497398086660 	
H	  1.271215620379 	  8.404008943227 	 11.627954806660 	
H	 16.520618150379 	  2.220453603227 	  1.525530846660 	
H	 15.952074020379 	  2.220456413227 	 11.656087566660 	
H	 16.520587050379 	  8.404015363227 	  1.525528016660 	
H	 15.952042920379 	  8.404018173227 	 11.656084736660 	
768 
Energy: -9.1050812793579993e+01 
S	  8.448070609983 	  1.452871563226 	  0.104062145694 	
S	  7.879526479983 	  1.452874373226 	 10.234618865694 	
S	  8.448039509983 	  7.636433323226 	  0.104059315694 	
S	  7.879495379983 	  7.636436133226 	 10.234616035694 	
S	 23.128897909983 	  1.452880793226 	  0.132192075694 	
S	 22.560353779983 	  1.452883603226 	 10.262748795694 	
S	 23.128866809983 	  7.636442553226 	  0.132189245694 	
S	 22.560322679983 	  7.636445363226 	 10.262745965694 	
S	  5.528003403823 	  4.514186069400 	  5.245386894429 	
S	  4.959459273823 	  4.514188879400 	 15.375943614429 	
S	  5.527972303823 	 10.697747829400 	  5.245384064429 	
S	  4.959428173823 	 10.697750639400 	 15.375940784429 	
S	 20.208830703823 	  4.514195299400 	  5.273516824429 	
S	 19.640286573823 	  4.514198109400 	 15.404073544429 	
S	 20.208799603823 	 10.697757059400 	  5.273513994429 	
S	 19.640255473823 	 10.697759869400 	 15.404070714429 	
S	  5.288126441668 	  4.670760762979 	 10.497694210784 	
S	  4.719582311668 	  4.670763572979 	 20.628250930784 	
S	  5.288095341668 	 10.854322522979 	 10.497691380784 	
S	  4.719551211668 	 10.854325332979 	 20.628248100784 	
S	 19.968953741668 	  4.670769992979 	 10.525824140784 	
S	 19.400409611668 	  4.670772802979 	 20.656380860784 	
S	 19.968922641668 	 10.854331752979 	 10.525821310784 	
S	 19.400378511668 	 10.854334562979 	 20.656378030784 	
S	  8.208194747699 	  1.609446446966 	  5.356369237362 	
S	  7.639650617699 	  1.609449256966 	 15.486925957362 	
S	  8.208163647699 	  7.793008206966 	  5.356366407362 	
S	  7.639619517699 	  7.793011016966 	 15.486923127362 	
S	 22.889022047699 	  1.609455676966 	  5.384499167362 	
S	 22.320477917699 	  1.609458486966 	 15.515055887362 	
S	 22.888990947699 	  7.793017436966 	  5.384496337362 	
S	 22.320446817699 	  7.793020246966 	 15.515053057362 	
C	  6.614460514550 	  2.517110409060 	 10.180233421372 	
C	  6.045916384550 	  2.517113219060 	 20.310790141372 	
C	  6.614429414550 	  8.700672169060 	 10.180230591372 	
C	  6.045885284550 	  8.700674979060 	 20.310787311372 	
C	 21.295287814550 	  2.517119639060 	 10.208363351372 	
C	 20.726743684550 	  2.517122449060 	 20.338920071372 	
C	 21.295256714550 	  8.700681399060 	 10.208360521372 	
C	 20.726712584550 	  8.700684209060 	 20.338917241372 	
C	  6.881095374805 	  5.577888822767 	  5.673987366332 	
C	  6.312551244805 	  5.577891632767 	 15.804544086332 	
C	  6.881064274805 	 11.761450582767 	  5.673984536332 	
C	  6.312520144805 	 11.761453392767 	 15.804541256332 	
C	 21.561922674805 	  5.577898052767 	  5.702117296332 	
C	 20.993378544805 	  5.577900862767 	 15.832674016332 	
C	 21.561891574805 	 11.761459812767 	  5.702114466332 	
C	 20.993347444805 	 11.761462622767 	 15.832671186332 	
C	  7.121736547286 	  3.606521896296 	  0.421522804610 	
C	  6.553192417286 	  3.606524706296 	 10.552079524610 	
C	  7.121705447286 	  9.790083656296 	  0.421519974610 	
C	  6.553161317286 	  9.790086466296 	 10.552076694610 	
C	 21.802563847286 	  3.606531126296 	  0.449652734610 	
C	 21.234019717286 	  3.606533936296 	 10.580209454610 	
C	 21.802532747286 	  9.790092886296 	  0.449649904610 	
C	 21.233988617286 	  9.790095696296 	 10.580206624610 	
C	  6.855102630561 	  0.545743768263 	  4.927768633395 	
C	  6.286558500561 	  0.545746578263 	 15.058325353395 	
C	  6.855071530561 	  6.729305528263 	  4.927765803395 	
C	  6.286527400561 	  6.729308338263 	 15.058322523395 	
C	 21.535929930561 	  0.545752998263 	  4.955898563395 	
C	 20.967385800561 	  0.545755808263 	 15.086455283395 	
C	 21.535898830561 	  6.729314758263 	  4.955895733395 	
C	 20.967354700561 	  6.729317568263 	 15.086452453395 	
C	  5.576896477808 	  2.380789129168 	  9.217705276229 	
C	  5.008352347808 	  2.380791939168 	 19.348261996229 	
C	  5.576865377808 	  8.564350889168 	  9.217702446229 	
C	  5.008321247808 	  8.564353699168 	 19.348259166229 	
C	 20.257723777808 	  2.380798359168 	  9.245835206229 	
C	 19.689179647808 	  2.380801169168 	 19.376391926229 	
C	 20.257692677808 	  8.564360119168 	  9.245832376229 	
C	 19.689148547808 	  8.564362929168 	 19.376389096229 	
C	  7.919592027622 	  5.442676264052 	  6.636175794087 	
C	  7.351047897622 	  5.442679074052 	 16.766732514087 	
C	  7.919560927622 	 11.626238024052 	  6.636172964087 	
C	  7.351016797622 	 11.626240834052 	 16.766729684087 	
C	 22.600419327622 	  5.442685494052 	  6.664305724087 	
C	 22.031875197622 	  5.442688304052 	 16.794862444087 	
C	 22.600388227622 	 11.626247254052 	  6.664302894087 	
C	 22.031844097622 	 11.626250064052 	 16.794859614087 	
C	  8.159300516575 	  3.742843240407 	  1.384050896901 	
C	  7.590756386575 	  3.742846050407 	 11.514607616901 	
C	  8.159269416575 	  9.926405000407 	  1.384048066901 	
C	  7.590725286575 	  9.926407810407 	 11.514604786901 	
C	 22.840127816575 	  3.742852470407 	  1.412180826901 	
C	 22.271583686575 	  3.742855280407 	 11.542737546901 	
C	 22.840096716575 	  9.926414230407 	  1.412177996901 	
C	 22.271552586575 	  9.926417040407 	 11.542734716901 	
C	  5.816605786847 	  0.680956342225 	  3.965580368008 	
C	  5.248061656847 	  0.680959152225 	 14.096137088008 	
C	  5.816574686847 	  6.864518102225 	  3.965577538008 	
C	  5.248030556847 	  6.864520912225 	 14.096134258008 	
C	 20.497433086847 	  0.680965572225 	  3.993710298008 	
C	 19.928888956847 	  0.680968382225 	 14.124267018008 	
C	 20.497401986847 	  6.864527332225 	  3.993707468008 	
C	 19.928857856847 	  6.864530142225 	 14.124264188008 	
C	  4.731400095049 	  3.492752691619 	  9.261288626716 	
C	  4.162855965049 	  3.492755501619 	 19.391845346716 	
C	  4.731368995049 	  9.676314451619 	  9.261285796716 	
C	  4.162824865049 	  9.676317261619 	 19.391842516716 	
C	 19.412227395049 	  3.492761921619 	  9.289418556716 	
C	 18.843683265049 	  3.492764731619 	 19.419975276716 	
C	 19.412196295049 	  9.676323681619 	  9.289415726716 	
C	 18.843652165049 	  9.676326491619 	 19.419972446716 	
C	  8.763916251231 	  0.430792462522 	  6.592799553339 	
C	  8.195372121231 	  0.430795272522 	 16.723356273339 	
C	  8.763885151231 	  6.614354222522 	  6.592796723339 	
C	  8.195341021231 	  6.614357032522 	 16.723353443339 	
C	 23.444743551231 	  0.430801692522 	  6.620929483339 	
C	 22.876199421231 	  0.430804502522 	 16.751486203339 	
C	 23.444712451231 	  6.614363452522 	  6.620926653339 	
C	 22.876168321231 	  6.614366262522 	 16.751483373339 	
C	  9.004796891841 	  2.630879656452 	  1.340467582972 	
C	  8.436252761841 	  2.630882466452 	 11.471024302972 	
C	  9.004765791841 	  8.814441416452 	  1.340464752972 	
C	  8.436221661841 	  8.814444226452 	 11.471021472972 	
C	 23.685624191841 	  2.630888886452 	  1.368597512972 	
C	 23.117080061841 	  2.630891696452 	 11.499154232972 	
C	 23.685593091841 	  8.814450646452 	  1.368594682972 	
C	 23.117048961841 	  8.814453456452 	 11.499151402972 	
C	  4.972281655828 	  5.692840135650 	  4.008956761954 	
C	  4.403737525828 	  5.692842945650 	 14.139513481954 	
C	  4.972250555828 	 11.876401895650 	  4.008953931954 	
C	  4.403706425828 	 11.876404705650 	 14.139510651954 	
C	 19.653108955828 	  5.692849365650 	  4.037086691954 	
C	 19.084564825828 	  5.692852175650 	 14.167643411954 	
C	 19.653077855828 	 11.876411125650 	  4.037083861954 	
C	 19.084533725828 	 11.876413935650 	 14.167640581954 	
C	  3.658332571438 	  3.599584933747 	  8.465313917448 	
C	  3.089788441438 	  3.599587743747 	 18.595870637448 	
C	  3.658301471438 	  9.783146693747 	  8.465311087448 	
C	  3.089757341438 	  9.783149503747 	 18.595867807448 	
C	 18.339159871438 	  3.599594163747 	  8.493443847448 	
C	 17.770615741438 	  3.599596973747 	 18.624000567448 	
C	 18.339128771438 	  9.783155923747 	  8.493441017448 	
C	 17.770584641438 	  9.783158733747 	 18.623997737448 	
C	  9.837160403379 	  0.537964934119 	  7.388695692530 	
C	  9.268616273379 	  0.537967744119 	 17.519252412530 	
C	  9.837129303379 	  6.721526694119 	  7.388692862530 	
C	  9.268585173379 	  6.721529504119 	 17.519249582530 	
C	 24.517987703379 	  0.537974164119 	  7.416825622530 	
C	 23.949443573379 	  0.537976974119 	 17.547382342530 	
C	 24.517956603379 	  6.721535924119 	  7.416822792530 	
C	 23.949412473379 	  6.721538734119 	 17.547379512530 	
C	 10.077864414510 	  2.524047557475 	  2.136442482437 	
C	  9.509320284510 	  2.524050367475 	 12.266999202437 	
C	 10.077833314510 	  8.707609317475 	  2.136439652437 	
C	  9.509289184510 	  8.707612127475 	 12.266996372437 	
C	 24.758691714510 	  2.524056787475 	  2.164572412437 	
C	 24.190147584510 	  2.524059597475 	 12.295129132437 	
C	 24.758660614510 	  8.707618547475 	  2.164569582437 	
C	 24.190116484510 	  8.707621357475 	 12.295126302437 	
C	  3.899037130600 	  5.585667721640 	  3.213060996624 	
C	  3.330493000600 	  5.585670531640 	 13.343617716624 	
C	  3.899006030600 	 11.769229481640 	  3.213058166624 	
C	  3.330461900600 	 11.769232291640 	 13.343614886624 	
C	 18.579864430600 	  5.585676951640 	  3.241190926624 	
C	 18.011320300600 	  5.585679761640 	 13.371747646624 	
C	 18.579833330600 	 11.769238711640 	  3.241188096624 	
C	 18.011289200600 	 11.769241521640 	 13.371744816624 	
H	  3.003725207765 	  4.543104652542 	  8.543939788806 	
H	  2.435181077765 	  4.543107462542 	 18.674496508806 	
H	  3.003694107765 	 10.726666412542 	  8.543936958806 	
H	  2.435149977765 	 10.726669222542 	 18.674493678806 	
H	 17.684552507765 	  4.543113882542 	  8.572069718806 	
H	 17.116008377765 	  4.543116692542 	 18.702626438806 	
H	 17.684521407765 	 10.726675642542 	  8.572066888806 	
H	 17.115977277765 	 10.726678452542 	 18.702623608806 	
H	 10.492234651872 	  1.481458729389 	  7.309873038613 	
H	  9.923690521872 	  1.481461539389 	 17.440429758613 	
H	 10.492203551872 	  7.665020489389 	  7.309870208613 	
H	  9.923659421872 	  7.665023299389 	 17.440426928613 	
H	 25.173061951872 	  1.481467959389 	  7.338002968613 	
H	 24.604517821872 	  1.481470769389 	 17.468559688613 	
H	 25.173030851872 	  7.665029719389 	  7.338000138613 	
H	 24.604486721872 	  7.665032529389 	 17.468556858613 	
H	 10.732471705051 	  1.580527756328 	  2.057816762444 	
H	 10.163927575051 	  1.580530566328 	 12.188373482444 	
H	 10.732440605051 	  7.764089516328 	  2.057813932444 	
H	 10.163896475051 	  7.764092326328 	 12.188370652444 	
H	 25.413299005051 	  1.580536986328 	  2.085946692444 	
H	 24.844754875051 	  1.580539796328 	 12.216503412444 	
H	 25.413267905051 	  7.764098746328 	  2.085943862444 	
H	 24.844723775051 	  7.764101556328 	 12.216500582444 	
H	  3.243963014199 	  4.642173846896 	  3.291883807103 	
H	  2.675418884199 	  4.642176656896 	 13.422440527103 	
H	  3.243931914199 	 10.825735606896 	  3.291880977103 	
H	  2.675387784199 	 10.825738416896 	 13.422437697103 	
H	 17.924790314199 	  4.642183076896 	  3.320013737103 	
H	 17.356246184199 	  4.642185886896 	 13.450570457103 	
H	 17.924759214199 	 10.825744836896 	  3.320010907103 	
H	 17.356215084199 	 10.825747646896 	 13.450567627103 	
C	  3.324917171692 	  2.638754111493 	  7.570039914159 	
C	  2.756373041692 	  2.638756921493 	 17.700596634159 	
C	  3.324886071692 	  8.822315871493 	  7.570037084159 	
C	  2.756341941692 	  8.822318681493 	 17.700593804159 	
C	 18.005744471692 	  2.638763341493 	  7.598169844159 	
C	 17.437200341692 	  2.638766151493 	 17.728726564159 	
C	 18.005713371692 	  8.822325101493 	  7.598167014159 	
C	 17.437169241692 	  8.822327911493 	 17.728723734159 	
C	 10.170844395886 	  5.699937097165 	  8.283622101067 	
C	  9.602300265886 	  5.699939907165 	 18.414178821067 	
C	 10.170813295886 	 11.883498857165 	  8.283619271067 	
C	  9.602269165886 	 11.883501667165 	 18.414175991067 	
C	 24.851671695886 	  5.699946327165 	  8.311752031067 	
C	 24.283127565886 	  5.699949137165 	 18.442308751067 	
C	 24.851640595886 	 11.883508087165 	  8.311749201067 	
C	 24.283096465886 	 11.883510897165 	 18.442305921067 	
C	 10.411279680414 	  3.484878460099 	  3.031716260780 	
C	  9.842735550414 	  3.484881270099 	 13.162272980780 	
C	 10.411248580414 	  9.668440220099 	  3.031713430780 	
C	  9.842704450414 	  9.668443030099 	 13.162270150780 	
C	 25.092106980414 	  3.484887690099 	  3.059846190780 	
C	 24.523562850414 	  3.484890500099 	 13.190402910780 	
C	 25.092075880414 	  9.668449450099 	  3.059843360780 	
C	 24.523531750414 	  9.668452260099 	 13.190400080780 	
C	  3.565352845460 	  0.423695610068 	  2.318134767788 	
C	  2.996808715460 	  0.423698420068 	 12.448691487788 	
C	  3.565321745460 	  6.607257370068 	  2.318131937788 	
C	  2.996777615460 	  6.607260180068 	 12.448688657788 	
C	 18.246180145460 	  0.423704840068 	  2.346264697788 	
C	 17.677636015460 	  0.423707650068 	 12.476821417788 	
C	 18.246149045460 	  6.607266600068 	  2.346261867788 	
C	 17.677604915460 	  6.607269410068 	 12.476818587788 	
C	  4.180708681966 	  1.557410290691 	  7.514722798221 	
C	  3.612164551966 	  1.557413100691 	 17.645279518221 	
C	  4.180677581966 	  7.740972050691 	  7.514719968221 	
C	  3.612133451966 	  7.740974860691 	 17.645276688221 	
C	 18.861535981966 	  1.557419520691 	  7.542852728221 	
C	 18.292991851966 	  1.557422330691 	 17.673409448221 	
C	 18.861504881966 	  7.740981280691 	  7.542849898221 	
C	 18.292960751966 	  7.740984090691 	 17.673406618221 	
C	  9.315275387132 	  4.619424148718 	  8.339180801800 	
C	  8.746731257132 	  4.619426958718 	 18.469737521800 	
C	  9.315244287132 	 10.802985908718 	  8.339177971800 	
C	  8.746700157132 	 10.802988718718 	 18.469734691800 	
C	 23.996102687132 	  4.619433378718 	  8.367310731800 	
C	 23.427558557132 	  4.619436188718 	 18.497867451800 	
C	 23.996071587132 	 10.802995138718 	  8.367307901800 	
C	 23.427527457132 	 10.802997948718 	 18.497864621800 	
C	  9.555488217629 	  4.566222313958 	  3.087033283839 	
C	  8.986944087629 	  4.566225123958 	 13.217590003839 	
C	  9.555457117629 	 10.749784073958 	  3.087030453839 	
C	  8.986912987629 	 10.749786883958 	 13.217587173839 	
C	 24.236315517629 	  4.566231543958 	  3.115163213839 	
C	 23.667771387629 	  4.566234353958 	 13.245719933839 	
C	 24.236284417629 	 10.749793303958 	  3.115160383839 	
C	 23.667740287629 	 10.749796113958 	 13.245717103839 	
C	  4.420921796087 	  1.504208492170 	  2.262575795911 	
C	  3.852377666087 	  1.504211302170 	 12.393132515911 	
C	  4.420890696087 	  7.687770252170 	  2.262572965911 	
C	  3.852346566087 	  7.687773062170 	 12.393129685911 	
C	 19.101749096087 	  1.504217722170 	  2.290705725911 	
C	 18.533204966087 	  1.504220532170 	 12.421262445911 	
C	 19.101717996087 	  7.687779482170 	  2.290702895911 	
C	 18.533173866087 	  7.687782292170 	 12.421259615911 	
H	  3.957688055563 	  0.729898249733 	  6.748862491051 	
H	  3.389143925563 	  0.729901059733 	 16.879419211051 	
H	  3.957656955563 	  6.913460009733 	  6.748859661051 	
H	  3.389112825563 	  6.913462819733 	 16.879416381051 	
H	 18.638515355563 	  0.729907479733 	  6.776992421051 	
H	 18.069971225563 	  0.729910289733 	 16.907549141051 	
H	 18.638484255563 	  6.913469239733 	  6.776989591051 	
H	 18.069940125563 	  6.913472049733 	 16.907546311051 	
H	  9.538142258424 	  3.791777266314 	  9.105091335503 	
H	  8.969598128424 	  3.791780076314 	 19.235648055503 	
H	  9.538111158424 	  9.975339026314 	  9.105088505503 	
H	  8.969567028424 	  9.975341836314 	 19.235645225503 	
H	 24.218969558424 	  3.791786496314 	  9.133221265503 	
H	 23.650425428424 	  3.791789306314 	 19.263777985503 	
H	 24.218938458424 	  9.975348256314 	  9.133218435503 	
H	 23.650394328424 	  9.975351066314 	 19.263775155503 	
H	  9.778508947773 	  5.393734484010 	  3.852893428543 	
H	  9.209964817773 	  5.393737294010 	 13.983450148543 	
H	  9.778477847773 	 11.577296244010 	  3.852890598543 	
H	  9.209933717773 	 11.577299054010 	 13.983447318543 	
H	 24.459336247773 	  5.393743714010 	  3.881023358543 	
H	 23.890792117773 	  5.393746524010 	 14.011580078543 	
H	 24.459305147773 	 11.577305474010 	  3.881020528543 	
H	 23.890761017773 	 11.577308284010 	 14.011577248543 	
H	  4.198054640698 	  2.331855485457 	  1.496665455264 	
H	  3.629510510698 	  2.331858295457 	 11.627222175264 	
H	  4.198023540698 	  8.515417245457 	  1.496662625264 	
H	  3.629479410698 	  8.515420055457 	 11.627219345264 	
H	 18.878881940698 	  2.331864715457 	  1.524795385264 	
H	 18.310337810698 	  2.331867525457 	 11.655352105264 	
H	 18.878850840698 	  8.515426475457 	  1.524792555264 	
H	 18.310306710698 	  8.515429285457 	 11.655349275264 	
C	  5.238981954021 	  1.427669781969 	  8.280423044726 	
C	  4.670437824021 	  1.427672591969 	 18.410979764726 	
C	  5.238950854021 	  7.611231541969 	  8.280420214726 	
C	  4.670406724021 	  7.611234351969 	 18.410976934726 	
C	 19.919809254021 	  1.427679011969 	  8.308552974726 	
C	 19.351265124021 	  1.427681821969 	 18.439109694726 	
C	 19.919778154021 	  7.611240771969 	  8.308550144726 	
C	 19.351234024021 	  7.611243581969 	 18.439106864726 	
C	  8.256798314092 	  4.489616344968 	  7.573328414025 	
C	  7.688254184092 	  4.489619154968 	 17.703885134025 	
C	  8.256767214092 	 10.673178104968 	  7.573325584025 	
C	  7.688223084092 	 10.673180914968 	 17.703882304025 	
C	 22.937625614092 	  4.489625574968 	  7.601458344025 	
C	 22.369081484092 	  4.489628384968 	 17.732015064025 	
C	 22.937594514092 	 10.673187334968 	  7.601455514025 	
C	 22.369050384092 	 10.673190144968 	 17.732012234025 	
C	  8.497214994392 	  4.695962725060 	  2.321332975438 	
C	  7.928670864392 	  4.695965535060 	 12.451889695438 	
C	  8.497183894392 	 10.879524485060 	  2.321330145438 	
C	  7.928639764392 	 10.879527295060 	 12.451886865438 	
C	 23.178042294392 	  4.695971955060 	  2.349462905438 	
C	 22.609498164392 	  4.695974765060 	 12.480019625438 	
C	 23.178011194392 	 10.879533715060 	  2.349460075438 	
C	 22.609467064392 	 10.879536525060 	 12.480016795438 	
C	  5.479399167479 	  1.634016300359 	  3.028427892959 	
C	  4.910855037479 	  1.634019110359 	 13.158984612959 	
C	  5.479368067479 	  7.817578060359 	  3.028425062959 	
C	  4.910823937479 	  7.817580870359 	 13.158981782959 	
C	 20.160226467479 	  1.634025530359 	  3.056557822959 	
C	 19.591682337479 	  1.634028340359 	 13.187114542959 	
C	 20.160195367479 	  7.817587290359 	  3.056554992959 	
C	 19.591651237479 	  7.817590100359 	 13.187111712959 	
H	  5.916064292934 	  0.502475401409 	  8.186087943968 	
H	  5.347520162934 	  0.502478211409 	 18.316644663968 	
H	  5.916033192934 	  6.686037161409 	  8.186085113968 	
H	  5.347489062934 	  6.686039971409 	 18.316641833968 	
H	 20.596891592934 	  0.502484631409 	  8.214217873968 	
H	 20.028347462934 	  0.502487441409 	 18.344774593968 	
H	 20.596860492934 	  6.686046391409 	  8.214215043968 	
H	 20.028316362934 	  6.686049201409 	 18.344771763968 	
H	  7.579720181625 	  3.564290719645 	  7.667769786270 	
H	  7.011176051625 	  3.564293529645 	 17.798326506270 	
H	  7.579689081625 	  9.747852479645 	  7.667766956270 	
H	  7.011144951625 	  9.747855289645 	 17.798323676270 	
H	 22.260547481625 	  3.564299949645 	  7.695899716270 	
H	 21.692003351625 	  3.564302759645 	 17.826456436270 	
H	 22.260516381625 	  9.747861709645 	  7.695896886270 	
H	 21.691972251625 	  9.747864519645 	 17.826453606270 	
H	  7.820132628075 	  5.621157098743 	  2.415667895242 	
H	  7.251588498075 	  5.621159908743 	 12.546224615242 	
H	  7.820101528075 	 11.804718858743 	  2.415665065242 	
H	  7.251557398075 	 11.804721668743 	 12.546221785242 	
H	 22.500959928075 	  5.621166328743 	  2.443797825242 	
H	 21.932415798075 	  5.621169138743 	 12.574354545242 	
H	 22.500928828075 	 11.804728088743 	  2.443794995242 	
H	 21.932384698075 	 11.804730898743 	 12.574351715242 	
H	  6.156477275532 	  2.559341916333 	  2.933986371359 	
H	  5.587933145532 	  2.559344726333 	 13.064543091359 	
H	  6.156446175532 	  8.742903676333 	  2.933983541359 	
H	  5.587902045532 	  8.742906486333 	 13.064540261359 	
H	 20.837304575532 	  2.559351146333 	  2.962116301359 	
H	 20.268760445532 	  2.559353956333 	 13.092673021359 	
H	 20.837273475532 	  8.742912906333 	  2.962113471359 	
H	 20.268729345532 	  8.742915716333 	 13.092670191359 	
C	  2.000497480116 	  2.746404333501 	  6.643929751561 	
C	  1.431953350116 	  2.746407143501 	 16.774486471561 	
C	  2.000466380116 	  8.929966093501 	  6.643926921561 	
C	  1.431922250116 	  8.929968903501 	 16.774483641561 	
C	 16.681324780116 	  2.746413563501 	  6.672059681561 	
C	 16.112780650116 	  2.746416373501 	 16.802616401561 	
C	 16.681293680116 	  8.929975323501 	  6.672056851561 	
C	 16.112749550116 	  8.929978133501 	 16.802613571561 	
C	 11.483661565946 	  5.787798105630 	  9.209172788580 	
C	 10.915117435946 	  5.787800915630 	 19.339729508580 	
C	 11.483630465946 	 11.971359865630 	  9.209169958580 	
C	 10.915086335946 	 11.971362675630 	 19.339726678580 	
C	 26.164488865946 	  5.787807335630 	  9.237302718580 	
C	 25.595944735946 	  5.787810145630 	 19.367859438580 	
C	 26.164457765946 	 11.971369095630 	  9.237299888580 	
C	 25.595913635946 	 11.971371905630 	 19.367856608580 	
C	 11.735699275580 	  3.377228576440 	  3.957826662631 	
C	 11.167155145580 	  3.377231386440 	 14.088383382631 	
C	 11.735668175580 	  9.560790336440 	  3.957823832631 	
C	 11.167124045580 	  9.560793146440 	 14.088380552631 	
C	 26.416526575580 	  3.377237806440 	  3.985956592631 	
C	 25.847982445580 	  3.377240616440 	 14.116513312631 	
C	 26.416495475580 	  9.560799566440 	  3.985953762631 	
C	 25.847951345580 	  9.560802376440 	 14.116510482631 	
C	  2.252535299836 	  0.335834520195 	  1.392584453900 	
C	  1.683991169836 	  0.335837330195 	 11.523141173900 	
C	  2.252504199836 	  6.519396280195 	  1.392581623900 	
C	  1.683960069836 	  6.519399090195 	 11.523138343900 	
C	 16.933362599836 	  0.335843750195 	  1.420714383900 	
C	 16.364818469836 	  0.335846560195 	 11.551271103900 	
C	 16.933331499836 	  6.519405510195 	  1.420711553900 	
C	 16.364787369836 	  6.519408320195 	 11.551268273900 	
C	  2.186599271000 	  2.608447438434 	  5.518987634246 	
C	  1.618055141000 	  2.608450248434 	 15.649544354246 	
C	  2.186568171000 	  8.792009198434 	  5.518984804246 	
C	  1.618024041000 	  8.792012008434 	 15.649541524246 	
C	 16.867426571000 	  2.608456668434 	  5.547117564246 	
C	 16.298882441000 	  2.608459478434 	 15.677674284246 	
C	 16.867395471000 	  8.792018428434 	  5.547114734246 	
C	 16.298851341000 	  8.792021238434 	 15.677671454246 	
C	 11.315843367757 	 -0.437077647371 	 10.295956244301 	
C	 10.747299237757 	 -0.437074837371 	 20.426512964301 	
C	 11.315812267757 	  5.746484112629 	 10.295953414301 	
C	 10.747268137757 	  5.746486922629 	 20.426510134301 	
C	 25.996670667757 	 -0.437068417371 	 10.324086174301 	
C	 25.428126537757 	 -0.437065607371 	 20.454642894301 	
C	 25.996639567757 	  5.746493342629 	 10.324083344301 	
C	 25.428095437757 	  5.746496152629 	 20.454640064301 	
C	 11.549596436709 	  3.515184877051 	  5.082769956331 	
C	 10.981052306709 	  3.515187687051 	 15.213326676331 	
C	 11.549565336709 	  9.698746637051 	  5.082767126331 	
C	 10.981021206709 	  9.698749447051 	 15.213323846331 	
C	 26.230423736709 	  3.515194107051 	  5.110899886331 	
C	 25.661879606709 	  3.515196917051 	 15.241456606331 	
C	 26.230392636709 	  9.698755867051 	  5.110897056331 	
C	 25.661848506709 	  9.698758677051 	 15.241453776331 	
C	  2.420353247222 	  6.560710433398 	  0.305800928101 	
C	  1.851809117222 	  6.560713243398 	 10.436357648101 	
C	  2.420322147222 	 12.744272193398 	  0.305798098101 	
C	  1.851778017222 	 12.744275003398 	 10.436354818101 	
C	 17.101180547222 	  6.560719663398 	  0.333930858101 	
C	 16.532636417222 	  6.560722473398 	 10.464487578101 	
C	 17.101149447222 	 12.744281423398 	  0.333928028101 	
C	 16.532605317222 	 12.744284233398 	 10.464484748101 	
H	  3.007849430299 	  3.140963800703 	  5.059441409082 	
H	  2.439305300299 	  3.140966610703 	 15.189998129082 	
H	  3.007818330299 	  9.324525560703 	  5.059438579082 	
H	  2.439274200299 	  9.324528370703 	 15.189995299082 	
H	 17.688676730299 	  3.140973030703 	  5.087571339082 	
H	 17.120132600299 	  3.140975840703 	 15.218128059082 	
H	 17.688645630299 	  9.324534790703 	  5.087568509082 	
H	 17.120101500299 	  9.324537600703 	 15.218125229082 	
H	 10.497086620649 	  0.083708045349 	 10.790669577810 	
H	  9.928542490649 	  0.083710855349 	 20.921226297810 	
H	 10.497055520649 	  6.267269805349 	 10.790666747810 	
H	  9.928511390649 	  6.267272615349 	 20.921223467810 	
H	 25.177913920649 	  0.083717275349 	 10.818799507810 	
H	 24.609369790649 	  0.083720085349 	 20.949356227810 	
H	 25.177882820649 	  6.267279035349 	 10.818796677810 	
H	 24.609338690649 	  6.267281845349 	 20.949353397810 	
H	 10.728346612809 	  2.982665662221 	  5.542314939669 	
H	 10.159802482809 	  2.982668472221 	 15.672871659669 	
H	 10.728315512809 	  9.166227422221 	  5.542312109669 	
H	 10.159771382809 	  9.166230232221 	 15.672868829669 	
H	 25.409173912809 	  2.982674892221 	  5.570444869669 	
H	 24.840629782809 	  2.982677702221 	 15.701001589669 	
H	 25.409142812809 	  9.166236652221 	  5.570442039669 	
H	 24.840598682809 	  9.166239462221 	 15.700998759669 	
H	  3.239109805890 	  6.039924915518 	 -0.188912738856 	
H	  2.670565675890 	  6.039927725518 	  9.941643981144 	
H	  3.239078705890 	 12.223486675518 	 -0.188915568856 	
H	  2.670534575890 	 12.223489485518 	  9.941641151144 	
H	 17.919937105890 	  6.039934145518 	 -0.160782808856 	
H	 17.351392975890 	  6.039936955518 	  9.969773911144 	
H	 17.919906005890 	 12.223495905518 	 -0.160785638856 	
H	 17.351361875890 	 12.223498715518 	  9.969771081144 	
H	  1.395982951662 	  2.715859038283 	  4.692104315824 	
H	  0.827438821662 	  2.715861848283 	 14.822661035824 	
H	  1.395951851662 	  8.899420798283 	  4.692101485824 	
H	  0.827407721662 	  8.899423608283 	 14.822658205824 	
H	 16.076810251662 	  2.715868268283 	  4.720234245824 	
H	 15.508266121662 	  2.715871078283 	 14.850790965824 	
H	 16.076779151662 	  8.899430028283 	  4.720231415824 	
H	 15.508235021662 	  8.899432838283 	 14.850788135824 	
H	 12.588401730364 	 -0.344415151358 	  0.669965541972 	
H	 12.019857600364 	 -0.344412341358 	 10.800522261972 	
H	 12.588370630364 	  5.839146608642 	  0.669962711972 	
H	 12.019826500364 	  5.839149418642 	 10.800519431972 	
H	 27.269229030364 	 -0.344405921358 	  0.698095471972 	
H	 26.700684900364 	 -0.344403111358 	 10.828652191972 	
H	 27.269197930364 	  5.839155838642 	  0.698092641972 	
H	 26.700653800364 	  5.839158648642 	 10.828649361972 	
H	 12.340213055474 	  3.407773587793 	  5.909652666273 	
H	 11.771668925474 	  3.407776397793 	 16.040209386273 	
H	 12.340181955474 	  9.591335347793 	  5.909649836273 	
H	 11.771637825474 	  9.591338157793 	 16.040206556273 	
H	 27.021040355474 	  3.407782817793 	  5.937782596273 	
H	 26.452496225474 	  3.407785627793 	 16.068339316273 	
H	 27.021009255474 	  9.591344577793 	  5.937779766273 	
H	 26.452465125474 	  9.591347387793 	 16.068336486273 	
H	  1.147794615195 	  6.468048071073 	  9.931791903003 	
H	  0.579250485195 	  6.468050881073 	 20.062348623003 	
H	  1.147763515195 	 12.651609831073 	  9.931789073003 	
H	  0.579219385195 	 12.651612641073 	 20.062345793003 	
H	 15.828621915195 	  6.468057301073 	  9.959921833003 	
H	 15.260077785195 	  6.468060111073 	 20.090478553003 	
H	 15.828590815195 	 12.651619061073 	  9.959919003003 	
H	 15.260046685195 	 12.651621871073 	 20.090475723003 	
H	  2.653944921653 	  1.697297570147 	  5.164493569311 	
H	  2.085400791653 	  1.697300380147 	 15.295050289311 	
H	  2.653913821653 	  7.880859330147 	  5.164490739311 	
H	  2.085369691653 	  7.880862140147 	 15.295047459311 	
H	 17.334772221653 	  1.697306800147 	  5.192623499311 	
H	 16.766228091653 	  1.697309610147 	 15.323180219311 	
H	 17.334741121653 	  7.880868560147 	  5.192620669311 	
H	 16.766196991653 	  7.880871370147 	 15.323177389311 	
H	 11.298638530311 	  4.736567707976 	  0.218023366947 	
H	 10.730094400311 	  4.736570517976 	 10.348580086947 	
H	 11.298607430311 	 10.920129467976 	  0.218020536947 	
H	 10.730063300311 	 10.920132277976 	 10.348577256947 	
H	 25.979465830311 	  4.736576937976 	  0.246153296947 	
H	 25.410921700311 	  4.736579747976 	 10.376710016947 	
H	 25.979434730311 	 10.920138697976 	  0.246150466947 	
H	 25.410890600311 	 10.920141507976 	 10.376707186947 	
H	 11.082249807857 	  4.426335261646 	  5.437263467538 	
H	 10.513705677857 	  4.426338071646 	 15.567820187538 	
H	 11.082218707857 	 10.609897021646 	  5.437260637538 	
H	 10.513674577857 	 10.609899831646 	 15.567817357538 	
H	 25.763077107857 	  4.426344491646 	  5.465393397538 	
H	 25.194532977857 	  4.426347301646 	 15.595950117538 	
H	 25.763046007857 	 10.609906251646 	  5.465390567538 	
H	 25.194501877857 	 10.609909061646 	 15.595947287538 	
H	  2.437558058034 	  1.387065264422 	 10.383734052646 	
H	  1.869013928034 	  1.387068074422 	 20.514290772646 	
H	  2.437526958034 	  7.570627024422 	 10.383731222646 	
H	  1.868982828034 	  7.570629834422 	 20.514287942646 	
H	 17.118385358034 	  1.387074494422 	 10.411863982646 	
H	 16.549841228034 	  1.387077304422 	 20.542420702646 	
H	 17.118354258034 	  7.570636254422 	 10.411861152646 	
H	 16.549810128034 	  7.570639064422 	 20.542417872646 	
C	  1.473534557002 	  3.773797696664 	  6.727458945034 	
C	  0.904990427002 	  3.773800506664 	 16.858015665034 	
C	  1.473503457002 	  9.957359456664 	  6.727456115034 	
C	  0.904959327002 	  9.957362266664 	 16.858012835034 	
C	 16.154361857002 	  3.773806926664 	  6.755588875034 	
C	 15.585817727002 	  3.773809736664 	 16.886145595034 	
C	 16.154330757002 	  9.957368686664 	  6.755586045034 	
C	 15.585786627002 	  9.957371496664 	 16.886142765034 	
C	 12.041456703661 	  0.749217464540 	  9.123201088697 	
C	 11.472912573661 	  0.749220274540 	 19.253757808697 	
C	 12.041425603661 	  6.932779224540 	  9.123198258697 	
C	 11.472881473661 	  6.932782034540 	 19.253754978697 	
C	 26.722284003661 	  0.749226694540 	  9.151331018697 	
C	 26.153739873661 	  0.749229504540 	 19.281887738697 	
C	 26.722252903661 	  6.932788454540 	  9.151328188697 	
C	 26.153708773661 	  6.932791264540 	 19.281884908697 	
C	 12.262663085367 	  2.349834716467 	  3.874296557484 	
C	 11.694118955367 	  2.349837526467 	 14.004853277484 	
C	 12.262631985367 	  8.533396476467 	  3.874293727484 	
C	 11.694087855367 	  8.533399286467 	 14.004850447484 	
C	 26.943490385367 	  2.349843946467 	  3.902426487484 	
C	 26.374946255367 	  2.349846756467 	 14.032983207484 	
C	 26.943459285367 	  8.533405706467 	  3.902423657484 	
C	 26.374915155367 	  8.533408516467 	 14.032980377484 	
C	  1.694740180824 	  5.374415087519 	  1.478556032805 	
C	  1.126196050824 	  5.374417897519 	 11.609112752805 	
C	  1.694709080824 	 11.557976847519 	  1.478553202805 	
C	  1.126164950824 	 11.557979657519 	 11.609109922805 	
C	 16.375567480824 	  5.374424317519 	  1.506685962805 	
C	 15.807023350824 	  5.374427127519 	 11.637242682805 	
C	 16.375536380824 	 11.557986077519 	  1.506683132805 	
C	 15.806992250824 	 11.557988887519 	 11.637239852805 	
H	  2.071740583345 	  4.688462553149 	  6.568721600533 	
H	  1.503196453345 	  4.688465363149 	 16.699278320533 	
H	  2.071709483345 	 10.872024313149 	  6.568718770533 	
H	  1.503165353345 	 10.872027123149 	 16.699275490533 	
H	 16.752567883345 	  4.688471783149 	  6.596851530533 	
H	 16.184023753345 	  4.688474593149 	 16.727408250533 	
H	 16.752536783345 	 10.872033543149 	  6.596848700533 	
H	 16.183992653345 	 10.872036353149 	 16.727405420533 	
H	 11.415723859051 	  1.635116859129 	  9.286840239256 	
H	 10.847179729051 	  1.635119669129 	 19.417396959256 	
H	 11.415692759051 	  7.818678619129 	  9.286837409256 	
H	 10.847148629051 	  7.818681429129 	 19.417394129256 	
H	 26.096551159051 	  1.635126089129 	  9.314970169256 	
H	 25.528007029051 	  1.635128899129 	 19.445526889256 	
H	 26.096520059051 	  7.818687849129 	  9.314967339256 	
H	 25.527975929051 	  7.818690659129 	 19.445524059256 	
H	 11.664457067882 	  1.435169294865 	  4.033033485178 	
H	 11.095912937882 	  1.435172104865 	 14.163590205178 	
H	 11.664425967882 	  7.618731054865 	  4.033030655178 	
H	 11.095881837882 	  7.618733864865 	 14.163587375178 	
H	 26.345284367882 	  1.435178524865 	  4.061163415178 	
H	 25.776740237882 	  1.435181334865 	 14.191720135178 	
H	 26.345253267882 	  7.618740284865 	  4.061160585178 	
H	 25.776709137882 	  7.618743094865 	 14.191717305178 	
H	  2.320473044012 	  4.488515769862 	  1.314916443251 	
H	  1.751928914012 	  4.488518579862 	 11.445473163251 	
H	  2.320441944012 	 10.672077529862 	  1.314913613251 	
H	  1.751897814012 	 10.672080339862 	 11.445470333251 	
H	 17.001300344012 	  4.488524999862 	  1.343046373251 	
H	 16.432756214012 	  4.488527809862 	 11.473603093251 	
H	 17.001269244012 	 10.672086759862 	  1.343043543251 	
H	 16.432725114012 	 10.672089569862 	 11.473600263251 	
H	  1.179365604147 	  4.127820003030 	  7.740959885150 	
H	  0.610821474147 	  4.127822813030 	 17.871516605150 	
H	  1.179334504147 	 10.311381763030 	  7.740957055150 	
H	  0.610790374147 	 10.311384573030 	 17.871513775150 	
H	 15.860192904147 	  4.127829233030 	  7.769089815150 	
H	 15.291648774147 	  4.127832043030 	 17.899646535150 	
H	 15.860161804147 	 10.311390993030 	  7.769086985150 	
H	 15.291617674147 	 10.311393803030 	 17.899643705150 	
H	 12.316633139355 	  7.167817729607 	  8.111826455744 	
H	 11.748089009355 	  7.167820539607 	 18.242383175744 	
H	 12.316602039355 	 13.351379489607 	  8.111823625744 	
H	 11.748057909355 	 13.351382299607 	 18.242380345744 	
H	 26.997460439355 	  7.167826959607 	  8.139956385744 	
H	 26.428916309355 	  7.167829769607 	 18.270513105744 	
H	 26.997429339355 	 13.351388719607 	  8.139953555744 	
H	 26.428885209355 	 13.351391529607 	 18.270510275744 	
H	 12.556833122550 	  1.995813808558 	  2.860795004148 	
H	 11.988288992550 	  1.995816618558 	 12.991351724148 	
H	 12.556802022550 	  8.179375568558 	  2.860792174148 	
H	 11.988257892550 	  8.179378378558 	 12.991348894148 	
H	 27.237660422550 	  1.995823038558 	  2.888924934148 	
H	 26.669116292550 	  1.995825848558 	 13.019481654148 	
H	 27.237629322550 	  8.179384798558 	  2.888922104148 	
H	 26.669085192550 	  8.179387608558 	 13.019478824148 	
H	  1.419564157604 	 -1.044185378440 	  2.489930862815 	
H	  0.851020027604 	 -1.044182568440 	 12.620487582815 	
H	  1.419533057604 	  5.139376381560 	  2.489928032815 	
H	  0.850988927604 	  5.139379191560 	 12.620484752815 	
H	 16.100391457604 	 -1.044176148440 	  2.518060792815 	
H	 15.531847327604 	 -1.044173338440 	 12.648617512815 	
H	 16.100360357604 	  5.139385611560 	  2.518057962815 	
H	 15.531816227604 	  5.139388421560 	 12.648614682815 	
H	  0.541819204189 	  3.968004675256 	  6.102626853486 	
H	 -0.026724925811 	  3.968007485256 	 16.233183573486 	
H	  0.541788104189 	 10.151566435256 	  6.102624023486 	
H	 -0.026756025811 	 10.151569245256 	 16.233180743486 	
H	 15.222646504189 	  3.968013905256 	  6.130756783486 	
H	 14.654102374189 	  3.968016715256 	 16.261313503486 	
H	 15.222615404189 	 10.151575665256 	  6.130753953486 	
H	 14.654071274189 	 10.151578475256 	 16.261310673486 	
H	 12.954905037123 	  7.026188532764 	  9.751700620269 	
H	 12.386360907123 	  7.026191342764 	 19.882257340269 	
H	 12.954873937123 	 13.209750292764 	  9.751697790269 	
H	 12.386329807123 	 13.209753102764 	 19.882254510269 	
H	 27.635732337123 	  7.026197762764 	  9.779830550269 	
H	 27.067188207123 	  7.026200572764 	 19.910387270269 	
H	 27.635701237123 	 13.209759522764 	  9.779827720269 	
H	 27.067157107123 	 13.209762332764 	 19.910384440269 	
H	 13.194378257099 	  2.155628133666 	  4.499128969515 	
H	 12.625834127099 	  2.155630943666 	 14.629685689515 	
H	 13.194347157099 	  8.339189893666 	  4.499126139515 	
H	 12.625803027099 	  8.339192703666 	 14.629682859515 	
H	 27.875205557099 	  2.155637363666 	  4.527258899515 	
H	 27.306661427099 	  2.155640173666 	 14.657815619515 	
H	 27.875174457099 	  8.339199123666 	  4.527256069515 	
H	 27.306630327099 	  8.339201933666 	 14.657812789515 	
H	  0.781291597416 	 -0.902556053291 	  0.850056877498 	
H	  0.212747467416 	 -0.902553243291 	 10.980613597498 	
H	  0.781260497416 	  5.281005706709 	  0.850054047498 	
H	  0.212716367416 	  5.281008516709 	 10.980610767498 	
H	 15.462118897416 	 -0.902546823291 	  0.878186807498 	
H	 14.893574767416 	 -0.902544013291 	 11.008743527498 	
H	 15.462087797416 	  5.281014936709 	  0.878183977498 	
H	 14.893543667416 	  5.281017746709 	 11.008740697498 	
C	  1.203174752308 	  1.960160010045 	  6.917313484915 	
C	  0.634630622308 	  1.960162820045 	 17.047870204915 	
C	  1.203143652308 	  8.143721770045 	  6.917310654915 	
C	  0.634599522308 	  8.143724580045 	 17.047867374915 	
C	 15.884002052308 	  1.960169240045 	  6.945443414915 	
C	 15.315457922308 	  1.960172050045 	 17.076000134915 	
C	 15.883970952308 	  8.143731000045 	  6.945440584915 	
C	 15.315426822308 	  8.143733810045 	 17.075997304915 	
C	 12.292553455265 	  5.022129686580 	  8.936693234006 	
C	 11.724009325265 	  5.022132496580 	 19.067249954006 	
C	 12.292522355265 	 11.205691446580 	  8.936690404006 	
C	 11.723978225265 	 11.205694256580 	 19.067247124006 	
C	 26.973380755265 	  5.022138916580 	  8.964823164006 	
C	 26.404836625265 	  5.022141726580 	 19.095379884006 	
C	 26.973349655265 	 11.205700676580 	  8.964820334006 	
C	 26.404805525265 	 11.205703486580 	 19.095377054006 	
C	 12.533022023864 	  4.163474585547 	  3.684442642650 	
C	 11.964477893864 	  4.163477395547 	 13.814999362650 	
C	 12.532990923864 	 10.347036345547 	  3.684439812650 	
C	 11.964446793864 	 10.347039155547 	 13.814996532650 	
C	 27.213849323864 	  4.163483815547 	  3.712572572650 	
C	 26.645305193864 	  4.163486625547 	 13.843129292650 	
C	 27.213818223864 	 10.347045575547 	  3.712569742650 	
C	 26.645274093864 	 10.347048385547 	 13.843126462650 	
C	  1.443643327228 	  1.101502704539 	  1.665064356439 	
C	  0.875099197228 	  1.101505514539 	 11.795621076439 	
C	  1.443612227228 	  7.285064464539 	  1.665061526439 	
C	  0.875068097228 	  7.285067274539 	 11.795618246439 	
C	 16.124470627228 	  1.101511934539 	  1.693194286439 	
C	 15.555926497228 	  1.101514744539 	 11.823751006439 	
C	 16.124439527228 	  7.285073694539 	  1.693191456439 	
C	 15.555895397228 	  7.285076504539 	 11.823748176439 	
H	  0.176938887672 	  1.884932914483 	  6.420211905593 	
H	 -0.391605242328 	  1.884935724483 	 16.550768625593 	
H	  0.176907787672 	  8.068494674483 	  6.420209075593 	
H	 -0.391636342328 	  8.068497484483 	 16.550765795593 	
H	 14.857766187672 	  1.884942144483 	  6.448341835593 	
H	 14.289222057672 	  1.884944954483 	 16.578898555593 	
H	 14.857735087672 	  8.068503904483 	  6.448339005593 	
H	 14.289190957672 	  8.068506714483 	 16.578895725593 	
H	 13.318879012748 	  4.946745645598 	  9.433749957687 	
H	 12.750334882748 	  4.946748455598 	 19.564306677687 	
H	 13.318847912748 	 11.130307405598 	  9.433747127687 	
H	 12.750303782748 	 11.130310215598 	 19.564303847687 	
H	 27.999706312748 	  4.946754875598 	  9.461879887687 	
H	 27.431162182748 	  4.946757685598 	 19.592436607687 	
H	 27.999675212748 	 11.130316635598 	  9.461877057687 	
H	 27.431131082748 	 11.130319445598 	 19.592433777687 	
H	 13.559257603560 	  4.238701432630 	  4.181544608432 	
H	 12.990713473560 	  4.238704242630 	 14.312101328432 	
H	 13.559226503560 	 10.422263192630 	  4.181541778432 	
H	 12.990682373560 	 10.422266002630 	 14.312098498432 	
H	 28.240084903560 	  4.238710662630 	  4.209674538432 	
H	 27.671540773560 	  4.238713472630 	 14.340231258432 	
H	 28.240053803560 	 10.422272422630 	  4.209671708432 	
H	 27.671509673560 	 10.422275232630 	 14.340228428432 	
H	  0.417317681439 	  1.176886670050 	  1.168007821109 	
H	 -0.151226448561 	  1.176889480050 	 11.298564541109 	
H	  0.417286581439 	  7.360448430050 	  1.168004991109 	
H	 -0.151257548561 	  7.360451240050 	 11.298561711109 	
H	 15.098144981439 	  1.176895900050 	  1.196137751109 	
H	 14.529600851439 	  1.176898710050 	 11.326694471109 	
H	 15.098113881439 	  7.360457660050 	  1.196134921109 	
H	 14.529569751439 	  7.360460470050 	 11.326691641109 	
H	  0.945253723435 	  1.877983153030 	  7.984123734302 	
H	  0.376709593435 	  1.877985963030 	 18.114680454302 	
H	  0.945222623435 	  8.061544913030 	  7.984120904302 	
H	  0.376678493435 	  8.061547723030 	 18.114677624302 	
H	 15.626081023435 	  1.877992383030 	  8.012253664302 	
H	 15.057536893435 	  1.877995193030 	 18.142810384302 	
H	 15.626049923435 	  8.061554143030 	  8.012250834302 	
H	 15.057505793435 	  8.061556953030 	 18.142807554302 	
H	 12.550671639330 	  4.939855097487 	  7.869644766151 	
H	 11.982127509330 	  4.939857907487 	 18.000201486151 	
H	 12.550640539330 	 11.123416857487 	  7.869641936151 	
H	 11.982096409330 	 11.123419667487 	 18.000198656151 	
H	 27.231498939330 	  4.939864327487 	  7.897774696151 	
H	 26.662954809330 	  4.939867137487 	 18.028331416151 	
H	 27.231467839330 	 11.123426087487 	  7.897771866151 	
H	 26.662923709330 	 11.123428897487 	 18.028328586151 	
H	 12.790942909037 	  4.245651693272 	  2.617631936594 	
H	 12.222398779037 	  4.245654503272 	 12.748188656594 	
H	 12.790911809037 	 10.429213453272 	  2.617629106594 	
H	 12.222367679037 	 10.429216263272 	 12.748185826594 	
H	 27.471770209037 	  4.245660923272 	  2.645761866594 	
H	 26.903226079037 	  4.245663733272 	 12.776318586594 	
H	 27.471739109037 	 10.429222683272 	  2.645759036594 	
H	 26.903194979037 	 10.429225493272 	 12.776315756594 	
H	  1.185525271414 	  1.183777049457 	  2.732112776818 	
H	  0.616981141414 	  1.183779859457 	 12.862669496818 	
H	  1.185494171414 	  7.367338809457 	  2.732109946818 	
H	  0.616950041414 	  7.367341619457 	 12.862666666818 	
H	 15.866352571414 	  1.183786279457 	  2.760242706818 	
H	 15.297808441414 	  1.183789089457 	 12.890799426818 	
H	 15.866321471414 	  7.367348039457 	  2.760239876818 	
H	 15.297777341414 	  7.367350849457 	 12.890796596818 	
H	  1.486940389610 	  0.913662999880 	  6.918483801466 	
H	  0.918396259610 	  0.913665809880 	 17.049040521466 	
H	  1.486909289610 	  7.097224759880 	  6.918480971466 	
H	  0.918365159610 	  7.097227569880 	 17.049037691466 	
H	 16.167767689610 	  0.913672229880 	  6.946613731466 	
H	 15.599223559610 	  0.913675039880 	 17.077170451466 	
H	 16.167736589610 	  7.097233989880 	  6.946610901466 	
H	 15.599192459610 	  7.097236799880 	 17.077167621466 	
H	 12.008863503582 	  3.975464819222 	  8.935364117174 	
H	 11.440319373582 	  3.975467629222 	 19.065920837174 	
H	 12.008832403582 	 10.159026579222 	  8.935361287174 	
H	 11.440288273582 	 10.159029389222 	 19.065918007174 	
H	 26.689690803582 	  3.975474049222 	  8.963494047174 	
H	 26.121146673582 	  3.975476859222 	 19.094050767174 	
H	 26.689659703582 	 10.159035809222 	  8.963491217174 	
H	 26.121115573582 	 10.159038619222 	 19.094047937174 	
H	 12.249254841921 	  5.209971804203 	  3.683274534113 	
H	 11.680710711921 	  5.209974614203 	 13.813831254113 	
H	 12.249223741921 	 11.393533564203 	  3.683271704113 	
H	 11.680679611921 	 11.393536374203 	 13.813828424113 	
H	 26.930082141921 	  5.209981034203 	  3.711404464113 	
H	 26.361538011921 	  5.209983844203 	 13.841961184113 	
H	 26.930051041921 	 11.393542794203 	  3.711401634113 	
H	 26.361506911921 	 11.393545604203 	 13.841958354113 	
H	  1.727333155432 	  2.148167609902 	  1.666393943390 	
H	  1.158789025432 	  2.148170419902 	 11.796950663390 	
H	  1.727302055432 	  8.331729369902 	  1.666391113390 	
H	  1.158757925432 	  8.331732179902 	 11.796947833390 	
H	 16.408160455432 	  2.148176839902 	  1.694523873390 	
H	 15.839616325432 	  2.148179649902 	 11.825080593390 	
H	 16.408129355432 	  8.331738599902 	  1.694521043390 	
H	 15.839585225432 	  8.331741409902 	 11.825077763390 	
768 
Energy: -8.8631918373320005e+01 
S	  8.401522718695 	  1.437683474938 	  0.113519129156 	
S	  7.832978588695 	  1.437686284938 	 10.244075849156 	
S	  8.401491618695 	  7.621245234938 	  0.113516299156 	
S	  7.832947488695 	  7.621248044938 	 10.244073019156 	
S	 23.082350018695 	  1.437692704938 	  0.141649059156 	
S	 22.513805888695 	  1.437695514938 	 10.272205779156 	
S	 23.082318918695 	  7.621254464938 	  0.141646229156 	
S	 22.513774788695 	  7.621257274938 	 10.272202949156 	
S	  5.513886137170 	  4.494656857887 	  5.272971920778 	
S	  4.945342007170 	  4.494659667887 	 15.403528640778 	
S	  5.513855037170 	 10.678218617887 	  5.272969090778 	
S	  4.945310907170 	 10.678221427887 	 15.403525810778 	
S	 20.194713437170 	  4.494666087887 	  5.301101850778 	
S	 19.626169307170 	  4.494668897887 	 15.431658570778 	
S	 20.194682337170 	 10.678227847887 	  5.301099020778 	
S	 19.626138207170 	 10.678230657887 	 15.431655740778 	
S	  5.280346356133 	  4.677289270145 	 10.552247115961 	
S	  4.711802226133 	  4.677292080145 	 20.682803835961 	
S	  5.280315256133 	 10.860851030145 	 10.552244285961 	
S	  4.711771126133 	 10.860853840145 	 20.682801005961 	
S	 19.961173656133 	  4.677298500145 	 10.580377045961 	
S	 19.392629526133 	  4.677301310145 	 20.710933765961 	
S	 19.961142556133 	 10.860860260145 	 10.580374215961 	
S	 19.392598426133 	 10.860863070145 	 20.710930935961 	
S	  8.167984155392 	  1.620315998300 	  5.392794022545 	
S	  7.599440025392 	  1.620318808300 	 15.523350742545 	
S	  8.167953055392 	  7.803877758300 	  5.392791192545 	
S	  7.599408925392 	  7.803880568300 	 15.523347912545 	
S	 22.848811455392 	  1.620325228300 	  5.420923952545 	
S	 22.280267325392 	  1.620328038300 	 15.551480672545 	
S	 22.848780355392 	  7.803886988300 	  5.420921122545 	
S	 22.280236225392 	  7.803889798300 	 15.551477842545 	
C	  6.591714477533 	  2.514275781172 	 10.237570924697 	
C	  6.023170347533 	  2.514278591172 	 20.368127644697 	
C	  6.591683377533 	  8.697837541172 	 10.237568094697 	
C	  6.023139247533 	  8.697840351172 	 20.368124814697 	
C	 21.272541777533 	  2.514285011172 	 10.265700854697 	
C	 20.703997647533 	  2.514287821172 	 20.396257574697 	
C	 21.272510677533 	  8.697846771172 	 10.265698024697 	
C	 20.703966547533 	  8.697849581172 	 20.396254744697 	
C	  6.855890663682 	  5.570699728622 	  5.707601781884 	
C	  6.287346533682 	  5.570702538622 	 15.838158501884 	
C	  6.855859563682 	 11.754261488622 	  5.707598951884 	
C	  6.287315433682 	 11.754264298622 	 15.838155671884 	
C	 21.536717963682 	  5.570708958622 	  5.735731711884 	
C	 20.968173833682 	  5.570711768622 	 15.866288431884 	
C	 21.536686863682 	 11.754270718622 	  5.735728881884 	
C	 20.968142733682 	 11.754273528622 	 15.866285601884 	
C	  7.090154605059 	  3.600696948725 	  0.428195167760 	
C	  6.521610475059 	  3.600699758725 	 10.558751887760 	
C	  7.090123505059 	  9.784258708725 	  0.428192337760 	
C	  6.521579375059 	  9.784261518725 	 10.558749057760 	
C	 21.770981905059 	  3.600706178725 	  0.456325097760 	
C	 21.202437775059 	  3.600708988725 	 10.586881817760 	
C	 21.770950805059 	  9.784267938725 	  0.456322267760 	
C	 21.202406675059 	  9.784270748725 	 10.586878987760 	
C	  6.825979481888 	  0.544273195596 	  4.958164009769 	
C	  6.257435351888 	  0.544276005596 	 15.088720729769 	
C	  6.825948381888 	  6.727834955596 	  4.958161179769 	
C	  6.257404251888 	  6.727837765596 	 15.088717899769 	
C	 21.506806781888 	  0.544282425596 	  4.986293939769 	
C	 20.938262651888 	  0.544285235596 	 15.116850659769 	
C	 21.506775681888 	  6.727844185596 	  4.986291109769 	
C	 20.938231551888 	  6.727846995596 	 15.116847829769 	
C	  5.559084042949 	  2.388817362388 	  9.267435665343 	
C	  4.990539912949 	  2.388820172388 	 19.397992385343 	
C	  5.559052942949 	  8.572379122388 	  9.267432835343 	
C	  4.990508812949 	  8.572381932388 	 19.397989555343 	
C	 20.239911342949 	  2.388826592388 	  9.295565595343 	
C	 19.671367212949 	  2.388829402388 	 19.426122315343 	
C	 20.239880242949 	  8.572388352388 	  9.295562765343 	
C	 19.671336112949 	  8.572391162388 	 19.426119485343 	
C	  7.889479846929 	  5.446480901597 	  6.677438937517 	
C	  7.320935716929 	  5.446483711597 	 16.807995657517 	
C	  7.889448746929 	 11.630042661597 	  6.677436107517 	
C	  7.320904616929 	 11.630045471597 	 16.807992827517 	
C	 22.570307146929 	  5.446490131597 	  6.705568867517 	
C	 22.001763016929 	  5.446492941597 	 16.836125587517 	
C	 22.570276046929 	 11.630051891597 	  6.705566037517 	
C	 22.001731916929 	 11.630054701597 	 16.836122757517 	
C	  8.122784989482 	  3.726155435303 	  1.398330386784 	
C	  7.554240859482 	  3.726158245303 	 11.528887106784 	
C	  8.122753889482 	  9.909717195303 	  1.398327556784 	
C	  7.554209759482 	  9.909720005303 	 11.528884276784 	
C	 22.803612289482 	  3.726164665303 	  1.426460316784 	
C	 22.235068159482 	  3.726167475303 	 11.557017036784 	
C	 22.803581189482 	  9.909726425303 	  1.426457486784 	
C	 22.235037059482 	  9.909729235303 	 11.557014206784 	
C	  5.792390082038 	  0.668492046210 	  3.988327057656 	
C	  5.223845952038 	  0.668494856210 	 14.118883777656 	
C	  5.792358982038 	  6.852053806210 	  3.988324227656 	
C	  5.223814852038 	  6.852056616210 	 14.118880947656 	
C	 20.473217382038 	  0.668501276210 	  4.016456987656 	
C	 19.904673252038 	  0.668504086210 	 14.147013707656 	
C	 20.473186282038 	  6.852063036210 	  4.016454157656 	
C	 19.904642152038 	  6.852065846210 	 14.147010877656 	
C	  4.722270063917 	  3.507543154797 	  9.309226588318 	
C	  4.153725933917 	  3.507545964797 	 19.439783308318 	
C	  4.722238963917 	  9.691104914797 	  9.309223758318 	
C	  4.153694833917 	  9.691107724797 	 19.439780478318 	
C	 19.403097363917 	  3.507552384797 	  9.337356518318 	
C	 18.834553233917 	  3.507555194797 	 19.467913238318 	
C	 19.403066263917 	  9.691114144797 	  9.337353688318 	
C	 18.834522133917 	  9.691116954797 	 19.467910408318 	
C	  8.724977680738 	  0.449802607473 	  6.635858426236 	
C	  8.156433550738 	  0.449805417473 	 16.766415146236 	
C	  8.724946580738 	  6.633364367473 	  6.635855596236 	
C	  8.156402450738 	  6.633367177473 	 16.766412316236 	
C	 23.405804980738 	  0.449811837473 	  6.663988356236 	
C	 22.837260850738 	  0.449814647473 	 16.794545076236 	
C	 23.405773880738 	  6.633373597473 	  6.663985526236 	
C	 22.837229750738 	  6.633376407473 	 16.794542246236 	
C	  8.959598960228 	  2.607429605274 	  1.356539489505 	
C	  8.391054830228 	  2.607432415274 	 11.487096209505 	
C	  8.959567860228 	  8.790991365274 	  1.356536659505 	
C	  8.391023730228 	  8.790994175274 	 11.487093379505 	
C	 23.640426260228 	  2.607438835274 	  1.384669419505 	
C	 23.071882130228 	  2.607441645274 	 11.515226139505 	
C	 23.640395160228 	  8.791000595274 	  1.384666589505 	
C	 23.071851030228 	  8.791003405274 	 11.515223309505 	
C	  4.956892353158 	  5.665170342630 	  4.029907742225 	
C	  4.388348223158 	  5.665173152630 	 14.160464462225 	
C	  4.956861253158 	 11.848732102630 	  4.029904912225 	
C	  4.388317123158 	 11.848734912630 	 14.160461632225 	
C	 19.637719653158 	  5.665179572630 	  4.058037672225 	
C	 19.069175523158 	  5.665182382630 	 14.188594392225 	
C	 19.637688553158 	 11.848741332630 	  4.058034842225 	
C	 19.069144423158 	 11.848744142630 	 14.188591562225 	
C	  3.655970520011 	  3.627213408276 	  8.505271440395 	
C	  3.087426390011 	  3.627216218276 	 18.635828160395 	
C	  3.655939420011 	  9.810775168276 	  8.505268610395 	
C	  3.087395290011 	  9.810777978276 	 18.635825330395 	
C	 18.336797820011 	  3.627222638276 	  8.533401370395 	
C	 17.768253690011 	  3.627225448276 	 18.663958090395 	
C	 18.336766720011 	  9.810784398276 	  8.533398540395 	
C	 17.768222590011 	  9.810787208276 	 18.663955260395 	
C	  9.791603945133 	  0.569797890041 	  7.439870872020 	
C	  9.223059815133 	  0.569800700041 	 17.570427592020 	
C	  9.791572845133 	  6.753359650041 	  7.439868042020 	
C	  9.223028715133 	  6.753362460041 	 17.570424762020 	
C	 24.472431245133 	  0.569807120041 	  7.468000802020 	
C	 23.903887115133 	  0.569809930041 	 17.598557522020 	
C	 24.472400145133 	  6.753368880041 	  7.467997972020 	
C	 23.903856015133 	  6.753371690041 	 17.598554692020 	
C	 10.025898500693 	  2.487759508152 	  2.160494838478 	
C	  9.457354370693 	  2.487762318152 	 12.291051558478 	
C	 10.025867400693 	  8.671321268152 	  2.160492008478 	
C	  9.457323270693 	  8.671324078152 	 12.291048728478 	
C	 24.706725800693 	  2.487768738152 	  2.188624768478 	
C	 24.138181670693 	  2.487771548152 	 12.319181488478 	
C	 24.706694700693 	  8.671330498152 	  2.188621938478 	
C	 24.138150570693 	  8.671333308152 	 12.319178658478 	
C	  3.890265659672 	  5.545175131122 	  3.225895725790 	
C	  3.321721529672 	  5.545177941122 	 13.356452445790 	
C	  3.890234559672 	 11.728736891122 	  3.225892895790 	
C	  3.321690429672 	 11.728739701122 	 13.356449615790 	
C	 18.571092959672 	  5.545184361122 	  3.254025655790 	
C	 18.002548829672 	  5.545187171122 	 13.384582375790 	
C	 18.571061859672 	 11.728746121122 	  3.254022825790 	
C	 18.002517729672 	 11.728748931122 	 13.384579545790 	
H	  3.008948523948 	  4.576067837935 	  8.583072562657 	
H	  2.440404393948 	  4.576070647935 	 18.713629282657 	
H	  3.008917423948 	 10.759629597935 	  8.583069732657 	
H	  2.440373293948 	 10.759632407935 	 18.713626452657 	
H	 17.689775823948 	  4.576077067935 	  8.611202492657 	
H	 17.121231693948 	  4.576079877935 	 18.741759212657 	
H	 17.689744723948 	 10.759638827935 	  8.611199662657 	
H	 17.121200593948 	 10.759641637935 	 18.741756382657 	
H	 10.439022395042 	  1.518699974820 	  7.361734236162 	
H	  9.870478265042 	  1.518702784820 	 17.492290956162 	
H	 10.438991295042 	  7.702261734820 	  7.361731406162 	
H	  9.870447165042 	  7.702264544820 	 17.492288126162 	
H	 25.119849695042 	  1.518709204820 	  7.389864166162 	
H	 24.551305565042 	  1.518712014820 	 17.520420886162 	
H	 25.119818595042 	  7.702270964820 	  7.389861336162 	
H	 24.551274465042 	  7.702273774820 	 17.520418056162 	
H	 10.672920414106 	  1.538904986427 	  2.082693904095 	
H	 10.104376284106 	  1.538907796427 	 12.213250624095 	
H	 10.672889314106 	  7.722466746427 	  2.082691074095 	
H	 10.104345184106 	  7.722469556427 	 12.213247794095 	
H	 25.353747714106 	  1.538914216427 	  2.110823834095 	
H	 24.785203584106 	  1.538917026427 	 12.241380554095 	
H	 25.353716614106 	  7.722475976427 	  2.110821004095 	
H	 24.785172484106 	  7.722478786427 	 12.241377724095 	
H	  3.242847342281 	  4.596272970820 	  3.304032538244 	
H	  2.674303212281 	  4.596275780820 	 13.434589258244 	
H	  3.242816242281 	 10.779834730820 	  3.304029708244 	
H	  2.674272112281 	 10.779837540820 	 13.434586428244 	
H	 17.923674642281 	  4.596282200820 	  3.332162468244 	
H	 17.355130512281 	  4.596285010820 	 13.462719188244 	
H	 17.923643542281 	 10.779843960820 	  3.332159638244 	
H	 17.355099412281 	 10.779846770820 	 13.462716358244 	
C	  3.322300612177 	  2.673844746408 	  7.602229239656 	
C	  2.753756482177 	  2.673847556408 	 17.732785959656 	
C	  3.322269512177 	  8.857406506408 	  7.602226409656 	
C	  2.753725382177 	  8.857409316408 	 17.732783129656 	
C	 18.003127912177 	  2.673853976408 	  7.630359169656 	
C	 17.434583782177 	  2.673856786408 	 17.760915889656 	
C	 18.003096812177 	  8.857415736408 	  7.630356339656 	
C	 17.434552682177 	  8.857418546408 	 17.760913059656 	
C	 10.125438817501 	  5.730875112306 	  8.342281575796 	
C	  9.556894687501 	  5.730877922306 	 18.472838295796 	
C	 10.125407717501 	 11.914436872306 	  8.342278745796 	
C	  9.556863587501 	 11.914439682306 	 18.472835465796 	
C	 24.806266117501 	  5.730884342306 	  8.370411505796 	
C	 24.237721987501 	  5.730887152306 	 18.500968225796 	
C	 24.806235017501 	 11.914446102306 	  8.370408675796 	
C	 24.237690887501 	 11.914448912306 	 18.500965395796 	
C	 10.359568283982 	  3.441128271843 	  3.063536787326 	
C	  9.791024153982 	  3.441131081843 	 13.194093507326 	
C	 10.359537183982 	  9.624690031843 	  3.063533957326 	
C	  9.790993053982 	  9.624692841843 	 13.194090677326 	
C	 25.040395583982 	  3.441137501843 	  3.091666717326 	
C	 24.471851453982 	  3.441140311843 	 13.222223437326 	
C	 25.040364483982 	  9.624699261843 	  3.091663887326 	
C	 24.471820353982 	  9.624702071843 	 13.222220607326 	
C	  3.556430432121 	  0.384097977115 	  2.323485240870 	
C	  2.987886302121 	  0.384100787115 	 12.454041960870 	
C	  3.556399332121 	  6.567659737115 	  2.323482410870 	
C	  2.987855202121 	  6.567662547115 	 12.454039130870 	
C	 18.237257732121 	  0.384107207115 	  2.351615170870 	
C	 17.668713602121 	  0.384110017115 	 12.482171890870 	
C	 18.237226632121 	  6.567668967115 	  2.351612340870 	
C	 17.668682502121 	  6.567671777115 	 12.482169060870 	
C	  4.168535288817 	  1.584477355806 	  7.549530840742 	
C	  3.599991158817 	  1.584480165806 	 17.680087560742 	
C	  4.168504188817 	  7.768039115806 	  7.549528010742 	
C	  3.599960058817 	  7.768041925806 	 17.680084730742 	
C	 18.849362588817 	  1.584486585806 	  7.577660770742 	
C	 18.280818458817 	  1.584489395806 	 17.708217490742 	
C	 18.849331488817 	  7.768048345806 	  7.577657940742 	
C	 18.280787358817 	  7.768051155806 	 17.708214660742 	
C	  9.279414370336 	  4.642123029475 	  8.395350551448 	
C	  8.710870240336 	  4.642125839475 	 18.525907271448 	
C	  9.279383270336 	 10.825684789475 	  8.395347721448 	
C	  8.710839140336 	 10.825687599475 	 18.525904441448 	
C	 23.960241670336 	  4.642132259475 	  8.423480481448 	
C	 23.391697540336 	  4.642135069475 	 18.554037201448 	
C	 23.960210570336 	 10.825694019475 	  8.423477651448 	
C	 23.391666440336 	 10.825696829475 	 18.554034371448 	
C	  9.513333673762 	  4.530495711437 	  3.116235057825 	
C	  8.944789543762 	  4.530498521437 	 13.246791777825 	
C	  9.513302573762 	 10.714057471437 	  3.116232227825 	
C	  8.944758443762 	 10.714060281437 	 13.246788947825 	
C	 24.194160973762 	  4.530504941437 	  3.144364987825 	
C	 23.625616843762 	  4.530507751437 	 13.274921707825 	
C	 24.194129873762 	 10.714066701437 	  3.144362157825 	
C	 23.625585743762 	 10.714069511437 	 13.274918877825 	
C	  4.402454838827 	  1.472849988074 	  2.270415957049 	
C	  3.833910708827 	  1.472852798074 	 12.400972677049 	
C	  4.402423738827 	  7.656411748074 	  2.270413127049 	
C	  3.833879608827 	  7.656414558074 	 12.400969847049 	
C	 19.083282138827 	  1.472859218074 	  2.298545887049 	
C	 18.514738008827 	  1.472862028074 	 12.429102607049 	
C	 19.083251038827 	  7.656420978074 	  2.298543057049 	
C	 18.514706908827 	  7.656423788074 	 12.429099777049 	
H	  3.944430364923 	  0.763170974566 	  6.777185767004 	
H	  3.375886234923 	  0.763173784566 	 16.907742487004 	
H	  3.944399264923 	  6.946732734566 	  6.777182937004 	
H	  3.375855134923 	  6.946735544566 	 16.907739657004 	
H	 18.625257664923 	  0.763180204566 	  6.805315697004 	
H	 18.056713534923 	  0.763183014566 	 16.935872417004 	
H	 18.625226564923 	  6.946741964566 	  6.805312867004 	
H	 18.056682434923 	  6.946744774566 	 16.935869587004 	
H	  9.503394392317 	  3.820614296721 	  9.167708329771 	
H	  8.934850262317 	  3.820617106721 	 19.298265049771 	
H	  9.503363292317 	 10.004176056721 	  9.167705499771 	
H	  8.934819162317 	 10.004178866721 	 19.298262219771 	
H	 24.184221692317 	  3.820623526721 	  9.195838259771 	
H	 23.615677562317 	  3.820626336721 	 19.326394979771 	
H	 24.184190592317 	 10.004185286721 	  9.195835429771 	
H	 23.615646462317 	 10.004188096721 	 19.326392149771 	
H	  9.737438718924 	  5.351802251239 	  3.888579938896 	
H	  9.168894588924 	  5.351805061239 	 14.019136658896 	
H	  9.737407618924 	 11.535364011239 	  3.888577108896 	
H	  9.168863488924 	 11.535366821239 	 14.019133828896 	
H	 24.418266018924 	  5.351811481239 	  3.916709868896 	
H	 23.849721888924 	  5.351814291239 	 14.047266588896 	
H	 24.418234918924 	 11.535373241239 	  3.916707038896 	
H	 23.849690788924 	 11.535376051239 	 14.047263758896 	
H	  4.178474486722 	  2.294358847024 	  1.498058397019 	
H	  3.609930356722 	  2.294361657024 	 11.628615117019 	
H	  4.178443386722 	  8.477920607024 	  1.498055567019 	
H	  3.609899256722 	  8.477923417024 	 11.628612287019 	
H	 18.859301786722 	  2.294368077024 	  1.526188327019 	
H	 18.290757656722 	  2.294370887024 	 11.656745047019 	
H	 18.859270686722 	  8.477929837024 	  1.526185497019 	
H	 18.290726556722 	  8.477932647024 	 11.656742217019 	
C	  5.219905101952 	  1.441974598712 	  8.323763092330 	
C	  4.651360971952 	  1.441977408712 	 18.454319812330 	
C	  5.219874001952 	  7.625536358712 	  8.323760262330 	
C	  4.651329871952 	  7.625539168712 	 18.454316982330 	
C	 19.900732401952 	  1.441983828712 	  8.351893022330 	
C	 19.332188271952 	  1.441986638712 	 18.482449742330 	
C	 19.900701301952 	  7.625545588712 	  8.351890192330 	
C	 19.332157171952 	  7.625548398712 	 18.482446912330 	
C	  8.227885101325 	  4.499584169874 	  7.621000369338 	
C	  7.659340971325 	  4.499586979874 	 17.751557089338 	
C	  8.227854001325 	 10.683145929874 	  7.620997539338 	
C	  7.659309871325 	 10.683148739874 	 17.751554259338 	
C	 22.908712401325 	  4.499593399874 	  7.649130299338 	
C	 22.340168271325 	  4.499596209874 	 17.779687019338 	
C	 22.908681301325 	 10.683155159874 	  7.649127469338 	
C	 22.340137171325 	 10.683157969874 	 17.779684189338 	
C	  8.461963899527 	  4.672998358690 	  2.342002766854 	
C	  7.893419769527 	  4.673001168690 	 12.472559486854 	
C	  8.461932799527 	 10.856560118690 	  2.341999936854 	
C	  7.893388669527 	 10.856562928690 	 12.472556656854 	
C	 23.142791199527 	  4.673007588690 	  2.370132696854 	
C	 22.574247069527 	  4.673010398690 	 12.500689416854 	
C	 23.142760099527 	 10.856569348690 	  2.370129866854 	
C	 22.574215969527 	 10.856572158690 	 12.500686586854 	
C	  5.453984439628 	  1.615388831397 	  3.044765787562 	
C	  4.885440309628 	  1.615391641397 	 13.175322507562 	
C	  5.453953339628 	  7.798950591397 	  3.044762957562 	
C	  4.885409209628 	  7.798953401397 	 13.175319677562 	
C	 20.134811739628 	  1.615398061397 	  3.072895717562 	
C	 19.566267609628 	  1.615400871397 	 13.203452437562 	
C	 20.134780639628 	  7.798959821397 	  3.072892887562 	
C	 19.566236509628 	  7.798962631397 	 13.203449607562 	
H	  5.890045476892 	  0.511745017179 	  8.230377346622 	
H	  5.321501346892 	  0.511747827179 	 18.360934066622 	
H	  5.890014376892 	  6.695306777179 	  8.230374516622 	
H	  5.321470246892 	  6.695309587179 	 18.360931236622 	
H	 20.570872776892 	  0.511754247179 	  8.258507276622 	
H	 20.002328646892 	  0.511757057179 	 18.389063996622 	
H	 20.570841676892 	  6.695316007179 	  8.258504446622 	
H	 20.002297546892 	  6.695318817179 	 18.389061166622 	
H	  7.557743273982 	  3.569237330086 	  7.714484693857 	
H	  6.989199143982 	  3.569240140086 	 17.845041413857 	
H	  7.557712173982 	  9.752799090086 	  7.714481863857 	
H	  6.989168043982 	  9.752801900086 	 17.845038583857 	
H	 22.238570573982 	  3.569246560086 	  7.742614623857 	
H	 21.670026443982 	  3.569249370086 	 17.873171343857 	
H	 22.238539473982 	  9.752808320086 	  7.742611793857 	
H	 21.669995343982 	  9.752811130086 	 17.873168513857 	
H	  7.791823510087 	  5.603227948365 	  2.435388292172 	
H	  7.223279380087 	  5.603230758365 	 12.565945012172 	
H	  7.791792410087 	 11.786789708365 	  2.435385462172 	
H	  7.223248280087 	 11.786792518365 	 12.565942182172 	
H	 22.472650810087 	  5.603237178365 	  2.463518222172 	
H	 21.904106680087 	  5.603239988365 	 12.594074942172 	
H	 22.472619710087 	 11.786798938365 	  2.463515392172 	
H	 21.904075580087 	 11.786801748365 	 12.594072112172 	
H	  6.124126247342 	  2.545735657076 	  2.951281293816 	
H	  5.555582117342 	  2.545738467076 	 13.081838013816 	
H	  6.124095147342 	  8.729297417076 	  2.951278463816 	
H	  5.555551017342 	  8.729300227076 	 13.081835183816 	
H	 20.804953547342 	  2.545744887076 	  2.979411223816 	
H	 20.236409417342 	  2.545747697076 	 13.109967943816 	
H	 20.804922447342 	  8.729306647076 	  2.979408393816 	
H	 20.236378317342 	  8.729309457076 	 13.109965113816 	
C	  2.005705737197 	  2.793466548880 	  6.671351074143 	
C	  1.437161607197 	  2.793469358880 	 16.801907794143 	
C	  2.005674637197 	  8.977028308880 	  6.671348244143 	
C	  1.437130507197 	  8.977031118880 	 16.801904964143 	
C	 16.686533037197 	  2.793475778880 	  6.699481004143 	
C	 16.117988907197 	  2.793478588880 	 16.830037724143 	
C	 16.686501937197 	  8.977037538880 	  6.699478174143 	
C	 16.117957807197 	  8.977040348880 	 16.830034894143 	
C	 11.436329884289 	  5.837729712176 	  9.273502845985 	
C	 10.867785754289 	  5.837732522176 	 19.404059565985 	
C	 11.436298784289 	 12.021291472176 	  9.273500015985 	
C	 10.867754654289 	 12.021294282176 	 19.404056735985 	
C	 26.117157184289 	  5.837738942176 	  9.301632775985 	
C	 25.548613054289 	  5.837741752176 	 19.432189495985 	
C	 26.117126084289 	 12.021300702176 	  9.301629945985 	
C	 25.548581954289 	 12.021303512176 	 19.432186665985 	
C	 11.676162919888 	  3.321506792084 	  3.994415074059 	
C	 11.107618789888 	  3.321509602084 	 14.124971794059 	
C	 11.676131819888 	  9.505068552084 	  3.994412244059 	
C	 11.107587689888 	  9.505071362084 	 14.124968964059 	
C	 26.356990219888 	  3.321516022084 	  4.022545004059 	
C	 25.788446089888 	  3.321518832084 	 14.153101724059 	
C	 26.356959119888 	  9.505077782084 	  4.022542174059 	
C	 25.788414989888 	  9.505080592084 	 14.153098894059 	
C	  2.245538925991 	  0.277243322281 	  1.392264425768 	
C	  1.676994795991 	  0.277246132281 	 11.522821145768 	
C	  2.245507825991 	  6.460805082281 	  1.392261595768 	
C	  1.676963695991 	  6.460807892281 	 11.522818315768 	
C	 16.926366225991 	  0.277252552281 	  1.420394355768 	
C	 16.357822095991 	  0.277255362281 	 11.550951075768 	
C	 16.926335125991 	  6.460814312281 	  1.420391525768 	
C	 16.357790995991 	  6.460817122281 	 11.550948245768 	
C	  2.196605965296 	  2.531443338005 	  5.511691012169 	
C	  1.628061835296 	  2.531446148005 	 15.642247732169 	
C	  2.196574865296 	  8.715005098005 	  5.511688182169 	
C	  1.628030735296 	  8.715007908005 	 15.642244902169 	
C	 16.877433265296 	  2.531452568005 	  5.539820942169 	
C	 16.308889135296 	  2.531455378005 	 15.670377662169 	
C	 16.877402165296 	  8.715014328005 	  5.539818112169 	
C	 16.308858035296 	  8.715017138005 	 15.670374832169 	
C	 11.255411075660 	 -0.488318928989 	 10.398701783585 	
C	 10.686866945660 	 -0.488316118989 	 20.529258503585 	
C	 11.255379975660 	  5.695242831011 	 10.398698953585 	
C	 10.686835845660 	  5.695245641011 	 20.529255673585 	
C	 25.936238375660 	 -0.488309698989 	 10.426831713585 	
C	 25.367694245660 	 -0.488306888989 	 20.557388433585 	
C	 25.936207275660 	  5.695252061011 	 10.426828883585 	
C	 25.367663145660 	  5.695254871011 	 20.557385603585 	
C	 11.485261715529 	  3.583529248569 	  5.154076111397 	
C	 10.916717585529 	  3.583532058569 	 15.284632831397 	
C	 11.485230615529 	  9.767091008569 	  5.154073281397 	
C	 10.916686485529 	  9.767093818569 	 15.284630001397 	
C	 26.166089015529 	  3.583538478569 	  5.182206041397 	
C	 25.597544885529 	  3.583541288569 	 15.312762761397 	
C	 26.166057915529 	  9.767100238569 	  5.182203211397 	
C	 25.597513785529 	  9.767103048569 	 15.312759931397 	
C	  2.426457418291 	  6.603292158463 	  0.267065399678 	
C	  1.857913288291 	  6.603294968463 	 10.397622119678 	
C	  2.426426318291 	 12.786853918463 	  0.267062569678 	
C	  1.857882188291 	 12.786856728463 	 10.397619289678 	
C	 17.107284718291 	  6.603301388463 	  0.295195329678 	
C	 16.538740588291 	  6.603304198463 	 10.425752049678 	
C	 17.107253618291 	 12.786863148463 	  0.295192499678 	
C	 16.538709488291 	 12.786865958463 	 10.425749219678 	
H	  3.062488489882 	  3.009156738890 	  5.021692357047 	
H	  2.493944359882 	  3.009159548890 	 15.152249077047 	
H	  3.062457389882 	  9.192718498890 	  5.021689527047 	
H	  2.493913259882 	  9.192721308890 	 15.152246247047 	
H	 17.743315789882 	  3.009165968890 	  5.049822287047 	
H	 17.174771659882 	  3.009168778890 	 15.180379007047 	
H	 17.743284689882 	  9.192727728890 	  5.049819457047 	
H	 17.174740559882 	  9.192730538890 	 15.180376177047 	
H	 10.392718466225 	 -0.049281646392 	 10.921527513618 	
H	  9.824174336225 	 -0.049278836392 	 21.052084233618 	
H	 10.392687366225 	  6.134280113608 	 10.921524683618 	
H	  9.824143236225 	  6.134282923608 	 21.052081403618 	
H	 25.073545766225 	 -0.049272416392 	 10.949657443618 	
H	 24.505001636225 	 -0.049269606392 	 21.080214163618 	
H	 25.073514666225 	  6.134289343608 	 10.949654613618 	
H	 24.504970536225 	  6.134292153608 	 21.080211333618 	
H	 10.619379658318 	  3.105813329512 	  5.644074030925 	
H	 10.050835528318 	  3.105816139512 	 15.774630750925 	
H	 10.619348558318 	  9.289375089512 	  5.644071200925 	
H	 10.050804428318 	  9.289377899512 	 15.774627920925 	
H	 25.300206958318 	  3.105822559512 	  5.672203960925 	
H	 24.731662828318 	  3.105825369512 	 15.802760680925 	
H	 25.300175858318 	  9.289384319512 	  5.672201130925 	
H	 24.731631728318 	  9.289387129512 	 15.802757850925 	
H	  3.289149809010 	  6.164254980602 	 -0.255760669102 	
H	  2.720605679010 	  6.164257790602 	  9.874796050898 	
H	  3.289118709010 	 12.347816740602 	 -0.255763499102 	
H	  2.720574579010 	 12.347819550602 	  9.874793220898 	
H	 17.969977109010 	  6.164264210602 	 -0.227630739102 	
H	 17.401432979010 	  6.164267020602 	  9.902925980898 	
H	 17.969946009010 	 12.347825970602 	 -0.227633569102 	
H	 17.401401879010 	 12.347828780602 	  9.902923150898 	
H	  1.393727849080 	  2.641833470169 	  4.707891546263 	
H	  0.825183719080 	  2.641836280169 	 14.838448266263 	
H	  1.393696749080 	  8.825395230169 	  4.707888716263 	
H	  0.825152619080 	  8.825398040169 	 14.838445436263 	
H	 16.074555149080 	  2.641842700169 	  4.736021476263 	
H	 15.506011019080 	  2.641845510169 	 14.866578196263 	
H	 16.074524049080 	  8.825404460169 	  4.736018646263 	
H	 15.505979919080 	  8.825407270169 	 14.866575366263 	
H	 12.534305581887 	 -0.413626384908 	  0.693488031325 	
H	 11.965761451887 	 -0.413623574908 	 10.824044751325 	
H	 12.534274481887 	  5.769935375092 	  0.693485201325 	
H	 11.965730351887 	  5.769938185092 	 10.824041921325 	
H	 27.215132881887 	 -0.413617154908 	  0.721617961325 	
H	 26.646588751887 	 -0.413614344908 	 10.852174681325 	
H	 27.215101781887 	  5.769944605092 	  0.721615131325 	
H	 26.646557651887 	  5.769947415092 	 10.852171851325 	
H	 12.288140084619 	  3.473139481678 	  5.957875268784 	
H	 11.719595954619 	  3.473142291678 	 16.088431988784 	
H	 12.288108984619 	  9.656701241678 	  5.957872438784 	
H	 11.719564854619 	  9.656704051678 	 16.088429158784 	
H	 26.968967384619 	  3.473148711678 	  5.986005198784 	
H	 26.400423254619 	  3.473151521678 	 16.116561918784 	
H	 26.968936284619 	  9.656710471678 	  5.986002368784 	
H	 26.400392154619 	  9.656713281678 	 16.116559088784 	
H	  1.147562588725 	  6.528599696002 	  9.972279499996 	
H	  0.579018458725 	  6.528602506002 	 20.102836219996 	
H	  1.147531488725 	 12.712161456002 	  9.972276669996 	
H	  0.578987358725 	 12.712164266002 	 20.102833389996 	
H	 15.828389888725 	  6.528608926002 	 10.000409429996 	
H	 15.259845758725 	  6.528611736002 	 20.130966149996 	
H	 15.828358788725 	 12.712170686002 	 10.000406599996 	
H	 15.259814658725 	 12.712173496002 	 20.130963319996 	
H	  2.570537994327 	  1.522581764978 	  5.262796056055 	
H	  2.001993864327 	  1.522584574978 	 15.393352776055 	
H	  2.570506894327 	  7.706143524978 	  5.262793226055 	
H	  2.001962764327 	  7.706146334978 	 15.393349946055 	
H	 17.251365294327 	  1.522590994978 	  5.290925986055 	
H	 16.682821164327 	  1.522593804978 	 15.421482706055 	
H	 17.251334194327 	  7.706152754978 	  5.290923156055 	
H	 16.682790064327 	  7.706155564978 	 15.421479876055 	
H	 11.321895487586 	  4.542194151042 	  0.145211742414 	
H	 10.753351357586 	  4.542196961042 	 10.275768462414 	
H	 11.321864387586 	 10.725755911042 	  0.145208912414 	
H	 10.753320257586 	 10.725758721042 	 10.275765632414 	
H	 26.002722787586 	  4.542203381042 	  0.173341672414 	
H	 25.434178657586 	  4.542206191042 	 10.303898392414 	
H	 26.002691687586 	 10.725765141042 	  0.173338842414 	
H	 25.434147557586 	 10.725767951042 	 10.303895562414 	
H	 11.111328327095 	  4.592390794923 	  5.402971266299 	
H	 10.542784197095 	  4.592393604923 	 15.533527986299 	
H	 11.111297227095 	 10.775952554923 	  5.402968436299 	
H	 10.542753097095 	 10.775955364923 	 15.533525156299 	
H	 25.792155627095 	  4.592400024923 	  5.431101196299 	
H	 25.223611497095 	  4.592402834923 	 15.561657916299 	
H	 25.792124527095 	 10.775961784923 	  5.431098366299 	
H	 25.223580397095 	 10.775964594923 	 15.561655086299 	
H	  2.359972974273 	  1.572779155129 	 10.520555708207 	
H	  1.791428844273 	  1.572781965129 	 20.651112428207 	
H	  2.359941874273 	  7.756340915129 	 10.520552878207 	
H	  1.791397744273 	  7.756343725129 	 20.651109598207 	
H	 17.040800274273 	  1.572788385129 	 10.548685638207 	
H	 16.472256144273 	  1.572791195129 	 20.679242358207 	
H	 17.040769174273 	  7.756350145129 	 10.548682808207 	
H	 16.472225044273 	  7.756352955129 	 20.679239528207 	
C	  1.537529413806 	  3.902180299825 	  6.674699122792 	
C	  0.968985283806 	  3.902183109825 	 16.805255842792 	
C	  1.537498313806 	 10.085742059825 	  6.674696292792 	
C	  0.968954183806 	 10.085744869825 	 16.805253012792 	
C	 16.218356713806 	  3.902189529825 	  6.702829052792 	
C	 15.649812583806 	  3.902192339825 	 16.833385772792 	
C	 16.218325613806 	 10.085751289825 	  6.702826222792 	
C	 15.649781483806 	 10.085754099825 	 16.833382942792 	
C	 11.919906969493 	  0.868073681971 	  9.272670267175 	
C	 11.351362839493 	  0.868076491971 	 19.403226987175 	
C	 11.919875869493 	  7.051635441971 	  9.272667437175 	
C	 11.351331739493 	  7.051638251971 	 19.403224157175 	
C	 26.600734269493 	  0.868082911971 	  9.300800197175 	
C	 26.032190139493 	  0.868085721971 	 19.431356917175 	
C	 26.600703169493 	  7.051644671971 	  9.300797367175 	
C	 26.032159039493 	  7.051647481971 	 19.431354087175 	
C	 12.144340361182 	  2.212792683303 	  3.991066113931 	
C	 11.575796231182 	  2.212795493303 	 14.121622833931 	
C	 12.144309261182 	  8.396354443303 	  3.991063283931 	
C	 11.575765131182 	  8.396357253303 	 14.121620003931 	
C	 26.825167661182 	  2.212801913303 	  4.019196043931 	
C	 26.256623531182 	  2.212804723303 	 14.149752763931 	
C	 26.825136561182 	  8.396363673303 	  4.019193213931 	
C	 26.256592431182 	  8.396366483303 	 14.149749933931 	
C	  1.761961839497 	  5.246899283858 	  1.393096911591 	
C	  1.193417709497 	  5.246902093858 	 11.523653631591 	
C	  1.761930739497 	 11.430461043858 	  1.393094081591 	
C	  1.193386609497 	 11.430463853858 	 11.523650801591 	
C	 16.442789139497 	  5.246908513858 	  1.421226841591 	
C	 15.874245009497 	  5.246911323858 	 11.551783561591 	
C	 16.442758039497 	 11.430470273858 	  1.421224011591 	
C	 15.874213909497 	 11.430473083858 	 11.551780731591 	
H	  2.220353501920 	  4.756652949187 	  6.424692635582 	
H	  1.651809371920 	  4.756655759187 	 16.555249355582 	
H	  2.220322401920 	 10.940214709187 	  6.424689805582 	
H	  1.651778271920 	 10.940217519187 	 16.555246525582 	
H	 16.901180801920 	  4.756662179187 	  6.452822565582 	
H	 16.332636671920 	  4.756664989187 	 16.583379285582 	
H	 16.901149701920 	 10.940223939187 	  6.452819735582 	
H	 16.332605571920 	 10.940226749187 	 16.583376455582 	
H	 11.221962547555 	  1.704375607553 	  9.521619249164 	
H	 10.653418417555 	  1.704378417553 	 19.652175969164 	
H	 11.221931447555 	  7.887937367553 	  9.521616419164 	
H	 10.653387317555 	  7.887940177553 	 19.652173139164 	
H	 25.902789847555 	  1.704384837553 	  9.549749179164 	
H	 25.334245717555 	  1.704387647553 	 19.680305899164 	
H	 25.902758747555 	  7.887946597553 	  9.549746349164 	
H	 25.334214617555 	  7.887949407553 	 19.680303069164 	
H	 11.461516489130 	  1.358319273170 	  4.241071853318 	
H	 10.892972359130 	  1.358322083170 	 14.371628573318 	
H	 11.461485389130 	  7.541881033170 	  4.241069023318 	
H	 10.892941259130 	  7.541883843170 	 14.371625743318 	
H	 26.142343789130 	  1.358328503170 	  4.269201783318 	
H	 25.573799659130 	  1.358331313170 	 14.399758503318 	
H	 26.142312689130 	  7.541890263170 	  4.269198953318 	
H	 25.573768559130 	  7.541893073170 	 14.399755673318 	
H	  2.459906258101 	  4.410597465703 	  1.144147449951 	
H	  1.891362128101 	  4.410600275703 	 11.274704169951 	
H	  2.459875158101 	 10.594159225703 	  1.144144619951 	
H	  1.891331028101 	 10.594162035703 	 11.274701339951 	
H	 17.140733558101 	  4.410606695703 	  1.172277379951 	
H	 16.572189428101 	  4.410609505703 	 11.302834099951 	
H	 17.140702458101 	 10.594168455703 	  1.172274549951 	
H	 16.572158328101 	 10.594171265703 	 11.302831269951 	
H	  1.247166061930 	  4.342896277499 	  7.672709352971 	
H	  0.678621931930 	  4.342899087499 	 17.803266072971 	
H	  1.247134961930 	 10.526458037499 	  7.672706522971 	
H	  0.678590831930 	 10.526460847499 	 17.803263242971 	
H	 15.927993361930 	  4.342905507499 	  7.700839282971 	
H	 15.359449231930 	  4.342908317499 	 17.831396002971 	
H	 15.927962261930 	 10.526467267499 	  7.700836452971 	
H	 15.359418131930 	 10.526470077499 	 17.831393172971 	
H	 12.201968411923 	  7.386806748667 	  8.267628786741 	
H	 11.633424281923 	  7.386809558667 	 18.398185506741 	
H	 12.201937311923 	 13.570368508667 	  8.267625956741 	
H	 11.633393181923 	 13.570371318667 	 18.398182676741 	
H	 26.882795711923 	  7.386815978667 	  8.295758716741 	
H	 26.314251581923 	  7.386818788667 	 18.426315436741 	
H	 26.882764611923 	 13.570377738667 	  8.295755886741 	
H	 26.314220481923 	 13.570380548667 	 18.426312606741 	
H	 12.434704845747 	  1.772078108255 	  2.993055310737 	
H	 11.866160715747 	  1.772080918255 	 13.123612030737 	
H	 12.434673745747 	  7.955639868255 	  2.993052480737 	
H	 11.866129615747 	  7.955642678255 	 13.123609200737 	
H	 27.115532145747 	  1.772087338255 	  3.021185240737 	
H	 26.546988015747 	  1.772090148255 	 13.151741960737 	
H	 27.115501045747 	  7.955649098255 	  3.021182410737 	
H	 26.546956915747 	  7.955651908255 	 13.151739130737 	
H	  1.479900911359 	 -1.271833982329 	  2.398138555773 	
H	  0.911356781359 	 -1.271831172329 	 12.528695275773 	
H	  1.479869811359 	  4.911727777671 	  2.398135725773 	
H	  0.911325681359 	  4.911730587671 	 12.528692445773 	
H	 16.160728211359 	 -1.271824752329 	  2.426268485773 	
H	 15.592184081359 	 -1.271821942329 	 12.556825205773 	
H	 16.160697111359 	  4.911737007671 	  2.426265655773 	
H	 15.592152981359 	  4.911739817671 	 12.556822375773 	
H	  0.626314355889 	  4.101048803312 	  6.026317221957 	
H	  0.057770225889 	  4.101051613312 	 16.156873941957 	
H	  0.626283255889 	 10.284610563312 	  6.026314391957 	
H	  0.057739125889 	 10.284613373312 	 16.156871111957 	
H	 15.307141655889 	  4.101058033312 	  6.054447151957 	
H	 14.738597525889 	  4.101060843312 	 16.185003871957 	
H	 15.307110555889 	 10.284619793312 	  6.054444321957 	
H	 14.738566425889 	 10.284622603312 	 16.185001041957 	
H	 12.821779248333 	  7.155240397316 	  9.918751566194 	
H	 12.253235118333 	  7.155243207316 	 20.049308286194 	
H	 12.821748148333 	 13.338802157316 	  9.918748736194 	
H	 12.253204018333 	 13.338804967316 	 20.049305456194 	
H	 27.502606548333 	  7.155249627316 	  9.946881496194 	
H	 26.934062418333 	  7.155252437316 	 20.077438216194 	
H	 27.502575448333 	 13.338811387316 	  9.946878666194 	
H	 26.934031318333 	 13.338814197316 	 20.077435386194 	
H	 13.055555227148 	  2.013924538304 	  4.639448282871 	
H	 12.487011097148 	  2.013927348304 	 14.770005002871 	
H	 13.055524127148 	  8.197486298304 	  4.639445452871 	
H	 12.486979997148 	  8.197489108304 	 14.770002172871 	
H	 27.736382527148 	  2.013933768304 	  4.667578212871 	
H	 27.167838397148 	  2.013936578304 	 14.798134932871 	
H	 27.736351427148 	  8.197495528304 	  4.667575382871 	
H	 27.167807297148 	  8.197498338304 	 14.798132102871 	
H	  0.860089281140 	 -1.040267491769 	  0.747016026002 	
H	  0.291545151140 	 -1.040264681769 	 10.877572746002 	
H	  0.860058181140 	  5.143294268231 	  0.747013196002 	
H	  0.291514051140 	  5.143297078231 	 10.877569916002 	
H	 15.540916581140 	 -1.040258261769 	  0.775145956002 	
H	 14.972372451140 	 -1.040255451769 	 10.905702676002 	
H	 15.540885481140 	  5.143303498231 	  0.775143126002 	
H	 14.972341351140 	  5.143306308231 	 10.905699846002 	
C	  1.131963152569 	  2.051397085508 	  7.044324358275 	
C	  0.563419022569 	  2.051399895508 	 17.174881078275 	
C	  1.131932052569 	  8.234958845508 	  7.044321528275 	
C	  0.563387922569 	  8.234961655508 	 17.174878248275 	
C	 15.812790452569 	  2.051406315508 	  7.072454288275 	
C	 15.244246322569 	  2.051409125508 	 17.203011008275 	
C	 15.812759352569 	  8.234968075508 	  7.072451458275 	
C	 15.244215222569 	  8.234970885508 	 17.203008178275 	
C	 12.315621345941 	  5.109218842864 	  8.900784441415 	
C	 11.747077215941 	  5.109221652864 	 19.031341161415 	
C	 12.315590245941 	 11.292780602864 	  8.900781611415 	
C	 11.747046115941 	 11.292783412864 	 19.031338331415 	
C	 26.996448645941 	  5.109228072864 	  8.928914371415 	
C	 26.427904515941 	  5.109230882864 	 19.059471091415 	
C	 26.996417545941 	 11.292789832864 	  8.928911541415 	
C	 26.427873415941 	 11.292792642864 	 19.059468261415 	
C	 12.549905434023 	  4.063578022264 	  3.621441906702 	
C	 11.981361304023 	  4.063580832264 	 13.751998626702 	
C	 12.549874334023 	 10.247139782264 	  3.621439076702 	
C	 11.981330204023 	 10.247142592264 	 13.751995796702 	
C	 27.230732734023 	  4.063587252264 	  3.649571836702 	
C	 26.662188604023 	  4.063590062264 	 13.780128556702 	
C	 27.230701634023 	 10.247149012264 	  3.649569006702 	
C	 26.662157504023 	 10.247151822264 	 13.780125726702 	
C	  1.366247393909 	  1.005753926106 	  1.764983206476 	
C	  0.797703263909 	  1.005756736106 	 11.895539926476 	
C	  1.366216293909 	  7.189315686106 	  1.764980376476 	
C	  0.797672163909 	  7.189318496106 	 11.895537096476 	
C	 16.047074693909 	  1.005763156106 	  1.793113136476 	
C	 15.478530563909 	  1.005765966106 	 11.923669856476 	
C	 16.047043593909 	  7.189324916106 	  1.793110306476 	
C	 15.478499463909 	  7.189327726106 	 11.923667026476 	
H	  0.113761786012 	  2.006469920171 	  6.536852252905 	
H	 -0.454782343988 	  2.006472730171 	 16.667408972905 	
H	  0.113730686012 	  8.190031680171 	  6.536849422905 	
H	 -0.454813443988 	  8.190034490171 	 16.667406142905 	
H	 14.794589086012 	  2.006479150171 	  6.564982182905 	
H	 14.226044956012 	  2.006481960171 	 16.695538902905 	
H	 14.794557986012 	  8.190040910171 	  6.564979352905 	
H	 14.226013856012 	  8.190043720171 	 16.695536072905 	
H	 13.334055170619 	  5.063940045872 	  9.408110771653 	
H	 12.765511040619 	  5.063942855872 	 19.538667491653 	
H	 13.334024070619 	 11.247501805872 	  9.408107941653 	
H	 12.765479940619 	 11.247504615872 	 19.538664661653 	
H	 28.014882470619 	  5.063949275872 	  9.436240701653 	
H	 27.446338340619 	  5.063952085872 	 19.566797421653 	
H	 28.014851370619 	 11.247511035872 	  9.436237871653 	
H	 27.446307240619 	 11.247513845872 	 19.566794591653 	
H	 13.568106639066 	  4.108505078995 	  4.128914181648 	
H	 12.999562509066 	  4.108507888995 	 14.259470901648 	
H	 13.568075539066 	 10.292066838995 	  4.128911351648 	
H	 12.999531409066 	 10.292069648995 	 14.259468071648 	
H	 28.248933939066 	  4.108514308995 	  4.157044111648 	
H	 27.680389809066 	  4.108517118995 	 14.287600831648 	
H	 28.248902839066 	 10.292076068995 	  4.157041281648 	
H	 27.680358709066 	 10.292078878995 	 14.287598001648 	
H	  0.347813466791 	  1.051032625498 	  1.257657082264 	
H	 -0.220730663209 	  1.051035435498 	 11.388213802264 	
H	  0.347782366791 	  7.234594385498 	  1.257654252264 	
H	 -0.220761763209 	  7.234597195498 	 11.388210972264 	
H	 15.028640766791 	  1.051041855498 	  1.285787012264 	
H	 14.460096636791 	  1.051044665498 	 11.416343732264 	
H	 15.028609666791 	  7.234603615498 	  1.285784182264 	
H	 14.460065536791 	  7.234606425498 	 11.416340902264 	
H	  0.867438646790 	  2.119715521731 	  8.128762115296 	
H	  0.298894516790 	  2.119718331731 	 18.259318835296 	
H	  0.867407546790 	  8.303277281731 	  8.128759285296 	
H	  0.298863416790 	  8.303280091731 	 18.259316005296 	
H	 15.548265946790 	  2.119724751731 	  8.156892045296 	
H	 14.979721816790 	  2.119727561731 	 18.287448765296 	
H	 15.548234846790 	  8.303286511731 	  8.156889215296 	
H	 14.979690716790 	  8.303289321731 	 18.287445935296 	
H	 12.580467797687 	  5.177222619441 	  7.816162318459 	
H	 12.011923667687 	  5.177225429441 	 17.946719038459 	
H	 12.580436697687 	 11.360784379441 	  7.816159488459 	
H	 12.011892567687 	 11.360787189441 	 17.946716208459 	
H	 27.261295097687 	  5.177231849441 	  7.844292248459 	
H	 26.692750967687 	  5.177234659441 	 17.974848968459 	
H	 27.261263997687 	 11.360793609441 	  7.844289418459 	
H	 26.692719867687 	 11.360796419441 	 17.974846138459 	
H	 12.814429925005 	  3.995260466704 	  2.537003659863 	
H	 12.245885795005 	  3.995263276704 	 12.667560379863 	
H	 12.814398825005 	 10.178822226704 	  2.537000829863 	
H	 12.245854695005 	 10.178825036704 	 12.667557549863 	
H	 27.495257225005 	  3.995269696704 	  2.565133589863 	
H	 26.926713095005 	  3.995272506704 	 12.695690309863 	
H	 27.495226125005 	 10.178831456704 	  2.565130759863 	
H	 26.926681995005 	 10.178834266704 	 12.695687479863 	
H	  1.101401119731 	  0.937749829178 	  2.849605249801 	
H	  0.532856989731 	  0.937752639178 	 12.980161969801 	
H	  1.101370019731 	  7.121311589178 	  2.849602419801 	
H	  0.532825889731 	  7.121314399178 	 12.980159139801 	
H	 15.782228419731 	  0.937759059178 	  2.877735179801 	
H	 15.213684289731 	  0.937761869178 	 13.008291899801 	
H	 15.782197319731 	  7.121320819178 	  2.877732349801 	
H	 15.213653189731 	  7.121323629178 	 13.008289069801 	
H	  1.381852330321 	  0.975770185580 	  7.111439028141 	
H	  0.813308200321 	  0.975772995580 	 17.241995748141 	
H	  1.381821230321 	  7.159331945580 	  7.111436198141 	
H	  0.813277100321 	  7.159334755580 	 17.241992918141 	
H	 16.062679630321 	  0.975779415580 	  7.139568958141 	
H	 15.494135500321 	  0.975782225580 	 17.270125678141 	
H	 16.062648530321 	  7.159341175580 	  7.139566128141 	
H	 15.494104400321 	  7.159343985580 	 17.270122848141 	
H	 12.065963179099 	  4.033378327649 	  8.833400964181 	
H	 11.497419049099 	  4.033381137649 	 18.963957684181 	
H	 12.065932079099 	 10.216940087649 	  8.833398134181 	
H	 11.497387949099 	 10.216942897649 	 18.963954854181 	
H	 26.746790479099 	  4.033387557649 	  8.861530894181 	
H	 26.178246349099 	  4.033390367649 	 18.992087614181 	
H	 26.746759379099 	 10.216949317649 	  8.861528064181 	
H	 26.178215249099 	 10.216952127649 	 18.992084784181 	
H	 12.300015059647 	  5.139205165455 	  3.554329118170 	
H	 11.731470929647 	  5.139207975455 	 13.684885838170 	
H	 12.299983959647 	 11.322766925455 	  3.554326288170 	
H	 11.731439829647 	 11.322769735455 	 13.684883008170 	
H	 26.980842359647 	  5.139214395455 	  3.582459048170 	
H	 26.412298229647 	  5.139217205455 	 13.713015768170 	
H	 26.980811259647 	 11.322776155455 	  3.582456218170 	
H	 26.412267129647 	 11.322778965455 	 13.713012938170 	
H	  1.615905437492 	  2.081594452499 	  1.832367153986 	
H	  1.047361307492 	  2.081597262499 	 11.962923873986 	
H	  1.615874337492 	  8.265156212499 	  1.832364323986 	
H	  1.047330207492 	  8.265159022499 	 11.962921043986 	
H	 16.296732737492 	  2.081603682499 	  1.860497083986 	
H	 15.728188607492 	  2.081606492499 	 11.991053803986 	
H	 16.296701637492 	  8.265165442499 	  1.860494253986 	
H	 15.728157507492 	  8.265168252499 	 11.991050973986 	
768 
Energy: -8.5119400126710005e+01 
S	  8.355114360160 	  1.422666143055 	  0.122815817506 	
S	  7.786570230160 	  1.422668953055 	 10.253372537506 	
S	  8.355083260160 	  7.606227903055 	  0.122812987506 	
S	  7.786539130160 	  7.606230713055 	 10.253369707506 	
S	 23.035941660160 	  1.422675373055 	  0.150945747506 	
S	 22.467397530160 	  1.422678183055 	 10.281502467506 	
S	 23.035910560160 	  7.606237133055 	  0.150942917506 	
S	 22.467366430160 	  7.606239943055 	 10.281499637506 	
S	  5.500018686914 	  4.475300782265 	  5.300454785612 	
S	  4.931474556914 	  4.475303592265 	 15.431011505612 	
S	  5.499987586914 	 10.658862542265 	  5.300451955612 	
S	  4.931443456914 	 10.658865352265 	 15.431008675612 	
S	 20.180845986914 	  4.475310012265 	  5.328584715612 	
S	 19.612301856914 	  4.475312822265 	 15.459141435612 	
S	 20.180814886914 	 10.658871772265 	  5.328581885612 	
S	 19.612270756914 	 10.658874582265 	 15.459138605612 	
S	  5.272819157179 	  4.683709570419 	 10.606497962921 	
S	  4.704275027179 	  4.683712380419 	 20.737054682921 	
S	  5.272788057179 	 10.867271330419 	 10.606495132921 	
S	  4.704243927179 	 10.867274140419 	 20.737051852921 	
S	 19.953646457179 	  4.683718800419 	 10.634627892921 	
S	 19.385102327179 	  4.683721610419 	 20.765184612921 	
S	 19.953615357179 	 10.867280560419 	 10.634625062921 	
S	 19.385071227179 	 10.867283370419 	 20.765181782921 	
S	  8.127916165111 	  1.631074963751 	  5.428858616425 	
S	  7.559372035111 	  1.631077773751 	 15.559415336425 	
S	  8.127885065111 	  7.814636723751 	  5.428855786425 	
S	  7.559340935111 	  7.814639533751 	 15.559412506425 	
S	 22.808743465111 	  1.631084193751 	  5.456988546425 	
S	 22.240199335111 	  1.631087003751 	 15.587545266425 	
S	 22.808712365111 	  7.814645953751 	  5.456985716425 	
S	 22.240168235111 	  7.814648763751 	 15.587542436425 	
C	  6.569176892583 	  2.511799675258 	 10.294574912060 	
C	  6.000632762583 	  2.511802485258 	 20.425131632060 	
C	  6.569145792583 	  8.695361435258 	 10.294572082060 	
C	  6.000601662583 	  8.695364245258 	 20.425128802060 	
C	 21.250004192583 	  2.511808905258 	 10.322704842060 	
C	 20.681460062583 	  2.511811715258 	 20.453261562060 	
C	 21.249973092583 	  8.695370665258 	 10.322702012060 	
C	 20.681428962583 	  8.695373475258 	 20.453258732060 	
C	  6.830848182490 	  5.564074797296 	  5.740525451997 	
C	  6.262304052490 	  5.564077607296 	 15.871082171997 	
C	  6.830817082490 	 11.747636557296 	  5.740522621997 	
C	  6.262272952490 	 11.747639367296 	 15.871079341997 	
C	 21.511675482490 	  5.564084027296 	  5.768655381997 	
C	 20.943131352490 	  5.564086837296 	 15.899212101997 	
C	 21.511644382490 	 11.747645787296 	  5.768652551997 	
C	 20.943100252490 	 11.747648597296 	 15.899209271997 	
C	  7.058756630173 	  3.594576028698 	  0.434738693671 	
C	  6.490212500173 	  3.594578838698 	 10.565295413671 	
C	  7.058725530173 	  9.778137788698 	  0.434735863671 	
C	  6.490181400173 	  9.778140598698 	 10.565292583671 	
C	 21.739583930173 	  3.594585258698 	  0.462868623671 	
C	 21.171039800173 	  3.594588068698 	 10.593425343671 	
C	 21.739552830173 	  9.778147018698 	  0.462865793671 	
C	 21.171008700173 	  9.778149828698 	 10.593422513671 	
C	  6.797086521667 	  0.542301010193 	  4.988787778814 	
C	  6.228542391667 	  0.542303820193 	 15.119344498814 	
C	  6.797055421667 	  6.725862770193 	  4.988784948814 	
C	  6.228511291667 	  6.725865580193 	 15.119341668814 	
C	 21.477913821667 	  0.542310240193 	  5.016917708814 	
C	 20.909369691667 	  0.542313050193 	 15.147474428814 	
C	 21.477882721667 	  6.725872000193 	  5.016914878814 	
C	 20.909338591667 	  6.725874810193 	 15.147471598814 	
C	  5.541388993032 	  2.396799348484 	  9.316795033003 	
C	  4.972844863032 	  2.396802158484 	 19.447351753003 	
C	  5.541357893032 	  8.580361108484 	  9.316792203003 	
C	  4.972813763032 	  8.580363918484 	 19.447348923003 	
C	 20.222216293032 	  2.396808578484 	  9.344924963003 	
C	 19.653672163032 	  2.396811388484 	 19.475481683003 	
C	 20.222185193032 	  8.580370338484 	  9.344922133003 	
C	 19.653641063032 	  8.580373148484 	 19.475478853003 	
C	  7.860096099759 	  5.450795875700 	  6.718403845750 	
C	  7.291551969759 	  5.450798685700 	 16.848960565750 	
C	  7.860064999759 	 11.634357635700 	  6.718401015750 	
C	  7.291520869759 	 11.634360445700 	 16.848957735750 	
C	 22.540923399759 	  5.450805105700 	  6.746533775750 	
C	 21.972379269759 	  5.450807915700 	 16.877090495750 	
C	 22.540892299759 	 11.634366865700 	  6.746530945750 	
C	 21.972348169759 	 11.634369675700 	 16.877087665750 	
C	  8.086544496743 	  3.709576426854 	  1.412518544999 	
C	  7.518000366743 	  3.709579236854 	 11.543075264999 	
C	  8.086513396743 	  9.893138186854 	  1.412515714999 	
C	  7.517969266743 	  9.893140996854 	 11.543072434999 	
C	 22.767371796743 	  3.709585656854 	  1.440648474999 	
C	 22.198827666743 	  3.709588466854 	 11.571205194999 	
C	 22.767340696743 	  9.893147416854 	  1.440645644999 	
C	 22.198796566743 	  9.893150226854 	 11.571202364999 	
C	  5.767838362522 	  0.655579963595 	  4.010909629836 	
C	  5.199294232522 	  0.655582773595 	 14.141466349836 	
C	  5.767807262522 	  6.839141723595 	  4.010906799836 	
C	  5.199263132522 	  6.839144533595 	 14.141463519836 	
C	 20.448665662522 	  0.655589193595 	  4.039039559836 	
C	 19.880121532522 	  0.655592003595 	 14.169596279836 	
C	 20.448634562522 	  6.839150953595 	  4.039036729836 	
C	 19.880090432522 	  6.839153763595 	 14.169593449836 	
C	  4.713222363927 	  3.522195252842 	  9.356808800410 	
C	  4.144678233927 	  3.522198062842 	 19.487365520410 	
C	  4.713191263927 	  9.705757012842 	  9.356805970410 	
C	  4.144647133927 	  9.705759822842 	 19.487362690410 	
C	 19.394049663927 	  3.522204482842 	  9.384938730410 	
C	 18.825505533927 	  3.522207292842 	 19.515495450410 	
C	 19.394018563927 	  9.705766242842 	  9.384935900410 	
C	 18.825474433927 	  9.705769052842 	 19.515492620410 	
C	  8.685783241007 	  0.468096484281 	  6.678621990087 	
C	  8.117239111007 	  0.468099294281 	 16.809178710087 	
C	  8.685752141007 	  6.651658244281 	  6.678619160087 	
C	  8.117208011007 	  6.651661054281 	 16.809175880087 	
C	 23.366610541007 	  0.468105714281 	  6.706751920087 	
C	 22.798066411007 	  0.468108524281 	 16.837308640087 	
C	 23.366579441007 	  6.651667474281 	  6.706749090087 	
C	 22.798035311007 	  6.651670284281 	 16.837305810087 	
C	  8.914711116698 	  2.584180468746 	  1.372504792326 	
C	  8.346166986698 	  2.584183278746 	 11.503061512326 	
C	  8.914680016698 	  8.767742228746 	  1.372501962326 	
C	  8.346135886698 	  8.767745038746 	 11.503058682326 	
C	 23.595538416698 	  2.584189698746 	  1.400634722326 	
C	 23.026994286698 	  2.584192508746 	 11.531191442326 	
C	 23.595507316698 	  8.767751458746 	  1.400631892326 	
C	 23.026963186698 	  8.767754268746 	 11.531188612326 	
C	  4.942151338063 	  5.638279367824 	  4.050691678184 	
C	  4.373607208063 	  5.638282177824 	 14.181248398184 	
C	  4.942120238063 	 11.821841127824 	  4.050688848184 	
C	  4.373576108063 	 11.821843937824 	 14.181245568184 	
C	 19.622978638063 	  5.638288597824 	  4.078821608184 	
C	 19.054434508063 	  5.638291407824 	 14.209378328184 	
C	 19.622947538063 	 11.821850357824 	  4.078818778184 	
C	 19.054403408063 	 11.821853167824 	 14.209375498184 	
C	  3.653641228828 	  3.654609029646 	  8.544956312217 	
C	  3.085097098828 	  3.654611839646 	 18.675513032217 	
C	  3.653610128828 	  9.838170789646 	  8.544953482217 	
C	  3.085065998828 	  9.838173599646 	 18.675510202217 	
C	 18.334468528828 	  3.654618259646 	  8.573086242217 	
C	 17.765924398828 	  3.654621069646 	 18.703642962217 	
C	 18.334437428828 	  9.838180019646 	  8.573083412217 	
C	 17.765893298828 	  9.838182829646 	 18.703640132217 	
C	  9.746603939983 	  0.601068115303 	  7.491167564702 	
C	  9.178059809983 	  0.601070925303 	 17.621724284702 	
C	  9.746572839983 	  6.784629875303 	  7.491164734702 	
C	  9.178028709983 	  6.784632685303 	 17.621721454702 	
C	 24.427431239983 	  0.601077345303 	  7.519297494702 	
C	 23.858887109983 	  0.601080155303 	 17.649854214702 	
C	 24.427400139983 	  6.784639105303 	  7.519294664702 	
C	 23.858856009983 	  6.784641915303 	 17.649851384702 	
C	  9.974292246377 	  2.451766861080 	  2.184357492593 	
C	  9.405748116377 	  2.451769671080 	 12.314914212593 	
C	  9.974261146377 	  8.635328621080 	  2.184354662593 	
C	  9.405717016377 	  8.635331431080 	 12.314911382593 	
C	 24.655119546377 	  2.451776091080 	  2.212487422593 	
C	 24.086575416377 	  2.451778901080 	 12.343044142593 	
C	 24.655088446377 	  8.635337851080 	  2.212484592593 	
C	 24.086544316377 	  8.635340661080 	 12.343041312593 	
C	  3.881330154596 	  5.505307821190 	  3.238146588474 	
C	  3.312786024596 	  5.505310631190 	 13.368703308474 	
C	  3.881299054596 	 11.688869581190 	  3.238143758474 	
C	  3.312754924596 	 11.688872391190 	 13.368700478474 	
C	 18.562157454596 	  5.505317051190 	  3.266276518474 	
C	 17.993613324596 	  5.505319861190 	 13.396833238474 	
C	 18.562126354596 	 11.688878811190 	  3.266273688474 	
C	 17.993582224596 	 11.688881621190 	 13.396830408474 	
H	  3.014278743542 	  4.608866657597 	  8.621825459221 	
H	  2.445734613542 	  4.608869467597 	 18.752382179221 	
H	  3.014247643542 	 10.792428417597 	  8.621822629221 	
H	  2.445703513542 	 10.792431227597 	 18.752379349221 	
H	 17.695106043542 	  4.608875887597 	  8.649955389221 	
H	 17.126561913542 	  4.608878697597 	 18.780512109221 	
H	 17.695074943542 	 10.792437647597 	  8.649952559221 	
H	 17.126530813542 	 10.792440457597 	 18.780509279221 	
H	 10.385994567429 	  1.555652554472 	  7.413371605175 	
H	  9.817450437429 	  1.555655364472 	 17.543928325175 	
H	 10.385963467429 	  7.739214314472 	  7.413368775175 	
H	  9.817419337429 	  7.739217124472 	 17.543925495175 	
H	 25.066821867429 	  1.555661784472 	  7.441501535175 	
H	 24.498277737429 	  1.555664594472 	 17.572058255175 	
H	 25.066790767429 	  7.739223544472 	  7.441498705175 	
H	 24.498246637429 	  7.739226354472 	 17.572055425175 	
H	 10.613654642685 	  1.497509132507 	  2.107488571478 	
H	 10.045110512685 	  1.497511942507 	 12.238045291478 	
H	 10.613623542685 	  7.681070892507 	  2.107485741478 	
H	 10.045079412685 	  7.681073702507 	 12.238042461478 	
H	 25.294481942685 	  1.497518362507 	  2.135618501478 	
H	 24.725937812685 	  1.497521172507 	 12.266175221478 	
H	 25.294450842685 	  7.681080122507 	  2.135615671478 	
H	 24.725906712685 	  7.681082932507 	 12.266172391478 	
H	  3.241939660034 	  4.550723310318 	  3.315942744681 	
H	  2.673395530034 	  4.550726120318 	 13.446499464681 	
H	  3.241908560034 	 10.734285070318 	  3.315939914681 	
H	  2.673364430034 	 10.734287880318 	 13.446496634681 	
H	 17.922766960034 	  4.550732540318 	  3.344072674681 	
H	 17.354222830034 	  4.550735350318 	 13.474629394681 	
H	 17.922735860034 	 10.734294300318 	  3.344069844681 	
H	 17.354191730034 	 10.734297110318 	 13.474626564681 	
C	  3.319701447201 	  2.708657800661 	  7.634163390447 	
C	  2.751157317201 	  2.708660610661 	 17.764720110447 	
C	  3.319670347201 	  8.892219560661 	  7.634160560447 	
C	  2.751126217201 	  8.892222370661 	 17.764717280447 	
C	 18.000528747201 	  2.708667030661 	  7.662293320447 	
C	 17.431984617201 	  2.708669840661 	 17.792850040447 	
C	 18.000497647201 	  8.892228790661 	  7.662290490447 	
C	 17.431953517201 	  8.892231600661 	 17.792847210447 	
C	 10.080186272278 	  5.761951231772 	  8.400037040870 	
C	  9.511642142278 	  5.761954041772 	 18.530593760870 	
C	 10.080155172278 	 11.945512991772 	  8.400034210870 	
C	  9.511611042278 	 11.945515801772 	 18.530590930870 	
C	 24.761013572278 	  5.761960461772 	  8.428166970870 	
C	 24.192469442278 	  5.761963271772 	 18.558723690870 	
C	 24.760982472278 	 11.945522221772 	  8.428164140870 	
C	 24.192438342278 	 11.945525031772 	 18.558720860870 	
C	 10.308231910764 	  3.397718213384 	  3.095150134297 	
C	  9.739687780764 	  3.397721023384 	 13.225706854297 	
C	 10.308200810764 	  9.581279973384 	  3.095147304297 	
C	  9.739656680764 	  9.581282783384 	 13.225704024297 	
C	 24.989059210764 	  3.397727443384 	  3.123280064297 	
C	 24.420515080764 	  3.397730253384 	 13.253836784297 	
C	 24.989028110764 	  9.581289203384 	  3.123277234297 	
C	 24.420483980764 	  9.581292013384 	 13.253833954297 	
C	  3.547747405521 	  0.344424789452 	  2.329277369677 	
C	  2.979203275521 	  0.344427599452 	 12.459834089677 	
C	  3.547716305521 	  6.527986549452 	  2.329274539677 	
C	  2.979172175521 	  6.527989359452 	 12.459831259677 	
C	 18.228574705521 	  0.344434019452 	  2.357407299677 	
C	 17.660030575521 	  0.344436829452 	 12.487964019677 	
C	 18.228543605521 	  6.527995779452 	  2.357404469677 	
C	 17.659999475521 	  6.527998589452 	 12.487961189677 	
C	  4.156232569317 	  1.611485685759 	  7.583863667911 	
C	  3.587688439317 	  1.611488495759 	 17.714420387911 	
C	  4.156201469317 	  7.795047445759 	  7.583860837911 	
C	  3.587657339317 	  7.795050255759 	 17.714417557911 	
C	 18.837059869317 	  1.611494915759 	  7.611993597911 	
C	 18.268515739317 	  1.611497725759 	 17.742550317911 	
C	 18.837028769317 	  7.795056675759 	  7.611990767911 	
C	 18.268484639317 	  7.795059485759 	 17.742547487911 	
C	  9.244029789192 	  4.664811509082 	  8.451326670907 	
C	  8.675485659192 	  4.664814319082 	 18.581883390907 	
C	  9.243998689192 	 10.848373269082 	  8.451323840907 	
C	  8.675454559192 	 10.848376079082 	 18.581880560907 	
C	 23.924857089192 	  4.664820739082 	  8.479456600907 	
C	 23.356312959192 	  4.664823549082 	 18.610013320907 	
C	 23.924825989192 	 10.848382499082 	  8.479453770907 	
C	 23.356281859192 	 10.848385309082 	 18.610010490907 	
C	  9.471700874890 	  4.494890393271 	  3.145449694111 	
C	  8.903156744890 	  4.494893203271 	 13.276006414111 	
C	  9.471669774890 	 10.678452153271 	  3.145446864111 	
C	  8.903125644890 	 10.678454963271 	 13.276003584111 	
C	 24.152528174890 	  4.494899623271 	  3.173579624111 	
C	 23.583984044890 	  4.494902433271 	 13.304136344111 	
C	 24.152497074890 	 10.678461383271 	  3.173576794111 	
C	 23.583952944890 	 10.678464193271 	 13.304133514111 	
C	  4.383903865405 	  1.441564434776 	  2.277987395434 	
C	  3.815359735405 	  1.441567244776 	 12.408544115434 	
C	  4.383872765405 	  7.625126194776 	  2.277984565434 	
C	  3.815328635405 	  7.625129004776 	 12.408541285434 	
C	 19.064731165405 	  1.441573664776 	  2.306117325434 	
C	 18.496187035405 	  1.441576474776 	 12.436674045434 	
C	 19.064700065405 	  7.625135424776 	  2.306114495434 	
C	 18.496155935405 	  7.625138234776 	 12.436671215434 	
H	  3.931150186685 	  0.796073266692 	  6.805285390026 	
H	  3.362606056685 	  0.796076076692 	 16.935842110026 	
H	  3.931119086685 	  6.979635026692 	  6.805282560026 	
H	  3.362574956685 	  6.979637836692 	 16.935839280026 	
H	 18.611977486685 	  0.796082496692 	  6.833415320026 	
H	 18.043433356685 	  0.796085306692 	 16.963972040026 	
H	 18.611946386685 	  6.979644256692 	  6.833412490026 	
H	 18.043402256685 	  6.979647066692 	 16.963969210026 	
H	  9.469179210030 	  3.849417641713 	  9.230139906205 	
H	  8.900635080030 	  3.849420451713 	 19.360696626205 	
H	  9.469148110030 	 10.032979401713 	  9.230137076205 	
H	  8.900603980030 	 10.032982211713 	 19.360693796205 	
H	 24.150006510030 	  3.849426871713 	  9.258269836205 	
H	 23.581462380030 	  3.849429681713 	 19.388826556205 	
H	 24.149975410030 	 10.032988631713 	  9.258267006205 	
H	 23.581431280030 	 10.032991441713 	 19.388823726205 	
H	  9.696783397871 	  5.310302999916 	  3.924027751064 	
H	  9.128239267871 	  5.310305809916 	 14.054584471064 	
H	  9.696752297871 	 11.493864759916 	  3.924024921064 	
H	  9.128208167871 	 11.493867569916 	 14.054581641064 	
H	 24.377610697871 	  5.310312229916 	  3.952157681064 	
H	 23.809066567871 	  5.310315039916 	 14.082714401064 	
H	 24.377579597871 	 11.493873989916 	  3.952154851064 	
H	 23.809035467871 	 11.493876799916 	 14.082711571064 	
H	  4.158754068530 	  2.256958444022 	  1.499174403217 	
H	  3.590209938530 	  2.256961254022 	 11.629731123217 	
H	  4.158722968530 	  8.440520204022 	  1.499171573217 	
H	  3.590178838530 	  8.440523014022 	 11.629728293217 	
H	 18.839581368530 	  2.256967674022 	  1.527304333217 	
H	 18.271037238530 	  2.256970484022 	 11.657861053217 	
H	 18.839550268530 	  8.440529434022 	  1.527301503217 	
H	 18.271006138530 	  8.440532244022 	 11.657858223217 	
C	  5.200993669179 	  1.456209423327 	  8.366829419055 	
C	  4.632449539179 	  1.456212233327 	 18.497386139055 	
C	  5.200962569179 	  7.639771183327 	  8.366826589055 	
C	  4.632418439179 	  7.639773993327 	 18.497383309055 	
C	 19.881820969179 	  1.456218653327 	  8.394959349055 	
C	 19.313276839179 	  1.456221463327 	 18.525516069055 	
C	 19.881789869179 	  7.639780413327 	  8.394956519055 	
C	 19.313245739179 	  7.639783223327 	 18.525513239055 	
C	  8.199172046714 	  4.509525438710 	  7.668293650201 	
C	  7.630627916714 	  4.509528248710 	 17.798850370201 	
C	  8.199140946714 	 10.693087198710 	  7.668290820201 	
C	  7.630596816714 	 10.693090008710 	 17.798847540201 	
C	 22.879999346714 	  4.509534668710 	  7.696423580201 	
C	 22.311455216714 	  4.509537478710 	 17.826980300201 	
C	 22.879968246714 	 10.693096428710 	  7.696420750201 	
C	 22.311424116714 	 10.693099238710 	 17.826977470201 	
C	  8.426939804478 	  4.650166533775 	  2.362483926263 	
C	  7.858395674478 	  4.650169343775 	 12.493040646263 	
C	  8.426908704478 	 10.833728293775 	  2.362481096263 	
C	  7.858364574478 	 10.833731103775 	 12.493037816263 	
C	 23.107767104478 	  4.650175763775 	  2.390613856263 	
C	 22.539222974478 	  4.650178573775 	 12.521170576263 	
C	 23.107736004478 	 10.833737523775 	  2.390611026263 	
C	 22.539191874478 	 10.833740333775 	 12.521167746263 	
C	  5.428761972462 	  1.596850468339 	  3.061020003290 	
C	  4.860217842462 	  1.596853278339 	 13.191576723290 	
C	  5.428730872462 	  7.780412228339 	  3.061017173290 	
C	  4.860186742462 	  7.780415038339 	 13.191573893290 	
C	 20.109589272462 	  1.596859698339 	  3.089149933290 	
C	 19.541045142462 	  1.596862508339 	 13.219706653290 	
C	 20.109558172462 	  7.780421458339 	  3.089147103290 	
C	 19.541014042462 	  7.780424268339 	 13.219703823290 	
H	  5.864204813106 	  0.520966487402 	  8.274347327666 	
H	  5.295660683106 	  0.520969297402 	 18.404904047666 	
H	  5.864173713106 	  6.704528247402 	  8.274344497666 	
H	  5.295629583106 	  6.704531057402 	 18.404901217666 	
H	 20.545032113106 	  0.520975717402 	  8.302477257666 	
H	 19.976487983106 	  0.520978527402 	 18.433033977666 	
H	 20.545001013106 	  6.704537477402 	  8.302474427666 	
H	 19.976456883106 	  6.704540287402 	 18.433031147666 	
H	  7.535940478020 	  3.574170711513 	  7.760859716374 	
H	  6.967396348020 	  3.574173521513 	 17.891416436374 	
H	  7.535909378020 	  9.757732471513 	  7.760856886374 	
H	  6.967365248020 	  9.757735281513 	 17.891413606374 	
H	 22.216767778020 	  3.574179941513 	  7.788989646374 	
H	 21.648223648020 	  3.574182751513 	 17.919546366374 	
H	 22.216736678020 	  9.757741701513 	  7.788986816374 	
H	 21.648192548020 	  9.757744511513 	 17.919543536374 	
H	  7.763728659075 	  5.585409492493 	  2.454965758010 	
H	  7.195184529075 	  5.585412302493 	 12.585522478010 	
H	  7.763697559075 	 11.768971252493 	  2.454962928010 	
H	  7.195153429075 	 11.768974062493 	 12.585519648010 	
H	 22.444555959075 	  5.585418722493 	  2.483095688010 	
H	 21.876011829075 	  5.585421532493 	 12.613652408010 	
H	 22.444524859075 	 11.768980482493 	  2.483092858010 	
H	 21.875980729075 	 11.768983292493 	 12.613649578010 	
H	  6.091993526511 	  2.532205176819 	  2.968453748427 	
H	  5.523449396511 	  2.532207986819 	 13.099010468427 	
H	  6.091962426511 	  8.715766936819 	  2.968450918427 	
H	  5.523418296511 	  8.715769746819 	 13.099007638427 	
H	 20.772820826511 	  2.532214406819 	  2.996583678427 	
H	 20.204276696511 	  2.532217216819 	 13.127140398427 	
H	 20.772789726511 	  8.715776166819 	  2.996580848427 	
H	 20.204245596511 	  8.715778976819 	 13.127137568427 	
C	  2.018628452726 	  2.839806320429 	  6.704303136206 	
C	  1.450084322726 	  2.839809130429 	 16.834859856206 	
C	  2.018597352726 	  9.023368080429 	  6.704300306206 	
C	  1.450053222726 	  9.023370890429 	 16.834857026206 	
C	 16.699455752726 	  2.839815550429 	  6.732433066206 	
C	 16.130911622726 	  2.839818360429 	 16.862989786206 	
C	 16.699424652726 	  9.023377310429 	  6.732430236206 	
C	 16.130880522726 	  9.023380120429 	 16.862986956206 	
C	 11.380714226222 	  5.889547526642 	  9.330322641061 	
C	 10.812170096222 	  5.889550336642 	 19.460879361061 	
C	 11.380683126222 	 12.073109286642 	  9.330319811061 	
C	 10.812138996222 	 12.073112096642 	 19.460876531061 	
C	 26.061541526222 	  5.889556756642 	  9.358452571061 	
C	 25.492997396222 	  5.889559566642 	 19.489009291061 	
C	 26.061510426222 	 12.073118516642 	  9.358449741061 	
C	 25.492966296222 	 12.073121326642 	 19.489006461061 	
C	 11.609304641489 	  3.266570043566 	  4.025010520866 	
C	 11.040760511489 	  3.266572853566 	 14.155567240866 	
C	 11.609273541489 	  9.450131803566 	  4.025007690866 	
C	 11.040729411489 	  9.450134613566 	 14.155564410866 	
C	 26.290131941489 	  3.266579273566 	  4.053140450866 	
C	 25.721587811489 	  3.266582083566 	 14.183697170866 	
C	 26.290100841489 	  9.450141033566 	  4.053137620866 	
C	 25.721556711489 	  9.450143843566 	 14.183694340866 	
C	  2.247218954186 	  0.216828463517 	  1.398992292654 	
C	  1.678674824186 	  0.216831273517 	 11.529549012654 	
C	  2.247187854186 	  6.400390223517 	  1.398989462654 	
C	  1.678643724186 	  6.400393033517 	 11.529546182654 	
C	 16.928046254186 	  0.216837693517 	  1.427122222654 	
C	 16.359502124186 	  0.216840503517 	 11.557678942654 	
C	 16.928015154186 	  6.400399453517 	  1.427119392654 	
C	 16.359471024186 	  6.400402263517 	 11.557676112654 	
C	  2.207779917330 	  2.447745179192 	  5.504601975238 	
C	  1.639235787330 	  2.447747989192 	 15.635158695238 	
C	  2.207748817330 	  8.631306939192 	  5.504599145238 	
C	  1.639204687330 	  8.631309749192 	 15.635155865238 	
C	 16.888607217330 	  2.447754409192 	  5.532731905238 	
C	 16.320063087330 	  2.447757219192 	 15.663288625238 	
C	 16.888576117330 	  8.631316169192 	  5.532729075238 	
C	 16.320031987330 	  8.631318979192 	 15.663285795238 	
C	 11.186096843300 	 -0.573018042692 	 10.504996227925 	
C	 10.617552713300 	 -0.573015232692 	 20.635552947925 	
C	 11.186065743300 	  5.610543717308 	 10.504993397925 	
C	 10.617521613300 	  5.610546527308 	 20.635550117925 	
C	 25.866924143300 	 -0.573008812692 	 10.533126157925 	
C	 25.298380013300 	 -0.573006002692 	 20.663682877925 	
C	 25.866893043300 	  5.610552947308 	 10.533123327925 	
C	 25.298348913300 	  5.610555757308 	 20.663680047925 	
C	 11.420152192350 	  3.658630175736 	  5.224712439012 	
C	 10.851608062350 	  3.658632985736 	 15.355269159012 	
C	 11.420121092350 	  9.842191935736 	  5.224709609012 	
C	 10.851576962350 	  9.842194745736 	 15.355266329012 	
C	 26.100979492350 	  3.658639405736 	  5.252842369012 	
C	 25.532435362350 	  3.658642215736 	 15.383399089012 	
C	 26.100948392350 	  9.842201165736 	  5.252839539012 	
C	 25.532404262350 	  9.842203975736 	 15.383396259012 	
C	  2.441835941577 	  6.679394227117 	  0.224318623333 	
C	  1.873291811577 	  6.679397037117 	 10.354875343333 	
C	  2.441804841577 	 12.862955987117 	  0.224315793333 	
C	  1.873260711577 	 12.862958797117 	 10.354872513333 	
C	 17.122663241577 	  6.679403457117 	  0.252448553333 	
C	 16.554119111577 	  6.679406267117 	 10.383005273333 	
C	 17.122632141577 	 12.862965217117 	  0.252445723333 	
C	 16.554088011577 	 12.862968027117 	 10.383002443333 	
H	  3.115848149082 	  2.868673783026 	  4.977401060929 	
H	  2.547304019082 	  2.868676593026 	 15.107957780929 	
H	  3.115817049082 	  9.052235543026 	  4.977398230929 	
H	  2.547272919082 	  9.052238353026 	 15.107954950929 	
H	 17.796675449082 	  2.868683013026 	  5.005530990929 	
H	 17.228131319082 	  2.868685823026 	 15.136087710929 	
H	 17.796644349082 	  9.052244773026 	  5.005528160929 	
H	 17.228100219082 	  9.052247583026 	 15.136084880929 	
H	 10.288034666731 	 -0.186260597758 	 11.056535965088 	
H	  9.719490536731 	 -0.186257787758 	 21.187092685088 	
H	 10.288003566731 	  5.997301162242 	 11.056533135088 	
H	  9.719459436731 	  5.997303972242 	 21.187089855088 	
H	 24.968861966731 	 -0.186251367758 	 11.084665895088 	
H	 24.400317836731 	 -0.186248557758 	 21.215222615088 	
H	 24.968830866731 	  5.997310392242 	 11.084663065088 	
H	 24.400286736731 	  5.997313202242 	 21.215219785088 	
H	 10.512084520807 	  3.237699242615 	  5.751912832502 	
H	  9.943540390807 	  3.237702052615 	 15.882469552502 	
H	 10.512053420807 	  9.421261002615 	  5.751910002502 	
H	  9.943509290807 	  9.421263812615 	 15.882466722502 	
H	 25.192911820807 	  3.237708472615 	  5.780042762502 	
H	 24.624367690807 	  3.237711282615 	 15.910599482502 	
H	 25.192880720807 	  9.421270232615 	  5.780039932502 	
H	 24.624336590807 	  9.421273042615 	 15.910596652502 	
H	  3.339897877203 	  6.292636855770 	 -0.327221470636 	
H	  2.771353747203 	  6.292639665770 	  9.803335249364 	
H	  3.339866777203 	 12.476198615770 	 -0.327224300636 	
H	  2.771322647203 	 12.476201425770 	  9.803332419364 	
H	 18.020725177203 	  6.292646085770 	 -0.299091540636 	
H	 17.452181047203 	  6.292648895770 	  9.831465179364 	
H	 18.020694077203 	 12.476207845770 	 -0.299094370636 	
H	 17.452149947203 	 12.476210655770 	  9.831462349364 	
H	  1.393211112404 	  2.567947169245 	  4.724910182475 	
H	  0.824666982404 	  2.567949979245 	 14.855466902475 	
H	  1.393180012404 	  8.751508929245 	  4.724907352475 	
H	  0.824635882404 	  8.751511739245 	 14.855464072475 	
H	 16.074038412404 	  2.567956399245 	  4.753040112475 	
H	 15.505494282404 	  2.567959209245 	 14.883596832475 	
H	 16.074007312404 	  8.751518159245 	  4.753037282475 	
H	 15.505463182404 	  8.751520969245 	 14.883594002475 	
H	 12.480873038977 	 -0.481869024817 	  0.716754900809 	
H	 11.912328908977 	 -0.481866214817 	 10.847311620809 	
H	 12.480841938977 	  5.701692735183 	  0.716752070809 	
H	 11.912297808977 	  5.701695545183 	 10.847308790809 	
H	 27.161700338977 	 -0.481859794817 	  0.744884830809 	
H	 26.593156208977 	 -0.481856984817 	 10.875441550809 	
H	 27.161669238977 	  5.701701965183 	  0.744882000809 	
H	 26.593125108977 	  5.701704775183 	 10.875438720809 	
H	 12.234721148868 	  3.538428660476 	  6.004404097610 	
H	 11.666177018868 	  3.538431470476 	 16.134960817610 	
H	 12.234690048868 	  9.721990420476 	  6.004401267610 	
H	 11.666145918868 	  9.721993230476 	 16.134957987610 	
H	 26.915548448868 	  3.538437890476 	  6.032534027610 	
H	 26.347004318868 	  3.538440700476 	 16.163090747610 	
H	 26.915517348868 	  9.721999650476 	  6.032531197610 	
H	 26.346973218868 	  9.722002460476 	 16.163087917610 	
H	  1.147059379334 	  6.588245276959 	 10.012560364491 	
H	  0.578515249334 	  6.588248086959 	 20.143117084491 	
H	  1.147028279334 	 12.771807036959 	 10.012557534491 	
H	  0.578484149334 	 12.771809846959 	 20.143114254491 	
H	 15.827886679334 	  6.588254506959 	 10.040690294491 	
H	 15.259342549334 	  6.588257316959 	 20.171247014491 	
H	 15.827855579334 	 12.771816266959 	 10.040687464491 	
H	 15.259311449334 	 12.771819076959 	 20.171244184491 	
H	  2.486919763255 	  1.361342244920 	  5.358008772201 	
H	  1.918375633255 	  1.361345054920 	 15.488565492201 	
H	  2.486888663255 	  7.544904004920 	  5.358005942201 	
H	  1.918344533255 	  7.544906814920 	 15.488562662201 	
H	 17.167747063255 	  1.361351474920 	  5.386138702201 	
H	 16.599202933255 	  1.361354284920 	 15.516695422201 	
H	 17.167715963255 	  7.544913234920 	  5.386135872201 	
H	 16.599171833255 	  7.544916044920 	 15.516692592201 	
H	 11.352924968085 	  4.381274140206 	  0.074304198312 	
H	 10.784380838085 	  4.381276950206 	 10.204860918312 	
H	 11.352893868085 	 10.564835900206 	  0.074301368312 	
H	 10.784349738085 	 10.564838710206 	 10.204858088312 	
H	 26.033752268085 	  4.381283370206 	  0.102434128312 	
H	 25.465208138085 	  4.381286180206 	 10.232990848312 	
H	 26.033721168085 	 10.564845130206 	  0.102431298312 	
H	 25.465177038085 	 10.564847940206 	 10.232988018312 	
H	 11.141010573035 	  4.745032800167 	  5.371306408475 	
H	 10.572466443035 	  4.745035610167 	 15.501863128475 	
H	 11.140979473035 	 10.928594560167 	  5.371303578475 	
H	 10.572435343035 	 10.928597370167 	 15.501860298475 	
H	 25.821837873035 	  4.745042030167 	  5.399436338475 	
H	 25.253293743035 	  4.745044840167 	 15.529993058475 	
H	 25.821806773035 	 10.928603790167 	  5.399433508475 	
H	 25.253262643035 	 10.928606600167 	 15.529990228475 	
H	  2.275007788354 	  1.725102086551 	 10.655010928031 	
H	  1.706463658354 	  1.725104896551 	 20.785567648031 	
H	  2.274976688354 	  7.908663846551 	 10.655008098031 	
H	  1.706432558354 	  7.908666656551 	 20.785564818031 	
H	 16.955835088354 	  1.725111316551 	 10.683140858031 	
H	 16.387290958354 	  1.725114126551 	 20.813697578031 	
H	 16.955803988354 	  7.908673076551 	 10.683138028031 	
H	 16.387259858354 	  7.908675886551 	 20.813694748031 	
C	  1.602899923481 	  4.041887540647 	  6.621925196571 	
C	  1.034355793481 	  4.041890350647 	 16.752481916571 	
C	  1.602868823481 	 10.225449300647 	  6.621922366571 	
C	  1.034324693481 	 10.225452110647 	 16.752479086571 	
C	 16.283727223481 	  4.041896770647 	  6.650055126571 	
C	 15.715183093481 	  4.041899580647 	 16.780611846571 	
C	 16.283696123481 	 10.225458530647 	  6.650052296571 	
C	 15.715151993481 	 10.225461340647 	 16.780609016571 	
C	 11.801463110639 	  0.997729961951 	  9.416618015737 	
C	 11.232918980639 	  0.997732771951 	 19.547174735737 	
C	 11.801432010639 	  7.181291721951 	  9.416615185737 	
C	 11.232887880639 	  7.181294531951 	 19.547171905737 	
C	 26.482290410639 	  0.997739191951 	  9.444747945737 	
C	 25.913746280639 	  0.997742001951 	 19.575304665737 	
C	 26.482259310639 	  7.181300951951 	  9.444745115737 	
C	 25.913715180639 	  7.181303761951 	 19.575301835737 	
C	 12.025034396731 	  2.064488536347 	  4.107387369340 	
C	 11.456490266731 	  2.064491346347 	 14.237944089340 	
C	 12.025003296731 	  8.248050296347 	  4.107384539340 	
C	 11.456459166731 	  8.248053106347 	 14.237941259340 	
C	 26.705861696731 	  2.064497766347 	  4.135517299340 	
C	 26.137317566731 	  2.064500576347 	 14.266074019340 	
C	 26.705830596731 	  8.248059526347 	  4.135514469340 	
C	 26.137286466731 	  8.248062336347 	 14.266071189340 	
C	  1.826470055508 	  5.108645950424 	  1.312696868387 	
C	  1.257925925508 	  5.108648760424 	 11.443253588387 	
C	  1.826438955508 	 11.292207710424 	  1.312694038387 	
C	  1.257894825508 	 11.292210520424 	 11.443250758387 	
C	 16.507297355508 	  5.108655180424 	  1.340826798387 	
C	 15.938753225508 	  5.108657990424 	 11.471383518387 	
C	 16.507266255508 	 11.292216940424 	  1.340823968387 	
C	 15.938722125508 	 11.292219750424 	 11.471380688387 	
H	  2.361164181067 	  4.820047878365 	  6.285969821805 	
H	  1.792620051067 	  4.820050688365 	 16.416526541805 	
H	  2.361133081067 	 11.003609638365 	  6.285966991805 	
H	  1.792588951067 	 11.003612448365 	 16.416523711805 	
H	 17.041991481067 	  4.820057108365 	  6.314099751805 	
H	 16.473447351067 	  4.820059918365 	 16.444656471805 	
H	 17.041960381067 	 11.003618868365 	  6.314096921805 	
H	 16.473416251067 	 11.003621678365 	 16.444653641805 	
H	 11.036321729386 	  1.769124750935 	  9.750206769205 	
H	 10.467777599386 	  1.769127560935 	 19.880763489205 	
H	 11.036290629386 	  7.952686510935 	  9.750203939205 	
H	 10.467746499386 	  7.952689320935 	 19.880760659205 	
H	 25.717149029386 	  1.769133980935 	  9.778336699205 	
H	 25.148604899386 	  1.769136790935 	 19.908893419205 	
H	 25.717117929386 	  7.952695740935 	  9.778333869205 	
H	 25.148573799386 	  7.952698550935 	 19.908890589205 	
H	 11.266770550660 	  1.286327299578 	  4.443341763604 	
H	 10.698226420660 	  1.286330109578 	 14.573898483604 	
H	 11.266739450660 	  7.469889059578 	  4.443338933604 	
H	 10.698195320660 	  7.469891869578 	 14.573895653604 	
H	 25.947597850660 	  1.286336529578 	  4.471471693604 	
H	 25.379053720660 	  1.286339339578 	 14.602028413604 	
H	 25.947566750660 	  7.469898289578 	  4.471468863604 	
H	 25.379022620660 	  7.469901099578 	 14.602025583604 	
H	  2.591611388516 	  4.337251314819 	  0.979107604632 	
H	  2.023067258516 	  4.337254124819 	 11.109664324632 	
H	  2.591580288516 	 10.520813074819 	  0.979104774632 	
H	  2.023036158516 	 10.520815884819 	 11.109661494632 	
H	 17.272438688516 	  4.337260544819 	  1.007237534632 	
H	 16.703894558516 	  4.337263354819 	 11.137794254632 	
H	 17.272407588516 	 10.520822304819 	  1.007234704632 	
H	 16.703863458516 	 10.520825114819 	 11.137791424632 	
H	  1.315568166848 	  4.557179116097 	  7.597350191144 	
H	  0.747024036848 	  4.557181926097 	 17.727906911144 	
H	  1.315537066848 	 10.740740876097 	  7.597347361144 	
H	  0.746992936848 	 10.740743686097 	 17.727904081144 	
H	 15.996395466848 	  4.557188346097 	  7.625480121144 	
H	 15.427851336848 	  4.557191156097 	 17.756036841144 	
H	 15.996364366848 	 10.740750106097 	  7.625477291144 	
H	 15.427820236848 	 10.740752916097 	 17.756034011144 	
H	 12.085605785427 	  7.603750484185 	  8.434440613403 	
H	 11.517061655427 	  7.603753294185 	 18.564997333403 	
H	 12.085574685427 	 13.787312244185 	  8.434437783403 	
H	 11.517030555427 	 13.787315054185 	 18.564994503403 	
H	 26.766433085427 	  7.603759714185 	  8.462570543403 	
H	 26.197888955427 	  7.603762524185 	 18.593127263403 	
H	 26.766401985427 	 13.787321474185 	  8.462567713403 	
H	 26.197857855427 	 13.787324284185 	 18.593124433403 	
H	 12.312367325228 	  1.549198461371 	  3.131961888259 	
H	 11.743823195228 	  1.549201271371 	 13.262518608259 	
H	 12.312336225228 	  7.732760221371 	  3.131959058259 	
H	 11.743792095228 	  7.732763031371 	 13.262515778259 	
H	 26.993194625228 	  1.549207691371 	  3.160091818259 	
H	 26.424650495228 	  1.549210501371 	 13.290648538259 	
H	 26.993163525228 	  7.732769451371 	  3.160088988259 	
H	 26.424619395228 	  7.732772261371 	 13.290645708259 	
H	  1.542327985217 	 -1.497374733769 	  2.294874381369 	
H	  0.973783855217 	 -1.497371923769 	 12.425431101369 	
H	  1.542296885217 	  4.686187026231 	  2.294871551369 	
H	  0.973752755217 	  4.686189836231 	 12.425428271369 	
H	 16.223155285217 	 -1.497365503769 	  2.323004311369 	
H	 15.654611155217 	 -1.497362693769 	 12.453561031369 	
H	 16.223124185217 	  4.686196256231 	  2.323001481369 	
H	 15.654580055217 	  4.686199066231 	 12.453558201369 	
H	  0.712337439625 	  4.232970667605 	  5.951785857233 	
H	  0.143793309625 	  4.232973477605 	 16.082342577233 	
H	  0.712306339625 	 10.416532427605 	  5.951783027233 	
H	  0.143762209625 	 10.416535237605 	 16.082339747233 	
H	 15.393164739625 	  4.232979897605 	  5.979915787233 	
H	 14.824620609625 	  4.232982707605 	 16.110472507233 	
H	 15.393133639625 	 10.416541657605 	  5.979912957233 	
H	 14.824589509625 	 10.416544467605 	 16.110469677233 	
H	 12.686342792081 	  7.283578766320 	 10.082172037402 	
H	 12.117798662081 	  7.283581576320 	 20.212728757402 	
H	 12.686311692081 	 13.467140526320 	 10.082169207402 	
H	 12.117767562081 	 13.467143336320 	 20.212725927402 	
H	 27.367170092081 	  7.283587996320 	 10.110301967402 	
H	 26.798625962081 	  7.283590806320 	 20.240858687402 	
H	 27.367138992081 	 13.467149756320 	 10.110299137402 	
H	 26.798594862081 	 13.467152566320 	 20.240855857402 	
H	 12.915596691342 	  1.873405756595 	  4.777526979102 	
H	 12.347052561342 	  1.873408566595 	 14.908083699102 	
H	 12.915565591342 	  8.056967516595 	  4.777524149102 	
H	 12.347021461342 	  8.056970326595 	 14.908080869102 	
H	 27.596423991342 	  1.873414986595 	  4.805656909102 	
H	 27.027879861342 	  1.873417796595 	 14.936213629102 	
H	 27.596392891342 	  8.056976746595 	  4.805654079102 	
H	 27.027848761342 	  8.056979556595 	 14.936210799102 	
H	  0.941590053799 	 -1.177202884531 	  0.647143292963 	
H	  0.373045923799 	 -1.177200074531 	 10.777700012963 	
H	  0.941558953799 	  5.006358875469 	  0.647140462963 	
H	  0.373014823799 	  5.006361685469 	 10.777697182963 	
H	 15.622417353799 	 -1.177193654531 	  0.675273222963 	
H	 15.053873223799 	 -1.177190844531 	 10.805829942963 	
H	 15.622386253799 	  5.006368105469 	  0.675270392963 	
H	 15.053842123799 	  5.006370915469 	 10.805827112963 	
C	  1.057051773741 	  2.142091638254 	  7.177011953944 	
C	  0.488507643741 	  2.142094448254 	 17.307568673944 	
C	  1.057020673741 	  8.325653398254 	  7.177009123944 	
C	  0.488476543741 	  8.325656208254 	 17.307565843944 	
C	 15.737879073741 	  2.142100868254 	  7.205141883944 	
C	 15.169334943741 	  2.142103678254 	 17.335698603944 	
C	 15.737847973741 	  8.325662628254 	  7.205139053944 	
C	 15.169303843741 	  8.325665438254 	 17.335695773944 	
C	 12.342982766170 	  5.195468064497 	  8.858387944375 	
C	 11.774438636170 	  5.195470874497 	 18.988944664375 	
C	 12.342951666170 	 11.379029824497 	  8.858385114375 	
C	 11.774407536170 	 11.379032634497 	 18.988941834375 	
C	 27.023810066170 	  5.195477294497 	  8.886517874375 	
C	 26.455265936170 	  5.195480104497 	 19.017074594375 	
C	 27.023778966170 	 11.379039054497 	  8.886515044375 	
C	 26.455234836170 	 11.379041864497 	 19.017071764375 	
C	 12.570881084497 	  3.964286571867 	  3.552301972910 	
C	 12.002336954497 	  3.964289381867 	 13.682858692910 	
C	 12.570849984497 	 10.147848331867 	  3.552299142910 	
C	 12.002305854497 	 10.147851141867 	 13.682855862910 	
C	 27.251708384497 	  3.964295801867 	  3.580431902910 	
C	 26.683164254497 	  3.964298611867 	 13.710988622910 	
C	 27.251677284497 	 10.147857561867 	  3.580429072910 	
C	 26.683133154497 	 10.147860371867 	 13.710985792910 	
C	  1.284950356975 	  0.910907629036 	  1.870927388060 	
C	  0.716406226975 	  0.910910439036 	 12.001484108060 	
C	  1.284919256975 	  7.094469389036 	  1.870924558060 	
C	  0.716375126975 	  7.094472199036 	 12.001481278060 	
C	 15.965777656975 	  0.910916859036 	  1.899057318060 	
C	 15.397233526975 	  0.910919669036 	 12.029614038060 	
C	 15.965746556975 	  7.094478619036 	  1.899054488060 	
C	 15.397202426975 	  7.094481429036 	 12.029611208060 	
H	  0.052996963930 	  2.127275762612 	  6.654233418349 	
H	 -0.515547166070 	  2.127278572612 	 16.784790138349 	
H	  0.052965863930 	  8.310837522612 	  6.654230588349 	
H	 -0.515578266070 	  8.310840332612 	 16.784787308349 	
H	 14.733824263930 	  2.127284992612 	  6.682363348349 	
H	 14.165280133930 	  2.127287802612 	 16.812920068349 	
H	 14.733793163930 	  8.310846752612 	  6.682360518349 	
H	 14.165249033930 	  8.310849562612 	 16.812917238349 	
H	 13.347179310393 	  5.180439321459 	  9.381096099670 	
H	 12.778635180393 	  5.180442131459 	 19.511652819670 	
H	 13.347148210393 	 11.364001081459 	  9.381093269670 	
H	 12.778604080393 	 11.364003891459 	 19.511649989670 	
H	 28.028006610393 	  5.180448551459 	  9.409226029670 	
H	 27.459462480393 	  5.180451361459 	 19.539782749670 	
H	 28.027975510393 	 11.364010311459 	  9.409223199670 	
H	 27.459431380393 	 11.364013121459 	 19.539779919670 	
H	 13.574935803491 	  3.979102438428 	  4.075080576336 	
H	 13.006391673491 	  3.979105248428 	 14.205637296336 	
H	 13.574904703491 	 10.162664198428 	  4.075077746336 	
H	 13.006360573491 	 10.162667008428 	 14.205634466336 	
H	 28.255763103491 	  3.979111668428 	  4.103210506336 	
H	 27.687218973491 	  3.979114478428 	 14.233767226336 	
H	 28.255732003491 	 10.162673428428 	  4.103207676336 	
H	 27.687187873491 	 10.162676238428 	 14.233764396336 	
H	  0.280753689488 	  0.925936256075 	  1.348219473848 	
H	 -0.287790440512 	  0.925939066075 	 11.478776193848 	
H	  0.280722589488 	  7.109498016075 	  1.348216643848 	
H	 -0.287821540512 	  7.109500826075 	 11.478773363848 	
H	 14.961580989488 	  0.925945486075 	  1.376349403848 	
H	 14.393036859488 	  0.925948296075 	 11.506906123848 	
H	 14.961549889488 	  7.109507246075 	  1.376346573848 	
H	 14.393005759488 	  7.109510056075 	 11.506903293848 	
H	  0.791966237474 	  2.354914412986 	  8.261809311682 	
H	  0.223422107474 	  2.354917222986 	 18.392366031682 	
H	  0.791935137474 	  8.538476172986 	  8.261806481682 	
H	  0.223391007474 	  8.538478982986 	 18.392363201682 	
H	 15.472793537474 	  2.354923642986 	  8.289939241682 	
H	 14.904249407474 	  2.354926452986 	 18.420495961682 	
H	 15.472762437474 	  8.538485402986 	  8.289936411682 	
H	 14.904218307474 	  8.538488212986 	 18.420493131682 	
H	 12.608173861984 	  5.408197807207 	  7.773516254221 	
H	 12.039629731984 	  5.408200617207 	 17.904072974221 	
H	 12.608142761984 	 11.591759567207 	  7.773513424221 	
H	 12.039598631984 	 11.591762377207 	 17.904070144221 	
H	 27.289001161984 	  5.408207037207 	  7.801646184221 	
H	 26.720457031984 	  5.408209847207 	 17.932202904221 	
H	 27.288970061984 	 11.591768797207 	  7.801643354221 	
H	 26.720425931984 	 11.591771607207 	 17.932200074221 	
H	 12.835966687895 	  3.751465203704 	  2.467504230033 	
H	 12.267422557895 	  3.751468013704 	 12.598060950033 	
H	 12.835935587895 	  9.935026963704 	  2.467501400033 	
H	 12.267391457895 	  9.935029773704 	 12.598058120033 	
H	 27.516793987895 	  3.751474433704 	  2.495634160033 	
H	 26.948249857895 	  3.751477243704 	 12.626190880033 	
H	 27.516762887895 	  9.935036193704 	  2.495631330033 	
H	 26.948218757895 	  9.935039003704 	 12.626188050033 	
H	  1.019759478578 	  0.698177495664 	  2.955799003917 	
H	  0.451215348578 	  0.698180305664 	 13.086355723917 	
H	  1.019728378578 	  6.881739255664 	  2.955796173917 	
H	  0.451184248578 	  6.881742065664 	 13.086352893917 	
H	 15.700586778578 	  0.698186725664 	  2.983928933917 	
H	 15.132042648578 	  0.698189535664 	 13.114485653917 	
H	 15.700555678578 	  6.881748485664 	  2.983926103917 	
H	 15.132011548578 	  6.881751295664 	 13.114482823917 	
H	  1.270759642768 	  1.038523090065 	  7.310026810246 	
H	  0.702215512768 	  1.038525900065 	 17.440583530246 	
H	  1.270728542768 	  7.222084850065 	  7.310023980246 	
H	  0.702184412768 	  7.222087660065 	 17.440580700246 	
H	 15.951586942768 	  1.038532320065 	  7.338156740246 	
H	 15.383042812768 	  1.038535130065 	 17.468713460246 	
H	 15.951555842768 	  7.222094080065 	  7.338153910246 	
H	 15.383011712768 	  7.222096890065 	 17.468710630246 	
H	 12.129397873871 	  4.091801564192 	  8.725198144061 	
H	 11.560853743871 	  4.091804374192 	 18.855754864061 	
H	 12.129366773871 	 10.275363324192 	  8.725195314061 	
H	 11.560822643871 	 10.275366134192 	 18.855752034061 	
H	 26.810225173871 	  4.091810794192 	  8.753328074061 	
H	 26.241681043871 	  4.091813604192 	 18.883884794061 	
H	 26.810194073871 	 10.275372554192 	  8.753325244061 	
H	 26.241649943871 	 10.275375364192 	 18.883881964061 	
H	 12.357172195775 	  5.067855297351 	  3.419288946589 	
H	 11.788628065775 	  5.067858107351 	 13.549845666589 	
H	 12.357141095775 	 11.251417057351 	  3.419286116589 	
H	 11.788596965775 	 11.251419867351 	 13.549842836589 	
H	 27.037999495775 	  5.067864527351 	  3.447418876589 	
H	 26.469455365775 	  5.067867337351 	 13.577975596589 	
H	 27.037968395775 	 11.251426287351 	  3.447416046589 	
H	 26.469424265775 	 11.251429097351 	 13.577972766589 	
H	  1.498535115033 	  2.014574117263 	  2.004117681795 	
H	  0.929990985033 	  2.014576927263 	 12.134674401795 	
H	  1.498504015033 	  8.198135877263 	  2.004114851795 	
H	  0.929959885033 	  8.198138687263 	 12.134671571795 	
H	 16.179362415033 	  2.014583347263 	  2.032247611795 	
H	 15.610818285033 	  2.014586157263 	 12.162804331795 	
H	 16.179331315033 	  8.198145107263 	  2.032244781795 	
H	 15.610787185033 	  8.198147917263 	 12.162801501795 	
768 
Energy: -8.1659292425429996e+01 
S	  8.309129161966 	  1.407015313365 	  0.131870259061 	
S	  7.740585031966 	  1.407018123365 	 10.262426979061 	
S	  8.309098061966 	  7.590577073365 	  0.131867429061 	
S	  7.740553931966 	  7.590579883365 	 10.262424149061 	
S	 22.989956461966 	  1.407024543365 	  0.160000189061 	
S	 22.421412331966 	  1.407027353365 	 10.290556909061 	
S	 22.989925361966 	  7.590586303365 	  0.159997359061 	
S	 22.421381231966 	  7.590589113365 	 10.290554079061 	
S	  5.485991514839 	  4.455377780727 	  5.328042901835 	
S	  4.917447384839 	  4.455380590727 	 15.458599621835 	
S	  5.485960414839 	 10.638939540727 	  5.328040071835 	
S	  4.917416284839 	 10.638942350727 	 15.458596791835 	
S	 20.166818814839 	  4.455387010727 	  5.356172831835 	
S	 19.598274684839 	  4.455389820727 	 15.486729551835 	
S	 20.166787714839 	 10.638948770727 	  5.356170001835 	
S	 19.598243584839 	 10.638951580727 	 15.486726721835 	
S	  5.265098872018 	  4.690800041039 	 10.660719980007 	
S	  4.696554742018 	  4.690802851039 	 20.791276700007 	
S	  5.265067772018 	 10.874361801039 	 10.660717150007 	
S	  4.696523642018 	 10.874364611039 	 20.791273870007 	
S	 19.945926172018 	  4.690809271039 	 10.688849910007 	
S	 19.377382042018 	  4.690812081039 	 20.819406630007 	
S	 19.945895072018 	 10.874371031039 	 10.688847080007 	
S	 19.377350942018 	 10.874373841039 	 20.819403800007 	
S	  8.088237970360 	  1.642437527624 	  5.464546882648 	
S	  7.519693840360 	  1.642440337624 	 15.595103602648 	
S	  8.088206870360 	  7.825999287624 	  5.464544052648 	
S	  7.519662740360 	  7.826002097624 	 15.595100772648 	
S	 22.769065270360 	  1.642446757624 	  5.492676812648 	
S	 22.200521140360 	  1.642449567624 	 15.623233532648 	
S	 22.769034170360 	  7.826008517624 	  5.492673982648 	
S	 22.200490040360 	  7.826011327624 	 15.623230702648 	
C	  6.547817747849 	  2.508090089103 	 10.351163514277 	
C	  5.979273617849 	  2.508092899103 	 20.481720234277 	
C	  6.547786647849 	  8.691651849103 	 10.351160684277 	
C	  5.979242517849 	  8.691654659103 	 20.481717404277 	
C	 21.228645047849 	  2.508099319103 	 10.379293444277 	
C	 20.660100917849 	  2.508102129103 	 20.509850164277 	
C	 21.228613947849 	  8.691661079103 	 10.379290614277 	
C	 20.660069817849 	  8.691663889103 	 20.509847334277 	
C	  6.804905731248 	  5.556837828864 	  5.772491823876 	
C	  6.236361601248 	  5.556840638864 	 15.903048543876 	
C	  6.804874631248 	 11.740399588864 	  5.772488993876 	
C	  6.236330501248 	 11.740402398864 	 15.903045713876 	
C	 21.485733031248 	  5.556847058864 	  5.800621753876 	
C	 20.917188901248 	  5.556849868864 	 15.931178473876 	
C	 21.485701931248 	 11.740408818864 	  5.800618923876 	
C	 20.917157801248 	 11.740411628864 	 15.931175643876 	
C	  7.026410289654 	  3.589725261368 	  0.441426528255 	
C	  6.457866159654 	  3.589728071368 	 10.571983248255 	
C	  7.026379189654 	  9.773287021368 	  0.441423698255 	
C	  6.457835059654 	  9.773289831368 	 10.571980418255 	
C	 21.707237589654 	  3.589734491368 	  0.469556458255 	
C	 21.138693459654 	  3.589737301368 	 10.600113178255 	
C	 21.707206489654 	  9.773296251368 	  0.469553628255 	
C	 21.138662359654 	  9.773299061368 	 10.600110348255 	
C	  6.769323605988 	  0.540977534947 	  5.020097769467 	
C	  6.200779475988 	  0.540980344947 	 15.150654489467 	
C	  6.769292505988 	  6.724539294947 	  5.020094939467 	
C	  6.200748375988 	  6.724542104947 	 15.150651659467 	
C	 21.450150905988 	  0.540986764947 	  5.048227699467 	
C	 20.881606775988 	  0.540989574947 	 15.178784419467 	
C	 21.450119805988 	  6.724548524947 	  5.048224869467 	
C	 20.881575675988 	  6.724551334947 	 15.178781589467 	
C	  5.524066258949 	  2.404518480609 	  9.366113628072 	
C	  4.955522128949 	  2.404521290609 	 19.496670348072 	
C	  5.524035158949 	  8.588080240609 	  9.366110798072 	
C	  4.955491028949 	  8.588083050609 	 19.496667518072 	
C	 20.204893558949 	  2.404527710609 	  9.394243558072 	
C	 19.636349428949 	  2.404530520609 	 19.524800278072 	
C	 20.204862458949 	  8.588089470609 	  9.394240728072 	
C	 19.636318328949 	  8.588092280609 	 19.524797448072 	
C	  7.831720526608 	  5.456079524772 	  6.758975666356 	
C	  7.263176396608 	  5.456082334772 	 16.889532386356 	
C	  7.831689426608 	 11.639641284772 	  6.758972836356 	
C	  7.263145296608 	 11.639644094772 	 16.889529556356 	
C	 22.512547826608 	  5.456088754772 	  6.787105596356 	
C	 21.944003696608 	  5.456091564772 	 16.917662316356 	
C	 22.512516726608 	 11.639650514772 	  6.787102766356 	
C	 21.943972596608 	 11.639653324772 	 16.917659486356 	
C	  8.050161762680 	  3.693296944091 	  1.426476399569 	
C	  7.481617632680 	  3.693299754091 	 11.557033119569 	
C	  8.050130662680 	  9.876858704091 	  1.426473569569 	
C	  7.481586532680 	  9.876861514091 	 11.557030289569 	
C	 22.730989062680 	  3.693306174091 	  1.454606329569 	
C	 22.162444932680 	  3.693308984091 	 11.585163049569 	
C	 22.730957962680 	  9.876867934091 	  1.454603499569 	
C	 22.162413832680 	  9.876870744091 	 11.585160219569 	
C	  5.742508543752 	  0.641735879590 	  4.033614213276 	
C	  5.173964413752 	  0.641738689590 	 14.164170933276 	
C	  5.742477443752 	  6.825297639590 	  4.033611383276 	
C	  5.173933313752 	  6.825300449590 	 14.164168103276 	
C	 20.423335843752 	  0.641745109590 	  4.061744143276 	
C	 19.854791713752 	  0.641747919590 	 14.192300863276 	
C	 20.423304743752 	  6.825306869590 	  4.061741313276 	
C	 19.854760613752 	  6.825309679590 	 14.192298033276 	
C	  4.704755739584 	  3.537857747308 	  9.405384832762 	
C	  4.136211609584 	  3.537860557308 	 19.535941552762 	
C	  4.704724639584 	  9.721419507308 	  9.405382002762 	
C	  4.136180509584 	  9.721422317308 	 19.535938722762 	
C	 19.385583039584 	  3.537866977308 	  9.433514762762 	
C	 18.817038909584 	  3.537869787308 	 19.564071482762 	
C	 19.385551939584 	  9.721428737308 	  9.433511932762 	
C	 18.817007809584 	  9.721431547308 	 19.564068652762 	
C	  8.644973043895 	  0.486133220000 	  6.720029004812 	
C	  8.076428913895 	  0.486136030000 	 16.850585724812 	
C	  8.644941943895 	  6.669694980000 	  6.720026174812 	
C	  8.076397813895 	  6.669697790000 	 16.850582894812 	
C	 23.325800343895 	  0.486142450000 	  6.748158934812 	
C	 22.757256213895 	  0.486145260000 	 16.878715654812 	
C	 23.325769243895 	  6.669704210000 	  6.748156104812 	
C	 22.757225113895 	  6.669707020000 	 16.878712824812 	
C	  8.869472272425 	  2.559957608496 	  1.387205198789 	
C	  8.300928142425 	  2.559960418496 	 11.517761918789 	
C	  8.869441172425 	  8.743519368496 	  1.387202368789 	
C	  8.300897042425 	  8.743522178496 	 11.517759088789 	
C	 23.550299572425 	  2.559966838496 	  1.415335128789 	
C	 22.981755442425 	  2.559969648496 	 11.545891848789 	
C	 23.550268472425 	  8.743528598496 	  1.415332298789 	
C	 22.981724342425 	  8.743531408496 	 11.545889018789 	
C	  4.929256154252 	  5.611682206366 	  4.072561085224 	
C	  4.360712024252 	  5.611685016366 	 14.203117805224 	
C	  4.929225054252 	 11.795243966366 	  4.072558255224 	
C	  4.360680924252 	 11.795246776366 	 14.203114975224 	
C	 19.610083454252 	  5.611691436366 	  4.100691015224 	
C	 19.041539324252 	  5.611694246366 	 14.231247735224 	
C	 19.610052354252 	 11.795253196366 	  4.100688185224 	
C	 19.041508224252 	 11.795256006366 	 14.231244905224 	
C	  3.649991040262 	  3.683878474505 	  8.584665428590 	
C	  3.081446910262 	  3.683881284505 	 18.715222148590 	
C	  3.649959940262 	  9.867440234505 	  8.584662598590 	
C	  3.081415810262 	  9.867443044505 	 18.715219318590 	
C	 18.330818340262 	  3.683887704505 	  8.612795358590 	
C	 17.762274210262 	  3.683890514505 	 18.743352078590 	
C	 18.330787240262 	  9.867449464505 	  8.612792528590 	
C	 17.762243110262 	  9.867452274505 	 18.743349248590 	
C	  9.703634654122 	  0.633530264106 	  7.543271243101 	
C	  9.135090524122 	  0.633533074106 	 17.673827963101 	
C	  9.703603554122 	  6.817092024106 	  7.543268413101 	
C	  9.135059424122 	  6.817094834106 	 17.673825133101 	
C	 24.384461954122 	  0.633539494106 	  7.571401173101 	
C	 23.815917824122 	  0.633542304106 	 17.701957893101 	
C	 24.384430854122 	  6.817101254106 	  7.571398343101 	
C	 23.815886724122 	  6.817104064106 	 17.701955063101 	
C	  9.924236964731 	  2.413937059702 	  2.207924825350 	
C	  9.355692834731 	  2.413939869702 	 12.338481545350 	
C	  9.924205864731 	  8.597498819702 	  2.207921995350 	
C	  9.355661734731 	  8.597501629702 	 12.338478715350 	
C	 24.605064264731 	  2.413946289702 	  2.236054755350 	
C	 24.036520134731 	  2.413949099702 	 12.366611475350 	
C	 24.605033164731 	  8.597508049702 	  2.236051925350 	
C	 24.036489034731 	  8.597510859702 	 12.366608645350 	
C	  3.870594004175 	  5.464285260538 	  3.249319390284 	
C	  3.302049874175 	  5.464288070538 	 13.379876110284 	
C	  3.870562904175 	 11.647847020538 	  3.249316560284 	
C	  3.302018774175 	 11.647849830538 	 13.379873280284 	
C	 18.551421304175 	  5.464294490538 	  3.277449320284 	
C	 17.982877174175 	  5.464297300538 	 13.408006040284 	
C	 18.551390204175 	 11.647856250538 	  3.277446490284 	
C	 17.982846074175 	 11.647859060538 	 13.408003210284 	
H	  3.020004252778 	  4.641477768895 	  8.660989449301 	
H	  2.451460122778 	  4.641480578895 	 18.791546169301 	
H	  3.019973152778 	 10.825039528895 	  8.660986619301 	
H	  2.451429022778 	 10.825042338895 	 18.791543339301 	
H	 17.700831552778 	  4.641486998895 	  8.689119379301 	
H	 17.132287422778 	  4.641489808895 	 18.819676099301 	
H	 17.700800452778 	 10.825048758895 	  8.689116549301 	
H	 17.132256322778 	 10.825051568895 	 18.819673269301 	
H	 10.332670925991 	  1.592190727177 	  7.464267844802 	
H	  9.764126795991 	  1.592193537177 	 17.594824564802 	
H	 10.332639825991 	  7.775752487177 	  7.464265014802 	
H	  9.764095695991 	  7.775755297177 	 17.594821734802 	
H	 25.013498225991 	  1.592199957177 	  7.492397774802 	
H	 24.444954095991 	  1.592202767177 	 17.622954494802 	
H	 25.013467125991 	  7.775761717177 	  7.492394944802 	
H	 24.444922995991 	  7.775764527177 	 17.622951664802 	
H	 10.554223656943 	  1.456337660807 	  2.131601071779 	
H	  9.985679526943 	  1.456340470807 	 12.262157791779 	
H	 10.554192556943 	  7.639899420807 	  2.131598241779 	
H	  9.985648426943 	  7.639902230807 	 12.262154961779 	
H	 25.235050956943 	  1.456346890807 	  2.159731001779 	
H	 24.666506826943 	  1.456349700807 	 12.290287721779 	
H	 25.235019856943 	  7.639908650807 	  2.159728171779 	
H	 24.666475726943 	  7.639911460807 	 12.290284891779 	
H	  3.241557865437 	  4.505624729895 	  3.328323006046 	
H	  2.673013735437 	  4.505627539895 	 13.458879726046 	
H	  3.241526765437 	 10.689186489895 	  3.328320176046 	
H	  2.672982635437 	 10.689189299895 	 13.458876896046 	
H	 17.922385165437 	  4.505633959895 	  3.356452936046 	
H	 17.353841035437 	  4.505636769895 	 13.487009656046 	
H	 17.922354065437 	 10.689195719895 	  3.356450106046 	
H	 17.353809935437 	 10.689198529895 	 13.487006826046 	
C	  3.316309787706 	  2.743372255616 	  7.665218977435 	
C	  2.747765657706 	  2.743375065616 	 17.795775697435 	
C	  3.316278687706 	  8.926934015616 	  7.665216147435 	
C	  2.747734557706 	  8.926936825616 	 17.795772867435 	
C	 17.997137087706 	  2.743381485616 	  7.693348907435 	
C	 17.428592957706 	  2.743384295616 	 17.823905627435 	
C	 17.997105987706 	  8.926943245616 	  7.693346077435 	
C	 17.428561857706 	  8.926946055616 	 17.823902797435 	
C	 10.035528194570 	  5.793772011436 	  8.457071064361 	
C	  9.466984064570 	  5.793774821436 	 18.587627784361 	
C	 10.035497094570 	 11.977333771436 	  8.457068234361 	
C	  9.466952964570 	 11.977336581436 	 18.587624954361 	
C	 24.716355494570 	  5.793781241436 	  8.485200994361 	
C	 24.147811364570 	  5.793784051436 	 18.615757714361 	
C	 24.716324394570 	 11.977343001436 	  8.485198164361 	
C	 24.147780264570 	 11.977345811436 	 18.615754884361 	
C	 10.257918104647 	  3.354443426917 	  3.127370967644 	
C	  9.689373974647 	  3.354446236917 	 13.257927687644 	
C	 10.257887004647 	  9.538005186917 	  3.127368137644 	
C	  9.689342874647 	  9.538007996917 	 13.257924857644 	
C	 24.938745404647 	  3.354452656917 	  3.155500897644 	
C	 24.370201274647 	  3.354455466917 	 13.286057617644 	
C	 24.938714304647 	  9.538014416917 	  3.155498067644 	
C	 24.370170174647 	  9.538017226917 	 13.286054787644 	
C	  3.538699985508 	  0.304043614259 	  2.335519863292 	
C	  2.970155855508 	  0.304046424259 	 12.466076583292 	
C	  3.538668885508 	  6.487605374259 	  2.335517033292 	
C	  2.970124755508 	  6.487608184259 	 12.466073753292 	
C	 18.219527285508 	  0.304052844259 	  2.363649793292 	
C	 17.650983155508 	  0.304055654259 	 12.494206513292 	
C	 18.219496185508 	  6.487614604259 	  2.363646963292 	
C	 17.650952055508 	  6.487617414259 	 12.494203683292 	
C	  4.143721988998 	  1.636724023011 	  7.616480656915 	
C	  3.575177858998 	  1.636726833011 	 17.747037376915 	
C	  4.143690888998 	  7.820285783011 	  7.616477826915 	
C	  3.575146758998 	  7.820288593011 	 17.747034546915 	
C	 18.824549288998 	  1.636733253011 	  7.644610586915 	
C	 18.256005158998 	  1.636736063011 	 17.775167306915 	
C	 18.824518188998 	  7.820295013011 	  7.644607756915 	
C	 18.255974058998 	  7.820297823011 	 17.775164476915 	
C	  9.209077490591 	  4.685783986994 	  8.508625040236 	
C	  8.640533360591 	  4.685786796994 	 18.639181760236 	
C	  9.209046390591 	 10.869345746994 	  8.508622210236 	
C	  8.640502260591 	 10.869348556994 	 18.639178930236 	
C	 23.889904790591 	  4.685793216994 	  8.536754970236 	
C	 23.321360660591 	  4.685796026994 	 18.667311690236 	
C	 23.889873690591 	 10.869354976994 	  8.536752140236 	
C	 23.321329560591 	 10.869357786994 	 18.667308860236 	
C	  9.430506011001 	  4.461091741900 	  3.176109092521 	
C	  8.861961881001 	  4.461094551900 	 13.306665812521 	
C	  9.430474911001 	 10.644653501900 	  3.176106262521 	
C	  8.861930781001 	 10.644656311900 	 13.306662982521 	
C	 24.111333311001 	  4.461100971900 	  3.204239022521 	
C	 23.542789181001 	  4.461103781900 	 13.334795742521 	
C	 24.111302211001 	 10.644662731900 	  3.204236192521 	
C	 23.542758081001 	 10.644665541900 	 13.334792912521 	
C	  4.365150682930 	  1.412031557104 	  2.283965507309 	
C	  3.796606552930 	  1.412034367104 	 12.414522227309 	
C	  4.365119582930 	  7.595593317104 	  2.283962677309 	
C	  3.796575452930 	  7.595596127104 	 12.414519397309 	
C	 19.045977982930 	  1.412040787104 	  2.312095437309 	
C	 18.477433852930 	  1.412043597104 	 12.442652157309 	
C	 19.045946882930 	  7.595602547104 	  2.312092607309 	
C	 18.477402752930 	  7.595605357104 	 12.442649327309 	
H	  3.918102885907 	  0.828627877937 	  6.833566493862 	
H	  3.349558755907 	  0.828630687937 	 16.964123213862 	
H	  3.918071785907 	  7.012189637937 	  6.833563663862 	
H	  3.349527655907 	  7.012192447937 	 16.964120383862 	
H	 18.598930185907 	  0.828637107937 	  6.861696423862 	
H	 18.030386055907 	  0.828639917937 	 16.992253143862 	
H	 18.598899085907 	  7.012198867937 	  6.861693593862 	
H	 18.030354955907 	  7.012201677937 	 16.992250313862 	
H	  9.434900680794 	  3.877777257177 	  9.291921073617 	
H	  8.866356550794 	  3.877780067177 	 19.422477793617 	
H	  9.434869580794 	 10.061339017177 	  9.291918243617 	
H	  8.866325450794 	 10.061341827177 	 19.422474963617 	
H	 24.115727980794 	  3.877786487177 	  9.320051003617 	
H	 23.547183850794 	  3.877789297177 	 19.450607723617 	
H	 24.115696880794 	 10.061348247177 	  9.320048173617 	
H	 23.547152750794 	 10.061351057177 	 19.450604893617 	
H	  9.656125275289 	  5.269188100947 	  3.959023006290 	
H	  9.087581145289 	  5.269190910947 	 14.089579726290 	
H	  9.656094175289 	 11.452749860947 	  3.959020176290 	
H	  9.087550045289 	 11.452752670947 	 14.089576896290 	
H	 24.336952575289 	  5.269197330947 	  3.987152936290 	
H	 23.768408445289 	  5.269200140947 	 14.117709656290 	
H	 24.336921475289 	 11.452759090947 	  3.987150106290 	
H	 23.768377345289 	 11.452761900947 	 14.117706826290 	
H	  4.139327072620 	  2.220038442673 	  1.500669742805 	
H	  3.570782942620 	  2.220041252673 	 11.631226462805 	
H	  4.139295972620 	  8.403600202673 	  1.500666912805 	
H	  3.570751842620 	  8.403603012673 	 11.631223632805 	
H	 18.820154372620 	  2.220047672673 	  1.528799672805 	
H	 18.251610242620 	  2.220050482673 	 11.659356392805 	
H	 18.820123272620 	  8.403609432673 	  1.528796842805 	
H	 18.251579142620 	  8.403612242673 	 11.659353562805 	
C	  5.183738676282 	  1.468409735625 	  8.409743974826 	
C	  4.615194546282 	  1.468412545625 	 18.540300694826 	
C	  5.183707576282 	  7.651971495625 	  8.409741144826 	
C	  4.615163446282 	  7.651974305625 	 18.540297864826 	
C	 19.864565976282 	  1.468418965625 	  8.437873904826 	
C	 19.296021846282 	  1.468421775625 	 18.568430624826 	
C	 19.864534876282 	  7.651980725625 	  8.437871074826 	
C	 19.295990746282 	  7.651983535625 	 18.568427794826 	
C	  8.169042518427 	  4.517484900708 	  7.715353496113 	
C	  7.600498388427 	  4.517487710708 	 17.845910216113 	
C	  8.169011418427 	 10.701046660708 	  7.715350666113 	
C	  7.600467288427 	 10.701049470708 	 17.845907386113 	
C	 22.849869818427 	  4.517494130708 	  7.743483426113 	
C	 22.281325688427 	  4.517496940708 	 17.874040146113 	
C	 22.849838718427 	 10.701055890708 	  7.743480596113 	
C	 22.281294588427 	 10.701058700708 	 17.874037316113 	
C	  8.390489343979 	  4.629405893723 	  2.382845779937 	
C	  7.821945213979 	  4.629408703723 	 12.513402499937 	
C	  8.390458243979 	 10.812967653723 	  2.382842949937 	
C	  7.821914113979 	 10.812970463723 	 12.513399669937 	
C	 23.071316643979 	  4.629415123723 	  2.410975709937 	
C	 22.502772513979 	  4.629417933723 	 12.541532429937 	
C	 23.071285543979 	 10.812976883723 	  2.410972879937 	
C	 22.502741413979 	 10.812979693723 	 12.541529599937 	
C	  5.405186052743 	  1.580330584120 	  3.077236576900 	
C	  4.836641922743 	  1.580333394120 	 13.207793296900 	
C	  5.405154952743 	  7.763892344120 	  3.077233746900 	
C	  4.836610822743 	  7.763895154120 	 13.207790466900 	
C	 20.086013352743 	  1.580339814120 	  3.105366506900 	
C	 19.517469222743 	  1.580342624120 	 13.235923226900 	
C	 20.085982252743 	  7.763901574120 	  3.105363676900 	
C	 19.517438122743 	  7.763904384120 	 13.235920396900 	
H	  5.838529662604 	  0.530115061263 	  8.318171305869 	
H	  5.269985532604 	  0.530117871263 	 18.448728025869 	
H	  5.838498562604 	  6.713676821263 	  8.318168475869 	
H	  5.269954432604 	  6.713679631263 	 18.448725195869 	
H	 20.519356962604 	  0.530124291263 	  8.346301235869 	
H	 19.950812832604 	  0.530127101263 	 18.476857955869 	
H	 20.519325862604 	  6.713686051263 	  8.346298405869 	
H	 19.950781732604 	  6.713688861263 	 18.476855125869 	
H	  7.514188673682 	  3.579056912844 	  7.806989829061 	
H	  6.945644543682 	  3.579059722844 	 17.937546549061 	
H	  7.514157573682 	  9.762618672844 	  7.806986999061 	
H	  6.945613443682 	  9.762621482844 	 17.937543719061 	
H	 22.195015973682 	  3.579066142844 	  7.835119759061 	
H	 21.626471843682 	  3.579068952844 	 17.965676479061 	
H	 22.194984873682 	  9.762627902844 	  7.835116929061 	
H	 21.626440743682 	  9.762630712844 	 17.965673649061 	
H	  7.735698368928 	  5.567700605594 	  2.474418150589 	
H	  7.167154238928 	  5.567703415594 	 12.604974870589 	
H	  7.735667268928 	 11.751262365594 	  2.474415320589 	
H	  7.167123138928 	 11.751265175594 	 12.604972040589 	
H	 22.416525668928 	  5.567709835594 	  2.502548080589 	
H	 21.847981538928 	  5.567712645594 	 12.633104800589 	
H	 22.416494568928 	 11.751271595594 	  2.502545250589 	
H	 21.847950438928 	 11.751274405594 	 12.633101970589 	
H	  6.060039888537 	  2.518758549952 	  2.985600036544 	
H	  5.491495758537 	  2.518761359952 	 13.116156756544 	
H	  6.060008788537 	  8.702320309952 	  2.985597206544 	
H	  5.491464658537 	  8.702323119952 	 13.116153926544 	
H	 20.740867188537 	  2.518767779952 	  3.013729966544 	
H	 20.172323058537 	  2.518770589952 	 13.144286686544 	
H	 20.740836088537 	  8.702329539952 	  3.013727136544 	
H	 20.172291958537 	  8.702332349952 	 13.144283856544 	
C	  2.036698549481 	  2.884739557334 	  6.740486375061 	
C	  1.468154419481 	  2.884742367334 	 16.871043095061 	
C	  2.036667449481 	  9.068301317334 	  6.740483545061 	
C	  1.468123319481 	  9.068304127334 	 16.871040265061 	
C	 16.717525849481 	  2.884748787334 	  6.768616305061 	
C	 16.148981719481 	  2.884751597334 	 16.899173025061 	
C	 16.717494749481 	  9.068310547334 	  6.768613475061 	
C	 16.148950619481 	  9.068313357334 	 16.899170195061 	
C	 11.317649158895 	  5.937505844197 	  9.384070326713 	
C	 10.749105028895 	  5.937508654197 	 19.514627046713 	
C	 11.317618058895 	 12.121067604197 	  9.384067496713 	
C	 10.749073928895 	 12.121070414197 	 19.514624216713 	
C	 25.998476458895 	  5.937515074197 	  9.412200256713 	
C	 25.429932328895 	  5.937517884197 	 19.542756976713 	
C	 25.998445358895 	 12.121076834197 	  9.412197426713 	
C	 25.429901228895 	 12.121079644197 	 19.542754146713 	
C	 11.537529125079 	  3.213076492472 	  4.052103746857 	
C	 10.968984995079 	  3.213079302472 	 14.182660466857 	
C	 11.537498025079 	  9.396638252472 	  4.052100916857 	
C	 10.968953895079 	  9.396641062472 	 14.182657636857 	
C	 26.218356425079 	  3.213085722472 	  4.080233676857 	
C	 25.649812295079 	  3.213088532472 	 14.210790396857 	
C	 26.218325325079 	  9.396647482472 	  4.080230846857 	
C	 25.649781195079 	  9.396650292472 	 14.210787566857 	
C	  2.256578463179 	  0.160309764207 	  1.408521184892 	
C	  1.688034333179 	  0.160312574207 	 11.539077904892 	
C	  2.256547363179 	  6.343871524207 	  1.408518354892 	
C	  1.688003233179 	  6.343874334207 	 11.539075074892 	
C	 16.937405763179 	  0.160318994207 	  1.436651114892 	
C	 16.368861633179 	  0.160321804207 	 11.567207834892 	
C	 16.937374663179 	  6.343880754207 	  1.436648284892 	
C	 16.368830533179 	  6.343883564207 	 11.567205004892 	
C	  2.228571151428 	  2.349739315638 	  5.490640611789 	
C	  1.660027021428 	  2.349742125638 	 15.621197331789 	
C	  2.228540051428 	  8.533301075638 	  5.490637781789 	
C	  1.659995921428 	  8.533303885638 	 15.621194501789 	
C	 16.909398451428 	  2.349748545638 	  5.518770541789 	
C	 16.340854321428 	  2.349751355638 	 15.649327261789 	
C	 16.909367351428 	  8.533310305638 	  5.518767711789 	
C	 16.340823221428 	  8.533313115638 	 15.649324431789 	
C	 11.110106417748 	 -0.658920973269 	 10.612728771546 	
C	 10.541562287748 	 -0.658918163269 	 20.743285491546 	
C	 11.110075317748 	  5.524640786731 	 10.612725941546 	
C	 10.541531187748 	  5.524643596731 	 20.743282661546 	
C	 25.790933717748 	 -0.658911743269 	 10.640858701546 	
C	 25.222389587748 	 -0.658908933269 	 20.771415421546 	
C	 25.790902617748 	  5.524650016731 	 10.640855871546 	
C	 25.222358487748 	  5.524652826731 	 20.771412591546 	
C	 11.345655379387 	  3.748075469462 	  5.301950158356 	
C	 10.777111249387 	  3.748078279462 	 15.432506878356 	
C	 11.345624279387 	  9.931637229462 	  5.301947328356 	
C	 10.777080149387 	  9.931640039462 	 15.432504048356 	
C	 26.026482679387 	  3.748084699462 	  5.330080088356 	
C	 25.457938549387 	  3.748087509462 	 15.460636808356 	
C	 26.026451579387 	  9.931646459462 	  5.330077258356 	
C	 25.457907449387 	  9.931649269462 	 15.460633978356 	
C	  2.464120716387 	  6.756736786804 	  0.179862675541 	
C	  1.895576586387 	  6.756739596804 	 10.310419395541 	
C	  2.464089616387 	 12.940298546804 	  0.179859845541 	
C	  1.895545486387 	 12.940301356804 	 10.310416565541 	
C	 17.144948016387 	  6.756746016804 	  0.207992605541 	
C	 16.576403886387 	  6.756748826804 	 10.338549325541 	
C	 17.144916916387 	 12.940307776804 	  0.207989775541 	
C	 16.576372786387 	 12.940310586804 	 10.338546495541 	
H	  3.153038409385 	  2.710926165604 	  4.937027700810 	
H	  2.584494279385 	  2.710928975604 	 15.067584420810 	
H	  3.153007309385 	  8.894487925604 	  4.937024870810 	
H	  2.584463179385 	  8.894490735604 	 15.067581590810 	
H	 17.833865709385 	  2.710935395604 	  4.965157630810 	
H	 17.265321579385 	  2.710938205604 	 15.095714350810 	
H	 17.833834609385 	  8.894497155604 	  4.965154800810 	
H	 17.265290479385 	  8.894499965604 	 15.095711520810 	
H	 10.198523913564 	 -0.337982161436 	 11.188826974439 	
H	  9.629979783564 	 -0.337979351436 	 21.319383694439 	
H	 10.198492813564 	  5.845579598564 	 11.188824144439 	
H	  9.629948683564 	  5.845582408564 	 21.319380864439 	
H	 24.879351213564 	 -0.337972931436 	 11.216956904439 	
H	 24.310807083564 	 -0.337970121436 	 21.347513624439 	
H	 24.879320113564 	  5.845588828564 	 11.216954074439 	
H	 24.310775983564 	  5.845591638564 	 21.347510794439 	
H	 10.421188771002 	  3.386886276457 	  5.855562560030 	
H	  9.852644641002 	  3.386889086457 	 15.986119280030 	
H	 10.421157671002 	  9.570448036457 	  5.855559730030 	
H	  9.852613541002 	  9.570450846457 	 15.986116450030 	
H	 25.102016071002 	  3.386895506457 	  5.883692490030 	
H	 24.533471941002 	  3.386898316457 	 16.014249210030 	
H	 25.101984971002 	  9.570457266457 	  5.883689660030 	
H	 24.533440841002 	  9.570460076457 	 16.014246380030 	
H	  3.375702986632 	  6.435798020849 	 -0.396235906994 	
H	  2.807158856632 	  6.435800830849 	  9.734320813006 	
H	  3.375671886632 	 12.619359780849 	 -0.396238736994 	
H	  2.807127756632 	 12.619362590849 	  9.734317983006 	
H	 18.056530286632 	  6.435807250849 	 -0.368105976994 	
H	 17.487986156632 	  6.435810060849 	  9.762450743006 	
H	 18.056499186632 	 12.619369010849 	 -0.368108806994 	
H	 17.487955056632 	 12.619371820849 	  9.762447913006 	
H	  1.396988608660 	  2.493395109740 	  4.745470778897 	
H	  0.828444478660 	  2.493397919740 	 14.876027498897 	
H	  1.396957508660 	  8.676956869740 	  4.745467948897 	
H	  0.828413378660 	  8.676959679740 	 14.876024668897 	
H	 16.077815908660 	  2.493404339740 	  4.773600708897 	
H	 15.509271778660 	  2.493407149740 	 14.904157428897 	
H	 16.077784808660 	  8.676966099740 	  4.773597878897 	
H	 15.509240678660 	  8.676968909740 	 14.904154598897 	
H	 12.423881069021 	 -0.550897581996 	  0.736109794295 	
H	 11.855336939021 	 -0.550894771996 	 10.866666514295 	
H	 12.423849969021 	  5.632664178004 	  0.736106964295 	
H	 11.855305839021 	  5.632666988004 	 10.866663684295 	
H	 27.104708369021 	 -0.550888351996 	  0.764239724295 	
H	 26.536164239021 	 -0.550885541996 	 10.894796444295 	
H	 27.104677269021 	  5.632673408004 	  0.764236894295 	
H	 26.536133139021 	  5.632676218004 	 10.894793614295 	
H	 12.177238094944 	  3.604420259631 	  6.047119924092 	
H	 11.608693964944 	  3.604423069631 	 16.177676644092 	
H	 12.177206994944 	  9.787982019631 	  6.047117094092 	
H	 11.608662864944 	  9.787984829631 	 16.177673814092 	
H	 26.858065394944 	  3.604429489631 	  6.075249854092 	
H	 26.289521264944 	  3.604432299631 	 16.205806574092 	
H	 26.858034294944 	  9.787991249631 	  6.075247024092 	
H	 26.289490164944 	  9.787994059631 	 16.205803744092 	
H	  1.150345674200 	  6.648713448526 	 10.056482126241 	
H	  0.581801544200 	  6.648716258526 	 20.187038846241 	
H	  1.150314574200 	 12.832275208526 	 10.056479296241 	
H	  0.581770444200 	 12.832278018526 	 20.187036016241 	
H	 15.831172974200 	  6.648722678526 	 10.084612056241 	
H	 15.262628844200 	  6.648725488526 	 20.215168776241 	
H	 15.831141874200 	 12.832284438526 	 10.084609226241 	
H	 15.262597744200 	 12.832287248526 	 20.215165946241 	
H	  2.405406551171 	  1.228462733261 	  5.446299487416 	
H	  1.836862421171 	  1.228465543261 	 15.576856207416 	
H	  2.405375451171 	  7.412024493261 	  5.446296657416 	
H	  1.836831321171 	  7.412027303261 	 15.576853377416 	
H	 17.086233851171 	  1.228471963261 	  5.474429417416 	
H	 16.517689721171 	  1.228474773261 	 15.604986137416 	
H	 17.086202751171 	  7.412033723261 	  5.474426587416 	
H	 16.517658621171 	  7.412036533261 	 15.604983307416 	
H	 11.380058519355 	  4.232937571329 	  0.014172976619 	
H	 10.811514389355 	  4.232940381329 	 10.144729696619 	
H	 11.380027419355 	 10.416499331329 	  0.014170146619 	
H	 10.811483289355 	 10.416502141329 	 10.144726866619 	
H	 26.060885819355 	  4.232946801329 	  0.042302906619 	
H	 25.492341689355 	  4.232949611329 	 10.172859626619 	
H	 26.060854719355 	 10.416508561329 	  0.042300076619 	
H	 25.492310589355 	 10.416511371329 	 10.172856796619 	
H	 11.168817990899 	  4.869351673591 	  5.346292328208 	
H	 10.600273860899 	  4.869354483591 	 15.476849048208 	
H	 11.168786890899 	 11.052913433591 	  5.346289498208 	
H	 10.600242760899 	 11.052916243591 	 15.476846218208 	
H	 25.849645290899 	  4.869360903591 	  5.374422258208 	
H	 25.281101160899 	  4.869363713591 	 15.504978978208 	
H	 25.849614190899 	 11.052922663591 	  5.374419428208 	
H	 25.281070060899 	 11.052925473591 	 15.504976148208 	
H	  2.194168603284 	  1.864878239591 	 10.778418749248 	
H	  1.625624473284 	  1.864881049591 	 20.908975469248 	
H	  2.194137503284 	  8.048439999591 	 10.778415919248 	
H	  1.625593373284 	  8.048442809591 	 20.908972639248 	
H	 16.874995903284 	  1.864887469591 	 10.806548679248 	
H	 16.306451773284 	  1.864890279591 	 20.937105399248 	
H	 16.874964803284 	  8.048449229591 	 10.806545849248 	
H	 16.306420673284 	  8.048452039591 	 20.937102569248 	
C	  1.674856015803 	  4.199970546125 	  6.567776136257 	
C	  1.106311885803 	  4.199973356125 	 16.698332856257 	
C	  1.674824915803 	 10.383532306125 	  6.567773306257 	
C	  1.106280785803 	 10.383535116125 	 16.698330026257 	
C	 16.355683315803 	  4.199979776125 	  6.595906066257 	
C	 15.787139185803 	  4.199982586125 	 16.726462786257 	
C	 16.355652215803 	 10.383541536125 	  6.595903236257 	
C	 15.787108085803 	 10.383544346125 	 16.726459956257 	
C	 11.683263052927 	  1.155668274144 	  9.552700738720 	
C	 11.114718922927 	  1.155671084144 	 19.683257458720 	
C	 11.683231952927 	  7.339230034144 	  9.552697908720 	
C	 11.114687822927 	  7.339232844144 	 19.683254628720 	
C	 26.364090352927 	  1.155677504144 	  9.580830668720 	
C	 25.795546222927 	  1.155680314144 	 19.711387388720 	
C	 26.364059252927 	  7.339239264144 	  9.580827838720 	
C	 25.795515122927 	  7.339242074144 	 19.711384558720 	
C	 11.899372977421 	  1.897845375043 	  4.224812665154 	
C	 11.330828847421 	  1.897848185043 	 14.355369385154 	
C	 11.899341877421 	  8.081407135043 	  4.224809835154 	
C	 11.330797747421 	  8.081409945043 	 14.355366555154 	
C	 26.580200277421 	  1.897854605043 	  4.252942595154 	
C	 26.011656147421 	  1.897857415043 	 14.383499315154 	
C	 26.580169177421 	  8.081416365043 	  4.252939765154 	
C	 26.011625047421 	  8.081419175043 	 14.383496485154 	
C	  1.890964572123 	  4.942147272415 	  1.239890751084 	
C	  1.322420442123 	  4.942150082415 	 11.370447471084 	
C	  1.890933472123 	 11.125709032415 	  1.239887921084 	
C	  1.322389342123 	 11.125711842415 	 11.370444641084 	
C	 16.571791872123 	  4.942156502415 	  1.268020681084 	
C	 16.003247742123 	  4.942159312415 	 11.398577401084 	
C	 16.571760772123 	 11.125718262415 	  1.268017851084 	
C	 16.003216642123 	 11.125721072415 	 11.398574571084 	
H	  2.487412141342 	  4.876456396327 	  6.156964681333 	
H	  1.918868011342 	  4.876459206327 	 16.287521401333 	
H	  2.487381041342 	 11.060018156327 	  6.156961851333 	
H	  1.918836911342 	 11.060020966327 	 16.287518571333 	
H	 17.168239441342 	  4.876465626327 	  6.185094611333 	
H	 16.599695311342 	  4.876468436327 	 16.315651331333 	
H	 17.168208341342 	 11.060027386327 	  6.185091781333 	
H	 16.599664211342 	 11.060030196327 	 16.315648501333 	
H	 10.865558090423 	  1.827335435777 	  9.968120136929 	
H	 10.297013960423 	  1.827338245777 	 20.098676856929 	
H	 10.865526990423 	  8.010897195777 	  9.968117306929 	
H	 10.296982860423 	  8.010900005777 	 20.098674026929 	
H	 25.546385390423 	  1.827344665777 	  9.996250066929 	
H	 24.977841260423 	  1.827347475777 	 20.126806786929 	
H	 25.546354290423 	  8.010906425777 	  9.996247236929 	
H	 24.977810160423 	  8.010909235777 	 20.126803956929 	
H	 11.086817287958 	  1.221358386012 	  4.635623022697 	
H	 10.518273157958 	  1.221361196012 	 14.766179742697 	
H	 11.086786187958 	  7.404920146012 	  4.635620192697 	
H	 10.518242057958 	  7.404922956012 	 14.766176912697 	
H	 25.767644587958 	  1.221367616012 	  4.663752952697 	
H	 25.199100457958 	  1.221370426012 	 14.794309672697 	
H	 25.767613487958 	  7.404929376012 	  4.663750122697 	
H	 25.199069357958 	  7.404932186012 	 14.794306842697 	
H	  2.708669416156 	  4.270480290368 	  0.824470843270 	
H	  2.140125286156 	  4.270483100368 	 10.955027563270 	
H	  2.708638316156 	 10.454042050368 	  0.824468013270 	
H	  2.140094186156 	 10.454044860368 	 10.955024733270 	
H	 17.389496716156 	  4.270489520368 	  0.852600773270 	
H	 16.820952586156 	  4.270492330368 	 10.983157493270 	
H	 17.389465616156 	 10.454051280368 	  0.852597943270 	
H	 16.820921486156 	 10.454054090368 	 10.983154663270 	
H	  1.387860110987 	  4.766400362642 	  7.508590444726 	
H	  0.819315980987 	  4.766403172642 	 17.639147164726 	
H	  1.387829010987 	 10.949962122642 	  7.508587614726 	
H	  0.819284880987 	 10.949964932642 	 17.639144334726 	
H	 16.068687410987 	  4.766409592642 	  7.536720374726 	
H	 15.500143280987 	  4.766412402642 	 17.667277094726 	
H	 16.068656310987 	 10.949971352642 	  7.536717544726 	
H	 15.500112180987 	 10.949974162642 	 17.667274264726 	
H	 11.962751564988 	  7.807734780157 	  8.624011015366 	
H	 11.394207434988 	  7.807737590157 	 18.754567735366 	
H	 11.962720464988 	 13.991296540157 	  8.624008185366 	
H	 11.394176334988 	 13.991299350157 	 18.754564905366 	
H	 26.643578864988 	  7.807744010157 	  8.652140945366 	
H	 26.075034734988 	  7.807746820157 	 18.782697665366 	
H	 26.643547764988 	 13.991305770157 	  8.652138115366 	
H	 26.075003634988 	 13.991308580157 	 18.782694835366 	
H	 12.186370070694 	  1.331417074906 	  3.283997849777 	
H	 11.617825940694 	  1.331419884906 	 13.414554569777 	
H	 12.186338970694 	  7.514978834906 	  3.283995019777 	
H	 11.617794840694 	  7.514981644906 	 13.414551739777 	
H	 26.867197370694 	  1.331426304906 	  3.312127779777 	
H	 26.298653240694 	  1.331429114906 	 13.442684499777 	
H	 26.867166270694 	  7.514988064906 	  3.312124949777 	
H	 26.298622140694 	  7.514990874906 	 13.442681669777 	
H	  1.611476705229 	 -1.709919368083 	  2.168580573916 	
H	  1.042932575229 	 -1.709916558083 	 12.299137293916 	
H	  1.611445605229 	  4.473642391917 	  2.168577743916 	
H	  1.042901475229 	  4.473645201917 	 12.299134463916 	
H	 16.292304005229 	 -1.709910138083 	  2.196710503916 	
H	 15.723759875229 	 -1.709907328083 	 12.327267223916 	
H	 16.292272905229 	  4.473651621917 	  2.196707673916 	
H	 15.723728775229 	  4.473654431917 	 12.327264393916 	
H	  0.800390999037 	  4.364345342839 	  5.879624859417 	
H	  0.231846869037 	  4.364348152839 	 16.010181579417 	
H	  0.800359899037 	 10.547907102839 	  5.879622029417 	
H	  0.231815769037 	 10.547909912839 	 16.010178749417 	
H	 15.481218299037 	  4.364354572839 	  5.907754789417 	
H	 14.912674169037 	  4.364357382839 	 16.038311509417 	
H	 15.481187199037 	 10.547916332839 	  5.907751959417 	
H	 14.912643069037 	 10.547919142839 	 16.038308679417 	
H	 12.547505278152 	  7.411405846016 	 10.241848232895 	
H	 11.978961148152 	  7.411408656016 	 20.372404952895 	
H	 12.547474178152 	 13.594967606016 	 10.241845402895 	
H	 11.978930048152 	 13.594970416016 	 20.372402122895 	
H	 27.228332578152 	  7.411415076016 	 10.269978162895 	
H	 26.659788448152 	  7.411417886016 	 20.400534882895 	
H	 27.228301478152 	 13.594976836016 	 10.269975332895 	
H	 26.659757348152 	 13.594979646016 	 20.400532052895 	
H	 12.773837780827 	  1.733470831025 	  4.912964246515 	
H	 12.205293650827 	  1.733473641025 	 15.043520966515 	
H	 12.773806680827 	  7.917032591025 	  4.912961416515 	
H	 12.205262550827 	  7.917035401025 	 15.043518136515 	
H	 27.454665080827 	  1.733480061025 	  4.941094176515 	
H	 26.886120950827 	  1.733482871025 	 15.071650896515 	
H	 27.454633980827 	  7.917041821025 	  4.941091346515 	
H	 26.886089850827 	  7.917044631025 	 15.071648066515 	
H	  1.026721959549 	 -1.313590315330 	  0.550743753867 	
H	  0.458177829549 	 -1.313587505330 	 10.681300473867 	
H	  1.026690859549 	  4.869971444670 	  0.550740923867 	
H	  0.458146729549 	  4.869974254670 	 10.681297643867 	
H	 15.707549259549 	 -1.313581085330 	  0.578873683867 	
H	 15.139005129549 	 -1.313578275330 	 10.709430403867 	
H	 15.707518159549 	  4.869980674670 	  0.578870853867 	
H	 15.138974029549 	  4.869983484670 	 10.709427573867 	
C	  0.976410735693 	  2.226298171229 	  7.326097851636 	
C	  0.407866605693 	  2.226300981229 	 17.456654571636 	
C	  0.976379635693 	  8.409859931229 	  7.326095021636 	
C	  0.407835505693 	  8.409862741229 	 17.456651741636 	
C	 15.657238035693 	  2.226307401229 	  7.354227781636 	
C	 15.088693905693 	  2.226310211229 	 17.484784501636 	
C	 15.657206935693 	  8.409869161229 	  7.354224951636 	
C	 15.088662805693 	  8.409871971229 	 17.484781671636 	
C	 12.376251442845 	  5.275386493507 	  8.799214284261 	
C	 11.807707312845 	  5.275389303507 	 18.929771004261 	
C	 12.376220342845 	 11.458948253507 	  8.799211454261 	
C	 11.807676212845 	 11.458951063507 	 18.929768174261 	
C	 27.057078742845 	  5.275395723507 	  8.827344214261 	
C	 26.488534612845 	  5.275398533507 	 18.957900934261 	
C	 27.057047642845 	 11.458957483507 	  8.827341384261 	
C	 26.488503512845 	 11.458960293507 	 18.957898104261 	
C	 12.597816468494 	  3.871519886478 	  3.466492703311 	
C	 12.029272338494 	  3.871522696478 	 13.597049423311 	
C	 12.597785368494 	 10.055081646478 	  3.466489873311 	
C	 12.029241238494 	 10.055084456478 	 13.597046593311 	
C	 27.278643768494 	  3.871529116478 	  3.494622633311 	
C	 26.710099638494 	  3.871531926478 	 13.625179353311 	
C	 27.278612668494 	 10.055090876478 	  3.494619803311 	
C	 26.710068538494 	 10.055093686478 	 13.625176523311 	
C	  1.197976142562 	  0.822428795524 	  1.993377665475 	
C	  0.629432012562 	  0.822431605524 	 12.123934385475 	
C	  1.197945042562 	  7.005990555524 	  1.993374835475 	
C	  0.629400912562 	  7.005993365524 	 12.123931555475 	
C	 15.878803442562 	  0.822438025524 	  2.021507595475 	
C	 15.310259312562 	  0.822440835524 	 12.152064315475 	
C	 15.878772342562 	  7.005999785524 	  2.021504765475 	
C	 15.310228212562 	  7.006002595524 	 12.152061485475 	
H	 -0.003228511181 	  2.247796953421 	  6.773790343935 	
H	 -0.571772641181 	  2.247799763421 	 16.904347063935 	
H	 -0.003259611181 	  8.431358713421 	  6.773787513935 	
H	 -0.571803741181 	  8.431361523421 	 16.904344233935 	
H	 14.677598788819 	  2.247806183421 	  6.801920273935 	
H	 14.109054658819 	  2.247808993421 	 16.932476993935 	
H	 14.677567688819 	  8.431367943421 	  6.801917443935 	
H	 14.109023558819 	  8.431370753421 	 16.932474163935 	
H	 13.355950644326 	  5.296676468965 	  9.351505199490 	
H	 12.787406514326 	  5.296679278965 	 19.482061919490 	
H	 13.355919544326 	 11.480238228965 	  9.351502369490 	
H	 12.787375414326 	 11.480241038965 	 19.482059089490 	
H	 28.036777944326 	  5.296685698965 	  9.379635129490 	
H	 27.468233814326 	  5.296688508965 	 19.510191849490 	
H	 28.036746844326 	 11.480247458965 	  9.379632299490 	
H	 27.468202714326 	 11.480250268965 	 19.510189019490 	
H	 13.577455736186 	  3.850021122157 	  4.018800158817 	
H	 13.008911606186 	  3.850023932157 	 14.149356878817 	
H	 13.577424636186 	 10.033582882157 	  4.018797328817 	
H	 13.008880506186 	 10.033585692157 	 14.149354048817 	
H	 28.258283036186 	  3.850030352157 	  4.046930088817 	
H	 27.689738906186 	  3.850033162157 	 14.177486808817 	
H	 28.258251936186 	 10.033592112157 	  4.046927258817 	
H	 27.689707806186 	 10.033594922157 	 14.177483978817 	
H	  0.218276798229 	  0.801138688549 	  1.441087017534 	
H	 -0.350267331771 	  0.801141498549 	 11.571643737534 	
H	  0.218245698229 	  6.984700448549 	  1.441084187534 	
H	 -0.350298431771 	  6.984703258549 	 11.571640907534 	
H	 14.899104098229 	  0.801147918549 	  1.469216947534 	
H	 14.330559968229 	  0.801150728549 	 11.599773667534 	
H	 14.899072998229 	  6.984709678549 	  1.469214117534 	
H	 14.330528868229 	  6.984712488549 	 11.599770837534 	
H	  0.720881128317 	  2.575882209233 	  8.374842093904 	
H	  0.152336998317 	  2.575885019233 	 18.505398813904 	
H	  0.720850028317 	  8.759443969233 	  8.374839263904 	
H	  0.152305898317 	  8.759446779233 	 18.505395983904 	
H	 15.401708428317 	  2.575891439233 	  8.402972023904 	
H	 14.833164298317 	  2.575894249233 	 18.533528743904 	
H	 15.401677328317 	  8.759453199233 	  8.402969193904 	
H	 14.833133198317 	  8.759456009233 	 18.533525913904 	
H	 12.631905790665 	  5.624866291370 	  7.750420548218 	
H	 12.063361660665 	  5.624869101370 	 17.880977268218 	
H	 12.631874690665 	 11.808428051370 	  7.750417718218 	
H	 12.063330560665 	 11.808430861370 	 17.880974438218 	
H	 27.312733090665 	  5.624875521370 	  7.778550478218 	
H	 26.744188960665 	  5.624878331370 	 17.909107198218 	
H	 27.312701990665 	 11.808437281370 	  7.778547648218 	
H	 26.744157860665 	 11.808440091370 	 17.909104368218 	
H	 12.853346244987 	  3.521937536476 	  2.417747978066 	
H	 12.284802114987 	  3.521940346476 	 12.548304698066 	
H	 12.853315144987 	  9.705499296476 	  2.417745148066 	
H	 12.284771014987 	  9.705502106476 	 12.548301868066 	
H	 27.534173544987 	  3.521946766476 	  2.445877908066 	
H	 26.965629414987 	  3.521949576476 	 12.576434628066 	
H	 27.534142444987 	  9.705508526476 	  2.445875078066 	
H	 26.965598314987 	  9.705511336476 	 12.576431798066 	
H	  0.942322041981 	  0.472948560716 	  3.042171318609 	
H	  0.373777911981 	  0.472951370716 	 13.172728038609 	
H	  0.942290941981 	  6.656510320716 	  3.042168488609 	
H	  0.373746811981 	  6.656513130716 	 13.172725208609 	
H	 15.623149341981 	  0.472957790716 	  3.070301248609 	
H	 15.054605211981 	  0.472960600716 	 13.200857968609 	
H	 15.623118241981 	  6.656519550716 	  3.070298418609 	
H	 15.054574111981 	  6.656522360716 	 13.200855138609 	
H	  1.150973341537 	  1.119588340207 	  7.512954227306 	
H	  0.582429211537 	  1.119591150207 	 17.643510947306 	
H	  1.150942241537 	  7.303150100207 	  7.512951397306 	
H	  0.582398111537 	  7.303152910207 	 17.643508117306 	
H	 15.831800641537 	  1.119597570207 	  7.541084157306 	
H	 15.263256511537 	  1.119600380207 	 17.671640877306 	
H	 15.831769541537 	  7.303159330207 	  7.541081327306 	
H	 15.263225411537 	  7.303162140207 	 17.671638047306 	
H	 12.201772209069 	  4.168632946655 	  8.612246949978 	
H	 11.633228079069 	  4.168635756655 	 18.742803669978 	
H	 12.201741109069 	 10.352194706655 	  8.612244119978 	
H	 11.633196979069 	 10.352197516655 	 18.742800839978 	
H	 26.882599509069 	  4.168642176655 	  8.640376879978 	
H	 26.314055379069 	  4.168644986655 	 18.770933599978 	
H	 26.882568409069 	 10.352203936655 	  8.640374049978 	
H	 26.314024279069 	 10.352206746655 	 18.770930769978 	
H	 12.423252907767 	  4.978229850156 	  3.279638181835 	
H	 11.854708777767 	  4.978232660156 	 13.410194901835 	
H	 12.423221807767 	 11.161791610156 	  3.279635351835 	
H	 11.854677677767 	 11.161794420156 	 13.410192071835 	
H	 27.104080207767 	  4.978239080156 	  3.307768111835 	
H	 26.535536077767 	  4.978241890156 	 13.438324831835 	
H	 27.104049107767 	 11.161800840156 	  3.307765281835 	
H	 26.535504977767 	 11.161803650156 	 13.438322001835 	
H	  1.372455224859 	  1.929182285057 	  2.180345501827 	
H	  0.803911094859 	  1.929185095057 	 12.310902221827 	
H	  1.372424124859 	  8.112744045057 	  2.180342671827 	
H	  0.803879994859 	  8.112746855057 	 12.310899391827 	
H	 16.053282524859 	  1.929191515057 	  2.208475431827 	
H	 15.484738394859 	  1.929194325057 	 12.339032151827 	
H	 16.053251424859 	  8.112753275057 	  2.208472601827 	
H	 15.484707294859 	  8.112756085057 	 12.339029321827 	
768 
Energy: -7.3846297469649997e+01 
S	  8.274226964800 	  1.377175302200 	  0.134797036600 	
S	  7.705682834800 	  1.377178112200 	 10.265353756600 	
S	  8.274195864800 	  7.560737062200 	  0.134794206600 	
S	  7.705651734800 	  7.560739872200 	 10.265350926600 	
S	 22.955054264800 	  1.377184532200 	  0.162926966600 	
S	 22.386510134800 	  1.377187342200 	 10.293483686600 	
S	 22.955023164800 	  7.560746292200 	  0.162924136600 	
S	 22.386479034800 	  7.560749102200 	 10.293480856600 	
S	  5.468105551400 	  4.422280389300 	  5.357839294400 	
S	  4.899561421400 	  4.422283199300 	 15.488396014400 	
S	  5.468074451400 	 10.605842149300 	  5.357836464400 	
S	  4.899530321400 	 10.605844959300 	 15.488393184400 	
S	 20.148932851400 	  4.422289619300 	  5.385969224400 	
S	 19.580388721400 	  4.422292429300 	 15.516525944400 	
S	 20.148901751400 	 10.605851379300 	  5.385966394400 	
S	 19.580357621400 	 10.605854189300 	 15.516523114400 	
S	  5.252181867800 	  4.713017932400 	 10.714134363300 	
S	  4.683637737800 	  4.713020742400 	 20.844691083300 	
S	  5.252150767800 	 10.896579692400 	 10.714131533300 	
S	  4.683606637800 	 10.896582502400 	 20.844688253300 	
S	 19.933009167800 	  4.713027162400 	 10.742264293300 	
S	 19.364465037800 	  4.713029972400 	 20.872821013300 	
S	 19.932978067800 	 10.896588922400 	 10.742261463300 	
S	 19.364433937800 	 10.896591732400 	 20.872818183300 	
S	  8.058304838100 	  1.667912723500 	  5.491091585000 	
S	  7.489760708100 	  1.667915533500 	 15.621648305000 	
S	  8.058273738100 	  7.851474483500 	  5.491088755000 	
S	  7.489729608100 	  7.851477293500 	 15.621645475000 	
S	 22.739132138100 	  1.667921953500 	  5.519221515000 	
S	 22.170588008100 	  1.667924763500 	 15.649778235000 	
S	 22.739101038100 	  7.851483713500 	  5.519218685000 	
S	 22.170556908100 	  7.851486523500 	 15.649775405000 	
C	  6.549448319000 	  2.468400911100 	 10.397561804200 	
C	  5.980904189000 	  2.468403721100 	 20.528118524200 	
C	  6.549417219000 	  8.651962671100 	 10.397558974200 	
C	  5.980873089000 	  8.651965481100 	 20.528115694200 	
C	 21.230275619000 	  2.468410141100 	 10.425691734200 	
C	 20.661731489000 	  2.468412951100 	 20.556248454200 	
C	 21.230244519000 	  8.651971901100 	 10.425688904200 	
C	 20.661700389000 	  8.651974711100 	 20.556245624200 	
C	  6.761044788800 	  5.513514746100 	  5.807719306500 	
C	  6.192500658800 	  5.513517556100 	 15.938276026500 	
C	  6.761013688800 	 11.697076506100 	  5.807716476500 	
C	  6.192469558800 	 11.697079316100 	 15.938273196500 	
C	 21.441872088800 	  5.513523976100 	  5.835849236500 	
C	 20.873327958800 	  5.513526786100 	 15.966405956500 	
C	 21.441840988800 	 11.697085736100 	  5.835846406500 	
C	 20.873296858800 	 11.697088546100 	 15.966403126500 	
C	  6.976960522100 	  3.621792323500 	  0.451369381500 	
C	  6.408416392100 	  3.621795133500 	 10.581926101500 	
C	  6.976929422100 	  9.805354083500 	  0.451366551500 	
C	  6.408385292100 	  9.805356893500 	 10.581923271500 	
C	 21.657787822100 	  3.621801553500 	  0.479499311500 	
C	 21.089243692100 	  3.621804363500 	 10.610056031500 	
C	 21.657756722100 	  9.805363313500 	  0.479496481500 	
C	 21.089212592100 	  9.805366123500 	 10.610053201500 	
C	  6.765365469800 	  0.576678427600 	  5.041211357200 	
C	  6.196821339800 	  0.576681237600 	 15.171768077200 	
C	  6.765334369800 	  6.760240187600 	  5.041208527200 	
C	  6.196790239800 	  6.760242997600 	 15.171765247200 	
C	 21.446192769800 	  0.576687657600 	  5.069341287200 	
C	 20.877648639800 	  0.576690467600 	 15.199898007200 	
C	 21.446161669800 	  6.760249417600 	  5.069338457200 	
C	 20.877617539800 	  6.760252227600 	 15.199895177200 	
C	  5.514830661500 	  2.406236873400 	  9.413614614800 	
C	  4.946286531500 	  2.406239683400 	 19.544171334800 	
C	  5.514799561500 	  8.589798633400 	  9.413611784800 	
C	  4.946255431500 	  8.589801443400 	 19.544168504800 	
C	 20.195657961500 	  2.406246103400 	  9.441744544800 	
C	 19.627113831500 	  2.406248913400 	 19.572301264800 	
C	 20.195626861500 	  8.589807863400 	  9.441741714800 	
C	 19.627082731500 	  8.589810673400 	 19.572298434800 	
C	  7.795666071200 	  5.451341527800 	  6.791658665300 	
C	  7.227121941200 	  5.451344337800 	 16.922215385300 	
C	  7.795634971200 	 11.634903287800 	  6.791655835300 	
C	  7.227090841200 	 11.634906097800 	 16.922212555300 	
C	 22.476493371200 	  5.451350757800 	  6.819788595300 	
C	 21.907949241200 	  5.451353567800 	 16.950345315300 	
C	 22.476462271200 	 11.634912517800 	  6.819785765300 	
C	 21.907918141200 	 11.634915327800 	 16.950342485300 	
C	  8.011578179700 	  3.683956422100 	  1.435316571000 	
C	  7.443034049700 	  3.683959232100 	 11.565873291000 	
C	  8.011547079700 	  9.867518182100 	  1.435313741000 	
C	  7.443002949700 	  9.867520992100 	 11.565870461000 	
C	 22.692405479700 	  3.683965652100 	  1.463446501000 	
C	 22.123861349700 	  3.683968462100 	 11.594003221000 	
C	 22.692374379700 	  9.867527412100 	  1.463443671000 	
C	 22.123830249700 	  9.867530222100 	 11.594000391000 	
C	  5.730743895300 	  0.638851706800 	  4.057272317100 	
C	  5.162199765300 	  0.638854516800 	 14.187829037100 	
C	  5.730712795300 	  6.822413466800 	  4.057269487100 	
C	  5.162168665300 	  6.822416276800 	 14.187826207100 	
C	 20.411571195300 	  0.638860936800 	  4.085402247100 	
C	 19.843027065300 	  0.638863746800 	 14.215958967100 	
C	 20.411540095300 	  6.822422696800 	  4.085399417100 	
C	 19.842995965300 	  6.822425506800 	 14.215956137100 	
C	  4.708186547100 	  3.575057243500 	  9.473887592500 	
C	  4.139642417100 	  3.575060053500 	 19.604444312500 	
C	  4.708155447100 	  9.758619003500 	  9.473884762500 	
C	  4.139611317100 	  9.758621813500 	 19.604441482500 	
C	 19.389013847100 	  3.575066473500 	  9.502017522500 	
C	 18.820469717100 	  3.575069283500 	 19.632574242500 	
C	 19.388982747100 	  9.758628233500 	  9.502014692500 	
C	 18.820438617100 	  9.758631043500 	 19.632571412500 	
C	  8.602283030900 	  0.529944629900 	  6.731329322300 	
C	  8.033738900900 	  0.529947439900 	 16.861886042300 	
C	  8.602251930900 	  6.713506389900 	  6.731326492300 	
C	  8.033707800900 	  6.713509199900 	 16.861883212300 	
C	 23.283110330900 	  0.529953859900 	  6.759459252300 	
C	 22.714566200900 	  0.529956669900 	 16.890015972300 	
C	 23.283079230900 	  6.713515619900 	  6.759456422300 	
C	 22.714535100900 	  6.713518429900 	 16.890013142300 	
C	  8.818222294000 	  2.515135991100 	  1.375043593200 	
C	  8.249678164000 	  2.515138801100 	 11.505600313200 	
C	  8.818191194000 	  8.698697751100 	  1.375040763200 	
C	  8.249647064000 	  8.698700561100 	 11.505597483200 	
C	 23.499049594000 	  2.515145221100 	  1.403173523200 	
C	 22.930505464000 	  2.515148031100 	 11.533730243200 	
C	 23.499018494000 	  8.698706981100 	  1.403170693200 	
C	 22.930474364000 	  8.698709791100 	 11.533727413200 	
C	  4.924127066500 	  5.560248604700 	  4.117601875700 	
C	  4.355582936500 	  5.560251414700 	 14.248158595700 	
C	  4.924095966500 	 11.743810364700 	  4.117599045700 	
C	  4.355551836500 	 11.743813174700 	 14.248155765700 	
C	 19.604954366500 	  5.560257834700 	  4.145731805700 	
C	 19.036410236500 	  5.560260644700 	 14.276288525700 	
C	 19.604923266500 	 11.743819594700 	  4.145728975700 	
C	 19.036379136500 	 11.743822404700 	 14.276285695700 	
C	  3.616380389000 	  3.755832070100 	  8.624223372800 	
C	  3.047836259000 	  3.755834880100 	 18.754780092800 	
C	  3.616349289000 	  9.939393830100 	  8.624220542800 	
C	  3.047805159000 	  9.939396640100 	 18.754777262800 	
C	 18.297207689000 	  3.755841300100 	  8.652353302800 	
C	 17.728663559000 	  3.755844110100 	 18.782910022800 	
C	 18.297176589000 	  9.939403060100 	  8.652350472800 	
C	 17.728632459000 	  9.939405870100 	 18.782907192800 	
C	  9.694110263800 	  0.710702205100 	  7.580976645800 	
C	  9.125566133800 	  0.710705015100 	 17.711533365800 	
C	  9.694079163800 	  6.894263965100 	  7.580973815800 	
C	  9.125535033800 	  6.894266775100 	 17.711530535800 	
C	 24.374937563800 	  0.710711435100 	  7.609106575800 	
C	 23.806393433800 	  0.710714245100 	 17.739663295800 	
C	 24.374906463800 	  6.894273195100 	  7.609103745800 	
C	 23.806362333800 	  6.894276005100 	 17.739660465800 	
C	  9.910028443500 	  2.334361286300 	  2.224708027200 	
C	  9.341484313500 	  2.334364096300 	 12.355264747200 	
C	  9.909997343500 	  8.517923046300 	  2.224705197200 	
C	  9.341453213500 	  8.517925856300 	 12.355261917200 	
C	 24.590855743500 	  2.334370516300 	  2.252837957200 	
C	 24.022311613500 	  2.334373326300 	 12.383394677200 	
C	 24.590824643500 	  8.517932276300 	  2.252835127200 	
C	 24.022280513500 	  8.517935086300 	 12.383391847200 	
C	  3.832299249400 	  5.379491151300 	  3.267955189500 	
C	  3.263755119400 	  5.379493961300 	 13.398511909500 	
C	  3.832268149400 	 11.563052911300 	  3.267952359500 	
C	  3.263724019400 	 11.563055721300 	 13.398509079500 	
C	 18.513126549400 	  5.379500381300 	  3.296085119500 	
C	 17.944582419400 	  5.379503191300 	 13.426641839500 	
C	 18.513095449400 	 11.563062141300 	  3.296082289500 	
C	 17.944551319400 	 11.563064951300 	 13.426639009500 	
H	  3.030192363400 	  4.667840350300 	  8.698825072800 	
H	  2.461648233400 	  4.667843160300 	 18.829381792800 	
H	  3.030161263400 	 10.851402110300 	  8.698822242800 	
H	  2.461617133400 	 10.851404920300 	 18.829378962800 	
H	 17.711019663400 	  4.667849580300 	  8.726955002800 	
H	 17.142475533400 	  4.667852390300 	 18.857511722800 	
H	 17.710988563400 	 10.851411340300 	  8.726952172800 	
H	 17.142444433400 	 10.851414150300 	 18.857508892800 	
H	 10.280332020700 	  1.622693456600 	  7.506360722100 	
H	  9.711787890700 	  1.622696266600 	 17.636917442100 	
H	 10.280300920700 	  7.806255216600 	  7.506357892100 	
H	  9.711756790700 	  7.806258026600 	 17.636914612100 	
H	 24.961159320700 	  1.622702686600 	  7.534490652100 	
H	 24.392615190700 	  1.622705496600 	 17.665047372100 	
H	 24.961128220700 	  7.806264446600 	  7.534487822100 	
H	 24.392584090700 	  7.806267256600 	 17.665044542100 	
H	 10.496216316600 	  1.422353006100 	  2.150106647200 	
H	  9.927672186600 	  1.422355816100 	 12.280663367200 	
H	 10.496185216600 	  7.605914766100 	  2.150103817200 	
H	  9.927641086600 	  7.605917576100 	 12.280660537200 	
H	 25.177043616600 	  1.422362236100 	  2.178236577200 	
H	 24.608499486600 	  1.422365046100 	 12.308793297200 	
H	 25.177012516600 	  7.605923996100 	  2.178233747200 	
H	 24.608468386600 	  7.605926806100 	 12.308790467200 	
H	  3.246077623500 	  4.467499838900 	  3.342571328800 	
H	  2.677533493500 	  4.467502648900 	 13.473128048800 	
H	  3.246046523500 	 10.651061598900 	  3.342568498800 	
H	  2.677502393500 	 10.651064408900 	 13.473125218800 	
H	 17.926904923500 	  4.467509068900 	  3.370701258800 	
H	 17.358360793500 	  4.467511878900 	 13.501257978800 	
H	 17.926873823500 	 10.651070828900 	  3.370698428800 	
H	 17.358329693500 	 10.651073638900 	 13.501255148800 	
C	  3.297673659000 	  2.774949442900 	  7.678024848600 	
C	  2.729129529000 	  2.774952252900 	 17.808581568600 	
C	  3.297642559000 	  8.958511202900 	  7.678022018600 	
C	  2.729098429000 	  8.958514012900 	 17.808578738600 	
C	 17.978500959000 	  2.774958672900 	  7.706154778600 	
C	 17.409956829000 	  2.774961482900 	 17.836711498600 	
C	 17.978469859000 	  8.958520432900 	  7.706151948600 	
C	 17.409925729000 	  8.958523242900 	 17.836708668600 	
C	 10.012846383800 	  5.820031992100 	  8.527231920200 	
C	  9.444302253800 	  5.820034802100 	 18.657788640200 	
C	 10.012815283800 	 12.003593752100 	  8.527229090200 	
C	  9.444271153800 	 12.003596562100 	 18.657785810200 	
C	 24.693673683800 	  5.820041222100 	  8.555361850200 	
C	 24.125129553800 	  5.820044032100 	 18.685918570200 	
C	 24.693642583800 	 12.003602982100 	  8.555359020200 	
C	 24.125098453800 	 12.003605792100 	 18.685915740200 	
C	 10.228735046900 	  3.315244157100 	  3.170906228600 	
C	  9.660190916900 	  3.315246967100 	 13.301462948600 	
C	 10.228703946900 	  9.498805917100 	  3.170903398600 	
C	  9.660159816900 	  9.498808727100 	 13.301460118600 	
C	 24.909562346900 	  3.315253387100 	  3.199036158600 	
C	 24.341018216900 	  3.315256197100 	 13.329592878600 	
C	 24.909531246900 	  9.498815147100 	  3.199033328600 	
C	 24.340987116900 	  9.498817957100 	 13.329590048600 	
C	  3.513562558100 	  0.270161486100 	  2.321700231000 	
C	  2.945018428100 	  0.270164296100 	 12.452256951000 	
C	  3.513531458100 	  6.453723246100 	  2.321697401000 	
C	  2.944987328100 	  6.453726056100 	 12.452254121000 	
C	 18.194389858100 	  0.270170716100 	  2.349830161000 	
C	 17.625845728100 	  0.270173526100 	 12.480386881000 	
C	 18.194358758100 	  6.453732476100 	  2.349827331000 	
C	 17.625814628100 	  6.453735286100 	 12.480384051000 	
C	  4.115613367000 	  1.624442344200 	  7.606279463600 	
C	  3.547069237000 	  1.624445154200 	 17.736836183600 	
C	  4.115582267000 	  7.808004104200 	  7.606276633600 	
C	  3.547038137000 	  7.808006914200 	 17.736833353600 	
C	 18.796440667000 	  1.624451574200 	  7.634409393600 	
C	 18.227896537000 	  1.624454384200 	 17.764966113600 	
C	 18.796409567000 	  7.808013334200 	  7.634406563600 	
C	 18.227865437000 	  7.808016144200 	 17.764963283600 	
C	  9.194872439700 	  4.669544365100 	  8.598991286000 	
C	  8.626328309700 	  4.669547175100 	 18.729548006000 	
C	  9.194841339700 	 10.853106125100 	  8.598988456000 	
C	  8.626297209700 	 10.853108935100 	 18.729545176000 	
C	 23.875699739700 	  4.669553595100 	  8.627121216000 	
C	 23.307155609700 	  4.669556405100 	 18.757677936000 	
C	 23.875668639700 	 10.853115355100 	  8.627118386000 	
C	 23.307124509700 	 10.853118165100 	 18.757675106000 	
C	  9.410795487100 	  4.465751377700 	  3.242651400700 	
C	  8.842251357100 	  4.465754187700 	 13.373208120700 	
C	  9.410764387100 	 10.649313137700 	  3.242648570700 	
C	  8.842220257100 	 10.649315947700 	 13.373205290700 	
C	 24.091622787100 	  4.465760607700 	  3.270781330700 	
C	 23.523078657100 	  4.465763417700 	 13.401338050700 	
C	 24.091591687100 	 10.649322367700 	  3.270778500700 	
C	 23.523047557100 	 10.649325177700 	 13.401335220700 	
C	  4.331536519400 	  1.420649052200 	  2.249940436700 	
C	  3.762992389400 	  1.420651862200 	 12.380497156700 	
C	  4.331505419400 	  7.604210812200 	  2.249937606700 	
C	  3.762961289400 	  7.604213622200 	 12.380494326700 	
C	 19.012363819400 	  1.420658282200 	  2.278070366700 	
C	 18.443819689400 	  1.420661092200 	 12.408627086700 	
C	 19.012332719400 	  7.604220042200 	  2.278067536700 	
C	 18.443788589400 	  7.604222852200 	 12.408624256700 	
H	  3.910307630800 	  0.858337997200 	  6.862660610300 	
H	  3.341763500800 	  0.858340807200 	 16.993217330300 	
H	  3.910276530800 	  7.041899757200 	  6.862657780300 	
H	  3.341732400800 	  7.041902567200 	 16.993214500300 	
H	 18.591134930800 	  0.858347227200 	  6.890790540300 	
H	 18.022590800800 	  0.858350037200 	 17.021347260300 	
H	 18.591103830800 	  7.041908987200 	  6.890787710300 	
H	 18.022559700800 	  7.041911797200 	 17.021344430300 	
H	  9.400179503700 	  3.903433024400 	  9.342599275100 	
H	  8.831635373700 	  3.903435834400 	 19.473155995100 	
H	  9.400148403700 	 10.086994784400 	  9.342596445100 	
H	  8.831604273700 	 10.086997594400 	 19.473153165100 	
H	 24.081006803700 	  3.903442254400 	  9.370729205100 	
H	 23.512462673700 	  3.903445064400 	 19.501285925100 	
H	 24.080975703700 	 10.087004014400 	  9.370726375100 	
H	 23.512431573700 	 10.087006824400 	 19.501283095100 	
H	  9.616101375900 	  5.231855907300 	  3.986269934100 	
H	  9.047557245900 	  5.231858717300 	 14.116826654100 	
H	  9.616070275900 	 11.415417667300 	  3.986267104100 	
H	  9.047526145900 	 11.415420477300 	 14.116823824100 	
H	 24.296928675900 	  5.231865137300 	  4.014399864100 	
H	 23.728384545900 	  5.231867947300 	 14.144956584100 	
H	 24.296897575900 	 11.415426897300 	  4.014397034100 	
H	 23.728353445900 	 11.415429707300 	 14.144953754100 	
H	  4.126229023800 	  2.186760514700 	  1.506332765000 	
H	  3.557684893800 	  2.186763324700 	 11.636889485000 	
H	  4.126197923800 	  8.370322274700 	  1.506329935000 	
H	  3.557653793800 	  8.370325084700 	 11.636886655000 	
H	 18.807056323800 	  2.186769744700 	  1.534462695000 	
H	 18.238512193800 	  2.186772554700 	 11.665019415000 	
H	 18.807025223800 	  8.370331504700 	  1.534459865000 	
H	 18.238481093800 	  8.370334314700 	 11.665016585000 	
C	  5.203863858000 	  1.434679543400 	  8.448323302000 	
C	  4.635319728000 	  1.434682353400 	 18.578880022000 	
C	  5.203832758000 	  7.618241303400 	  8.448320472000 	
C	  4.635288628000 	  7.618244113400 	 18.578877192000 	
C	 19.884691158000 	  1.434688773400 	  8.476453232000 	
C	 19.316147028000 	  1.434691583400 	 18.607009952000 	
C	 19.884660058000 	  7.618250533400 	  8.476450402000 	
C	 19.316115928000 	  7.618253343400 	 18.607007122000 	
C	  8.106607985800 	  4.479790023800 	  7.756956459800 	
C	  7.538063855800 	  4.479792833800 	 17.887513179800 	
C	  8.106576885800 	 10.663351783800 	  7.756953629800 	
C	  7.538032755800 	 10.663354593800 	 17.887510349800 	
C	 22.787435285800 	  4.479799253800 	  7.785086389800 	
C	 22.218891155800 	  4.479802063800 	 17.915643109800 	
C	 22.787404185800 	 10.663361013800 	  7.785083559800 	
C	 22.218860055800 	 10.663363823800 	 17.915640279800 	
C	  8.322544996100 	  4.655513995700 	  2.400607562400 	
C	  7.754000866100 	  4.655516805700 	 12.531164282400 	
C	  8.322513896100 	 10.839075755700 	  2.400604732400 	
C	  7.753969766100 	 10.839078565700 	 12.531161452400 	
C	 23.003372296100 	  4.655523225700 	  2.428737492400 	
C	 22.434828166100 	  4.655526035700 	 12.559294212400 	
C	 23.003341196100 	 10.839084985700 	  2.428734662400 	
C	 22.434797066100 	 10.839087795700 	 12.559291382400 	
C	  5.419801413700 	  1.610403271700 	  3.091974731400 	
C	  4.851257283700 	  1.610406081700 	 13.222531451400 	
C	  5.419770313700 	  7.793965031700 	  3.091971901400 	
C	  4.851226183700 	  7.793967841700 	 13.222528621400 	
C	 20.100628713700 	  1.610412501700 	  3.120104661400 	
C	 19.532084583700 	  1.610415311700 	 13.250661381400 	
C	 20.100597613700 	  7.793974261700 	  3.120101831400 	
C	 19.532053483700 	  7.793977071700 	 13.250658551400 	
H	  5.815280580100 	  0.539366990000 	  8.358446190600 	
H	  5.246736450100 	  0.539369800000 	 18.489002910600 	
H	  5.815249480100 	  6.722928750000 	  8.358443360600 	
H	  5.246705350100 	  6.722931560000 	 18.489000080600 	
H	 20.496107880100 	  0.539376220000 	  8.386576120600 	
H	 19.927563750100 	  0.539379030000 	 18.517132840600 	
H	 20.496076780100 	  6.722937980000 	  8.386573290600 	
H	 19.927532650100 	  6.722940790000 	 18.517130010600 	
H	  7.495164244800 	  3.584488939300 	  7.846838885500 	
H	  6.926620114800 	  3.584491749300 	 17.977395605500 	
H	  7.495133144800 	  9.768050699300 	  7.846836055500 	
H	  6.926589014800 	  9.768053509300 	 17.977392775500 	
H	 22.175991544800 	  3.584498169300 	  7.874968815500 	
H	 21.607447414800 	  3.584500979300 	 18.005525535500 	
H	 22.175960444800 	  9.768059929300 	  7.874965985500 	
H	 21.607416314800 	  9.768062739300 	 18.005522705500 	
H	  7.711128287000 	  5.550826610000 	  2.490484352400 	
H	  7.142584157000 	  5.550829420000 	 12.621041072400 	
H	  7.711097187000 	 11.734388370000 	  2.490481522400 	
H	  7.142553057000 	 11.734391180000 	 12.621038242400 	
H	 22.391955587000 	  5.550835840000 	  2.518614282400 	
H	 21.823411457000 	  5.550838650000 	 12.649171002400 	
H	 22.391924487000 	 11.734397600000 	  2.518611452400 	
H	 21.823380357000 	 11.734400410000 	 12.649168172400 	
H	  6.031245163400 	  2.505704356200 	  3.002092091400 	
H	  5.462701033400 	  2.505707166200 	 13.132648811400 	
H	  6.031214063400 	  8.689266116200 	  3.002089261400 	
H	  5.462669933400 	  8.689268926200 	 13.132645981400 	
H	 20.712072463400 	  2.505713586200 	  3.030222021400 	
H	 20.143528333400 	  2.505716396200 	 13.160778741400 	
H	 20.712041363400 	  8.689275346200 	  3.030219191400 	
H	 20.143497233400 	  8.689278156200 	 13.160775911400 	
C	  2.060699965000 	  2.923971898300 	  6.778256047500 	
C	  1.492155835000 	  2.923974708300 	 16.908812767500 	
C	  2.060668865000 	  9.107533658300 	  6.778253217500 	
C	  1.492124735000 	  9.107536468300 	 16.908809937500 	
C	 16.741527265000 	  2.923981128300 	  6.806385977500 	
C	 16.172983135000 	  2.923983938300 	 16.936942697500 	
C	 16.741496165000 	  9.107542888300 	  6.806383147500 	
C	 16.172952035000 	  9.107545698300 	 16.936939867500 	
C	 11.249821980800 	  5.969055390200 	  9.426999575200 	
C	 10.681277850800 	  5.969058200200 	 19.557556295200 	
C	 11.249790880800 	 12.152617150200 	  9.426996745200 	
C	 10.681246750800 	 12.152619960200 	 19.557553465200 	
C	 25.930649280800 	  5.969064620200 	  9.455129505200 	
C	 25.362105150800 	  5.969067430200 	 19.585686225200 	
C	 25.930618180800 	 12.152626380200 	  9.455126675200 	
C	 25.362074050800 	 12.152629190200 	 19.585683395200 	
C	 11.465708592700 	  3.166222067100 	  4.070675242600 	
C	 10.897164462700 	  3.166224877100 	 14.201231962600 	
C	 11.465677492700 	  9.349783827100 	  4.070672412600 	
C	 10.897133362700 	  9.349786637100 	 14.201229132600 	
C	 26.146535892700 	  3.166231297100 	  4.098805172600 	
C	 25.577991762700 	  3.166234107100 	 14.229361892600 	
C	 26.146504792700 	  9.349793057100 	  4.098802342600 	
C	 25.577960662700 	  9.349795867100 	 14.229359062600 	
C	  2.276586376900 	  0.121138088000 	  1.421933213400 	
C	  1.708042246900 	  0.121140898000 	 11.552489933400 	
C	  2.276555276900 	  6.304699848000 	  1.421930383400 	
C	  1.708011146900 	  6.304702658000 	 11.552487103400 	
C	 16.957413676900 	  0.121147318000 	  1.450063143400 	
C	 16.388869546900 	  0.121150128000 	 11.580619863400 	
C	 16.957382576900 	  6.304709078000 	  1.450060313400 	
C	 16.388838446900 	  6.304711888000 	 11.580617033400 	
C	  2.262347017200 	  2.221751156100 	  5.422902565400 	
C	  1.693802887200 	  2.221753966100 	 15.553459285400 	
C	  2.262315917200 	  8.405312916100 	  5.422899735400 	
C	  1.693771787200 	  8.405315726100 	 15.553456455400 	
C	 16.943174317200 	  2.221760386100 	  5.451032495400 	
C	 16.374630187200 	  2.221763196100 	 15.581589215400 	
C	 16.943143217200 	  8.405322146100 	  5.451029665400 	
C	 16.374599087200 	  8.405324956100 	 15.581586385400 	
C	 11.048108919500 	 -0.823375339700 	 10.782308126400 	
C	 10.479564789500 	 -0.823372529700 	 20.912864846400 	
C	 11.048077819500 	  5.360186420300 	 10.782305296400 	
C	 10.479533689500 	  5.360189230300 	 20.912862016400 	
C	 25.728936219500 	 -0.823366109700 	 10.810438056400 	
C	 25.160392089500 	 -0.823363299700 	 20.940994776400 	
C	 25.728905119500 	  5.360195650300 	 10.810435226400 	
C	 25.160360989500 	  5.360198460300 	 20.940991946400 	
C	 11.264060258300 	  3.868441104100 	  5.426029355200 	
C	 10.695516128300 	  3.868443914100 	 15.556586075200 	
C	 11.264029158300 	 10.052002864100 	  5.426026525200 	
C	 10.695485028300 	 10.052005674100 	 15.556583245200 	
C	 25.944887558300 	  3.868450334100 	  5.454159285200 	
C	 25.376343428300 	  3.868453144100 	 15.584716005200 	
C	 25.944856458300 	 10.052012094100 	  5.454156455200 	
C	 25.376312328300 	 10.052014904100 	 15.584713175200 	
C	  2.478298879800 	  6.913569000600 	  0.066624656700 	
C	  1.909754749800 	  6.913571810600 	 10.197181376700 	
C	  2.478267779800 	 13.097130760600 	  0.066621826700 	
C	  1.909723649800 	 13.097133570600 	 10.197178546700 	
C	 17.159126179800 	  6.913578230600 	  0.094754586700 	
C	 16.590582049800 	  6.913581040600 	 10.225311306700 	
C	 17.159095079800 	 13.097139990600 	  0.094751756700 	
C	 16.590550949800 	 13.097142800600 	 10.225308476700 	
H	  3.170768161300 	  2.565029211100 	  4.913710526400 	
H	  2.602224031300 	  2.565032021100 	 15.044267246400 	
H	  3.170737061300 	  8.748590971100 	  4.913707696400 	
H	  2.602192931300 	  8.748593781100 	 15.044264416400 	
H	 17.851595461300 	  2.565038441100 	  4.941840456400 	
H	 17.283051331300 	  2.565041251100 	 15.072397176400 	
H	 17.851564361300 	  8.748600201100 	  4.941837626400 	
H	 17.283020231300 	  8.748603011100 	 15.072394346400 	
H	 10.139696801000 	 -0.480096932800 	 11.291488826700 	
H	  9.571152671000 	 -0.480094122800 	 21.422045546700 	
H	 10.139665701000 	  5.703464827200 	 11.291485996700 	
H	  9.571121571000 	  5.703467637200 	 21.422042716700 	
H	 24.820524101000 	 -0.480087702800 	 11.319618756700 	
H	 24.251979971000 	 -0.480084892800 	 21.450175476700 	
H	 24.820493001000 	  5.703474057200 	 11.319615926700 	
H	 24.251948871000 	  5.703476867200 	 21.450172646700 	
H	 10.355639694200 	  3.525160856600 	  5.935220864000 	
H	  9.787095564200 	  3.525163666600 	 16.065777584000 	
H	 10.355608594200 	  9.708722616600 	  5.935218034000 	
H	  9.787064464200 	  9.708725426600 	 16.065774754000 	
H	 25.036466994200 	  3.525170086600 	  5.963350794000 	
H	 24.467922864200 	  3.525172896600 	 16.093907514000 	
H	 25.036435894200 	  9.708731846600 	  5.963347964000 	
H	 24.467891764200 	  9.708734656600 	 16.093904684000 	
H	  3.386710736400 	  6.570290654600 	 -0.442556474800 	
H	  2.818166606400 	  6.570293464600 	  9.688000245200 	
H	  3.386679636400 	 12.753852414600 	 -0.442559304800 	
H	  2.818135506400 	 12.753855224600 	  9.687997415200 	
H	 18.067538036400 	  6.570299884600 	 -0.414426544800 	
H	 17.498993906400 	  6.570302694600 	  9.716130175200 	
H	 18.067506936400 	 12.753861644600 	 -0.414429374800 	
H	 17.498962806400 	 12.753864454600 	  9.716127345200 	
H	  1.404496117300 	  2.427035558900 	  4.770053794800 	
H	  0.835951987300 	  2.427038368900 	 14.900610514800 	
H	  1.404465017300 	  8.610597318900 	  4.770050964800 	
H	  0.835920887300 	  8.610600128900 	 14.900607684800 	
H	 16.085323417300 	  2.427044788900 	  4.798183724800 	
H	 15.516779287300 	  2.427047598900 	 14.928740444800 	
H	 16.085292317300 	  8.610606548900 	  4.798180894800 	
H	 15.516748187300 	  8.610609358900 	 14.928737614800 	
H	 12.337828175700 	 -0.618075910000 	  0.722500627700 	
H	 11.769284045700 	 -0.618073100000 	 10.853057347700 	
H	 12.337797075700 	  5.565485850000 	  0.722497797700 	
H	 11.769252945700 	  5.565488660000 	 10.853054517700 	
H	 27.018655475700 	 -0.618066680000 	  0.750630557700 	
H	 26.450111345700 	 -0.618063870000 	 10.881187277700 	
H	 27.018624375700 	  5.565495080000 	  0.750627727700 	
H	 26.450080245700 	  5.565497890000 	 10.881184447700 	
H	 12.121911302100 	  3.663157614800 	  6.078878020100 	
H	 11.553367172100 	  3.663160424800 	 16.209434740100 	
H	 12.121880202100 	  9.846719374800 	  6.078875190100 	
H	 11.553336072100 	  9.846722184800 	 16.209431910100 	
H	 26.802738602100 	  3.663166844800 	  6.107007950100 	
H	 26.234194472100 	  3.663169654800 	 16.237564670100 	
H	 26.802707502100 	  9.846728604800 	  6.107005120100 	
H	 26.234163372100 	  9.846731414800 	 16.237561840100 	
H	  1.188579187600 	  6.708269631800 	 10.126432579800 	
H	  0.620035057600 	  6.708272441800 	 20.256989299800 	
H	  1.188548087600 	 12.891831391800 	 10.126429749800 	
H	  0.620003957600 	 12.891834201800 	 20.256986469800 	
H	 15.869406487600 	  6.708278861800 	 10.154562509800 	
H	 15.300862357600 	  6.708281671800 	 20.285119229800 	
H	 15.869375387600 	 12.891840621800 	 10.154559679800 	
H	 15.300831257600 	 12.891843431800 	 20.285116399800 	
H	  2.333338513100 	  1.133106211500 	  5.520678957300 	
H	  1.764794383100 	  1.133109021500 	 15.651235677300 	
H	  2.333307413100 	  7.316667971500 	  5.520676127300 	
H	  1.764763283100 	  7.316670781500 	 15.651232847300 	
H	 17.014165813100 	  1.133115441500 	  5.548808887300 	
H	 16.445621683100 	  1.133118251500 	 15.679365607300 	
H	 17.014134713100 	  7.316677201500 	  5.548806057300 	
H	 16.445590583100 	  7.316680011500 	 15.679362777300 	
H	 11.409028324500 	  4.178196056400 	 -0.028085263100 	
H	 10.840484194500 	  4.178198866400 	 10.102471456900 	
H	 11.408997224500 	 10.361757816400 	 -0.028088093100 	
H	 10.840453094500 	 10.361760626400 	 10.102468626900 	
H	 26.089855624500 	  4.178205286400 	  0.000044666900 	
H	 25.521311494500 	  4.178208096400 	 10.130601386900 	
H	 26.089824524500 	 10.361767046400 	  0.000041836900 	
H	 25.521280394500 	 10.361769856400 	 10.130598556900 	
H	 11.193066621200 	  4.957086048700 	  5.328254121300 	
H	 10.624522491200 	  4.957088858700 	 15.458810841300 	
H	 11.193035521200 	 11.140647808700 	  5.328251291300 	
H	 10.624491391200 	 11.140650618700 	 15.458808011300 	
H	 25.873893921200 	  4.957095278700 	  5.356384051300 	
H	 25.305349791200 	  4.957098088700 	 15.486940771300 	
H	 25.873862821200 	 11.140657038700 	  5.356381221300 	
H	 25.305318691200 	 11.140659848700 	 15.486937941300 	
H	  2.117379466200 	  1.911997604500 	 10.877018260400 	
H	  1.548835336200 	  1.912000414500 	 21.007574980400 	
H	  2.117348366200 	  8.095559364500 	 10.877015430400 	
H	  1.548804236200 	  8.095562174500 	 21.007572150400 	
H	 16.798206766200 	  1.912006834500 	 10.905148190400 	
H	 16.229662636200 	  1.912009644500 	 21.035704910400 	
H	 16.798175666200 	  8.095568594500 	 10.905145360400 	
H	 16.229631536200 	  8.095571404500 	 21.035702080400 	
C	  1.734559952200 	  4.404219912900 	  6.506123107300 	
C	  1.166015822200 	  4.404222722900 	 16.636679827300 	
C	  1.734528852200 	 10.587781672900 	  6.506120277300 	
C	  1.165984722200 	 10.587784482900 	 16.636676997300 	
C	 16.415387252200 	  4.404229142900 	  6.534253037300 	
C	 15.846843122200 	  4.404231952900 	 16.664809757300 	
C	 16.415356152200 	 10.587790902900 	  6.534250207300 	
C	 15.846812022200 	 10.587793712900 	 16.664806927300 	
C	 11.575904795300 	  1.359102403300 	  9.699089153700 	
C	 11.007360665300 	  1.359105213300 	 19.829645873700 	
C	 11.575873695300 	  7.542664163300 	  9.699086323700 	
C	 11.007329565300 	  7.542666973300 	 19.829643043700 	
C	 26.256732095300 	  1.359111633300 	  9.727219083700 	
C	 25.688187965300 	  1.359114443300 	 19.857775803700 	
C	 26.256700995300 	  7.542673393300 	  9.727216253700 	
C	 25.688156865300 	  7.542676203300 	 19.857772973700 	
C	 11.791850066100 	  1.685974113500 	  4.342806589600 	
C	 11.223305936100 	  1.685976923500 	 14.473363309600 	
C	 11.791818966100 	  7.869535873500 	  4.342803759600 	
C	 11.223274836100 	  7.869538683500 	 14.473360479600 	
C	 26.472677366100 	  1.685983343500 	  4.370936519600 	
C	 25.904133236100 	  1.685986153500 	 14.501493239600 	
C	 26.472646266100 	  7.869545103500 	  4.370933689600 	
C	 25.904102136100 	  7.869547913500 	 14.501490409600 	
C	  1.950503562300 	  4.731091074900 	  1.149843634900 	
C	  1.381959432300 	  4.731093884900 	 11.280400354900 	
C	  1.950472462300 	 10.914652834900 	  1.149840804900 	
C	  1.381928332300 	 10.914655644900 	 11.280397524900 	
C	 16.631330862300 	  4.731100304900 	  1.177973564900 	
C	 16.062786732300 	  4.731103114900 	 11.308530284900 	
C	 16.631299762300 	 10.914662064900 	  1.177970734900 	
C	 16.062755632300 	 10.914664874900 	 11.308527454900 	
H	  2.589703828300 	  4.918653371200 	  6.050687656000 	
H	  2.021159698300 	  4.918656181200 	 16.181244376000 	
H	  2.589672728300 	 11.102215131200 	  6.050684826000 	
H	  2.021128598300 	 11.102217941200 	 16.181241546000 	
H	 17.270531128300 	  4.918662601200 	  6.078817586000 	
H	 16.701986998300 	  4.918665411200 	 16.209374306000 	
H	 17.270500028300 	 11.102224361200 	  6.078814756000 	
H	 16.701955898300 	 11.102227171200 	 16.209371476000 	
H	 10.720753036400 	  1.873537183300 	 10.154505291000 	
H	 10.152208906400 	  1.873539993300 	 20.285062011000 	
H	 10.720721936400 	  8.057098943300 	 10.154502461000 	
H	 10.152177806400 	  8.057101753300 	 20.285059181000 	
H	 25.401580336400 	  1.873546413300 	 10.182635221000 	
H	 24.833036206400 	  1.873549223300 	 20.313191941000 	
H	 25.401549236400 	  8.057108173300 	 10.182632391000 	
H	 24.833005106400 	  8.057110983300 	 20.313189111000 	
H	 10.936706512400 	  1.171539254400 	  4.798240972300 	
H	 10.368162382400 	  1.171542064400 	 14.928797692300 	
H	 10.936675412400 	  7.355101014400 	  4.798238142300 	
H	 10.368131282400 	  7.355103824400 	 14.928794862300 	
H	 25.617533812400 	  1.171548484400 	  4.826370902300 	
H	 25.048989682400 	  1.171551294400 	 14.956927622300 	
H	 25.617502712400 	  7.355110244400 	  4.826368072300 	
H	 25.048958582400 	  7.355113054400 	 14.956924792300 	
H	  2.805655203200 	  4.216656416700 	  0.694426960500 	
H	  2.237111073200 	  4.216659226700 	 10.824983680500 	
H	  2.805624103200 	 10.400218176700 	  0.694424130500 	
H	  2.237079973200 	 10.400220986700 	 10.824980850500 	
H	 17.486482503200 	  4.216665646700 	  0.722556890500 	
H	 16.917938373200 	  4.216668456700 	 10.853113610500 	
H	 17.486451403200 	 10.400227406700 	  0.722554060500 	
H	 16.917907273200 	 10.400230216700 	 10.853110780500 	
H	  1.454454417400 	  4.942542076000 	  7.419312257100 	
H	  0.885910287400 	  4.942544886000 	 17.549868977100 	
H	  1.454423317400 	 11.126103836000 	  7.419309427100 	
H	  0.885879187400 	 11.126106646000 	 17.549866147100 	
H	 16.135281717400 	  4.942551306000 	  7.447442187100 	
H	 15.566737587400 	  4.942554116000 	 17.577998907100 	
H	 16.135250617400 	 11.126113066000 	  7.447439357100 	
H	 15.566706487400 	 11.126115876000 	 17.577996077100 	
H	 11.856081281800 	  7.987633929300 	  8.785941752800 	
H	 11.287537151800 	  7.987636739300 	 18.916498472800 	
H	 11.856050181800 	 14.171195689300 	  8.785938922800 	
H	 11.287506051800 	 14.171198499300 	 18.916495642800 	
H	 26.536908581800 	  7.987643159300 	  8.814071682800 	
H	 25.968364451800 	  7.987645969300 	 18.944628402800 	
H	 26.536877481800 	 14.171204919300 	  8.814068852800 	
H	 25.968333351800 	 14.171207729300 	 18.944625572800 	
H	 12.071956739200 	  1.147653411900 	  3.429616915000 	
H	 11.503412609200 	  1.147656221900 	 13.560173635000 	
H	 12.071925639200 	  7.331215171900 	  3.429614085000 	
H	 11.503381509200 	  7.331217981900 	 13.560170805000 	
H	 26.752784039200 	  1.147662641900 	  3.457746845000 	
H	 26.184239909200 	  1.147665451900 	 13.588303565000 	
H	 26.752752939200 	  7.331224401900 	  3.457744015000 	
H	 26.184208809200 	  7.331227211900 	 13.588300735000 	
H	  1.670327769500 	 -1.897440633900 	  2.062991149700 	
H	  1.101783639500 	 -1.897437823900 	 12.193547869700 	
H	  1.670296669500 	  4.286121126100 	  2.062988319700 	
H	  1.101752539500 	  4.286123936100 	 12.193545039700 	
H	 16.351155069500 	 -1.897431403900 	  2.091121079700 	
H	 15.782610939500 	 -1.897428593900 	 12.221677799700 	
H	 16.351123969500 	  4.286130356100 	  2.091118249700 	
H	 15.782579839500 	  4.286133166100 	 12.221674969700 	
H	  0.882064840800 	  4.479102131000 	  5.817989803200 	
H	  0.313520710800 	  4.479104941000 	 15.948546523200 	
H	  0.882033740800 	 10.662663891000 	  5.817986973200 	
H	  0.313489610800 	 10.662666701000 	 15.948543693200 	
H	 15.562892140800 	  4.479111361000 	  5.846119733200 	
H	 14.994348010800 	  4.479114171000 	 15.976676453200 	
H	 15.562861040800 	 10.662673121000 	  5.846116903200 	
H	 14.994316910800 	 10.662675931000 	 15.976673623200 	
H	 12.428454998600 	  7.524205360700 	 10.387278883200 	
H	 11.859910868600 	  7.524208170700 	 20.517835603200 	
H	 12.428423898600 	 13.707767120700 	 10.387276053200 	
H	 11.859879768600 	 13.707769930700 	 20.517832773200 	
H	 27.109282298600 	  7.524214590700 	 10.415408813200 	
H	 26.540738168600 	  7.524217400700 	 20.545965533200 	
H	 27.109251198600 	 13.707776350700 	 10.415405983200 	
H	 26.540707068600 	 13.707779160700 	 20.545962703200 	
H	 12.644344881100 	  1.611092017100 	  5.030940319400 	
H	 12.075800751100 	  1.611094827100 	 15.161497039400 	
H	 12.644313781100 	  7.794653777100 	  5.030937489400 	
H	 12.075769651100 	  7.794656587100 	 15.161494209400 	
H	 27.325172181100 	  1.611101247100 	  5.059070249400 	
H	 26.756628051100 	  1.611104057100 	 15.189626969400 	
H	 27.325141081100 	  7.794663007100 	  5.059067419400 	
H	 26.756596951100 	  7.794665817100 	 15.189624139400 	
H	  1.097952918700 	 -1.434011943400 	  0.461654436900 	
H	  0.529408788700 	 -1.434009133400 	 10.592211156900 	
H	  1.097921818700 	  4.749549816600 	  0.461651606900 	
H	  0.529377688700 	  4.749552626600 	 10.592208326900 	
H	 15.778780218700 	 -1.434002713400 	  0.489784366900 	
H	 15.210236088700 	 -1.433999903400 	 10.620341086900 	
H	 15.778749118700 	  4.749559046600 	  0.489781536900 	
H	 15.210204988700 	  4.749561856600 	 10.620338256900 	
C	  0.859009870300 	  2.275087521200 	  7.498940079800 	
C	  0.290465740300 	  2.275090331200 	 17.629496799800 	
C	  0.858978770300 	  8.458649281200 	  7.498937249800 	
C	  0.290434640300 	  8.458652091200 	 17.629493969800 	
C	 15.539837170300 	  2.275096751200 	  7.527070009800 	
C	 14.971293040300 	  2.275099561200 	 17.657626729800 	
C	 15.539806070300 	  8.458658511200 	  7.527067179800 	
C	 14.971261940300 	  8.458661321200 	 17.657623899800 	
C	 12.451513155200 	  5.320185271700 	  8.706323091700 	
C	 11.882969025200 	  5.320188081700 	 18.836879811700 	
C	 12.451482055200 	 11.503747031700 	  8.706320261700 	
C	 11.882937925200 	 11.503749841700 	 18.836876981700 	
C	 27.132340455200 	  5.320194501700 	  8.734453021700 	
C	 26.563796325200 	  5.320197311700 	 18.865009741700 	
C	 27.132309355200 	 11.503756261700 	  8.734450191700 	
C	 26.563765225200 	 11.503759071700 	 18.865006911700 	
C	 12.667397959200 	  3.815108697600 	  3.349991953400 	
C	 12.098853829200 	  3.815111507600 	 13.480548673400 	
C	 12.667366859200 	  9.998670457600 	  3.349989123400 	
C	 12.098822729200 	  9.998673267600 	 13.480545843400 	
C	 27.348225259200 	  3.815117927600 	  3.378121883400 	
C	 26.779681129200 	  3.815120737600 	 13.508678603400 	
C	 27.348194159200 	  9.998679687600 	  3.378119053400 	
C	 26.779650029200 	  9.998682497600 	 13.508675773400 	
C	  1.074895180800 	  0.770007780200 	  2.142610232500 	
C	  0.506351050800 	  0.770010590200 	 12.273166952500 	
C	  1.074864080800 	  6.953569540200 	  2.142607402500 	
C	  0.506319950800 	  6.953572350200 	 12.273164122500 	
C	 15.755722480800 	  0.770017010200 	  2.170740162500 	
C	 15.187178350800 	  0.770019820200 	 12.301296882500 	
C	 15.755691380800 	  6.953578770200 	  2.170737332500 	
C	 15.187147250800 	  6.953581580200 	 12.301294052500 	
H	 -0.047227588500 	  2.355973740600 	  6.881775666400 	
H	 -0.615771718500 	  2.355976550600 	 17.012332386400 	
H	 -0.047258688500 	  8.539535500600 	  6.881772836400 	
H	 -0.615802818500 	  8.539538310600 	 17.012329556400 	
H	 14.633599711500 	  2.355982970600 	  6.909905596400 	
H	 14.065055581500 	  2.355985780600 	 17.040462316400 	
H	 14.633568611500 	  8.539544730600 	  6.909902766400 	
H	 14.065024481500 	  8.539547540600 	 17.040459486400 	
H	 13.357742057700 	  5.401060799500 	  9.323509597600 	
H	 12.789197927700 	  5.401063609500 	 19.454066317600 	
H	 13.357710957700 	 11.584622559500 	  9.323506767600 	
H	 12.789166827700 	 11.584625369500 	 19.454063487600 	
H	 28.038569357700 	  5.401070029500 	  9.351639527600 	
H	 27.470025227700 	  5.401072839500 	 19.482196247600 	
H	 28.038538257700 	 11.584631789500 	  9.351636697600 	
H	 27.469994127700 	 11.584634599500 	 19.482193417600 	
H	 13.573635570700 	  3.734222417300 	  3.967156046800 	
H	 13.005091440700 	  3.734225227300 	 14.097712766800 	
H	 13.573604470700 	  9.917784177300 	  3.967153216800 	
H	 13.005060340700 	  9.917786987300 	 14.097709936800 	
H	 28.254462870700 	  3.734231647300 	  3.995285976800 	
H	 27.685918740700 	  3.734234457300 	 14.125842696800 	
H	 28.254431770700 	  9.917793407300 	  3.995283146800 	
H	 27.685887640700 	  9.917796217300 	 14.125839866800 	
H	  0.168666130200 	  0.689132191500 	  1.525423939400 	
H	 -0.399877999800 	  0.689135001500 	 11.655980659400 	
H	  0.168635030200 	  6.872693951500 	  1.525421109400 	
H	 -0.399909099800 	  6.872696761500 	 11.655977829400 	
H	 14.849493430200 	  0.689141421500 	  1.553553869400 	
H	 14.280949300200 	  0.689144231500 	 11.684110589400 	
H	 14.849462330200 	  6.872703181500 	  1.553551039400 	
H	 14.280918200200 	  6.872705991500 	 11.684107759400 	
H	  0.663727609200 	  2.763729103700 	  8.461941528400 	
H	  0.095183479200 	  2.763731913700 	 18.592498248400 	
H	  0.663696509200 	  8.947290863700 	  8.461938698400 	
H	  0.095152379200 	  8.947293673700 	 18.592495418400 	
H	 15.344554909200 	  2.763738333700 	  8.490071458400 	
H	 14.776010779200 	  2.763741143700 	 18.620628178400 	
H	 15.344523809200 	  8.947300093700 	  8.490068628400 	
H	 14.775979679200 	  8.947302903700 	 18.620625348400 	
H	 12.646828893000 	  5.808844884300 	  7.743333331200 	
H	 12.078284763000 	  5.808847694300 	 17.873890051200 	
H	 12.646797793000 	 11.992406644300 	  7.743330501200 	
H	 12.078253663000 	 11.992409454300 	 17.873887221200 	
H	 27.327656193000 	  5.808854114300 	  7.771463261200 	
H	 26.759112063000 	  5.808856924300 	 17.902019981200 	
H	 27.327625093000 	 11.992415874300 	  7.771460431200 	
H	 26.759080963000 	 11.992418684300 	 17.902017151200 	
H	 12.862680534200 	  3.326468820300 	  2.386989650500 	
H	 12.294136404200 	  3.326471630300 	 12.517546370500 	
H	 12.862649434200 	  9.510030580300 	  2.386986820500 	
H	 12.294105304200 	  9.510033390300 	 12.517543540500 	
H	 27.543507834200 	  3.326478050300 	  2.415119580500 	
H	 26.974963704200 	  3.326480860300 	 12.545676300500 	
H	 27.543476734200 	  9.510039810300 	  2.415116750500 	
H	 26.974932604200 	  9.510042620300 	 12.545673470500 	
H	  0.879579730900 	  0.281347802200 	  3.105599781400 	
H	  0.311035600900 	  0.281350612200 	 13.236156501400 	
H	  0.879548630900 	  6.464909562200 	  3.105596951400 	
H	  0.311004500900 	  6.464912372200 	 13.236153671400 	
H	 15.560407030900 	  0.281357032200 	  3.133729711400 	
H	 14.991862900900 	  0.281359842200 	 13.264286431400 	
H	 15.560375930900 	  6.464918792200 	  3.133726881400 	
H	 14.991831800900 	  6.464921602200 	 13.264283601400 	
H	  1.045204185900 	  1.211387289900 	  7.689215422100 	
H	  0.476660055900 	  1.211390099900 	 17.819772142100 	
H	  1.045173085900 	  7.394949049900 	  7.689212592100 	
H	  0.476628955900 	  7.394951859900 	 17.819769312100 	
H	 15.726031485900 	  1.211396519900 	  7.717345352100 	
H	 15.157487355900 	  1.211399329900 	 17.847902072100 	
H	 15.726000385900 	  7.394958279900 	  7.717342522100 	
H	 15.157456255900 	  7.394961089900 	 17.847899242100 	
H	 12.265311577400 	  4.256482564700 	  8.516029920700 	
H	 11.696767447400 	  4.256485374700 	 18.646586640700 	
H	 12.265280477400 	 10.440044324700 	  8.516027090700 	
H	 11.696736347400 	 10.440047134700 	 18.646583810700 	
H	 26.946138877400 	  4.256491794700 	  8.544159850700 	
H	 26.377594747400 	  4.256494604700 	 18.674716570700 	
H	 26.946107777400 	 10.440053554700 	  8.544157020700 	
H	 26.377563647400 	 10.440056364700 	 18.674713740700 	
H	 12.481202737100 	  4.878809050700 	  3.159718317000 	
H	 11.912658607100 	  4.878811860700 	 13.290275037000 	
H	 12.481171637100 	 11.062370810700 	  3.159715487000 	
H	 11.912627507100 	 11.062373620700 	 13.290272207000 	
H	 27.162030037100 	  4.878818280700 	  3.187848247000 	
H	 26.593485907100 	  4.878821090700 	 13.318404967000 	
H	 27.161998937100 	 11.062380040700 	  3.187845417000 	
H	 26.593454807100 	 11.062382850700 	 13.318402137000 	
H	  1.261096601800 	  1.833710487200 	  2.332903830600 	
H	  0.692552471800 	  1.833713297200 	 12.463460550600 	
H	  1.261065501800 	  8.017272247200 	  2.332901000600 	
H	  0.692521371800 	  8.017275057200 	 12.463457720600 	
H	 15.941923901800 	  1.833719717200 	  2.361033760600 	
H	 15.373379771800 	  1.833722527200 	 12.491590480600 	
H	 15.941892801800 	  8.017281477200 	  2.361030930600 	
H	 15.373348671800 	  8.017284287200 	 12.491587650600 	
