  Invoking FHI-aims ...
  | Number of atoms                   :  96
  ...scf iterations...
  | Total energy corrected        :   -1.017528763480E+02 eV
  ...
  Total atomic forces (unitary forces cleaned)
     1  -3.2209468397E-01  6.2457449981E-01  1.9528506336E-01
     2  2.4310712979E-01  5.9443898629E-01  -1.8670787201E-01
     3  3.2209470642E-01  -6.2457438211E-01  -1.9528500503E-01
     4  -2.4310697479E-01  -5.9443879395E-01  1.8670792147E-01
     5  -7.3283837085E-01  -1.1653448981E-01  -7.8406274337E-01
     6  1.2161546400E+00  -1.7313563487E+00  2.8153112561E+00
     7  7.3283883987E-01  1.1653464622E-01  7.8406323963E-01
     8  -1.2161548868E+00  1.7313562354E+00  -2.8153109414E+00
     9  -4.9274532673E-01  3.7306568415E-01  -2.0165855497E-01
    10  -1.6227627808E+00  -1.7863021142E+00  1.8315675386E-01
    11  4.9274481000E-01  -3.7306554441E-01  2.0165809642E-01
    12  1.6227635204E+00  1.7863030782E+00  -1.8315707571E-01
    13  -5.8480269927E-01  -1.1130654757E+00  -1.2011579384E+00
    14  2.6270753820E+00  8.9413197263E-01  1.3125815855E+00
    15  5.8480202484E-01  1.1130656925E+00  1.2011576279E+00
    16  -2.6270768370E+00  -8.9413273784E-01  -1.3125805124E+00
    17  5.7292272300E-01  -7.8347672744E-01  -5.8426272251E-02
    18  -1.6433517515E+00  6.3934524352E-01  -1.8790824524E+00
    19  -5.7292197799E-01  7.8347694891E-01  5.8426859079E-02
    20  1.6433528608E+00  -6.3934585000E-01  1.8790825176E+00
    21  6.1222130982E-01  -1.1718466490E+00  -2.3910910805E-01
    22  -4.7434388056E-01  -1.1311437900E+00  3.9916787085E-01
    23  -6.1222184574E-01  1.1718469044E+00  2.3910858749E-01
    24  4.7434365329E-01  1.1311437630E+00  -3.9916799274E-01
    25  1.0561330622E+00  9.1753617063E-02  9.0695330257E-01
    26  1.6093332467E-02  -1.6458863255E+00  1.1891229539E+00
    27  -1.0561361085E+00  -9.1753902134E-02  -9.0695567039E-01
    28  -1.6092886835E-02  1.6458875521E+00  -1.1891235549E+00
    29  5.8973780063E-01  4.6453780993E-01  7.8897895158E-01
    30  -4.4569696186E-01  6.3431187860E-01  -8.2229079484E-01
    31  -5.8973761768E-01  -4.6453788899E-01  -7.8897898059E-01
    32  4.4569646702E-01  -6.3431224284E-01  8.2229048505E-01
    33  2.0978055083E-01  9.9218312038E-01  9.0460103924E-01
    34  -1.5452735910E-01  1.1305720064E+00  -8.5745544411E-01
    35  -2.0978042666E-01  -9.9218346085E-01  -9.0460082554E-01
    36  1.5452761147E-01  -1.1305723917E+00  8.5745522874E-01
    37  -8.8671944686E-01  6.0942808221E-01  -2.9743911351E-01
    38  8.9361988349E-01  7.5052762472E-01  1.7322429078E-01
    39  8.8671944047E-01  -6.0942822711E-01  2.9743915992E-01
    40  -8.9361983448E-01  -7.5052789513E-01  -1.7322380615E-01
    41  -8.3871509427E-01  1.1082966845E+00  5.8637172653E-02
    42  8.8439274518E-01  1.1734580173E+00  -7.4263065716E-02
    43  8.3871504669E-01  -1.1082965945E+00  -5.8636935872E-02
    44  -8.8439252183E-01  -1.1734578009E+00  7.4263266985E-02
    45  6.2960703690E-01  1.1971940640E-01  6.6939157848E-01
    46  -3.7622463436E+00  -1.2765357379E+00  -2.5212132841E+00
    47  -6.2957739670E-01  -1.1971918481E-01  -6.6936997042E-01
    48  3.7622463214E+00  1.2765350525E+00  2.5212110995E+00
    49  -8.6432999307E-01  2.9921950839E-01  9.5624308950E-01
    50  8.3506601130E-01  1.6985221032E+00  -3.6177937173E+00
    51  8.6432051427E-01  -2.9921487525E-01  -9.5623889046E-01
    52  -8.3506664297E-01  -1.6985246101E+00  3.6177936592E+00
    53  -7.1962249750E-01  -1.2830163748E+00  4.5098345868E-02
    54  1.0124533326E+00  1.1013749051E+00  -1.6733095781E-01
    55  7.1962394114E-01  1.2830044345E+00  -4.5101468416E-02
    56  -1.0124527078E+00  -1.1013694555E+00  1.6733103566E-01
    57  6.3445979307E-01  -1.3916880370E-01  4.1522768931E-01
    58  1.5590298248E+00  -5.1370773610E-02  2.5581285294E+00
    59  -6.3446579421E-01  1.3916822748E-01  -4.1523758001E-01
    60  -1.5590314677E+00  5.1370801316E-02  -2.5581272332E+00
    61  -6.5301649204E-03  1.4364490762E+00  -1.1034732179E-01
    62  -1.9427055583E+00  -3.4864399860E+00  9.9930288063E-01
    63  6.5411028883E-03  -1.4364410131E+00  1.1033959479E-01
    64  1.9427079511E+00  3.4864357721E+00  -9.9930245660E-01
    65  1.2831781306E-01  -8.2564530828E-01  -2.1722455893E-01
    66  3.8534702589E+00  1.3452959577E+00  -1.1413771597E+00
    67  -1.2832276302E-01  8.2564091468E-01  2.1722048288E-01
    68  -3.8534699164E+00  -1.3452975379E+00  1.1413803636E+00
    69  -8.5218071438E-01  -6.4619798878E-01  6.8398236488E-01
    70  1.1118393163E+00  -6.9965878123E-01  -1.0251138197E+00
    71  8.5218410830E-01  6.4620487385E-01  -6.8397924070E-01
    72  -1.1118387134E+00  6.9965883595E-01  1.0251134854E+00
    73  6.3975123592E-01  5.7446711197E-02  -1.1992826365E+00
    74  -1.2400831983E+00  -1.0295683324E+00  3.0212428378E+00
    75  -6.3975059654E-01  -5.7442934501E-02  1.1992885996E+00
    76  1.2400813694E+00  1.0295708545E+00  -3.0212449594E+00
    77  6.0847738471E-01  -2.1158771695E-01  3.4005529532E-01
    78  -1.2834691605E+00  -4.7845934837E-01  -8.7162166688E-01
    79  -6.0848556457E-01  2.1158888225E-01  -3.4006165455E-01
    80  1.2834699481E+00  4.7845965005E-01  8.7162126059E-01
    81  3.0560570522E-01  8.6366581344E-01  -5.4293635604E-01
    82  -7.2309516214E-01  1.7703968226E+00  1.0252206991E+00
    83  -3.0560704441E-01  -8.6366068385E-01  5.4292713305E-01
    84  7.2309525805E-01  -1.7703967997E+00  -1.0252221453E+00
    85  6.0285179790E-01  -2.6678805342E-02  3.3516511099E-01
    86  -6.7616900175E-01  4.3108812590E-02  -1.5498916552E-01
    87  -6.0286395868E-01  2.6677016617E-02  -3.3516981077E-01
    88  6.7616835263E-01  -4.3108902228E-02  1.5498916879E-01
    89  3.0535120444E-01  -5.6334339452E-01  -1.1596429526E+00
    90  -4.1049410947E-01  -4.3975027894E-01  1.4876132537E+00
    91  -3.0535062496E-01  5.6333403122E-01  1.1596474794E+00
    92  4.1049381362E-01  4.3975193078E-01  -1.4876125720E+00
    93  -5.2818916312E-01  8.5058740659E-01  4.9814258239E-01
    94  5.0010514192E-01  1.3235567360E+00  -3.6999658224E-01
    95  5.2818795069E-01  -8.5058973494E-01  -4.9813537797E-01
    96  -5.0010549696E-01  -1.3235575903E+00  3.6999734899E-01
  Stress tensor (eV/A^3):
  7.1865954905E-02  -9.3008547737E-03  2.3445389101E-02
  -9.3008547737E-03  6.8290308623E-02  7.5516538807E-03
  2.3445389101E-02  7.5516538807E-03  6.2530754627E-02
