64 
Energy: 2.6671089277003341e+00 
Mg	  0.000000000000 	  0.000000000000 	  0.000000000000 	
Mg	  1.000000000000 	  0.000000000000 	  2.980000000000 	
Mg	  0.000000000000 	  3.980000000000 	  0.000000000000 	
Mg	  1.000000000000 	  3.980000000000 	  2.980000000000 	
Mg	  3.980000000000 	  0.000000000000 	  0.000000000000 	
Mg	  4.980000000000 	  0.000000000000 	  2.980000000000 	
Mg	  3.980000000000 	  3.980000000000 	  0.000000000000 	
Mg	  4.980000000000 	  3.980000000000 	  2.980000000000 	
Mg	  1.710410862948 	  1.803607241965 	  0.000000000000 	
Mg	  2.710410862948 	  1.803607241965 	  2.980000000000 	
Mg	  1.710410862948 	  5.783607241965 	  0.000000000000 	
Mg	  2.710410862948 	  5.783607241965 	  2.980000000000 	
Mg	  5.690410862948 	  1.803607241965 	  0.000000000000 	
Mg	  6.690410862948 	  1.803607241965 	  2.980000000000 	
Mg	  5.690410862948 	  5.783607241965 	  0.000000000000 	
Mg	  6.690410862948 	  5.783607241965 	  2.980000000000 	
Mg	  2.455981895087 	  0.000000000000 	  1.524018104913 	
Mg	  3.455981895087 	  0.000000000000 	  4.504018104913 	
Mg	  2.455981895087 	  3.980000000000 	  1.524018104913 	
Mg	  3.455981895087 	  3.980000000000 	  4.504018104913 	
Mg	  6.435981895087 	  0.000000000000 	  1.524018104913 	
Mg	  7.435981895087 	  0.000000000000 	  4.504018104913 	
Mg	  6.435981895087 	  3.980000000000 	  1.524018104913 	
Mg	  7.435981895087 	  3.980000000000 	  4.504018104913 	
Mg	  0.465981895087 	  1.990000000000 	  1.524018104913 	
Mg	  1.465981895087 	  1.990000000000 	  4.504018104913 	
Mg	  0.465981895087 	  5.970000000000 	  1.524018104913 	
Mg	  1.465981895087 	  5.970000000000 	  4.504018104913 	
Mg	  4.445981895087 	  1.990000000000 	  1.524018104913 	
Mg	  5.445981895087 	  1.990000000000 	  4.504018104913 	
Mg	  4.445981895087 	  5.970000000000 	  1.524018104913 	
Mg	  5.445981895087 	  5.970000000000 	  4.504018104913 	
O	  1.990000000000 	  0.000000000000 	  0.000000000000 	
O	  2.990000000000 	  0.000000000000 	  2.980000000000 	
O	  1.990000000000 	  3.980000000000 	  0.000000000000 	
O	  2.990000000000 	  3.980000000000 	  2.980000000000 	
O	  5.970000000000 	  0.000000000000 	  0.000000000000 	
O	  6.970000000000 	  0.000000000000 	  2.980000000000 	
O	  5.970000000000 	  3.980000000000 	  0.000000000000 	
O	  6.970000000000 	  3.980000000000 	  2.980000000000 	
O	  0.000000000000 	  1.990000000000 	  0.000000000000 	
O	  1.000000000000 	  1.990000000000 	  2.980000000000 	
O	  0.000000000000 	  5.970000000000 	  0.000000000000 	
O	  1.000000000000 	  5.970000000000 	  2.980000000000 	
O	  3.980000000000 	  1.990000000000 	  0.000000000000 	
O	  4.980000000000 	  1.990000000000 	  2.980000000000 	
O	  3.980000000000 	  5.970000000000 	  0.000000000000 	
O	  4.980000000000 	  5.970000000000 	  2.980000000000 	
O	  0.465981895087 	  0.000000000000 	  1.524018104913 	
O	  1.465981895087 	  0.000000000000 	  4.504018104913 	
O	  0.465981895087 	  3.980000000000 	  1.524018104913 	
O	  1.465981895087 	  3.980000000000 	  4.504018104913 	
O	  4.445981895087 	  0.000000000000 	  1.524018104913 	
O	  5.445981895087 	  0.000000000000 	  4.504018104913 	
O	  4.445981895087 	  3.980000000000 	  1.524018104913 	
O	  5.445981895087 	  3.980000000000 	  4.504018104913 	
O	  2.828767411156 	  1.377699789856 	  1.524018104913 	
O	  3.828767411156 	  1.377699789856 	  4.504018104913 	
O	  2.828767411156 	  5.357699789856 	  1.524018104913 	
O	  3.828767411156 	  5.357699789856 	  4.504018104913 	
O	  6.808767411156 	  1.377699789856 	  1.524018104913 	
O	  7.808767411156 	  1.377699789856 	  4.504018104913 	
O	  6.808767411156 	  5.357699789856 	  1.524018104913 	
O	  7.808767411156 	  5.357699789856 	  4.504018104913 	
64 
Energy: 2.7129866664031397e+00 
Mg	  0.000000000000 	  0.000000000000 	  0.000000000000 	
Mg	  1.000000000000 	  0.000000000000 	  2.980000000000 	
Mg	  0.000000000000 	  3.980000000000 	  0.000000000000 	
Mg	  1.000000000000 	  3.980000000000 	  2.980000000000 	
Mg	  3.980000000000 	  0.000000000000 	  0.000000000000 	
Mg	  4.980000000000 	  0.000000000000 	  2.980000000000 	
Mg	  3.980000000000 	  3.980000000000 	  0.000000000000 	
Mg	  4.980000000000 	  3.980000000000 	  2.980000000000 	
Mg	  1.736029925929 	  1.823534354775 	  0.000000000000 	
Mg	  2.736029925929 	  1.823534354775 	  2.980000000000 	
Mg	  1.736029925929 	  5.803534354775 	  0.000000000000 	
Mg	  2.736029925929 	  5.803534354775 	  2.980000000000 	
Mg	  5.716029925929 	  1.823534354775 	  0.000000000000 	
Mg	  6.716029925929 	  1.823534354775 	  2.980000000000 	
Mg	  5.716029925929 	  5.803534354775 	  0.000000000000 	
Mg	  6.716029925929 	  5.803534354775 	  2.980000000000 	
Mg	  2.436065356703 	  0.000000000000 	  1.561021068235 	
Mg	  3.436065356703 	  0.000000000000 	  4.541021068235 	
Mg	  2.436065356703 	  3.980000000000 	  1.561021068235 	
Mg	  3.436065356703 	  3.980000000000 	  4.541021068235 	
Mg	  6.416065356703 	  0.000000000000 	  1.561021068235 	
Mg	  7.416065356703 	  0.000000000000 	  4.541021068235 	
Mg	  6.416065356703 	  3.980000000000 	  1.561021068235 	
Mg	  7.416065356703 	  3.980000000000 	  4.541021068235 	
Mg	  0.437522144234 	  1.998543212469 	  1.561021068235 	
Mg	  1.437522144234 	  1.998543212469 	  4.541021068235 	
Mg	  0.437522144234 	  5.978543212469 	  1.561021068235 	
Mg	  1.437522144234 	  5.978543212469 	  4.541021068235 	
Mg	  4.417522144234 	  1.998543212469 	  1.561021068235 	
Mg	  5.417522144234 	  1.998543212469 	  4.541021068235 	
Mg	  4.417522144234 	  5.978543212469 	  1.561021068235 	
Mg	  5.417522144234 	  5.978543212469 	  4.541021068235 	
O	  1.998543212469 	  0.000000000000 	  0.000000000000 	
O	  2.998543212469 	  0.000000000000 	  2.980000000000 	
O	  1.998543212469 	  3.980000000000 	  0.000000000000 	
O	  2.998543212469 	  3.980000000000 	  2.980000000000 	
O	  5.978543212469 	  0.000000000000 	  0.000000000000 	
O	  6.978543212469 	  0.000000000000 	  2.980000000000 	
O	  5.978543212469 	  3.980000000000 	  0.000000000000 	
O	  6.978543212469 	  3.980000000000 	  2.980000000000 	
O	  0.000000000000 	  1.998543212469 	  0.000000000000 	
O	  1.000000000000 	  1.998543212469 	  2.980000000000 	
O	  0.000000000000 	  5.978543212469 	  0.000000000000 	
O	  1.000000000000 	  5.978543212469 	  2.980000000000 	
O	  3.980000000000 	  1.998543212469 	  0.000000000000 	
O	  4.980000000000 	  1.998543212469 	  2.980000000000 	
O	  3.980000000000 	  5.978543212469 	  0.000000000000 	
O	  4.980000000000 	  5.978543212469 	  2.980000000000 	
O	  0.437522144234 	  0.000000000000 	  1.561021068235 	
O	  1.437522144234 	  0.000000000000 	  4.541021068235 	
O	  0.437522144234 	  3.980000000000 	  1.561021068235 	
O	  1.437522144234 	  3.980000000000 	  4.541021068235 	
O	  4.417522144234 	  0.000000000000 	  1.561021068235 	
O	  5.417522144234 	  0.000000000000 	  4.541021068235 	
O	  4.417522144234 	  3.980000000000 	  1.561021068235 	
O	  5.417522144234 	  3.980000000000 	  4.541021068235 	
O	  2.786083072091 	  1.423639114945 	  1.561021068235 	
O	  3.786083072091 	  1.423639114945 	  4.541021068235 	
O	  2.786083072091 	  5.403639114945 	  1.561021068235 	
O	  3.786083072091 	  5.403639114945 	  4.541021068235 	
O	  6.766083072091 	  1.423639114945 	  1.561021068235 	
O	  7.766083072091 	  1.423639114945 	  4.541021068235 	
O	  6.766083072091 	  5.403639114945 	  1.561021068235 	
O	  7.766083072091 	  5.403639114945 	  4.541021068235 	
64 
Energy: 3.1688285280556698e+00 
Mg	  0.000000000000 	  0.000000000000 	  0.000000000000 	
Mg	  1.000000000000 	  0.000000000000 	  2.980000000000 	
Mg	  0.000000000000 	  3.980000000000 	  0.000000000000 	
Mg	  1.000000000000 	  3.980000000000 	  2.980000000000 	
Mg	  3.980000000000 	  0.000000000000 	  0.000000000000 	
Mg	  4.980000000000 	  0.000000000000 	  2.980000000000 	
Mg	  3.980000000000 	  3.980000000000 	  0.000000000000 	
Mg	  4.980000000000 	  3.980000000000 	  2.980000000000 	
Mg	  1.761898022163 	  1.843577854850 	  0.000000000000 	
Mg	  2.761898022163 	  1.843577854850 	  2.980000000000 	
Mg	  1.761898022163 	  5.823577854850 	  0.000000000000 	
Mg	  2.761898022163 	  5.823577854850 	  2.980000000000 	
Mg	  5.741898022163 	  1.843577854850 	  0.000000000000 	
Mg	  6.741898022163 	  1.843577854850 	  2.980000000000 	
Mg	  5.741898022163 	  5.823577854850 	  0.000000000000 	
Mg	  6.741898022163 	  5.823577854850 	  2.980000000000 	
Mg	  2.415336683658 	  0.000000000000 	  1.598538356789 	
Mg	  3.415336683658 	  0.000000000000 	  4.578538356789 	
Mg	  2.415336683658 	  3.980000000000 	  1.598538356789 	
Mg	  3.415336683658 	  3.980000000000 	  4.578538356789 	
Mg	  6.395336683658 	  0.000000000000 	  1.598538356789 	
Mg	  7.395336683658 	  0.000000000000 	  4.578538356789 	
Mg	  6.395336683658 	  3.980000000000 	  1.598538356789 	
Mg	  7.395336683658 	  3.980000000000 	  4.578538356789 	
Mg	  0.408399163434 	  2.006937520224 	  1.598538356789 	
Mg	  1.408399163434 	  2.006937520224 	  4.578538356789 	
Mg	  0.408399163434 	  5.986937520224 	  1.598538356789 	
Mg	  1.408399163434 	  5.986937520224 	  4.578538356789 	
Mg	  4.388399163434 	  2.006937520224 	  1.598538356789 	
Mg	  5.388399163434 	  2.006937520224 	  4.578538356789 	
Mg	  4.388399163434 	  5.986937520224 	  1.598538356789 	
Mg	  5.388399163434 	  5.986937520224 	  4.578538356789 	
O	  2.006937520224 	  0.000000000000 	  0.000000000000 	
O	  3.006937520224 	  0.000000000000 	  2.980000000000 	
O	  2.006937520224 	  3.980000000000 	  0.000000000000 	
O	  3.006937520224 	  3.980000000000 	  2.980000000000 	
O	  5.986937520224 	  0.000000000000 	  0.000000000000 	
O	  6.986937520224 	  0.000000000000 	  2.980000000000 	
O	  5.986937520224 	  3.980000000000 	  0.000000000000 	
O	  6.986937520224 	  3.980000000000 	  2.980000000000 	
O	  0.000000000000 	  2.006937520224 	  0.000000000000 	
O	  1.000000000000 	  2.006937520224 	  2.980000000000 	
O	  0.000000000000 	  5.986937520224 	  0.000000000000 	
O	  1.000000000000 	  5.986937520224 	  2.980000000000 	
O	  3.980000000000 	  2.006937520224 	  0.000000000000 	
O	  4.980000000000 	  2.006937520224 	  2.980000000000 	
O	  3.980000000000 	  5.986937520224 	  0.000000000000 	
O	  4.980000000000 	  5.986937520224 	  2.980000000000 	
O	  0.408399163434 	  0.000000000000 	  1.598538356789 	
O	  1.408399163434 	  0.000000000000 	  4.578538356789 	
O	  0.408399163434 	  3.980000000000 	  1.598538356789 	
O	  1.408399163434 	  3.980000000000 	  4.578538356789 	
O	  4.388399163434 	  0.000000000000 	  1.598538356789 	
O	  5.388399163434 	  0.000000000000 	  4.578538356789 	
O	  4.388399163434 	  3.980000000000 	  1.598538356789 	
O	  5.388399163434 	  3.980000000000 	  4.578538356789 	
O	  2.742056014405 	  1.470301019471 	  1.598538356789 	
O	  3.742056014405 	  1.470301019471 	  4.578538356789 	
O	  2.742056014405 	  5.450301019471 	  1.598538356789 	
O	  3.742056014405 	  5.450301019471 	  4.578538356789 	
O	  6.722056014405 	  1.470301019471 	  1.598538356789 	
O	  7.722056014405 	  1.470301019471 	  4.578538356789 	
O	  6.722056014405 	  5.450301019471 	  1.598538356789 	
O	  7.722056014405 	  5.450301019471 	  4.578538356789 	
64 
Energy: 3.8177709232643888e+00 
Mg	  0.000000000000 	  0.000000000000 	  0.000000000000 	
Mg	  1.000000000000 	  0.000000000000 	  2.980000000000 	
Mg	  0.000000000000 	  3.980000000000 	  0.000000000000 	
Mg	  1.000000000000 	  3.980000000000 	  2.980000000000 	
Mg	  3.980000000000 	  0.000000000000 	  0.000000000000 	
Mg	  4.980000000000 	  0.000000000000 	  2.980000000000 	
Mg	  3.980000000000 	  3.980000000000 	  0.000000000000 	
Mg	  4.980000000000 	  3.980000000000 	  2.980000000000 	
Mg	  1.787802269328 	  1.863651745667 	  0.000000000000 	
Mg	  2.787802269328 	  1.863651745667 	  2.980000000000 	
Mg	  1.787802269328 	  5.843651745667 	  0.000000000000 	
Mg	  2.787802269328 	  5.843651745667 	  2.980000000000 	
Mg	  5.767802269328 	  1.863651745667 	  0.000000000000 	
Mg	  6.767802269328 	  1.863651745667 	  2.980000000000 	
Mg	  5.767802269328 	  5.843651745667 	  0.000000000000 	
Mg	  6.767802269328 	  5.843651745667 	  2.980000000000 	
Mg	  2.394598080039 	  0.000000000000 	  1.636103316650 	
Mg	  3.394598080039 	  0.000000000000 	  4.616103316650 	
Mg	  2.394598080039 	  3.980000000000 	  1.636103316650 	
Mg	  3.394598080039 	  3.980000000000 	  4.616103316650 	
Mg	  6.374598080039 	  0.000000000000 	  1.636103316650 	
Mg	  7.374598080039 	  0.000000000000 	  4.616103316650 	
Mg	  6.374598080039 	  3.980000000000 	  1.636103316650 	
Mg	  7.374598080039 	  3.980000000000 	  4.616103316650 	
Mg	  0.379247381695 	  2.015350698345 	  1.636103316650 	
Mg	  1.379247381695 	  2.015350698345 	  4.616103316650 	
Mg	  0.379247381695 	  5.995350698345 	  1.636103316650 	
Mg	  1.379247381695 	  5.995350698345 	  4.616103316650 	
Mg	  4.359247381695 	  2.015350698345 	  1.636103316650 	
Mg	  5.359247381695 	  2.015350698345 	  4.616103316650 	
Mg	  4.359247381695 	  5.995350698345 	  1.636103316650 	
Mg	  5.359247381695 	  5.995350698345 	  4.616103316650 	
O	  2.015350698345 	  0.000000000000 	  0.000000000000 	
O	  3.015350698345 	  0.000000000000 	  2.980000000000 	
O	  2.015350698345 	  3.980000000000 	  0.000000000000 	
O	  3.015350698345 	  3.980000000000 	  2.980000000000 	
O	  5.995350698345 	  0.000000000000 	  0.000000000000 	
O	  6.995350698345 	  0.000000000000 	  2.980000000000 	
O	  5.995350698345 	  3.980000000000 	  0.000000000000 	
O	  6.995350698345 	  3.980000000000 	  2.980000000000 	
O	  0.000000000000 	  2.015350698345 	  0.000000000000 	
O	  1.000000000000 	  2.015350698345 	  2.980000000000 	
O	  0.000000000000 	  5.995350698345 	  0.000000000000 	
O	  1.000000000000 	  5.995350698345 	  2.980000000000 	
O	  3.980000000000 	  2.015350698345 	  0.000000000000 	
O	  4.980000000000 	  2.015350698345 	  2.980000000000 	
O	  3.980000000000 	  5.995350698345 	  0.000000000000 	
O	  4.980000000000 	  5.995350698345 	  2.980000000000 	
O	  0.379247381695 	  0.000000000000 	  1.636103316650 	
O	  1.379247381695 	  0.000000000000 	  4.616103316650 	
O	  0.379247381695 	  3.980000000000 	  1.636103316650 	
O	  1.379247381695 	  3.980000000000 	  4.616103316650 	
O	  4.359247381695 	  0.000000000000 	  1.636103316650 	
O	  5.359247381695 	  0.000000000000 	  4.616103316650 	
O	  4.359247381695 	  3.980000000000 	  1.636103316650 	
O	  5.359247381695 	  3.980000000000 	  4.616103316650 	
O	  2.697995985395 	  1.517019638798 	  1.636103316650 	
O	  3.697995985395 	  1.517019638798 	  4.616103316650 	
O	  2.697995985395 	  5.497019638798 	  1.636103316650 	
O	  3.697995985395 	  5.497019638798 	  4.616103316650 	
O	  6.677995985395 	  1.517019638798 	  1.636103316650 	
O	  7.677995985395 	  1.517019638798 	  4.616103316650 	
O	  6.677995985395 	  5.497019638798 	  1.636103316650 	
O	  7.677995985395 	  5.497019638798 	  4.616103316650 	
64 
Energy: 4.4910680554173084e+00 
Mg	  0.000000000000 	  0.000000000000 	  0.000000000000 	
Mg	  1.000000000000 	  0.000000000000 	  2.980000000000 	
Mg	  0.000000000000 	  3.980000000000 	  0.000000000000 	
Mg	  1.000000000000 	  3.980000000000 	  2.980000000000 	
Mg	  3.980000000000 	  0.000000000000 	  0.000000000000 	
Mg	  4.980000000000 	  0.000000000000 	  2.980000000000 	
Mg	  3.980000000000 	  3.980000000000 	  0.000000000000 	
Mg	  4.980000000000 	  3.980000000000 	  2.980000000000 	
Mg	  1.813739336226 	  1.883753119559 	  0.000000000000 	
Mg	  2.813739336226 	  1.883753119559 	  2.980000000000 	
Mg	  1.813739336226 	  5.863753119559 	  0.000000000000 	
Mg	  2.813739336226 	  5.863753119559 	  2.980000000000 	
Mg	  5.793739336226 	  1.883753119559 	  0.000000000000 	
Mg	  6.793739336226 	  1.883753119559 	  2.980000000000 	
Mg	  5.793739336226 	  5.863753119559 	  0.000000000000 	
Mg	  6.793739336226 	  5.863753119559 	  2.980000000000 	
Mg	  2.373849602895 	  0.000000000000 	  1.673711769558 	
Mg	  3.373849602895 	  0.000000000000 	  4.653711769558 	
Mg	  2.373849602895 	  3.980000000000 	  1.673711769558 	
Mg	  3.373849602895 	  3.980000000000 	  4.653711769558 	
Mg	  6.353849602895 	  0.000000000000 	  1.673711769558 	
Mg	  7.353849602895 	  0.000000000000 	  4.653711769558 	
Mg	  6.353849602895 	  3.980000000000 	  1.673711769558 	
Mg	  7.353849602895 	  3.980000000000 	  4.653711769558 	
Mg	  0.350068916668 	  2.023780686226 	  1.673711769558 	
Mg	  1.350068916668 	  2.023780686226 	  4.653711769558 	
Mg	  0.350068916668 	  6.003780686226 	  1.673711769558 	
Mg	  1.350068916668 	  6.003780686226 	  4.653711769558 	
Mg	  4.330068916668 	  2.023780686226 	  1.673711769558 	
Mg	  5.330068916668 	  2.023780686226 	  4.653711769558 	
Mg	  4.330068916668 	  6.003780686226 	  1.673711769558 	
Mg	  5.330068916668 	  6.003780686226 	  4.653711769558 	
O	  2.023780686226 	  0.000000000000 	  0.000000000000 	
O	  3.023780686226 	  0.000000000000 	  2.980000000000 	
O	  2.023780686226 	  3.980000000000 	  0.000000000000 	
O	  3.023780686226 	  3.980000000000 	  2.980000000000 	
O	  6.003780686226 	  0.000000000000 	  0.000000000000 	
O	  7.003780686226 	  0.000000000000 	  2.980000000000 	
O	  6.003780686226 	  3.980000000000 	  0.000000000000 	
O	  7.003780686226 	  3.980000000000 	  2.980000000000 	
O	  0.000000000000 	  2.023780686226 	  0.000000000000 	
O	  1.000000000000 	  2.023780686226 	  2.980000000000 	
O	  0.000000000000 	  6.003780686226 	  0.000000000000 	
O	  1.000000000000 	  6.003780686226 	  2.980000000000 	
O	  3.980000000000 	  2.023780686226 	  0.000000000000 	
O	  4.980000000000 	  2.023780686226 	  2.980000000000 	
O	  3.980000000000 	  6.003780686226 	  0.000000000000 	
O	  4.980000000000 	  6.003780686226 	  2.980000000000 	
O	  0.350068916668 	  0.000000000000 	  1.673711769558 	
O	  1.350068916668 	  0.000000000000 	  4.653711769558 	
O	  0.350068916668 	  3.980000000000 	  1.673711769558 	
O	  1.350068916668 	  3.980000000000 	  4.653711769558 	
O	  4.330068916668 	  0.000000000000 	  1.673711769558 	
O	  5.330068916668 	  0.000000000000 	  4.653711769558 	
O	  4.330068916668 	  3.980000000000 	  1.673711769558 	
O	  5.330068916668 	  3.980000000000 	  4.653711769558 	
O	  2.653904736229 	  1.563790129724 	  1.673711769558 	
O	  3.653904736229 	  1.563790129724 	  4.653711769558 	
O	  2.653904736229 	  5.543790129724 	  1.673711769558 	
O	  3.653904736229 	  5.543790129724 	  4.653711769558 	
O	  6.633904736229 	  1.563790129724 	  1.673711769558 	
O	  7.633904736229 	  1.563790129724 	  4.653711769558 	
O	  6.633904736229 	  5.543790129724 	  1.673711769558 	
O	  7.633904736229 	  5.543790129724 	  4.653711769558 	
64 
Energy: 5.0777448613776155e+00 
Mg	  0.000000000000 	  0.000000000000 	  0.000000000000 	
Mg	  1.000000000000 	  0.000000000000 	  2.980000000000 	
Mg	  0.000000000000 	  3.980000000000 	  0.000000000000 	
Mg	  1.000000000000 	  3.980000000000 	  2.980000000000 	
Mg	  3.980000000000 	  0.000000000000 	  0.000000000000 	
Mg	  4.980000000000 	  0.000000000000 	  2.980000000000 	
Mg	  3.980000000000 	  3.980000000000 	  0.000000000000 	
Mg	  4.980000000000 	  3.980000000000 	  2.980000000000 	
Mg	  1.839698225176 	  1.903873166972 	  0.000000000000 	
Mg	  2.839698225176 	  1.903873166972 	  2.980000000000 	
Mg	  1.839698225176 	  5.883873166972 	  0.000000000000 	
Mg	  2.839698225176 	  5.883873166972 	  2.980000000000 	
Mg	  5.819698225176 	  1.903873166972 	  0.000000000000 	
Mg	  6.819698225176 	  1.903873166972 	  2.980000000000 	
Mg	  5.819698225176 	  5.883873166972 	  0.000000000000 	
Mg	  6.819698225176 	  5.883873166972 	  2.980000000000 	
Mg	  2.353097759539 	  0.000000000000 	  1.711348341586 	
Mg	  3.353097759539 	  0.000000000000 	  4.691348341586 	
Mg	  2.353097759539 	  3.980000000000 	  1.711348341586 	
Mg	  3.353097759539 	  3.980000000000 	  4.691348341586 	
Mg	  6.333097759539 	  0.000000000000 	  1.711348341586 	
Mg	  7.333097759539 	  0.000000000000 	  4.691348341586 	
Mg	  6.333097759539 	  3.980000000000 	  1.711348341586 	
Mg	  7.333097759539 	  3.980000000000 	  4.691348341586 	
Mg	  0.320874708976 	  2.032223050562 	  1.711348341586 	
Mg	  1.320874708976 	  2.032223050562 	  4.691348341586 	
Mg	  0.320874708976 	  6.012223050562 	  1.711348341586 	
Mg	  1.320874708976 	  6.012223050562 	  4.691348341586 	
Mg	  4.300874708976 	  2.032223050562 	  1.711348341586 	
Mg	  5.300874708976 	  2.032223050562 	  4.691348341586 	
Mg	  4.300874708976 	  6.012223050562 	  1.711348341586 	
Mg	  5.300874708976 	  6.012223050562 	  4.691348341586 	
O	  2.032223050562 	  0.000000000000 	  0.000000000000 	
O	  3.032223050562 	  0.000000000000 	  2.980000000000 	
O	  2.032223050562 	  3.980000000000 	  0.000000000000 	
O	  3.032223050562 	  3.980000000000 	  2.980000000000 	
O	  6.012223050562 	  0.000000000000 	  0.000000000000 	
O	  7.012223050562 	  0.000000000000 	  2.980000000000 	
O	  6.012223050562 	  3.980000000000 	  0.000000000000 	
O	  7.012223050562 	  3.980000000000 	  2.980000000000 	
O	  0.000000000000 	  2.032223050562 	  0.000000000000 	
O	  1.000000000000 	  2.032223050562 	  2.980000000000 	
O	  0.000000000000 	  6.012223050562 	  0.000000000000 	
O	  1.000000000000 	  6.012223050562 	  2.980000000000 	
O	  3.980000000000 	  2.032223050562 	  0.000000000000 	
O	  4.980000000000 	  2.032223050562 	  2.980000000000 	
O	  3.980000000000 	  6.012223050562 	  0.000000000000 	
O	  4.980000000000 	  6.012223050562 	  2.980000000000 	
O	  0.320874708976 	  0.000000000000 	  1.711348341586 	
O	  1.320874708976 	  0.000000000000 	  4.691348341586 	
O	  0.320874708976 	  3.980000000000 	  1.711348341586 	
O	  1.320874708976 	  3.980000000000 	  4.691348341586 	
O	  4.300874708976 	  0.000000000000 	  1.711348341586 	
O	  5.300874708976 	  0.000000000000 	  4.691348341586 	
O	  4.300874708976 	  3.980000000000 	  1.711348341586 	
O	  5.300874708976 	  3.980000000000 	  4.691348341586 	
O	  2.609797526720 	  1.610593682967 	  1.711348341586 	
O	  3.609797526720 	  1.610593682967 	  4.691348341586 	
O	  2.609797526720 	  5.590593682967 	  1.711348341586 	
O	  3.609797526720 	  5.590593682967 	  4.691348341586 	
O	  6.589797526720 	  1.610593682967 	  1.711348341586 	
O	  7.589797526720 	  1.610593682967 	  4.691348341586 	
O	  6.589797526720 	  5.590593682967 	  1.711348341586 	
O	  7.589797526720 	  5.590593682967 	  4.691348341586 	
64 
Energy: 5.4998682515446067e+00 
Mg	  0.000000000000 	  0.000000000000 	  0.000000000000 	
Mg	  1.000000000000 	  0.000000000000 	  2.980000000000 	
Mg	  0.000000000000 	  3.980000000000 	  0.000000000000 	
Mg	  1.000000000000 	  3.980000000000 	  2.980000000000 	
Mg	  3.980000000000 	  0.000000000000 	  0.000000000000 	
Mg	  4.980000000000 	  0.000000000000 	  2.980000000000 	
Mg	  3.980000000000 	  3.980000000000 	  0.000000000000 	
Mg	  4.980000000000 	  3.980000000000 	  2.980000000000 	
Mg	  1.865672749281 	  1.924006355482 	  0.000000000000 	
Mg	  2.865672749281 	  1.924006355482 	  2.980000000000 	
Mg	  1.865672749281 	  5.904006355482 	  0.000000000000 	
Mg	  2.865672749281 	  5.904006355482 	  2.980000000000 	
Mg	  5.845672749281 	  1.924006355482 	  0.000000000000 	
Mg	  6.845672749281 	  1.924006355482 	  2.980000000000 	
Mg	  5.845672749281 	  5.904006355482 	  0.000000000000 	
Mg	  6.845672749281 	  5.904006355482 	  2.980000000000 	
Mg	  2.332341598889 	  0.000000000000 	  1.749005536879 	
Mg	  3.332341598889 	  0.000000000000 	  4.729005536879 	
Mg	  2.332341598889 	  3.980000000000 	  1.749005536879 	
Mg	  3.332341598889 	  3.980000000000 	  4.729005536879 	
Mg	  6.312341598889 	  0.000000000000 	  1.749005536879 	
Mg	  7.312341598889 	  0.000000000000 	  4.729005536879 	
Mg	  6.312341598889 	  3.980000000000 	  1.749005536879 	
Mg	  7.312341598889 	  3.980000000000 	  4.729005536879 	
Mg	  0.291668031005 	  2.040673567884 	  1.749005536879 	
Mg	  1.291668031005 	  2.040673567884 	  4.729005536879 	
Mg	  0.291668031005 	  6.020673567884 	  1.749005536879 	
Mg	  1.291668031005 	  6.020673567884 	  4.729005536879 	
Mg	  4.271668031005 	  2.040673567884 	  1.749005536879 	
Mg	  5.271668031005 	  2.040673567884 	  4.729005536879 	
Mg	  4.271668031005 	  6.020673567884 	  1.749005536879 	
Mg	  5.271668031005 	  6.020673567884 	  4.729005536879 	
O	  2.040673567884 	  0.000000000000 	  0.000000000000 	
O	  3.040673567884 	  0.000000000000 	  2.980000000000 	
O	  2.040673567884 	  3.980000000000 	  0.000000000000 	
O	  3.040673567884 	  3.980000000000 	  2.980000000000 	
O	  6.020673567884 	  0.000000000000 	  0.000000000000 	
O	  7.020673567884 	  0.000000000000 	  2.980000000000 	
O	  6.020673567884 	  3.980000000000 	  0.000000000000 	
O	  7.020673567884 	  3.980000000000 	  2.980000000000 	
O	  0.000000000000 	  2.040673567884 	  0.000000000000 	
O	  1.000000000000 	  2.040673567884 	  2.980000000000 	
O	  0.000000000000 	  6.020673567884 	  0.000000000000 	
O	  1.000000000000 	  6.020673567884 	  2.980000000000 	
O	  3.980000000000 	  2.040673567884 	  0.000000000000 	
O	  4.980000000000 	  2.040673567884 	  2.980000000000 	
O	  3.980000000000 	  6.020673567884 	  0.000000000000 	
O	  4.980000000000 	  6.020673567884 	  2.980000000000 	
O	  0.291668031005 	  0.000000000000 	  1.749005536879 	
O	  1.291668031005 	  0.000000000000 	  4.729005536879 	
O	  0.291668031005 	  3.980000000000 	  1.749005536879 	
O	  1.291668031005 	  3.980000000000 	  4.729005536879 	
O	  4.271668031005 	  0.000000000000 	  1.749005536879 	
O	  5.271668031005 	  0.000000000000 	  4.729005536879 	
O	  4.271668031005 	  3.980000000000 	  1.749005536879 	
O	  5.271668031005 	  3.980000000000 	  4.729005536879 	
O	  2.565676023694 	  1.657421775143 	  1.749005536879 	
O	  3.565676023694 	  1.657421775143 	  4.729005536879 	
O	  2.565676023694 	  5.637421775143 	  1.749005536879 	
O	  3.565676023694 	  5.637421775143 	  4.729005536879 	
O	  6.545676023694 	  1.657421775143 	  1.749005536879 	
O	  7.545676023694 	  1.657421775143 	  4.729005536879 	
O	  6.545676023694 	  5.637421775143 	  1.749005536879 	
O	  7.545676023694 	  5.637421775143 	  4.729005536879 	
64 
Energy: 5.7067640004751601e+00 
Mg	  0.000000000000 	  0.000000000000 	  0.000000000000 	
Mg	  1.000000000000 	  0.000000000000 	  2.980000000000 	
Mg	  0.000000000000 	  3.980000000000 	  0.000000000000 	
Mg	  1.000000000000 	  3.980000000000 	  2.980000000000 	
Mg	  3.980000000000 	  0.000000000000 	  0.000000000000 	
Mg	  4.980000000000 	  0.000000000000 	  2.980000000000 	
Mg	  3.980000000000 	  3.980000000000 	  0.000000000000 	
Mg	  4.980000000000 	  3.980000000000 	  2.980000000000 	
Mg	  1.891655200030 	  1.944146350558 	  0.000000000000 	
Mg	  2.891655200030 	  1.944146350558 	  2.980000000000 	
Mg	  1.891655200030 	  5.924146350558 	  0.000000000000 	
Mg	  2.891655200030 	  5.924146350558 	  2.980000000000 	
Mg	  5.871655200030 	  1.944146350558 	  0.000000000000 	
Mg	  6.871655200030 	  1.944146350558 	  2.980000000000 	
Mg	  5.871655200030 	  5.924146350558 	  0.000000000000 	
Mg	  6.871655200030 	  5.924146350558 	  2.980000000000 	
Mg	  2.311584404257 	  0.000000000000 	  1.786672898973 	
Mg	  3.311584404257 	  0.000000000000 	  4.766672898973 	
Mg	  2.311584404257 	  3.980000000000 	  1.786672898973 	
Mg	  3.311584404257 	  3.980000000000 	  4.766672898973 	
Mg	  6.291584404257 	  0.000000000000 	  1.786672898973 	
Mg	  7.291584404257 	  0.000000000000 	  4.766672898973 	
Mg	  6.291584404257 	  3.980000000000 	  1.786672898973 	
Mg	  7.291584404257 	  3.980000000000 	  4.766672898973 	
Mg	  0.262455752642 	  2.049128651615 	  1.786672898973 	
Mg	  1.262455752642 	  2.049128651615 	  4.766672898973 	
Mg	  0.262455752642 	  6.029128651615 	  1.786672898973 	
Mg	  1.262455752642 	  6.029128651615 	  4.766672898973 	
Mg	  4.242455752642 	  2.049128651615 	  1.786672898973 	
Mg	  5.242455752642 	  2.049128651615 	  4.766672898973 	
Mg	  4.242455752642 	  6.029128651615 	  1.786672898973 	
Mg	  5.242455752642 	  6.029128651615 	  4.766672898973 	
O	  2.049128651615 	  0.000000000000 	  0.000000000000 	
O	  3.049128651615 	  0.000000000000 	  2.980000000000 	
O	  2.049128651615 	  3.980000000000 	  0.000000000000 	
O	  3.049128651615 	  3.980000000000 	  2.980000000000 	
O	  6.029128651615 	  0.000000000000 	  0.000000000000 	
O	  7.029128651615 	  0.000000000000 	  2.980000000000 	
O	  6.029128651615 	  3.980000000000 	  0.000000000000 	
O	  7.029128651615 	  3.980000000000 	  2.980000000000 	
O	  0.000000000000 	  2.049128651615 	  0.000000000000 	
O	  1.000000000000 	  2.049128651615 	  2.980000000000 	
O	  0.000000000000 	  6.029128651615 	  0.000000000000 	
O	  1.000000000000 	  6.029128651615 	  2.980000000000 	
O	  3.980000000000 	  2.049128651615 	  0.000000000000 	
O	  4.980000000000 	  2.049128651615 	  2.980000000000 	
O	  3.980000000000 	  6.029128651615 	  0.000000000000 	
O	  4.980000000000 	  6.029128651615 	  2.980000000000 	
O	  0.262455752642 	  0.000000000000 	  1.786672898973 	
O	  1.262455752642 	  0.000000000000 	  4.766672898973 	
O	  0.262455752642 	  3.980000000000 	  1.786672898973 	
O	  1.262455752642 	  3.980000000000 	  4.766672898973 	
O	  4.242455752642 	  0.000000000000 	  1.786672898973 	
O	  5.242455752642 	  0.000000000000 	  4.766672898973 	
O	  4.242455752642 	  3.980000000000 	  1.786672898973 	
O	  5.242455752642 	  3.980000000000 	  4.766672898973 	
O	  2.521549006371 	  1.704261792643 	  1.786672898973 	
O	  3.521549006371 	  1.704261792643 	  4.766672898973 	
O	  2.521549006371 	  5.684261792643 	  1.786672898973 	
O	  3.521549006371 	  5.684261792643 	  4.766672898973 	
O	  6.501549006371 	  1.704261792643 	  1.786672898973 	
O	  7.501549006371 	  1.704261792643 	  4.766672898973 	
O	  6.501549006371 	  5.684261792643 	  1.786672898973 	
O	  7.501549006371 	  5.684261792643 	  4.766672898973 	
64 
Energy: 5.6678166113426780e+00 
Mg	  0.000000000000 	  0.000000000000 	  0.000000000000 	
Mg	  1.000000000000 	  0.000000000000 	  2.980000000000 	
Mg	  0.000000000000 	  3.980000000000 	  0.000000000000 	
Mg	  1.000000000000 	  3.980000000000 	  2.980000000000 	
Mg	  3.980000000000 	  0.000000000000 	  0.000000000000 	
Mg	  4.980000000000 	  0.000000000000 	  2.980000000000 	
Mg	  3.980000000000 	  3.980000000000 	  0.000000000000 	
Mg	  4.980000000000 	  3.980000000000 	  2.980000000000 	
Mg	  1.917639428595 	  1.964287745693 	  0.000000000000 	
Mg	  2.917639428595 	  1.964287745693 	  2.980000000000 	
Mg	  1.917639428595 	  5.944287745693 	  0.000000000000 	
Mg	  2.917639428595 	  5.944287745693 	  2.980000000000 	
Mg	  5.897639428595 	  1.964287745693 	  0.000000000000 	
Mg	  6.897639428595 	  1.964287745693 	  2.980000000000 	
Mg	  5.897639428595 	  5.944287745693 	  0.000000000000 	
Mg	  6.897639428595 	  5.944287745693 	  2.980000000000 	
Mg	  2.290825965377 	  0.000000000000 	  1.824342794400 	
Mg	  3.290825965377 	  0.000000000000 	  4.804342794400 	
Mg	  2.290825965377 	  3.980000000000 	  1.824342794400 	
Mg	  3.290825965377 	  3.980000000000 	  4.804342794400 	
Mg	  6.270825965377 	  0.000000000000 	  1.824342794400 	
Mg	  7.270825965377 	  0.000000000000 	  4.804342794400 	
Mg	  6.270825965377 	  3.980000000000 	  1.824342794400 	
Mg	  7.270825965377 	  3.980000000000 	  4.804342794400 	
Mg	  0.233241585488 	  2.057584379888 	  1.824342794400 	
Mg	  1.233241585488 	  2.057584379888 	  4.804342794400 	
Mg	  0.233241585488 	  6.037584379888 	  1.824342794400 	
Mg	  1.233241585488 	  6.037584379888 	  4.804342794400 	
Mg	  4.213241585488 	  2.057584379888 	  1.824342794400 	
Mg	  5.213241585488 	  2.057584379888 	  4.804342794400 	
Mg	  4.213241585488 	  6.037584379888 	  1.824342794400 	
Mg	  5.213241585488 	  6.037584379888 	  4.804342794400 	
O	  2.057584379888 	  0.000000000000 	  0.000000000000 	
O	  3.057584379888 	  0.000000000000 	  2.980000000000 	
O	  2.057584379888 	  3.980000000000 	  0.000000000000 	
O	  3.057584379888 	  3.980000000000 	  2.980000000000 	
O	  6.037584379888 	  0.000000000000 	  0.000000000000 	
O	  7.037584379888 	  0.000000000000 	  2.980000000000 	
O	  6.037584379888 	  3.980000000000 	  0.000000000000 	
O	  7.037584379888 	  3.980000000000 	  2.980000000000 	
O	  0.000000000000 	  2.057584379888 	  0.000000000000 	
O	  1.000000000000 	  2.057584379888 	  2.980000000000 	
O	  0.000000000000 	  6.037584379888 	  0.000000000000 	
O	  1.000000000000 	  6.037584379888 	  2.980000000000 	
O	  3.980000000000 	  2.057584379888 	  0.000000000000 	
O	  4.980000000000 	  2.057584379888 	  2.980000000000 	
O	  3.980000000000 	  6.037584379888 	  0.000000000000 	
O	  4.980000000000 	  6.037584379888 	  2.980000000000 	
O	  0.233241585488 	  0.000000000000 	  1.824342794400 	
O	  1.233241585488 	  0.000000000000 	  4.804342794400 	
O	  0.233241585488 	  3.980000000000 	  1.824342794400 	
O	  1.233241585488 	  3.980000000000 	  4.804342794400 	
O	  4.213241585488 	  0.000000000000 	  1.824342794400 	
O	  5.213241585488 	  0.000000000000 	  4.804342794400 	
O	  4.213241585488 	  3.980000000000 	  1.824342794400 	
O	  5.213241585488 	  3.980000000000 	  4.804342794400 	
O	  2.477419233767 	  1.751104936556 	  1.824342794400 	
O	  3.477419233767 	  1.751104936556 	  4.804342794400 	
O	  2.477419233767 	  5.731104936556 	  1.824342794400 	
O	  3.477419233767 	  5.731104936556 	  4.804342794400 	
O	  6.457419233767 	  1.751104936556 	  1.824342794400 	
O	  7.457419233767 	  1.751104936556 	  4.804342794400 	
O	  6.457419233767 	  5.731104936556 	  1.824342794400 	
O	  7.457419233767 	  5.731104936556 	  4.804342794400 	
64 
Energy: 5.3711266988140709e+00 
Mg	  0.000000000000 	  0.000000000000 	  0.000000000000 	
Mg	  1.000000000000 	  0.000000000000 	  2.980000000000 	
Mg	  0.000000000000 	  3.980000000000 	  0.000000000000 	
Mg	  1.000000000000 	  3.980000000000 	  2.980000000000 	
Mg	  3.980000000000 	  0.000000000000 	  0.000000000000 	
Mg	  4.980000000000 	  0.000000000000 	  2.980000000000 	
Mg	  3.980000000000 	  3.980000000000 	  0.000000000000 	
Mg	  4.980000000000 	  3.980000000000 	  2.980000000000 	
Mg	  1.943619877243 	  1.984426236221 	  0.000000000000 	
Mg	  2.943619877243 	  1.984426236221 	  2.980000000000 	
Mg	  1.943619877243 	  5.964426236221 	  0.000000000000 	
Mg	  2.943619877243 	  5.964426236221 	  2.980000000000 	
Mg	  5.923619877243 	  1.984426236221 	  0.000000000000 	
Mg	  6.923619877243 	  1.984426236221 	  2.980000000000 	
Mg	  5.923619877243 	  5.964426236221 	  0.000000000000 	
Mg	  6.923619877243 	  5.964426236221 	  2.980000000000 	
Mg	  2.270070749069 	  0.000000000000 	  1.862007159286 	
Mg	  3.270070749069 	  0.000000000000 	  4.842007159286 	
Mg	  2.270070749069 	  3.980000000000 	  1.862007159286 	
Mg	  3.270070749069 	  3.980000000000 	  4.842007159286 	
Mg	  6.250070749069 	  0.000000000000 	  1.862007159286 	
Mg	  7.250070749069 	  0.000000000000 	  4.842007159286 	
Mg	  6.250070749069 	  3.980000000000 	  1.862007159286 	
Mg	  7.250070749069 	  3.980000000000 	  4.842007159286 	
Mg	  0.204031794891 	  2.066038954178 	  1.862007159286 	
Mg	  1.204031794891 	  2.066038954178 	  4.842007159286 	
Mg	  0.204031794891 	  6.046038954178 	  1.862007159286 	
Mg	  1.204031794891 	  6.046038954178 	  4.842007159286 	
Mg	  4.184031794891 	  2.066038954178 	  1.862007159286 	
Mg	  5.184031794891 	  2.066038954178 	  4.842007159286 	
Mg	  4.184031794891 	  6.046038954178 	  1.862007159286 	
Mg	  5.184031794891 	  6.046038954178 	  4.842007159286 	
O	  2.066038954178 	  0.000000000000 	  0.000000000000 	
O	  3.066038954178 	  0.000000000000 	  2.980000000000 	
O	  2.066038954178 	  3.980000000000 	  0.000000000000 	
O	  3.066038954178 	  3.980000000000 	  2.980000000000 	
O	  6.046038954178 	  0.000000000000 	  0.000000000000 	
O	  7.046038954178 	  0.000000000000 	  2.980000000000 	
O	  6.046038954178 	  3.980000000000 	  0.000000000000 	
O	  7.046038954178 	  3.980000000000 	  2.980000000000 	
O	  0.000000000000 	  2.066038954178 	  0.000000000000 	
O	  1.000000000000 	  2.066038954178 	  2.980000000000 	
O	  0.000000000000 	  6.046038954178 	  0.000000000000 	
O	  1.000000000000 	  6.046038954178 	  2.980000000000 	
O	  3.980000000000 	  2.066038954178 	  0.000000000000 	
O	  4.980000000000 	  2.066038954178 	  2.980000000000 	
O	  3.980000000000 	  6.046038954178 	  0.000000000000 	
O	  4.980000000000 	  6.046038954178 	  2.980000000000 	
O	  0.204031794891 	  0.000000000000 	  1.862007159286 	
O	  1.204031794891 	  0.000000000000 	  4.842007159286 	
O	  0.204031794891 	  3.980000000000 	  1.862007159286 	
O	  1.204031794891 	  3.980000000000 	  4.842007159286 	
O	  4.184031794891 	  0.000000000000 	  1.862007159286 	
O	  5.184031794891 	  0.000000000000 	  4.842007159286 	
O	  4.184031794891 	  3.980000000000 	  1.862007159286 	
O	  5.184031794891 	  3.980000000000 	  4.842007159286 	
O	  2.433296184982 	  1.797941175691 	  1.862007159286 	
O	  3.433296184982 	  1.797941175691 	  4.842007159286 	
O	  2.433296184982 	  5.777941175691 	  1.862007159286 	
O	  3.433296184982 	  5.777941175691 	  4.842007159286 	
O	  6.413296184982 	  1.797941175691 	  1.862007159286 	
O	  7.413296184982 	  1.797941175691 	  4.842007159286 	
O	  6.413296184982 	  5.777941175691 	  1.862007159286 	
O	  7.413296184982 	  5.777941175691 	  4.842007159286 	
64 
Energy: 4.8232296973797562e+00 
Mg	  0.000000000000 	  0.000000000000 	  0.000000000000 	
Mg	  1.000000000000 	  0.000000000000 	  2.980000000000 	
Mg	  0.000000000000 	  3.980000000000 	  0.000000000000 	
Mg	  1.000000000000 	  3.980000000000 	  2.980000000000 	
Mg	  3.980000000000 	  0.000000000000 	  0.000000000000 	
Mg	  4.980000000000 	  0.000000000000 	  2.980000000000 	
Mg	  3.980000000000 	  3.980000000000 	  0.000000000000 	
Mg	  4.980000000000 	  3.980000000000 	  2.980000000000 	
Mg	  1.969591345517 	  2.004557620789 	  0.000000000000 	
Mg	  2.969591345517 	  2.004557620789 	  2.980000000000 	
Mg	  1.969591345517 	  5.984557620789 	  0.000000000000 	
Mg	  2.969591345517 	  5.984557620789 	  2.980000000000 	
Mg	  5.949591345517 	  2.004557620789 	  0.000000000000 	
Mg	  6.949591345517 	  2.004557620789 	  2.980000000000 	
Mg	  5.949591345517 	  5.984557620789 	  0.000000000000 	
Mg	  6.949591345517 	  5.984557620789 	  2.980000000000 	
Mg	  2.249321547688 	  0.000000000000 	  1.899658794975 	
Mg	  3.249321547688 	  0.000000000000 	  4.879658794975 	
Mg	  2.249321547688 	  3.980000000000 	  1.899658794975 	
Mg	  3.249321547688 	  3.980000000000 	  4.879658794975 	
Mg	  6.229321547688 	  0.000000000000 	  1.899658794975 	
Mg	  7.229321547688 	  0.000000000000 	  4.879658794975 	
Mg	  6.229321547688 	  3.980000000000 	  1.899658794975 	
Mg	  7.229321547688 	  3.980000000000 	  4.879658794975 	
Mg	  0.174831376356 	  2.074490171331 	  1.899658794975 	
Mg	  1.174831376356 	  2.074490171331 	  4.879658794975 	
Mg	  0.174831376356 	  6.054490171331 	  1.899658794975 	
Mg	  1.174831376356 	  6.054490171331 	  4.879658794975 	
Mg	  4.154831376356 	  2.074490171331 	  1.899658794975 	
Mg	  5.154831376356 	  2.074490171331 	  4.879658794975 	
Mg	  4.154831376356 	  6.054490171331 	  1.899658794975 	
Mg	  5.154831376356 	  6.054490171331 	  4.879658794975 	
O	  2.074490171331 	  0.000000000000 	  0.000000000000 	
O	  3.074490171331 	  0.000000000000 	  2.980000000000 	
O	  2.074490171331 	  3.980000000000 	  0.000000000000 	
O	  3.074490171331 	  3.980000000000 	  2.980000000000 	
O	  6.054490171331 	  0.000000000000 	  0.000000000000 	
O	  7.054490171331 	  0.000000000000 	  2.980000000000 	
O	  6.054490171331 	  3.980000000000 	  0.000000000000 	
O	  7.054490171331 	  3.980000000000 	  2.980000000000 	
O	  0.000000000000 	  2.074490171331 	  0.000000000000 	
O	  1.000000000000 	  2.074490171331 	  2.980000000000 	
O	  0.000000000000 	  6.054490171331 	  0.000000000000 	
O	  1.000000000000 	  6.054490171331 	  2.980000000000 	
O	  3.980000000000 	  2.074490171331 	  0.000000000000 	
O	  4.980000000000 	  2.074490171331 	  2.980000000000 	
O	  3.980000000000 	  6.054490171331 	  0.000000000000 	
O	  4.980000000000 	  6.054490171331 	  2.980000000000 	
O	  0.174831376356 	  0.000000000000 	  1.899658794975 	
O	  1.174831376356 	  0.000000000000 	  4.879658794975 	
O	  0.174831376356 	  3.980000000000 	  1.899658794975 	
O	  1.174831376356 	  3.980000000000 	  4.879658794975 	
O	  4.154831376356 	  0.000000000000 	  1.899658794975 	
O	  5.154831376356 	  0.000000000000 	  4.879658794975 	
O	  4.154831376356 	  3.980000000000 	  1.899658794975 	
O	  5.154831376356 	  3.980000000000 	  4.879658794975 	
O	  2.389186648773 	  1.844761742799 	  1.899658794975 	
O	  3.389186648773 	  1.844761742799 	  4.879658794975 	
O	  2.389186648773 	  5.824761742799 	  1.899658794975 	
O	  3.389186648773 	  5.824761742799 	  4.879658794975 	
O	  6.369186648773 	  1.844761742799 	  1.899658794975 	
O	  7.369186648773 	  1.844761742799 	  4.879658794975 	
O	  6.369186648773 	  5.824761742799 	  1.899658794975 	
O	  7.369186648773 	  5.824761742799 	  4.879658794975 	
64 
Energy: 4.0516311786881847e+00 
Mg	  0.000000000000 	  0.000000000000 	  0.000000000000 	
Mg	  1.000000000000 	  0.000000000000 	  2.980000000000 	
Mg	  0.000000000000 	  3.980000000000 	  0.000000000000 	
Mg	  1.000000000000 	  3.980000000000 	  2.980000000000 	
Mg	  3.980000000000 	  0.000000000000 	  0.000000000000 	
Mg	  4.980000000000 	  0.000000000000 	  2.980000000000 	
Mg	  3.980000000000 	  3.980000000000 	  0.000000000000 	
Mg	  4.980000000000 	  3.980000000000 	  2.980000000000 	
Mg	  1.995548963311 	  2.024677870148 	  0.000000000000 	
Mg	  2.995548963311 	  2.024677870148 	  2.980000000000 	
Mg	  1.995548963311 	  6.004677870148 	  0.000000000000 	
Mg	  2.995548963311 	  6.004677870148 	  2.980000000000 	
Mg	  5.975548963311 	  2.024677870148 	  0.000000000000 	
Mg	  6.975548963311 	  2.024677870148 	  2.980000000000 	
Mg	  5.975548963311 	  6.004677870148 	  0.000000000000 	
Mg	  6.975548963311 	  6.004677870148 	  2.980000000000 	
Mg	  2.228580218008 	  0.000000000000 	  1.937291149637 	
Mg	  3.228580218008 	  0.000000000000 	  4.917291149637 	
Mg	  2.228580218008 	  3.980000000000 	  1.937291149637 	
Mg	  3.228580218008 	  3.980000000000 	  4.917291149637 	
Mg	  6.208580218008 	  0.000000000000 	  1.937291149637 	
Mg	  7.208580218008 	  0.000000000000 	  4.917291149637 	
Mg	  6.208580218008 	  3.980000000000 	  1.937291149637 	
Mg	  7.208580218008 	  3.980000000000 	  4.917291149637 	
Mg	  0.145644534186 	  2.082935683823 	  1.937291149637 	
Mg	  1.145644534186 	  2.082935683823 	  4.917291149637 	
Mg	  0.145644534186 	  6.062935683823 	  1.937291149637 	
Mg	  1.145644534186 	  6.062935683823 	  4.917291149637 	
Mg	  4.125644534186 	  2.082935683823 	  1.937291149637 	
Mg	  5.125644534186 	  2.082935683823 	  4.917291149637 	
Mg	  4.125644534186 	  6.062935683823 	  1.937291149637 	
Mg	  5.125644534186 	  6.062935683823 	  4.917291149637 	
O	  2.082935683823 	  0.000000000000 	  0.000000000000 	
O	  3.082935683823 	  0.000000000000 	  2.980000000000 	
O	  2.082935683823 	  3.980000000000 	  0.000000000000 	
O	  3.082935683823 	  3.980000000000 	  2.980000000000 	
O	  6.062935683823 	  0.000000000000 	  0.000000000000 	
O	  7.062935683823 	  0.000000000000 	  2.980000000000 	
O	  6.062935683823 	  3.980000000000 	  0.000000000000 	
O	  7.062935683823 	  3.980000000000 	  2.980000000000 	
O	  0.000000000000 	  2.082935683823 	  0.000000000000 	
O	  1.000000000000 	  2.082935683823 	  2.980000000000 	
O	  0.000000000000 	  6.062935683823 	  0.000000000000 	
O	  1.000000000000 	  6.062935683823 	  2.980000000000 	
O	  3.980000000000 	  2.082935683823 	  0.000000000000 	
O	  4.980000000000 	  2.082935683823 	  2.980000000000 	
O	  3.980000000000 	  6.062935683823 	  0.000000000000 	
O	  4.980000000000 	  6.062935683823 	  2.980000000000 	
O	  0.145644534186 	  0.000000000000 	  1.937291149637 	
O	  1.145644534186 	  0.000000000000 	  4.917291149637 	
O	  0.145644534186 	  3.980000000000 	  1.937291149637 	
O	  1.145644534186 	  3.980000000000 	  4.917291149637 	
O	  4.125644534186 	  0.000000000000 	  1.937291149637 	
O	  5.125644534186 	  0.000000000000 	  4.917291149637 	
O	  4.125644534186 	  3.980000000000 	  1.937291149637 	
O	  5.125644534186 	  3.980000000000 	  4.917291149637 	
O	  2.345095845357 	  1.891558765903 	  1.937291149637 	
O	  3.345095845357 	  1.891558765903 	  4.917291149637 	
O	  2.345095845357 	  5.871558765903 	  1.937291149637 	
O	  3.345095845357 	  5.871558765903 	  4.917291149637 	
O	  6.325095845357 	  1.891558765903 	  1.937291149637 	
O	  7.325095845357 	  1.891558765903 	  4.917291149637 	
O	  6.325095845357 	  5.871558765903 	  1.937291149637 	
O	  7.325095845357 	  5.871558765903 	  4.917291149637 	
64 
Energy: 3.1094272270258791e+00 
Mg	  0.000000000000 	  0.000000000000 	  0.000000000000 	
Mg	  1.000000000000 	  0.000000000000 	  2.980000000000 	
Mg	  0.000000000000 	  3.980000000000 	  0.000000000000 	
Mg	  1.000000000000 	  3.980000000000 	  2.980000000000 	
Mg	  3.980000000000 	  0.000000000000 	  0.000000000000 	
Mg	  4.980000000000 	  0.000000000000 	  2.980000000000 	
Mg	  3.980000000000 	  3.980000000000 	  0.000000000000 	
Mg	  4.980000000000 	  3.980000000000 	  2.980000000000 	
Mg	  2.021488437268 	  2.044783359988 	  0.000000000000 	
Mg	  3.021488437268 	  2.044783359988 	  2.980000000000 	
Mg	  2.021488437268 	  6.024783359988 	  0.000000000000 	
Mg	  3.021488437268 	  6.024783359988 	  2.980000000000 	
Mg	  6.001488437268 	  2.044783359988 	  0.000000000000 	
Mg	  7.001488437268 	  2.044783359988 	  2.980000000000 	
Mg	  6.001488437268 	  6.024783359988 	  0.000000000000 	
Mg	  7.001488437268 	  6.024783359988 	  2.980000000000 	
Mg	  2.207847819021 	  0.000000000000 	  1.974898591830 	
Mg	  3.207847819021 	  0.000000000000 	  4.954898591830 	
Mg	  2.207847819021 	  3.980000000000 	  1.974898591830 	
Mg	  3.207847819021 	  3.980000000000 	  4.954898591830 	
Mg	  6.187847819021 	  0.000000000000 	  1.974898591830 	
Mg	  7.187847819021 	  0.000000000000 	  4.954898591830 	
Mg	  6.187847819021 	  3.980000000000 	  1.974898591830 	
Mg	  7.187847819021 	  3.980000000000 	  4.954898591830 	
Mg	  0.116474613595 	  2.091373205426 	  1.974898591830 	
Mg	  1.116474613595 	  2.091373205426 	  4.954898591830 	
Mg	  0.116474613595 	  6.071373205426 	  1.974898591830 	
Mg	  1.116474613595 	  6.071373205426 	  4.954898591830 	
Mg	  4.096474613595 	  2.091373205426 	  1.974898591830 	
Mg	  5.096474613595 	  2.091373205426 	  4.954898591830 	
Mg	  4.096474613595 	  6.071373205426 	  1.974898591830 	
Mg	  5.096474613595 	  6.071373205426 	  4.954898591830 	
O	  2.091373205426 	  0.000000000000 	  0.000000000000 	
O	  3.091373205426 	  0.000000000000 	  2.980000000000 	
O	  2.091373205426 	  3.980000000000 	  0.000000000000 	
O	  3.091373205426 	  3.980000000000 	  2.980000000000 	
O	  6.071373205426 	  0.000000000000 	  0.000000000000 	
O	  7.071373205426 	  0.000000000000 	  2.980000000000 	
O	  6.071373205426 	  3.980000000000 	  0.000000000000 	
O	  7.071373205426 	  3.980000000000 	  2.980000000000 	
O	  0.000000000000 	  2.091373205426 	  0.000000000000 	
O	  1.000000000000 	  2.091373205426 	  2.980000000000 	
O	  0.000000000000 	  6.071373205426 	  0.000000000000 	
O	  1.000000000000 	  6.071373205426 	  2.980000000000 	
O	  3.980000000000 	  2.091373205426 	  0.000000000000 	
O	  4.980000000000 	  2.091373205426 	  2.980000000000 	
O	  3.980000000000 	  6.071373205426 	  0.000000000000 	
O	  4.980000000000 	  6.071373205426 	  2.980000000000 	
O	  0.116474613595 	  0.000000000000 	  1.974898591830 	
O	  1.116474613595 	  0.000000000000 	  4.954898591830 	
O	  0.116474613595 	  3.980000000000 	  1.974898591830 	
O	  1.116474613595 	  3.980000000000 	  4.954898591830 	
O	  4.096474613595 	  0.000000000000 	  1.974898591830 	
O	  5.096474613595 	  0.000000000000 	  4.954898591830 	
O	  4.096474613595 	  3.980000000000 	  1.974898591830 	
O	  5.096474613595 	  3.980000000000 	  4.954898591830 	
O	  2.301027509897 	  1.938325563161 	  1.974898591830 	
O	  3.301027509897 	  1.938325563161 	  4.954898591830 	
O	  2.301027509897 	  5.918325563161 	  1.974898591830 	
O	  3.301027509897 	  5.918325563161 	  4.954898591830 	
O	  6.281027509897 	  1.938325563161 	  1.974898591830 	
O	  7.281027509897 	  1.938325563161 	  4.954898591830 	
O	  6.281027509897 	  5.918325563161 	  1.974898591830 	
O	  7.281027509897 	  5.918325563161 	  4.954898591830 	
64 
Energy: 2.0817504350050622e+00 
Mg	  0.000000000000 	  0.000000000000 	  0.000000000000 	
Mg	  1.000000000000 	  0.000000000000 	  2.980000000000 	
Mg	  0.000000000000 	  3.980000000000 	  0.000000000000 	
Mg	  1.000000000000 	  3.980000000000 	  2.980000000000 	
Mg	  3.980000000000 	  0.000000000000 	  0.000000000000 	
Mg	  4.980000000000 	  0.000000000000 	  2.980000000000 	
Mg	  3.980000000000 	  3.980000000000 	  0.000000000000 	
Mg	  4.980000000000 	  3.980000000000 	  2.980000000000 	
Mg	  2.047406027033 	  2.064870860351 	  0.000000000000 	
Mg	  3.047406027033 	  2.064870860351 	  2.980000000000 	
Mg	  2.047406027033 	  6.044870860351 	  0.000000000000 	
Mg	  3.047406027033 	  6.044870860351 	  2.980000000000 	
Mg	  6.027406027033 	  2.064870860351 	  0.000000000000 	
Mg	  7.027406027033 	  2.064870860351 	  2.980000000000 	
Mg	  6.027406027033 	  6.044870860351 	  0.000000000000 	
Mg	  7.027406027033 	  6.044870860351 	  2.980000000000 	
Mg	  2.187124693574 	  0.000000000000 	  2.012476360398 	
Mg	  3.187124693574 	  0.000000000000 	  4.992476360398 	
Mg	  2.187124693574 	  3.980000000000 	  2.012476360398 	
Mg	  3.187124693574 	  3.980000000000 	  4.992476360398 	
Mg	  6.167124693574 	  0.000000000000 	  2.012476360398 	
Mg	  7.167124693574 	  0.000000000000 	  4.992476360398 	
Mg	  6.167124693574 	  3.980000000000 	  2.012476360398 	
Mg	  7.167124693574 	  3.980000000000 	  4.992476360398 	
Mg	  0.087324166588 	  2.099800526986 	  2.012476360398 	
Mg	  1.087324166588 	  2.099800526986 	  4.992476360398 	
Mg	  0.087324166588 	  6.079800526986 	  2.012476360398 	
Mg	  1.087324166588 	  6.079800526986 	  4.992476360398 	
Mg	  4.067324166588 	  2.099800526986 	  2.012476360398 	
Mg	  5.067324166588 	  2.099800526986 	  4.992476360398 	
Mg	  4.067324166588 	  6.079800526986 	  2.012476360398 	
Mg	  5.067324166588 	  6.079800526986 	  4.992476360398 	
O	  2.099800526986 	  0.000000000000 	  0.000000000000 	
O	  3.099800526986 	  0.000000000000 	  2.980000000000 	
O	  2.099800526986 	  3.980000000000 	  0.000000000000 	
O	  3.099800526986 	  3.980000000000 	  2.980000000000 	
O	  6.079800526986 	  0.000000000000 	  0.000000000000 	
O	  7.079800526986 	  0.000000000000 	  2.980000000000 	
O	  6.079800526986 	  3.980000000000 	  0.000000000000 	
O	  7.079800526986 	  3.980000000000 	  2.980000000000 	
O	  0.000000000000 	  2.099800526986 	  0.000000000000 	
O	  1.000000000000 	  2.099800526986 	  2.980000000000 	
O	  0.000000000000 	  6.079800526986 	  0.000000000000 	
O	  1.000000000000 	  6.079800526986 	  2.980000000000 	
O	  3.980000000000 	  2.099800526986 	  0.000000000000 	
O	  4.980000000000 	  2.099800526986 	  2.980000000000 	
O	  3.980000000000 	  6.079800526986 	  0.000000000000 	
O	  4.980000000000 	  6.079800526986 	  2.980000000000 	
O	  0.087324166588 	  0.000000000000 	  2.012476360398 	
O	  1.087324166588 	  0.000000000000 	  4.992476360398 	
O	  0.087324166588 	  3.980000000000 	  2.012476360398 	
O	  1.087324166588 	  3.980000000000 	  4.992476360398 	
O	  4.067324166588 	  0.000000000000 	  2.012476360398 	
O	  5.067324166588 	  0.000000000000 	  4.992476360398 	
O	  4.067324166588 	  3.980000000000 	  2.012476360398 	
O	  5.067324166588 	  3.980000000000 	  4.992476360398 	
O	  2.256984026845 	  1.985056572089 	  2.012476360398 	
O	  3.256984026845 	  1.985056572089 	  4.992476360398 	
O	  2.256984026845 	  5.965056572089 	  2.012476360398 	
O	  3.256984026845 	  5.965056572089 	  4.992476360398 	
O	  6.236984026845 	  1.985056572089 	  2.012476360398 	
O	  7.236984026845 	  1.985056572089 	  4.992476360398 	
O	  6.236984026845 	  5.965056572089 	  2.012476360398 	
O	  7.236984026845 	  5.965056572089 	  4.992476360398 	
64 
Energy: 1.0939786480118521e+00 
Mg	  0.000000000000 	  0.000000000000 	  0.000000000000 	
Mg	  1.000000000000 	  0.000000000000 	  2.980000000000 	
Mg	  0.000000000000 	  3.980000000000 	  0.000000000000 	
Mg	  1.000000000000 	  3.980000000000 	  2.980000000000 	
Mg	  3.980000000000 	  0.000000000000 	  0.000000000000 	
Mg	  4.980000000000 	  0.000000000000 	  2.980000000000 	
Mg	  3.980000000000 	  3.980000000000 	  0.000000000000 	
Mg	  4.980000000000 	  3.980000000000 	  2.980000000000 	
Mg	  2.073298605641 	  2.084937566969 	  0.000000000000 	
Mg	  3.073298605641 	  2.084937566969 	  2.980000000000 	
Mg	  2.073298605641 	  6.064937566969 	  0.000000000000 	
Mg	  3.073298605641 	  6.064937566969 	  2.980000000000 	
Mg	  6.053298605641 	  2.084937566969 	  0.000000000000 	
Mg	  7.053298605641 	  2.084937566969 	  2.980000000000 	
Mg	  6.053298605641 	  6.064937566969 	  0.000000000000 	
Mg	  7.053298605641 	  6.064937566969 	  2.980000000000 	
Mg	  2.166410296264 	  0.000000000000 	  2.050020682986 	
Mg	  3.166410296264 	  0.000000000000 	  5.030020682986 	
Mg	  2.166410296264 	  3.980000000000 	  2.050020682986 	
Mg	  3.166410296264 	  3.980000000000 	  5.030020682986 	
Mg	  6.146410296264 	  0.000000000000 	  2.050020682986 	
Mg	  7.146410296264 	  0.000000000000 	  5.030020682986 	
Mg	  6.146410296264 	  3.980000000000 	  2.050020682986 	
Mg	  7.146410296264 	  3.980000000000 	  5.030020682986 	
Mg	  0.058194806639 	  2.108215489625 	  2.050020682986 	
Mg	  1.058194806639 	  2.108215489625 	  5.030020682986 	
Mg	  0.058194806639 	  6.088215489625 	  2.050020682986 	
Mg	  1.058194806639 	  6.088215489625 	  5.030020682986 	
Mg	  4.038194806639 	  2.108215489625 	  2.050020682986 	
Mg	  5.038194806639 	  2.108215489625 	  5.030020682986 	
Mg	  4.038194806639 	  6.088215489625 	  2.050020682986 	
Mg	  5.038194806639 	  6.088215489625 	  5.030020682986 	
O	  2.108215489625 	  0.000000000000 	  0.000000000000 	
O	  3.108215489625 	  0.000000000000 	  2.980000000000 	
O	  2.108215489625 	  3.980000000000 	  0.000000000000 	
O	  3.108215489625 	  3.980000000000 	  2.980000000000 	
O	  6.088215489625 	  0.000000000000 	  0.000000000000 	
O	  7.088215489625 	  0.000000000000 	  2.980000000000 	
O	  6.088215489625 	  3.980000000000 	  0.000000000000 	
O	  7.088215489625 	  3.980000000000 	  2.980000000000 	
O	  0.000000000000 	  2.108215489625 	  0.000000000000 	
O	  1.000000000000 	  2.108215489625 	  2.980000000000 	
O	  0.000000000000 	  6.088215489625 	  0.000000000000 	
O	  1.000000000000 	  6.088215489625 	  2.980000000000 	
O	  3.980000000000 	  2.108215489625 	  0.000000000000 	
O	  4.980000000000 	  2.108215489625 	  2.980000000000 	
O	  3.980000000000 	  6.088215489625 	  0.000000000000 	
O	  4.980000000000 	  6.088215489625 	  2.980000000000 	
O	  0.058194806639 	  0.000000000000 	  2.050020682986 	
O	  1.058194806639 	  0.000000000000 	  5.030020682986 	
O	  0.058194806639 	  3.980000000000 	  2.050020682986 	
O	  1.058194806639 	  3.980000000000 	  5.030020682986 	
O	  4.038194806639 	  0.000000000000 	  2.050020682986 	
O	  5.038194806639 	  0.000000000000 	  5.030020682986 	
O	  4.038194806639 	  3.980000000000 	  2.050020682986 	
O	  5.038194806639 	  3.980000000000 	  5.030020682986 	
O	  2.212966141575 	  2.031747513701 	  2.050020682986 	
O	  3.212966141575 	  2.031747513701 	  5.030020682986 	
O	  2.212966141575 	  6.011747513701 	  2.050020682986 	
O	  3.212966141575 	  6.011747513701 	  5.030020682986 	
O	  6.192966141575 	  2.031747513701 	  2.050020682986 	
O	  7.192966141575 	  2.031747513701 	  5.030020682986 	
O	  6.192966141575 	  6.011747513701 	  2.050020682986 	
O	  7.192966141575 	  6.011747513701 	  5.030020682986 	
64 
Energy: 3.2143888960102746e-01 
Mg	  0.000000000000 	  0.000000000000 	  0.000000000000 	
Mg	  1.000000000000 	  0.000000000000 	  2.980000000000 	
Mg	  0.000000000000 	  3.980000000000 	  0.000000000000 	
Mg	  1.000000000000 	  3.980000000000 	  2.980000000000 	
Mg	  3.980000000000 	  0.000000000000 	  0.000000000000 	
Mg	  4.980000000000 	  0.000000000000 	  2.980000000000 	
Mg	  3.980000000000 	  3.980000000000 	  0.000000000000 	
Mg	  4.980000000000 	  3.980000000000 	  2.980000000000 	
Mg	  2.099163773804 	  2.104981179086 	  0.000000000000 	
Mg	  3.099163773804 	  2.104981179086 	  2.980000000000 	
Mg	  2.099163773804 	  6.084981179086 	  0.000000000000 	
Mg	  3.099163773804 	  6.084981179086 	  2.980000000000 	
Mg	  6.079163773804 	  2.104981179086 	  0.000000000000 	
Mg	  7.079163773804 	  2.104981179086 	  2.980000000000 	
Mg	  6.079163773804 	  6.084981179086 	  0.000000000000 	
Mg	  7.079163773804 	  6.084981179086 	  2.980000000000 	
Mg	  2.145703016056 	  0.000000000000 	  2.087528963241 	
Mg	  3.145703016056 	  0.000000000000 	  5.067528963241 	
Mg	  2.145703016056 	  3.980000000000 	  2.087528963241 	
Mg	  3.145703016056 	  3.980000000000 	  5.067528963241 	
Mg	  6.125703016056 	  0.000000000000 	  2.087528963241 	
Mg	  7.125703016056 	  0.000000000000 	  5.067528963241 	
Mg	  6.125703016056 	  3.980000000000 	  2.087528963241 	
Mg	  7.125703016056 	  3.980000000000 	  5.067528963241 	
Mg	  0.029087026407 	  2.116615989648 	  2.087528963241 	
Mg	  1.029087026407 	  2.116615989648 	  5.067528963241 	
Mg	  0.029087026407 	  6.096615989648 	  2.087528963241 	
Mg	  1.029087026407 	  6.096615989648 	  5.067528963241 	
Mg	  4.009087026407 	  2.116615989648 	  2.087528963241 	
Mg	  5.009087026407 	  2.116615989648 	  5.067528963241 	
Mg	  4.009087026407 	  6.096615989648 	  2.087528963241 	
Mg	  5.009087026407 	  6.096615989648 	  5.067528963241 	
O	  2.116615989648 	  0.000000000000 	  0.000000000000 	
O	  3.116615989648 	  0.000000000000 	  2.980000000000 	
O	  2.116615989648 	  3.980000000000 	  0.000000000000 	
O	  3.116615989648 	  3.980000000000 	  2.980000000000 	
O	  6.096615989648 	  0.000000000000 	  0.000000000000 	
O	  7.096615989648 	  0.000000000000 	  2.980000000000 	
O	  6.096615989648 	  3.980000000000 	  0.000000000000 	
O	  7.096615989648 	  3.980000000000 	  2.980000000000 	
O	  0.000000000000 	  2.116615989648 	  0.000000000000 	
O	  1.000000000000 	  2.116615989648 	  2.980000000000 	
O	  0.000000000000 	  6.096615989648 	  0.000000000000 	
O	  1.000000000000 	  6.096615989648 	  2.980000000000 	
O	  3.980000000000 	  2.116615989648 	  0.000000000000 	
O	  4.980000000000 	  2.116615989648 	  2.980000000000 	
O	  3.980000000000 	  6.096615989648 	  0.000000000000 	
O	  4.980000000000 	  6.096615989648 	  2.980000000000 	
O	  0.029087026407 	  0.000000000000 	  2.087528963241 	
O	  1.029087026407 	  0.000000000000 	  5.067528963241 	
O	  0.029087026407 	  3.980000000000 	  2.087528963241 	
O	  1.029087026407 	  3.980000000000 	  5.067528963241 	
O	  4.009087026407 	  0.000000000000 	  2.087528963241 	
O	  5.009087026407 	  0.000000000000 	  5.067528963241 	
O	  4.009087026407 	  3.980000000000 	  2.087528963241 	
O	  5.009087026407 	  3.980000000000 	  5.067528963241 	
O	  2.168972637182 	  2.078395636949 	  2.087528963241 	
O	  3.168972637182 	  2.078395636949 	  5.067528963241 	
O	  2.168972637182 	  6.058395636949 	  2.087528963241 	
O	  3.168972637182 	  6.058395636949 	  5.067528963241 	
O	  6.148972637182 	  2.078395636949 	  2.087528963241 	
O	  7.148972637182 	  2.078395636949 	  5.067528963241 	
O	  6.148972637182 	  6.058395636949 	  2.087528963241 	
O	  7.148972637182 	  6.058395636949 	  5.067528963241 	
64 
Energy: 0.0000000000000000e+00 
Mg	  0.000000000000 	  0.000000000000 	  0.000000000000 	
Mg	  1.000000000000 	  0.000000000000 	  2.980000000000 	
Mg	  0.000000000000 	  3.980000000000 	  0.000000000000 	
Mg	  1.000000000000 	  3.980000000000 	  2.980000000000 	
Mg	  3.980000000000 	  0.000000000000 	  0.000000000000 	
Mg	  4.980000000000 	  0.000000000000 	  2.980000000000 	
Mg	  3.980000000000 	  3.980000000000 	  0.000000000000 	
Mg	  4.980000000000 	  3.980000000000 	  2.980000000000 	
Mg	  2.125000000000 	  2.125000000000 	  0.000000000000 	
Mg	  3.125000000000 	  2.125000000000 	  2.980000000000 	
Mg	  2.125000000000 	  6.105000000000 	  0.000000000000 	
Mg	  3.125000000000 	  6.105000000000 	  2.980000000000 	
Mg	  6.105000000000 	  2.125000000000 	  0.000000000000 	
Mg	  7.105000000000 	  2.125000000000 	  2.980000000000 	
Mg	  6.105000000000 	  6.105000000000 	  0.000000000000 	
Mg	  7.105000000000 	  6.105000000000 	  2.980000000000 	
Mg	  2.125000000000 	  0.000000000000 	  2.125000000000 	
Mg	  3.125000000000 	  0.000000000000 	  5.105000000000 	
Mg	  2.125000000000 	  3.980000000000 	  2.125000000000 	
Mg	  3.125000000000 	  3.980000000000 	  5.105000000000 	
Mg	  6.105000000000 	  0.000000000000 	  2.125000000000 	
Mg	  7.105000000000 	  0.000000000000 	  5.105000000000 	
Mg	  6.105000000000 	  3.980000000000 	  2.125000000000 	
Mg	  7.105000000000 	  3.980000000000 	  5.105000000000 	
Mg	  0.000000000000 	  2.125000000000 	  2.125000000000 	
Mg	  1.000000000000 	  2.125000000000 	  5.105000000000 	
Mg	  0.000000000000 	  6.105000000000 	  2.125000000000 	
Mg	  1.000000000000 	  6.105000000000 	  5.105000000000 	
Mg	  3.980000000000 	  2.125000000000 	  2.125000000000 	
Mg	  4.980000000000 	  2.125000000000 	  5.105000000000 	
Mg	  3.980000000000 	  6.105000000000 	  2.125000000000 	
Mg	  4.980000000000 	  6.105000000000 	  5.105000000000 	
O	  2.125000000000 	  0.000000000000 	  0.000000000000 	
O	  3.125000000000 	  0.000000000000 	  2.980000000000 	
O	  2.125000000000 	  3.980000000000 	  0.000000000000 	
O	  3.125000000000 	  3.980000000000 	  2.980000000000 	
O	  6.105000000000 	  0.000000000000 	  0.000000000000 	
O	  7.105000000000 	  0.000000000000 	  2.980000000000 	
O	  6.105000000000 	  3.980000000000 	  0.000000000000 	
O	  7.105000000000 	  3.980000000000 	  2.980000000000 	
O	  0.000000000000 	  2.125000000000 	  0.000000000000 	
O	  1.000000000000 	  2.125000000000 	  2.980000000000 	
O	  0.000000000000 	  6.105000000000 	  0.000000000000 	
O	  1.000000000000 	  6.105000000000 	  2.980000000000 	
O	  3.980000000000 	  2.125000000000 	  0.000000000000 	
O	  4.980000000000 	  2.125000000000 	  2.980000000000 	
O	  3.980000000000 	  6.105000000000 	  0.000000000000 	
O	  4.980000000000 	  6.105000000000 	  2.980000000000 	
O	  0.000000000000 	  0.000000000000 	  2.125000000000 	
O	  1.000000000000 	  0.000000000000 	  5.105000000000 	
O	  0.000000000000 	  3.980000000000 	  2.125000000000 	
O	  1.000000000000 	  3.980000000000 	  5.105000000000 	
O	  3.980000000000 	  0.000000000000 	  2.125000000000 	
O	  4.980000000000 	  0.000000000000 	  5.105000000000 	
O	  3.980000000000 	  3.980000000000 	  2.125000000000 	
O	  4.980000000000 	  3.980000000000 	  5.105000000000 	
O	  2.125000000000 	  2.125000000000 	  2.125000000000 	
O	  3.125000000000 	  2.125000000000 	  5.105000000000 	
O	  2.125000000000 	  6.105000000000 	  2.125000000000 	
O	  3.125000000000 	  6.105000000000 	  5.105000000000 	
O	  6.105000000000 	  2.125000000000 	  2.125000000000 	
O	  7.105000000000 	  2.125000000000 	  5.105000000000 	
O	  6.105000000000 	  6.105000000000 	  2.125000000000 	
O	  7.105000000000 	  6.105000000000 	  5.105000000000 	
