64 
Energy: 2.6638969431540507e+00 
Mg	  0.000000000000 	  0.000000000000 	  0.000000000000 	
Mg	  1.000000000000 	  0.000000000000 	  2.980000000000 	
Mg	  0.000000000000 	  3.980000000000 	  0.000000000000 	
Mg	  1.000000000000 	  3.980000000000 	  2.980000000000 	
Mg	  3.980000000000 	  0.000000000000 	  0.000000000000 	
Mg	  4.980000000000 	  0.000000000000 	  2.980000000000 	
Mg	  3.980000000000 	  3.980000000000 	  0.000000000000 	
Mg	  4.980000000000 	  3.980000000000 	  2.980000000000 	
Mg	  1.715323536767 	  1.806882357844 	  0.000000000000 	
Mg	  2.715323536767 	  1.806882357844 	  2.980000000000 	
Mg	  1.715323536767 	  5.786882357844 	  0.000000000000 	
Mg	  2.715323536767 	  5.786882357844 	  2.980000000000 	
Mg	  5.695323536767 	  1.806882357844 	  0.000000000000 	
Mg	  6.695323536767 	  1.806882357844 	  2.980000000000 	
Mg	  5.695323536767 	  5.786882357844 	  0.000000000000 	
Mg	  6.695323536767 	  5.786882357844 	  2.980000000000 	
Mg	  2.447794105389 	  0.000000000000 	  1.532205894611 	
Mg	  3.447794105389 	  0.000000000000 	  4.512205894611 	
Mg	  2.447794105389 	  3.980000000000 	  1.532205894611 	
Mg	  3.447794105389 	  3.980000000000 	  4.512205894611 	
Mg	  6.427794105389 	  0.000000000000 	  1.532205894611 	
Mg	  7.427794105389 	  0.000000000000 	  4.512205894611 	
Mg	  6.427794105389 	  3.980000000000 	  1.532205894611 	
Mg	  7.427794105389 	  3.980000000000 	  4.512205894611 	
Mg	  0.457794105389 	  1.990000000000 	  1.532205894611 	
Mg	  1.457794105389 	  1.990000000000 	  4.512205894611 	
Mg	  0.457794105389 	  5.970000000000 	  1.532205894611 	
Mg	  1.457794105389 	  5.970000000000 	  4.512205894611 	
Mg	  4.437794105389 	  1.990000000000 	  1.532205894611 	
Mg	  5.437794105389 	  1.990000000000 	  4.512205894611 	
Mg	  4.437794105389 	  5.970000000000 	  1.532205894611 	
Mg	  5.437794105389 	  5.970000000000 	  4.512205894611 	
O	  1.990000000000 	  0.000000000000 	  0.000000000000 	
O	  2.990000000000 	  0.000000000000 	  2.980000000000 	
O	  1.990000000000 	  3.980000000000 	  0.000000000000 	
O	  2.990000000000 	  3.980000000000 	  2.980000000000 	
O	  5.970000000000 	  0.000000000000 	  0.000000000000 	
O	  6.970000000000 	  0.000000000000 	  2.980000000000 	
O	  5.970000000000 	  3.980000000000 	  0.000000000000 	
O	  6.970000000000 	  3.980000000000 	  2.980000000000 	
O	  0.000000000000 	  1.990000000000 	  0.000000000000 	
O	  1.000000000000 	  1.990000000000 	  2.980000000000 	
O	  0.000000000000 	  5.970000000000 	  0.000000000000 	
O	  1.000000000000 	  5.970000000000 	  2.980000000000 	
O	  3.980000000000 	  1.990000000000 	  0.000000000000 	
O	  4.980000000000 	  1.990000000000 	  2.980000000000 	
O	  3.980000000000 	  5.970000000000 	  0.000000000000 	
O	  4.980000000000 	  5.970000000000 	  2.980000000000 	
O	  0.457794105389 	  0.000000000000 	  1.532205894611 	
O	  1.457794105389 	  0.000000000000 	  4.512205894611 	
O	  0.457794105389 	  3.980000000000 	  1.532205894611 	
O	  1.457794105389 	  3.980000000000 	  4.512205894611 	
O	  4.437794105389 	  0.000000000000 	  1.532205894611 	
O	  5.437794105389 	  0.000000000000 	  4.512205894611 	
O	  4.437794105389 	  3.980000000000 	  1.532205894611 	
O	  5.437794105389 	  3.980000000000 	  4.512205894611 	
O	  2.814029389700 	  1.388458545519 	  1.532205894611 	
O	  3.814029389700 	  1.388458545519 	  4.512205894611 	
O	  2.814029389700 	  5.368458545519 	  1.532205894611 	
O	  3.814029389700 	  5.368458545519 	  4.512205894611 	
O	  6.794029389700 	  1.388458545519 	  1.532205894611 	
O	  7.794029389700 	  1.388458545519 	  4.512205894611 	
O	  6.794029389700 	  5.368458545519 	  1.532205894611 	
O	  7.794029389700 	  5.368458545519 	  4.512205894611 	
64 
Energy: 2.7149078492682839e+00 
Mg	  0.000000000000 	  0.000000000000 	  0.000000000000 	
Mg	  1.000000000000 	  0.000000000000 	  2.980000000000 	
Mg	  0.000000000000 	  3.980000000000 	  0.000000000000 	
Mg	  1.000000000000 	  3.980000000000 	  2.980000000000 	
Mg	  3.980000000000 	  0.000000000000 	  0.000000000000 	
Mg	  4.980000000000 	  0.000000000000 	  2.980000000000 	
Mg	  3.980000000000 	  3.980000000000 	  0.000000000000 	
Mg	  4.980000000000 	  3.980000000000 	  2.980000000000 	
Mg	  1.740609866691 	  1.826591190675 	  0.000000000000 	
Mg	  2.740609866691 	  1.826591190675 	  2.980000000000 	
Mg	  1.740609866691 	  5.806591190675 	  0.000000000000 	
Mg	  2.740609866691 	  5.806591190675 	  2.980000000000 	
Mg	  5.720609866691 	  1.826591190675 	  0.000000000000 	
Mg	  6.720609866691 	  1.826591190675 	  2.980000000000 	
Mg	  5.720609866691 	  5.806591190675 	  0.000000000000 	
Mg	  6.720609866691 	  5.806591190675 	  2.980000000000 	
Mg	  2.428460458565 	  0.000000000000 	  1.568647218722 	
Mg	  3.428460458565 	  0.000000000000 	  4.548647218722 	
Mg	  2.428460458565 	  3.980000000000 	  1.568647218722 	
Mg	  3.428460458565 	  3.980000000000 	  4.548647218722 	
Mg	  6.408460458565 	  0.000000000000 	  1.568647218722 	
Mg	  7.408460458565 	  0.000000000000 	  4.548647218722 	
Mg	  6.408460458565 	  3.980000000000 	  1.568647218722 	
Mg	  7.408460458565 	  3.980000000000 	  4.548647218722 	
Mg	  0.429906619921 	  1.998553838643 	  1.568647218722 	
Mg	  1.429906619921 	  1.998553838643 	  4.548647218722 	
Mg	  0.429906619921 	  5.978553838643 	  1.568647218722 	
Mg	  1.429906619921 	  5.978553838643 	  4.548647218722 	
Mg	  4.409906619921 	  1.998553838643 	  1.568647218722 	
Mg	  5.409906619921 	  1.998553838643 	  4.548647218722 	
Mg	  4.409906619921 	  5.978553838643 	  1.568647218722 	
Mg	  5.409906619921 	  5.978553838643 	  4.548647218722 	
O	  1.998553838643 	  0.000000000000 	  0.000000000000 	
O	  2.998553838643 	  0.000000000000 	  2.980000000000 	
O	  1.998553838643 	  3.980000000000 	  0.000000000000 	
O	  2.998553838643 	  3.980000000000 	  2.980000000000 	
O	  5.978553838643 	  0.000000000000 	  0.000000000000 	
O	  6.978553838643 	  0.000000000000 	  2.980000000000 	
O	  5.978553838643 	  3.980000000000 	  0.000000000000 	
O	  6.978553838643 	  3.980000000000 	  2.980000000000 	
O	  0.000000000000 	  1.998553838643 	  0.000000000000 	
O	  1.000000000000 	  1.998553838643 	  2.980000000000 	
O	  0.000000000000 	  5.978553838643 	  0.000000000000 	
O	  1.000000000000 	  5.978553838643 	  2.980000000000 	
O	  3.980000000000 	  1.998553838643 	  0.000000000000 	
O	  4.980000000000 	  1.998553838643 	  2.980000000000 	
O	  3.980000000000 	  5.978553838643 	  0.000000000000 	
O	  4.980000000000 	  5.978553838643 	  2.980000000000 	
O	  0.429906619921 	  0.000000000000 	  1.568647218722 	
O	  1.429906619921 	  0.000000000000 	  4.548647218722 	
O	  0.429906619921 	  3.980000000000 	  1.568647218722 	
O	  1.429906619921 	  3.980000000000 	  4.548647218722 	
O	  4.409906619921 	  0.000000000000 	  1.568647218722 	
O	  5.409906619921 	  0.000000000000 	  4.548647218722 	
O	  4.409906619921 	  3.980000000000 	  1.568647218722 	
O	  5.409906619921 	  3.980000000000 	  4.548647218722 	
O	  2.772385754501 	  1.433656540067 	  1.568647218722 	
O	  3.772385754501 	  1.433656540067 	  4.548647218722 	
O	  2.772385754501 	  5.413656540067 	  1.568647218722 	
O	  3.772385754501 	  5.413656540067 	  4.548647218722 	
O	  6.752385754501 	  1.433656540067 	  1.568647218722 	
O	  7.752385754501 	  1.433656540067 	  4.548647218722 	
O	  6.752385754501 	  5.413656540067 	  1.568647218722 	
O	  7.752385754501 	  5.413656540067 	  4.548647218722 	
64 
Energy: 3.1706755602590295e+00 
Mg	  0.000000000000 	  0.000000000000 	  0.000000000000 	
Mg	  1.000000000000 	  0.000000000000 	  2.980000000000 	
Mg	  0.000000000000 	  3.980000000000 	  0.000000000000 	
Mg	  1.000000000000 	  3.980000000000 	  2.980000000000 	
Mg	  3.980000000000 	  0.000000000000 	  0.000000000000 	
Mg	  4.980000000000 	  0.000000000000 	  2.980000000000 	
Mg	  3.980000000000 	  3.980000000000 	  0.000000000000 	
Mg	  4.980000000000 	  3.980000000000 	  2.980000000000 	
Mg	  1.766171081689 	  1.846427447173 	  0.000000000000 	
Mg	  2.766171081689 	  1.846427447173 	  2.980000000000 	
Mg	  1.766171081689 	  5.826427447173 	  0.000000000000 	
Mg	  2.766171081689 	  5.826427447173 	  2.980000000000 	
Mg	  5.746171081689 	  1.846427447173 	  0.000000000000 	
Mg	  6.746171081689 	  1.846427447173 	  2.980000000000 	
Mg	  5.746171081689 	  5.826427447173 	  0.000000000000 	
Mg	  6.746171081689 	  5.826427447173 	  2.980000000000 	
Mg	  2.408222005564 	  0.000000000000 	  1.605658350720 	
Mg	  3.408222005564 	  0.000000000000 	  4.585658350720 	
Mg	  2.408222005564 	  3.980000000000 	  1.605658350720 	
Mg	  3.408222005564 	  3.980000000000 	  4.585658350720 	
Mg	  6.388222005564 	  0.000000000000 	  1.605658350720 	
Mg	  7.388222005564 	  0.000000000000 	  4.585658350720 	
Mg	  6.388222005564 	  3.980000000000 	  1.605658350720 	
Mg	  7.388222005564 	  3.980000000000 	  4.585658350720 	
Mg	  0.401281827422 	  2.006940178142 	  1.605658350720 	
Mg	  1.401281827422 	  2.006940178142 	  4.585658350720 	
Mg	  0.401281827422 	  5.986940178142 	  1.605658350720 	
Mg	  1.401281827422 	  5.986940178142 	  4.585658350720 	
Mg	  4.381281827422 	  2.006940178142 	  1.605658350720 	
Mg	  5.381281827422 	  2.006940178142 	  4.585658350720 	
Mg	  4.381281827422 	  5.986940178142 	  1.605658350720 	
Mg	  5.381281827422 	  5.986940178142 	  4.585658350720 	
O	  2.006940178142 	  0.000000000000 	  0.000000000000 	
O	  3.006940178142 	  0.000000000000 	  2.980000000000 	
O	  2.006940178142 	  3.980000000000 	  0.000000000000 	
O	  3.006940178142 	  3.980000000000 	  2.980000000000 	
O	  5.986940178142 	  0.000000000000 	  0.000000000000 	
O	  6.986940178142 	  0.000000000000 	  2.980000000000 	
O	  5.986940178142 	  3.980000000000 	  0.000000000000 	
O	  6.986940178142 	  3.980000000000 	  2.980000000000 	
O	  0.000000000000 	  2.006940178142 	  0.000000000000 	
O	  1.000000000000 	  2.006940178142 	  2.980000000000 	
O	  0.000000000000 	  5.986940178142 	  0.000000000000 	
O	  1.000000000000 	  5.986940178142 	  2.980000000000 	
O	  3.980000000000 	  2.006940178142 	  0.000000000000 	
O	  4.980000000000 	  2.006940178142 	  2.980000000000 	
O	  3.980000000000 	  5.986940178142 	  0.000000000000 	
O	  4.980000000000 	  5.986940178142 	  2.980000000000 	
O	  0.401281827422 	  0.000000000000 	  1.605658350720 	
O	  1.401281827422 	  0.000000000000 	  4.585658350720 	
O	  0.401281827422 	  3.980000000000 	  1.605658350720 	
O	  1.401281827422 	  3.980000000000 	  4.585658350720 	
O	  4.381281827422 	  0.000000000000 	  1.605658350720 	
O	  5.381281827422 	  0.000000000000 	  4.585658350720 	
O	  4.381281827422 	  3.980000000000 	  1.605658350720 	
O	  5.381281827422 	  3.980000000000 	  4.585658350720 	
O	  2.729247467502 	  1.479655856909 	  1.605658350720 	
O	  3.729247467502 	  1.479655856909 	  4.585658350720 	
O	  2.729247467502 	  5.459655856909 	  1.605658350720 	
O	  3.729247467502 	  5.459655856909 	  4.585658350720 	
O	  6.709247467502 	  1.479655856909 	  1.605658350720 	
O	  7.709247467502 	  1.479655856909 	  4.585658350720 	
O	  6.709247467502 	  5.459655856909 	  1.605658350720 	
O	  7.709247467502 	  5.459655856909 	  4.585658350720 	
64 
Energy: 3.8179436057505627e+00 
Mg	  0.000000000000 	  0.000000000000 	  0.000000000000 	
Mg	  1.000000000000 	  0.000000000000 	  2.980000000000 	
Mg	  0.000000000000 	  3.980000000000 	  0.000000000000 	
Mg	  1.000000000000 	  3.980000000000 	  2.980000000000 	
Mg	  3.980000000000 	  0.000000000000 	  0.000000000000 	
Mg	  4.980000000000 	  0.000000000000 	  2.980000000000 	
Mg	  3.980000000000 	  3.980000000000 	  0.000000000000 	
Mg	  4.980000000000 	  3.980000000000 	  2.980000000000 	
Mg	  1.791762748737 	  1.866293904496 	  0.000000000000 	
Mg	  2.791762748737 	  1.866293904496 	  2.980000000000 	
Mg	  1.791762748737 	  5.846293904496 	  0.000000000000 	
Mg	  2.791762748737 	  5.846293904496 	  2.980000000000 	
Mg	  5.771762748737 	  1.866293904496 	  0.000000000000 	
Mg	  6.771762748737 	  1.866293904496 	  2.980000000000 	
Mg	  5.771762748737 	  5.846293904496 	  0.000000000000 	
Mg	  6.771762748737 	  5.846293904496 	  2.980000000000 	
Mg	  2.388011994805 	  0.000000000000 	  1.642700437221 	
Mg	  3.388011994805 	  0.000000000000 	  4.622700437221 	
Mg	  2.388011994805 	  3.980000000000 	  1.642700437221 	
Mg	  3.388011994805 	  3.980000000000 	  4.622700437221 	
Mg	  6.368011994805 	  0.000000000000 	  1.642700437221 	
Mg	  7.368011994805 	  0.000000000000 	  4.622700437221 	
Mg	  6.368011994805 	  3.980000000000 	  1.642700437221 	
Mg	  7.368011994805 	  3.980000000000 	  4.622700437221 	
Mg	  0.372655778792 	  2.015356216013 	  1.642700437221 	
Mg	  1.372655778792 	  2.015356216013 	  4.622700437221 	
Mg	  0.372655778792 	  5.995356216013 	  1.642700437221 	
Mg	  1.372655778792 	  5.995356216013 	  4.622700437221 	
Mg	  4.352655778792 	  2.015356216013 	  1.642700437221 	
Mg	  5.352655778792 	  2.015356216013 	  4.622700437221 	
Mg	  4.352655778792 	  5.995356216013 	  1.642700437221 	
Mg	  5.352655778792 	  5.995356216013 	  4.622700437221 	
O	  2.015356216013 	  0.000000000000 	  0.000000000000 	
O	  3.015356216013 	  0.000000000000 	  2.980000000000 	
O	  2.015356216013 	  3.980000000000 	  0.000000000000 	
O	  3.015356216013 	  3.980000000000 	  2.980000000000 	
O	  5.995356216013 	  0.000000000000 	  0.000000000000 	
O	  6.995356216013 	  0.000000000000 	  2.980000000000 	
O	  5.995356216013 	  3.980000000000 	  0.000000000000 	
O	  6.995356216013 	  3.980000000000 	  2.980000000000 	
O	  0.000000000000 	  2.015356216013 	  0.000000000000 	
O	  1.000000000000 	  2.015356216013 	  2.980000000000 	
O	  0.000000000000 	  5.995356216013 	  0.000000000000 	
O	  1.000000000000 	  5.995356216013 	  2.980000000000 	
O	  3.980000000000 	  2.015356216013 	  0.000000000000 	
O	  4.980000000000 	  2.015356216013 	  2.980000000000 	
O	  3.980000000000 	  5.995356216013 	  0.000000000000 	
O	  4.980000000000 	  5.995356216013 	  2.980000000000 	
O	  0.372655778792 	  0.000000000000 	  1.642700437221 	
O	  1.372655778792 	  0.000000000000 	  4.622700437221 	
O	  0.372655778792 	  3.980000000000 	  1.642700437221 	
O	  1.372655778792 	  3.980000000000 	  4.622700437221 	
O	  4.352655778792 	  0.000000000000 	  1.642700437221 	
O	  5.352655778792 	  0.000000000000 	  4.622700437221 	
O	  4.352655778792 	  3.980000000000 	  1.642700437221 	
O	  5.352655778792 	  3.980000000000 	  4.622700437221 	
O	  2.686136617838 	  1.525686522680 	  1.642700437221 	
O	  3.686136617838 	  1.525686522680 	  4.622700437221 	
O	  2.686136617838 	  5.505686522680 	  1.642700437221 	
O	  3.686136617838 	  5.505686522680 	  4.622700437221 	
O	  6.666136617838 	  1.525686522680 	  1.642700437221 	
O	  7.666136617838 	  1.525686522680 	  4.622700437221 	
O	  6.666136617838 	  5.505686522680 	  1.642700437221 	
O	  7.666136617838 	  5.505686522680 	  4.622700437221 	
64 
Energy: 4.4905024509635574e+00 
Mg	  0.000000000000 	  0.000000000000 	  0.000000000000 	
Mg	  1.000000000000 	  0.000000000000 	  2.980000000000 	
Mg	  0.000000000000 	  3.980000000000 	  0.000000000000 	
Mg	  1.000000000000 	  3.980000000000 	  2.980000000000 	
Mg	  3.980000000000 	  0.000000000000 	  0.000000000000 	
Mg	  4.980000000000 	  0.000000000000 	  2.980000000000 	
Mg	  3.980000000000 	  3.980000000000 	  0.000000000000 	
Mg	  4.980000000000 	  3.980000000000 	  2.980000000000 	
Mg	  1.817395731902 	  1.886192230191 	  0.000000000000 	
Mg	  2.817395731902 	  1.886192230191 	  2.980000000000 	
Mg	  1.817395731902 	  5.866192230191 	  0.000000000000 	
Mg	  2.817395731902 	  5.866192230191 	  2.980000000000 	
Mg	  5.797395731902 	  1.886192230191 	  0.000000000000 	
Mg	  6.797395731902 	  1.886192230191 	  2.980000000000 	
Mg	  5.797395731902 	  5.866192230191 	  0.000000000000 	
Mg	  6.797395731902 	  5.866192230191 	  2.980000000000 	
Mg	  2.367767718215 	  0.000000000000 	  1.679802735323 	
Mg	  3.367767718215 	  0.000000000000 	  4.659802735323 	
Mg	  2.367767718215 	  3.980000000000 	  1.679802735323 	
Mg	  3.367767718215 	  3.980000000000 	  4.659802735323 	
Mg	  6.347767718215 	  0.000000000000 	  1.679802735323 	
Mg	  7.347767718215 	  0.000000000000 	  4.659802735323 	
Mg	  6.347767718215 	  3.980000000000 	  1.679802735323 	
Mg	  7.347767718215 	  3.980000000000 	  4.659802735323 	
Mg	  0.343982491446 	  2.023785226769 	  1.679802735323 	
Mg	  1.343982491446 	  2.023785226769 	  4.659802735323 	
Mg	  0.343982491446 	  6.003785226769 	  1.679802735323 	
Mg	  1.343982491446 	  6.003785226769 	  4.659802735323 	
Mg	  4.323982491446 	  2.023785226769 	  1.679802735323 	
Mg	  5.323982491446 	  2.023785226769 	  4.659802735323 	
Mg	  4.323982491446 	  6.003785226769 	  1.679802735323 	
Mg	  5.323982491446 	  6.003785226769 	  4.659802735323 	
O	  2.023785226769 	  0.000000000000 	  0.000000000000 	
O	  3.023785226769 	  0.000000000000 	  2.980000000000 	
O	  2.023785226769 	  3.980000000000 	  0.000000000000 	
O	  3.023785226769 	  3.980000000000 	  2.980000000000 	
O	  6.003785226769 	  0.000000000000 	  0.000000000000 	
O	  7.003785226769 	  0.000000000000 	  2.980000000000 	
O	  6.003785226769 	  3.980000000000 	  0.000000000000 	
O	  7.003785226769 	  3.980000000000 	  2.980000000000 	
O	  0.000000000000 	  2.023785226769 	  0.000000000000 	
O	  1.000000000000 	  2.023785226769 	  2.980000000000 	
O	  0.000000000000 	  6.003785226769 	  0.000000000000 	
O	  1.000000000000 	  6.003785226769 	  2.980000000000 	
O	  3.980000000000 	  2.023785226769 	  0.000000000000 	
O	  4.980000000000 	  2.023785226769 	  2.980000000000 	
O	  3.980000000000 	  6.003785226769 	  0.000000000000 	
O	  4.980000000000 	  6.003785226769 	  2.980000000000 	
O	  0.343982491446 	  0.000000000000 	  1.679802735323 	
O	  1.343982491446 	  0.000000000000 	  4.659802735323 	
O	  0.343982491446 	  3.980000000000 	  1.679802735323 	
O	  1.343982491446 	  3.980000000000 	  4.659802735323 	
O	  4.323982491446 	  0.000000000000 	  1.679802735323 	
O	  5.323982491446 	  0.000000000000 	  4.659802735323 	
O	  4.323982491446 	  3.980000000000 	  1.679802735323 	
O	  5.323982491446 	  3.980000000000 	  4.659802735323 	
O	  2.642953711372 	  1.571792233009 	  1.679802735323 	
O	  3.642953711372 	  1.571792233009 	  4.659802735323 	
O	  2.642953711372 	  5.551792233009 	  1.679802735323 	
O	  3.642953711372 	  5.551792233009 	  4.659802735323 	
O	  6.622953711372 	  1.571792233009 	  1.679802735323 	
O	  7.622953711372 	  1.571792233009 	  4.659802735323 	
O	  6.622953711372 	  5.551792233009 	  1.679802735323 	
O	  7.622953711372 	  5.551792233009 	  4.659802735323 	
64 
Energy: 5.0768023368085542e+00 
Mg	  0.000000000000 	  0.000000000000 	  0.000000000000 	
Mg	  1.000000000000 	  0.000000000000 	  2.980000000000 	
Mg	  0.000000000000 	  3.980000000000 	  0.000000000000 	
Mg	  1.000000000000 	  3.980000000000 	  2.980000000000 	
Mg	  3.980000000000 	  0.000000000000 	  0.000000000000 	
Mg	  4.980000000000 	  0.000000000000 	  2.980000000000 	
Mg	  3.980000000000 	  3.980000000000 	  0.000000000000 	
Mg	  4.980000000000 	  3.980000000000 	  2.980000000000 	
Mg	  1.843052560479 	  1.906110484053 	  0.000000000000 	
Mg	  2.843052560479 	  1.906110484053 	  2.980000000000 	
Mg	  1.843052560479 	  5.886110484053 	  0.000000000000 	
Mg	  2.843052560479 	  5.886110484053 	  2.980000000000 	
Mg	  5.823052560479 	  1.906110484053 	  0.000000000000 	
Mg	  6.823052560479 	  1.906110484053 	  2.980000000000 	
Mg	  5.823052560479 	  5.886110484053 	  0.000000000000 	
Mg	  6.823052560479 	  5.886110484053 	  2.980000000000 	
Mg	  2.347515949070 	  0.000000000000 	  1.716936713331 	
Mg	  3.347515949070 	  0.000000000000 	  4.696936713331 	
Mg	  2.347515949070 	  3.980000000000 	  1.716936713331 	
Mg	  3.347515949070 	  3.980000000000 	  4.696936713331 	
Mg	  6.327515949070 	  0.000000000000 	  1.716936713331 	
Mg	  7.327515949070 	  0.000000000000 	  4.696936713331 	
Mg	  6.327515949070 	  3.980000000000 	  1.716936713331 	
Mg	  7.327515949070 	  3.980000000000 	  4.696936713331 	
Mg	  0.315289617870 	  2.032226331200 	  1.716936713331 	
Mg	  1.315289617870 	  2.032226331200 	  4.696936713331 	
Mg	  0.315289617870 	  6.012226331200 	  1.716936713331 	
Mg	  1.315289617870 	  6.012226331200 	  4.696936713331 	
Mg	  4.295289617870 	  2.032226331200 	  1.716936713331 	
Mg	  5.295289617870 	  2.032226331200 	  4.696936713331 	
Mg	  4.295289617870 	  6.012226331200 	  1.716936713331 	
Mg	  5.295289617870 	  6.012226331200 	  4.696936713331 	
O	  2.032226331200 	  0.000000000000 	  0.000000000000 	
O	  3.032226331200 	  0.000000000000 	  2.980000000000 	
O	  2.032226331200 	  3.980000000000 	  0.000000000000 	
O	  3.032226331200 	  3.980000000000 	  2.980000000000 	
O	  6.012226331200 	  0.000000000000 	  0.000000000000 	
O	  7.012226331200 	  0.000000000000 	  2.980000000000 	
O	  6.012226331200 	  3.980000000000 	  0.000000000000 	
O	  7.012226331200 	  3.980000000000 	  2.980000000000 	
O	  0.000000000000 	  2.032226331200 	  0.000000000000 	
O	  1.000000000000 	  2.032226331200 	  2.980000000000 	
O	  0.000000000000 	  6.012226331200 	  0.000000000000 	
O	  1.000000000000 	  6.012226331200 	  2.980000000000 	
O	  3.980000000000 	  2.032226331200 	  0.000000000000 	
O	  4.980000000000 	  2.032226331200 	  2.980000000000 	
O	  3.980000000000 	  6.012226331200 	  0.000000000000 	
O	  4.980000000000 	  6.012226331200 	  2.980000000000 	
O	  0.315289617870 	  0.000000000000 	  1.716936713331 	
O	  1.315289617870 	  0.000000000000 	  4.696936713331 	
O	  0.315289617870 	  3.980000000000 	  1.716936713331 	
O	  1.315289617870 	  3.980000000000 	  4.696936713331 	
O	  4.295289617870 	  0.000000000000 	  1.716936713331 	
O	  5.295289617870 	  0.000000000000 	  4.696936713331 	
O	  4.295289617870 	  3.980000000000 	  1.716936713331 	
O	  5.295289617870 	  3.980000000000 	  4.696936713331 	
O	  2.599747643366 	  1.617935773320 	  1.716936713331 	
O	  3.599747643366 	  1.617935773320 	  4.696936713331 	
O	  2.599747643366 	  5.597935773320 	  1.716936713331 	
O	  3.599747643366 	  5.597935773320 	  4.696936713331 	
O	  6.579747643366 	  1.617935773320 	  1.716936713331 	
O	  7.579747643366 	  1.617935773320 	  4.696936713331 	
O	  6.579747643366 	  5.597935773320 	  1.716936713331 	
O	  7.579747643366 	  5.597935773320 	  4.696936713331 	
64 
Energy: 5.4988621410151364e+00 
Mg	  0.000000000000 	  0.000000000000 	  0.000000000000 	
Mg	  1.000000000000 	  0.000000000000 	  2.980000000000 	
Mg	  0.000000000000 	  3.980000000000 	  0.000000000000 	
Mg	  1.000000000000 	  3.980000000000 	  2.980000000000 	
Mg	  3.980000000000 	  0.000000000000 	  0.000000000000 	
Mg	  4.980000000000 	  0.000000000000 	  2.980000000000 	
Mg	  3.980000000000 	  3.980000000000 	  0.000000000000 	
Mg	  4.980000000000 	  3.980000000000 	  2.980000000000 	
Mg	  1.868727245307 	  1.926043054086 	  0.000000000000 	
Mg	  2.868727245307 	  1.926043054086 	  2.980000000000 	
Mg	  1.868727245307 	  5.906043054086 	  0.000000000000 	
Mg	  2.868727245307 	  5.906043054086 	  2.980000000000 	
Mg	  5.848727245307 	  1.926043054086 	  0.000000000000 	
Mg	  6.848727245307 	  1.926043054086 	  2.980000000000 	
Mg	  5.848727245307 	  5.906043054086 	  0.000000000000 	
Mg	  6.848727245307 	  5.906043054086 	  2.980000000000 	
Mg	  2.327253715539 	  0.000000000000 	  1.754095627749 	
Mg	  3.327253715539 	  0.000000000000 	  4.734095627749 	
Mg	  2.327253715539 	  3.980000000000 	  1.754095627749 	
Mg	  3.327253715539 	  3.980000000000 	  4.734095627749 	
Mg	  6.307253715539 	  0.000000000000 	  1.754095627749 	
Mg	  7.307253715539 	  0.000000000000 	  4.734095627749 	
Mg	  6.307253715539 	  3.980000000000 	  1.754095627749 	
Mg	  7.307253715539 	  3.980000000000 	  4.734095627749 	
Mg	  0.286579043895 	  2.040674671644 	  1.754095627749 	
Mg	  1.286579043895 	  2.040674671644 	  4.734095627749 	
Mg	  0.286579043895 	  6.020674671644 	  1.754095627749 	
Mg	  1.286579043895 	  6.020674671644 	  4.734095627749 	
Mg	  4.266579043895 	  2.040674671644 	  1.754095627749 	
Mg	  5.266579043895 	  2.040674671644 	  4.734095627749 	
Mg	  4.266579043895 	  6.020674671644 	  1.754095627749 	
Mg	  5.266579043895 	  6.020674671644 	  4.734095627749 	
O	  2.040674671644 	  0.000000000000 	  0.000000000000 	
O	  3.040674671644 	  0.000000000000 	  2.980000000000 	
O	  2.040674671644 	  3.980000000000 	  0.000000000000 	
O	  3.040674671644 	  3.980000000000 	  2.980000000000 	
O	  6.020674671644 	  0.000000000000 	  0.000000000000 	
O	  7.020674671644 	  0.000000000000 	  2.980000000000 	
O	  6.020674671644 	  3.980000000000 	  0.000000000000 	
O	  7.020674671644 	  3.980000000000 	  2.980000000000 	
O	  0.000000000000 	  2.040674671644 	  0.000000000000 	
O	  1.000000000000 	  2.040674671644 	  2.980000000000 	
O	  0.000000000000 	  6.020674671644 	  0.000000000000 	
O	  1.000000000000 	  6.020674671644 	  2.980000000000 	
O	  3.980000000000 	  2.040674671644 	  0.000000000000 	
O	  4.980000000000 	  2.040674671644 	  2.980000000000 	
O	  3.980000000000 	  6.020674671644 	  0.000000000000 	
O	  4.980000000000 	  6.020674671644 	  2.980000000000 	
O	  0.286579043895 	  0.000000000000 	  1.754095627749 	
O	  1.286579043895 	  0.000000000000 	  4.734095627749 	
O	  0.286579043895 	  3.980000000000 	  1.754095627749 	
O	  1.286579043895 	  3.980000000000 	  4.734095627749 	
O	  4.266579043895 	  0.000000000000 	  1.754095627749 	
O	  5.266579043895 	  0.000000000000 	  4.734095627749 	
O	  4.266579043895 	  3.980000000000 	  1.754095627749 	
O	  5.266579043895 	  3.980000000000 	  4.734095627749 	
O	  2.556516950655 	  1.664109807966 	  1.754095627749 	
O	  3.556516950655 	  1.664109807966 	  4.734095627749 	
O	  2.556516950655 	  5.644109807966 	  1.754095627749 	
O	  3.556516950655 	  5.644109807966 	  4.734095627749 	
O	  6.536516950655 	  1.664109807966 	  1.754095627749 	
O	  7.536516950655 	  1.664109807966 	  4.734095627749 	
O	  6.536516950655 	  5.644109807966 	  1.754095627749 	
O	  7.536516950655 	  5.644109807966 	  4.734095627749 	
64 
Energy: 5.7059306243603301e+00 
Mg	  0.000000000000 	  0.000000000000 	  0.000000000000 	
Mg	  1.000000000000 	  0.000000000000 	  2.980000000000 	
Mg	  0.000000000000 	  3.980000000000 	  0.000000000000 	
Mg	  1.000000000000 	  3.980000000000 	  2.980000000000 	
Mg	  3.980000000000 	  0.000000000000 	  0.000000000000 	
Mg	  4.980000000000 	  0.000000000000 	  2.980000000000 	
Mg	  3.980000000000 	  3.980000000000 	  0.000000000000 	
Mg	  4.980000000000 	  3.980000000000 	  2.980000000000 	
Mg	  1.894410741515 	  1.945982917901 	  0.000000000000 	
Mg	  2.894410741515 	  1.945982917901 	  2.980000000000 	
Mg	  1.894410741515 	  5.925982917901 	  0.000000000000 	
Mg	  2.894410741515 	  5.925982917901 	  2.980000000000 	
Mg	  5.874410741515 	  1.945982917901 	  0.000000000000 	
Mg	  6.874410741515 	  1.945982917901 	  2.980000000000 	
Mg	  5.874410741515 	  5.925982917901 	  0.000000000000 	
Mg	  6.874410741515 	  5.925982917901 	  2.980000000000 	
Mg	  2.306988152597 	  0.000000000000 	  1.791266388745 	
Mg	  3.306988152597 	  0.000000000000 	  4.771266388745 	
Mg	  2.306988152597 	  3.980000000000 	  1.791266388745 	
Mg	  3.306988152597 	  3.980000000000 	  4.771266388745 	
Mg	  6.286988152597 	  0.000000000000 	  1.791266388745 	
Mg	  7.286988152597 	  0.000000000000 	  4.771266388745 	
Mg	  6.286988152597 	  3.980000000000 	  1.791266388745 	
Mg	  7.286988152597 	  3.980000000000 	  4.771266388745 	
Mg	  0.257860881926 	  2.049127270671 	  1.791266388745 	
Mg	  1.257860881926 	  2.049127270671 	  4.771266388745 	
Mg	  0.257860881926 	  6.029127270671 	  1.791266388745 	
Mg	  1.257860881926 	  6.029127270671 	  4.771266388745 	
Mg	  4.237860881926 	  2.049127270671 	  1.791266388745 	
Mg	  5.237860881926 	  2.049127270671 	  4.771266388745 	
Mg	  4.237860881926 	  6.029127270671 	  1.791266388745 	
Mg	  5.237860881926 	  6.029127270671 	  4.771266388745 	
O	  2.049127270671 	  0.000000000000 	  0.000000000000 	
O	  3.049127270671 	  0.000000000000 	  2.980000000000 	
O	  2.049127270671 	  3.980000000000 	  0.000000000000 	
O	  3.049127270671 	  3.980000000000 	  2.980000000000 	
O	  6.029127270671 	  0.000000000000 	  0.000000000000 	
O	  7.029127270671 	  0.000000000000 	  2.980000000000 	
O	  6.029127270671 	  3.980000000000 	  0.000000000000 	
O	  7.029127270671 	  3.980000000000 	  2.980000000000 	
O	  0.000000000000 	  2.049127270671 	  0.000000000000 	
O	  1.000000000000 	  2.049127270671 	  2.980000000000 	
O	  0.000000000000 	  6.029127270671 	  0.000000000000 	
O	  1.000000000000 	  6.029127270671 	  2.980000000000 	
O	  3.980000000000 	  2.049127270671 	  0.000000000000 	
O	  4.980000000000 	  2.049127270671 	  2.980000000000 	
O	  3.980000000000 	  6.029127270671 	  0.000000000000 	
O	  4.980000000000 	  6.029127270671 	  2.980000000000 	
O	  0.257860881926 	  0.000000000000 	  1.791266388745 	
O	  1.257860881926 	  0.000000000000 	  4.771266388745 	
O	  0.257860881926 	  3.980000000000 	  1.791266388745 	
O	  1.257860881926 	  3.980000000000 	  4.771266388745 	
O	  4.237860881926 	  0.000000000000 	  1.791266388745 	
O	  5.237860881926 	  0.000000000000 	  4.771266388745 	
O	  4.237860881926 	  3.980000000000 	  1.791266388745 	
O	  5.237860881926 	  3.980000000000 	  4.771266388745 	
O	  2.513276858138 	  1.710298071820 	  1.791266388745 	
O	  3.513276858138 	  1.710298071820 	  4.771266388745 	
O	  2.513276858138 	  5.690298071820 	  1.791266388745 	
O	  3.513276858138 	  5.690298071820 	  4.771266388745 	
O	  6.493276858138 	  1.710298071820 	  1.791266388745 	
O	  7.493276858138 	  1.710298071820 	  4.771266388745 	
O	  6.493276858138 	  5.690298071820 	  1.791266388745 	
O	  7.493276858138 	  5.690298071820 	  4.771266388745 	
64 
Energy: 5.6672507522590214e+00 
Mg	  0.000000000000 	  0.000000000000 	  0.000000000000 	
Mg	  1.000000000000 	  0.000000000000 	  2.980000000000 	
Mg	  0.000000000000 	  3.980000000000 	  0.000000000000 	
Mg	  1.000000000000 	  3.980000000000 	  2.980000000000 	
Mg	  3.980000000000 	  0.000000000000 	  0.000000000000 	
Mg	  4.980000000000 	  0.000000000000 	  2.980000000000 	
Mg	  3.980000000000 	  3.980000000000 	  0.000000000000 	
Mg	  4.980000000000 	  3.980000000000 	  2.980000000000 	
Mg	  1.920095939273 	  1.965924043269 	  0.000000000000 	
Mg	  2.920095939273 	  1.965924043269 	  2.980000000000 	
Mg	  1.920095939273 	  5.945924043269 	  0.000000000000 	
Mg	  2.920095939273 	  5.945924043269 	  2.980000000000 	
Mg	  5.900095939273 	  1.965924043269 	  0.000000000000 	
Mg	  6.900095939273 	  1.965924043269 	  2.980000000000 	
Mg	  5.900095939273 	  5.945924043269 	  0.000000000000 	
Mg	  6.900095939273 	  5.945924043269 	  2.980000000000 	
Mg	  2.286720771237 	  0.000000000000 	  1.828439731282 	
Mg	  3.286720771237 	  0.000000000000 	  4.808439731282 	
Mg	  2.286720771237 	  3.980000000000 	  1.828439731282 	
Mg	  3.286720771237 	  3.980000000000 	  4.808439731282 	
Mg	  6.266720771237 	  0.000000000000 	  1.828439731282 	
Mg	  7.266720771237 	  0.000000000000 	  4.808439731282 	
Mg	  6.266720771237 	  3.980000000000 	  1.828439731282 	
Mg	  7.266720771237 	  3.980000000000 	  4.808439731282 	
Mg	  0.229140519977 	  2.057580251260 	  1.828439731282 	
Mg	  1.229140519977 	  2.057580251260 	  4.808439731282 	
Mg	  0.229140519977 	  6.037580251260 	  1.828439731282 	
Mg	  1.229140519977 	  6.037580251260 	  4.808439731282 	
Mg	  4.209140519977 	  2.057580251260 	  1.828439731282 	
Mg	  5.209140519977 	  2.057580251260 	  4.808439731282 	
Mg	  4.209140519977 	  6.037580251260 	  1.828439731282 	
Mg	  5.209140519977 	  6.037580251260 	  4.808439731282 	
O	  2.057580251260 	  0.000000000000 	  0.000000000000 	
O	  3.057580251260 	  0.000000000000 	  2.980000000000 	
O	  2.057580251260 	  3.980000000000 	  0.000000000000 	
O	  3.057580251260 	  3.980000000000 	  2.980000000000 	
O	  6.037580251260 	  0.000000000000 	  0.000000000000 	
O	  7.037580251260 	  0.000000000000 	  2.980000000000 	
O	  6.037580251260 	  3.980000000000 	  0.000000000000 	
O	  7.037580251260 	  3.980000000000 	  2.980000000000 	
O	  0.000000000000 	  2.057580251260 	  0.000000000000 	
O	  1.000000000000 	  2.057580251260 	  2.980000000000 	
O	  0.000000000000 	  6.037580251260 	  0.000000000000 	
O	  1.000000000000 	  6.037580251260 	  2.980000000000 	
O	  3.980000000000 	  2.057580251260 	  0.000000000000 	
O	  4.980000000000 	  2.057580251260 	  2.980000000000 	
O	  3.980000000000 	  6.037580251260 	  0.000000000000 	
O	  4.980000000000 	  6.037580251260 	  2.980000000000 	
O	  0.229140519977 	  0.000000000000 	  1.828439731282 	
O	  1.229140519977 	  0.000000000000 	  4.808439731282 	
O	  0.229140519977 	  3.980000000000 	  1.828439731282 	
O	  1.229140519977 	  3.980000000000 	  4.808439731282 	
O	  4.209140519977 	  0.000000000000 	  1.828439731282 	
O	  5.209140519977 	  0.000000000000 	  4.808439731282 	
O	  4.209140519977 	  3.980000000000 	  1.828439731282 	
O	  5.209140519977 	  3.980000000000 	  4.808439731282 	
O	  2.470033187219 	  1.756489608009 	  1.828439731282 	
O	  3.470033187219 	  1.756489608009 	  4.808439731282 	
O	  2.470033187219 	  5.736489608009 	  1.828439731282 	
O	  3.470033187219 	  5.736489608009 	  4.808439731282 	
O	  6.450033187219 	  1.756489608009 	  1.828439731282 	
O	  7.450033187219 	  1.756489608009 	  4.808439731282 	
O	  6.450033187219 	  5.736489608009 	  1.828439731282 	
O	  7.450033187219 	  5.736489608009 	  4.808439731282 	
64 
Energy: 5.3708954941570024e+00 
Mg	  0.000000000000 	  0.000000000000 	  0.000000000000 	
Mg	  1.000000000000 	  0.000000000000 	  2.980000000000 	
Mg	  0.000000000000 	  3.980000000000 	  0.000000000000 	
Mg	  1.000000000000 	  3.980000000000 	  2.980000000000 	
Mg	  3.980000000000 	  0.000000000000 	  0.000000000000 	
Mg	  4.980000000000 	  0.000000000000 	  2.980000000000 	
Mg	  3.980000000000 	  3.980000000000 	  0.000000000000 	
Mg	  4.980000000000 	  3.980000000000 	  2.980000000000 	
Mg	  1.945777017503 	  1.985862125177 	  0.000000000000 	
Mg	  2.945777017503 	  1.985862125177 	  2.980000000000 	
Mg	  1.945777017503 	  5.965862125177 	  0.000000000000 	
Mg	  2.945777017503 	  5.965862125177 	  2.980000000000 	
Mg	  5.925777017503 	  1.985862125177 	  0.000000000000 	
Mg	  6.925777017503 	  1.985862125177 	  2.980000000000 	
Mg	  5.925777017503 	  5.965862125177 	  0.000000000000 	
Mg	  6.925777017503 	  5.965862125177 	  2.980000000000 	
Mg	  2.266457878891 	  0.000000000000 	  1.865606802156 	
Mg	  3.266457878891 	  0.000000000000 	  4.845606802156 	
Mg	  2.266457878891 	  3.980000000000 	  1.865606802156 	
Mg	  3.266457878891 	  3.980000000000 	  4.845606802156 	
Mg	  6.246457878891 	  0.000000000000 	  1.865606802156 	
Mg	  7.246457878891 	  0.000000000000 	  4.845606802156 	
Mg	  6.246457878891 	  3.980000000000 	  1.865606802156 	
Mg	  7.246457878891 	  3.980000000000 	  4.845606802156 	
Mg	  0.200425538368 	  2.066032340524 	  1.865606802156 	
Mg	  1.200425538368 	  2.066032340524 	  4.845606802156 	
Mg	  0.200425538368 	  6.046032340524 	  1.865606802156 	
Mg	  1.200425538368 	  6.046032340524 	  4.845606802156 	
Mg	  4.180425538368 	  2.066032340524 	  1.865606802156 	
Mg	  5.180425538368 	  2.066032340524 	  4.845606802156 	
Mg	  4.180425538368 	  6.046032340524 	  1.865606802156 	
Mg	  5.180425538368 	  6.046032340524 	  4.845606802156 	
O	  2.066032340524 	  0.000000000000 	  0.000000000000 	
O	  3.066032340524 	  0.000000000000 	  2.980000000000 	
O	  2.066032340524 	  3.980000000000 	  0.000000000000 	
O	  3.066032340524 	  3.980000000000 	  2.980000000000 	
O	  6.046032340524 	  0.000000000000 	  0.000000000000 	
O	  7.046032340524 	  0.000000000000 	  2.980000000000 	
O	  6.046032340524 	  3.980000000000 	  0.000000000000 	
O	  7.046032340524 	  3.980000000000 	  2.980000000000 	
O	  0.000000000000 	  2.066032340524 	  0.000000000000 	
O	  1.000000000000 	  2.066032340524 	  2.980000000000 	
O	  0.000000000000 	  6.046032340524 	  0.000000000000 	
O	  1.000000000000 	  6.046032340524 	  2.980000000000 	
O	  3.980000000000 	  2.066032340524 	  0.000000000000 	
O	  4.980000000000 	  2.066032340524 	  2.980000000000 	
O	  3.980000000000 	  6.046032340524 	  0.000000000000 	
O	  4.980000000000 	  6.046032340524 	  2.980000000000 	
O	  0.200425538368 	  0.000000000000 	  1.865606802156 	
O	  1.200425538368 	  0.000000000000 	  4.845606802156 	
O	  0.200425538368 	  3.980000000000 	  1.865606802156 	
O	  1.200425538368 	  3.980000000000 	  4.845606802156 	
O	  4.180425538368 	  0.000000000000 	  1.865606802156 	
O	  5.180425538368 	  0.000000000000 	  4.845606802156 	
O	  4.180425538368 	  3.980000000000 	  1.865606802156 	
O	  5.180425538368 	  3.980000000000 	  4.845606802156 	
O	  2.426798309585 	  1.802673183109 	  1.865606802156 	
O	  3.426798309585 	  1.802673183109 	  4.845606802156 	
O	  2.426798309585 	  5.782673183109 	  1.865606802156 	
O	  3.426798309585 	  5.782673183109 	  4.845606802156 	
O	  6.406798309585 	  1.802673183109 	  1.865606802156 	
O	  7.406798309585 	  1.802673183109 	  4.845606802156 	
O	  6.406798309585 	  5.782673183109 	  1.865606802156 	
O	  7.406798309585 	  5.782673183109 	  4.845606802156 	
64 
Energy: 4.8232061381752835e+00 
Mg	  0.000000000000 	  0.000000000000 	  0.000000000000 	
Mg	  1.000000000000 	  0.000000000000 	  2.980000000000 	
Mg	  0.000000000000 	  3.980000000000 	  0.000000000000 	
Mg	  1.000000000000 	  3.980000000000 	  2.980000000000 	
Mg	  3.980000000000 	  0.000000000000 	  0.000000000000 	
Mg	  4.980000000000 	  0.000000000000 	  2.980000000000 	
Mg	  3.980000000000 	  3.980000000000 	  0.000000000000 	
Mg	  4.980000000000 	  3.980000000000 	  2.980000000000 	
Mg	  1.971448326473 	  2.005792766178 	  0.000000000000 	
Mg	  2.971448326473 	  2.005792766178 	  2.980000000000 	
Mg	  1.971448326473 	  5.985792766178 	  0.000000000000 	
Mg	  2.971448326473 	  5.985792766178 	  2.980000000000 	
Mg	  5.951448326473 	  2.005792766178 	  0.000000000000 	
Mg	  6.951448326473 	  2.005792766178 	  2.980000000000 	
Mg	  5.951448326473 	  5.985792766178 	  0.000000000000 	
Mg	  6.951448326473 	  5.985792766178 	  2.980000000000 	
Mg	  2.246203844118 	  0.000000000000 	  1.902759447062 	
Mg	  3.246203844118 	  0.000000000000 	  4.882759447062 	
Mg	  2.246203844118 	  3.980000000000 	  1.902759447062 	
Mg	  3.246203844118 	  3.980000000000 	  4.882759447062 	
Mg	  6.226203844118 	  0.000000000000 	  1.902759447062 	
Mg	  7.226203844118 	  0.000000000000 	  4.882759447062 	
Mg	  6.226203844118 	  3.980000000000 	  1.902759447062 	
Mg	  7.226203844118 	  3.980000000000 	  4.882759447062 	
Mg	  0.171722198528 	  2.074481645590 	  1.902759447062 	
Mg	  1.171722198528 	  2.074481645590 	  4.882759447062 	
Mg	  0.171722198528 	  6.054481645590 	  1.902759447062 	
Mg	  1.171722198528 	  6.054481645590 	  4.882759447062 	
Mg	  4.151722198528 	  2.074481645590 	  1.902759447062 	
Mg	  5.151722198528 	  2.074481645590 	  4.882759447062 	
Mg	  4.151722198528 	  6.054481645590 	  1.902759447062 	
Mg	  5.151722198528 	  6.054481645590 	  4.882759447062 	
O	  2.074481645590 	  0.000000000000 	  0.000000000000 	
O	  3.074481645590 	  0.000000000000 	  2.980000000000 	
O	  2.074481645590 	  3.980000000000 	  0.000000000000 	
O	  3.074481645590 	  3.980000000000 	  2.980000000000 	
O	  6.054481645590 	  0.000000000000 	  0.000000000000 	
O	  7.054481645590 	  0.000000000000 	  2.980000000000 	
O	  6.054481645590 	  3.980000000000 	  0.000000000000 	
O	  7.054481645590 	  3.980000000000 	  2.980000000000 	
O	  0.000000000000 	  2.074481645590 	  0.000000000000 	
O	  1.000000000000 	  2.074481645590 	  2.980000000000 	
O	  0.000000000000 	  6.054481645590 	  0.000000000000 	
O	  1.000000000000 	  6.054481645590 	  2.980000000000 	
O	  3.980000000000 	  2.074481645590 	  0.000000000000 	
O	  4.980000000000 	  2.074481645590 	  2.980000000000 	
O	  3.980000000000 	  6.054481645590 	  0.000000000000 	
O	  4.980000000000 	  6.054481645590 	  2.980000000000 	
O	  0.171722198528 	  0.000000000000 	  1.902759447062 	
O	  1.171722198528 	  0.000000000000 	  4.882759447062 	
O	  0.171722198528 	  3.980000000000 	  1.902759447062 	
O	  1.171722198528 	  3.980000000000 	  4.882759447062 	
O	  4.151722198528 	  0.000000000000 	  1.902759447062 	
O	  5.151722198528 	  0.000000000000 	  4.882759447062 	
O	  4.151722198528 	  3.980000000000 	  1.902759447062 	
O	  5.151722198528 	  3.980000000000 	  4.882759447062 	
O	  2.383581602940 	  1.848838676724 	  1.902759447062 	
O	  3.383581602940 	  1.848838676724 	  4.882759447062 	
O	  2.383581602940 	  5.828838676724 	  1.902759447062 	
O	  3.383581602940 	  5.828838676724 	  4.882759447062 	
O	  6.363581602940 	  1.848838676724 	  1.902759447062 	
O	  7.363581602940 	  1.848838676724 	  4.882759447062 	
O	  6.363581602940 	  5.828838676724 	  1.902759447062 	
O	  7.363581602940 	  5.828838676724 	  4.882759447062 	
64 
Energy: 4.0514940421627159e+00 
Mg	  0.000000000000 	  0.000000000000 	  0.000000000000 	
Mg	  1.000000000000 	  0.000000000000 	  2.980000000000 	
Mg	  0.000000000000 	  3.980000000000 	  0.000000000000 	
Mg	  1.000000000000 	  3.980000000000 	  2.980000000000 	
Mg	  3.980000000000 	  0.000000000000 	  0.000000000000 	
Mg	  4.980000000000 	  0.000000000000 	  2.980000000000 	
Mg	  3.980000000000 	  3.980000000000 	  0.000000000000 	
Mg	  4.980000000000 	  3.980000000000 	  2.980000000000 	
Mg	  1.997104422106 	  2.025711642139 	  0.000000000000 	
Mg	  2.997104422106 	  2.025711642139 	  2.980000000000 	
Mg	  1.997104422106 	  6.005711642139 	  0.000000000000 	
Mg	  2.997104422106 	  6.005711642139 	  2.980000000000 	
Mg	  5.977104422106 	  2.025711642139 	  0.000000000000 	
Mg	  6.977104422106 	  2.025711642139 	  2.980000000000 	
Mg	  5.977104422106 	  6.005711642139 	  0.000000000000 	
Mg	  6.977104422106 	  6.005711642139 	  2.980000000000 	
Mg	  2.225962182368 	  0.000000000000 	  1.939889982041 	
Mg	  3.225962182368 	  0.000000000000 	  4.919889982041 	
Mg	  2.225962182368 	  3.980000000000 	  1.939889982041 	
Mg	  3.225962182368 	  3.980000000000 	  4.919889982041 	
Mg	  6.205962182368 	  0.000000000000 	  1.939889982041 	
Mg	  7.205962182368 	  0.000000000000 	  4.919889982041 	
Mg	  6.205962182368 	  3.980000000000 	  1.939889982041 	
Mg	  7.205962182368 	  3.980000000000 	  4.919889982041 	
Mg	  0.143036100163 	  2.082926082204 	  1.939889982041 	
Mg	  1.143036100163 	  2.082926082204 	  4.919889982041 	
Mg	  0.143036100163 	  6.062926082204 	  1.939889982041 	
Mg	  1.143036100163 	  6.062926082204 	  4.919889982041 	
Mg	  4.123036100163 	  2.082926082204 	  1.939889982041 	
Mg	  5.123036100163 	  2.082926082204 	  4.919889982041 	
Mg	  4.123036100163 	  6.062926082204 	  1.939889982041 	
Mg	  5.123036100163 	  6.062926082204 	  4.919889982041 	
O	  2.082926082204 	  0.000000000000 	  0.000000000000 	
O	  3.082926082204 	  0.000000000000 	  2.980000000000 	
O	  2.082926082204 	  3.980000000000 	  0.000000000000 	
O	  3.082926082204 	  3.980000000000 	  2.980000000000 	
O	  6.062926082204 	  0.000000000000 	  0.000000000000 	
O	  7.062926082204 	  0.000000000000 	  2.980000000000 	
O	  6.062926082204 	  3.980000000000 	  0.000000000000 	
O	  7.062926082204 	  3.980000000000 	  2.980000000000 	
O	  0.000000000000 	  2.082926082204 	  0.000000000000 	
O	  1.000000000000 	  2.082926082204 	  2.980000000000 	
O	  0.000000000000 	  6.062926082204 	  0.000000000000 	
O	  1.000000000000 	  6.062926082204 	  2.980000000000 	
O	  3.980000000000 	  2.082926082204 	  0.000000000000 	
O	  4.980000000000 	  2.082926082204 	  2.980000000000 	
O	  3.980000000000 	  6.062926082204 	  0.000000000000 	
O	  4.980000000000 	  6.062926082204 	  2.980000000000 	
O	  0.143036100163 	  0.000000000000 	  1.939889982041 	
O	  1.143036100163 	  0.000000000000 	  4.919889982041 	
O	  0.143036100163 	  3.980000000000 	  1.939889982041 	
O	  1.143036100163 	  3.980000000000 	  4.919889982041 	
O	  4.123036100163 	  0.000000000000 	  1.939889982041 	
O	  5.123036100163 	  0.000000000000 	  4.919889982041 	
O	  4.123036100163 	  3.980000000000 	  1.939889982041 	
O	  5.123036100163 	  3.980000000000 	  4.919889982041 	
O	  2.340391062498 	  1.894976646589 	  1.939889982041 	
O	  3.340391062498 	  1.894976646589 	  4.919889982041 	
O	  2.340391062498 	  5.874976646589 	  1.939889982041 	
O	  3.340391062498 	  5.874976646589 	  4.919889982041 	
O	  6.320391062498 	  1.894976646589 	  1.939889982041 	
O	  7.320391062498 	  1.894976646589 	  4.919889982041 	
O	  6.320391062498 	  5.874976646589 	  1.939889982041 	
O	  7.320391062498 	  5.874976646589 	  4.919889982041 	
64 
Energy: 3.1088223394712049e+00 
Mg	  0.000000000000 	  0.000000000000 	  0.000000000000 	
Mg	  1.000000000000 	  0.000000000000 	  2.980000000000 	
Mg	  0.000000000000 	  3.980000000000 	  0.000000000000 	
Mg	  1.000000000000 	  3.980000000000 	  2.980000000000 	
Mg	  3.980000000000 	  0.000000000000 	  0.000000000000 	
Mg	  4.980000000000 	  0.000000000000 	  2.980000000000 	
Mg	  3.980000000000 	  3.980000000000 	  0.000000000000 	
Mg	  4.980000000000 	  3.980000000000 	  2.980000000000 	
Mg	  2.022740349039 	  2.045614742577 	  0.000000000000 	
Mg	  3.022740349039 	  2.045614742577 	  2.980000000000 	
Mg	  2.022740349039 	  6.025614742577 	  0.000000000000 	
Mg	  3.022740349039 	  6.025614742577 	  2.980000000000 	
Mg	  6.002740349039 	  2.045614742577 	  0.000000000000 	
Mg	  7.002740349039 	  2.045614742577 	  2.980000000000 	
Mg	  6.002740349039 	  6.025614742577 	  0.000000000000 	
Mg	  7.002740349039 	  6.025614742577 	  2.980000000000 	
Mg	  2.205735497347 	  0.000000000000 	  1.976991561962 	
Mg	  3.205735497347 	  0.000000000000 	  4.956991561962 	
Mg	  2.205735497347 	  3.980000000000 	  1.976991561962 	
Mg	  3.205735497347 	  3.980000000000 	  4.956991561962 	
Mg	  6.185735497347 	  0.000000000000 	  1.976991561962 	
Mg	  7.185735497347 	  0.000000000000 	  4.956991561962 	
Mg	  6.185735497347 	  3.980000000000 	  1.976991561962 	
Mg	  7.185735497347 	  3.980000000000 	  4.956991561962 	
Mg	  0.114371967693 	  2.091363529654 	  1.976991561962 	
Mg	  1.114371967693 	  2.091363529654 	  4.956991561962 	
Mg	  0.114371967693 	  6.071363529654 	  1.976991561962 	
Mg	  1.114371967693 	  6.071363529654 	  4.956991561962 	
Mg	  4.094371967693 	  2.091363529654 	  1.976991561962 	
Mg	  5.094371967693 	  2.091363529654 	  4.956991561962 	
Mg	  4.094371967693 	  6.071363529654 	  1.976991561962 	
Mg	  5.094371967693 	  6.071363529654 	  4.956991561962 	
O	  2.091363529654 	  0.000000000000 	  0.000000000000 	
O	  3.091363529654 	  0.000000000000 	  2.980000000000 	
O	  2.091363529654 	  3.980000000000 	  0.000000000000 	
O	  3.091363529654 	  3.980000000000 	  2.980000000000 	
O	  6.071363529654 	  0.000000000000 	  0.000000000000 	
O	  7.071363529654 	  0.000000000000 	  2.980000000000 	
O	  6.071363529654 	  3.980000000000 	  0.000000000000 	
O	  7.071363529654 	  3.980000000000 	  2.980000000000 	
O	  0.000000000000 	  2.091363529654 	  0.000000000000 	
O	  1.000000000000 	  2.091363529654 	  2.980000000000 	
O	  0.000000000000 	  6.071363529654 	  0.000000000000 	
O	  1.000000000000 	  6.071363529654 	  2.980000000000 	
O	  3.980000000000 	  2.091363529654 	  0.000000000000 	
O	  4.980000000000 	  2.091363529654 	  2.980000000000 	
O	  3.980000000000 	  6.071363529654 	  0.000000000000 	
O	  4.980000000000 	  6.071363529654 	  2.980000000000 	
O	  0.114371967693 	  0.000000000000 	  1.976991561962 	
O	  1.114371967693 	  0.000000000000 	  4.956991561962 	
O	  0.114371967693 	  3.980000000000 	  1.976991561962 	
O	  1.114371967693 	  3.980000000000 	  4.956991561962 	
O	  4.094371967693 	  0.000000000000 	  1.976991561962 	
O	  5.094371967693 	  0.000000000000 	  4.956991561962 	
O	  4.094371967693 	  3.980000000000 	  1.976991561962 	
O	  5.094371967693 	  3.980000000000 	  4.956991561962 	
O	  2.297233071501 	  1.941078764106 	  1.976991561962 	
O	  3.297233071501 	  1.941078764106 	  4.956991561962 	
O	  2.297233071501 	  5.921078764106 	  1.976991561962 	
O	  3.297233071501 	  5.921078764106 	  4.956991561962 	
O	  6.277233071501 	  1.941078764106 	  1.976991561962 	
O	  7.277233071501 	  1.941078764106 	  4.956991561962 	
O	  6.277233071501 	  5.921078764106 	  1.976991561962 	
O	  7.277233071501 	  5.921078764106 	  4.956991561962 	
64 
Energy: 2.0805639266453717e+00 
Mg	  0.000000000000 	  0.000000000000 	  0.000000000000 	
Mg	  1.000000000000 	  0.000000000000 	  2.980000000000 	
Mg	  0.000000000000 	  3.980000000000 	  0.000000000000 	
Mg	  1.000000000000 	  3.980000000000 	  2.980000000000 	
Mg	  3.980000000000 	  0.000000000000 	  0.000000000000 	
Mg	  4.980000000000 	  0.000000000000 	  2.980000000000 	
Mg	  3.980000000000 	  3.980000000000 	  0.000000000000 	
Mg	  4.980000000000 	  3.980000000000 	  2.980000000000 	
Mg	  2.048351599162 	  2.065498352004 	  0.000000000000 	
Mg	  3.048351599162 	  2.065498352004 	  2.980000000000 	
Mg	  2.048351599162 	  6.045498352004 	  0.000000000000 	
Mg	  3.048351599162 	  6.045498352004 	  2.980000000000 	
Mg	  6.028351599162 	  2.065498352004 	  0.000000000000 	
Mg	  7.028351599162 	  2.065498352004 	  2.980000000000 	
Mg	  6.028351599162 	  6.045498352004 	  0.000000000000 	
Mg	  7.028351599162 	  6.045498352004 	  2.980000000000 	
Mg	  2.185525621897 	  0.000000000000 	  2.014058093479 	
Mg	  3.185525621897 	  0.000000000000 	  4.994058093479 	
Mg	  2.185525621897 	  3.980000000000 	  2.014058093479 	
Mg	  3.185525621897 	  3.980000000000 	  4.994058093479 	
Mg	  6.165525621897 	  0.000000000000 	  2.014058093479 	
Mg	  7.165525621897 	  0.000000000000 	  4.994058093479 	
Mg	  6.165525621897 	  3.980000000000 	  2.014058093479 	
Mg	  7.165525621897 	  3.980000000000 	  4.994058093479 	
Mg	  0.085733764209 	  2.099791857688 	  2.014058093479 	
Mg	  1.085733764209 	  2.099791857688 	  4.994058093479 	
Mg	  0.085733764209 	  6.079791857688 	  2.014058093479 	
Mg	  1.085733764209 	  6.079791857688 	  4.994058093479 	
Mg	  4.065733764209 	  2.099791857688 	  2.014058093479 	
Mg	  5.065733764209 	  2.099791857688 	  4.994058093479 	
Mg	  4.065733764209 	  6.079791857688 	  2.014058093479 	
Mg	  5.065733764209 	  6.079791857688 	  4.994058093479 	
O	  2.099791857688 	  0.000000000000 	  0.000000000000 	
O	  3.099791857688 	  0.000000000000 	  2.980000000000 	
O	  2.099791857688 	  3.980000000000 	  0.000000000000 	
O	  3.099791857688 	  3.980000000000 	  2.980000000000 	
O	  6.079791857688 	  0.000000000000 	  0.000000000000 	
O	  7.079791857688 	  0.000000000000 	  2.980000000000 	
O	  6.079791857688 	  3.980000000000 	  0.000000000000 	
O	  7.079791857688 	  3.980000000000 	  2.980000000000 	
O	  0.000000000000 	  2.099791857688 	  0.000000000000 	
O	  1.000000000000 	  2.099791857688 	  2.980000000000 	
O	  0.000000000000 	  6.079791857688 	  0.000000000000 	
O	  1.000000000000 	  6.079791857688 	  2.980000000000 	
O	  3.980000000000 	  2.099791857688 	  0.000000000000 	
O	  4.980000000000 	  2.099791857688 	  2.980000000000 	
O	  3.980000000000 	  6.079791857688 	  0.000000000000 	
O	  4.980000000000 	  6.079791857688 	  2.980000000000 	
O	  0.085733764209 	  0.000000000000 	  2.014058093479 	
O	  1.085733764209 	  0.000000000000 	  4.994058093479 	
O	  0.085733764209 	  3.980000000000 	  2.014058093479 	
O	  1.085733764209 	  3.980000000000 	  4.994058093479 	
O	  4.065733764209 	  0.000000000000 	  2.014058093479 	
O	  5.065733764209 	  0.000000000000 	  4.994058093479 	
O	  4.065733764209 	  3.980000000000 	  2.014058093479 	
O	  5.065733764209 	  3.980000000000 	  4.994058093479 	
O	  2.254112633264 	  1.987137691517 	  2.014058093479 	
O	  3.254112633264 	  1.987137691517 	  4.994058093479 	
O	  2.254112633264 	  5.967137691517 	  2.014058093479 	
O	  3.254112633264 	  5.967137691517 	  4.994058093479 	
O	  6.234112633264 	  1.987137691517 	  2.014058093479 	
O	  7.234112633264 	  1.987137691517 	  4.994058093479 	
O	  6.234112633264 	  5.967137691517 	  2.014058093479 	
O	  7.234112633264 	  5.967137691517 	  4.994058093479 	
64 
Energy: 1.0925960338164076e+00 
Mg	  0.000000000000 	  0.000000000000 	  0.000000000000 	
Mg	  1.000000000000 	  0.000000000000 	  2.980000000000 	
Mg	  0.000000000000 	  3.980000000000 	  0.000000000000 	
Mg	  1.000000000000 	  3.980000000000 	  2.980000000000 	
Mg	  3.980000000000 	  0.000000000000 	  0.000000000000 	
Mg	  4.980000000000 	  0.000000000000 	  2.980000000000 	
Mg	  3.980000000000 	  3.980000000000 	  0.000000000000 	
Mg	  4.980000000000 	  3.980000000000 	  2.980000000000 	
Mg	  2.073934144009 	  2.085359057680 	  0.000000000000 	
Mg	  3.073934144009 	  2.085359057680 	  2.980000000000 	
Mg	  2.073934144009 	  6.065359057680 	  0.000000000000 	
Mg	  3.073934144009 	  6.065359057680 	  2.980000000000 	
Mg	  6.053934144009 	  2.085359057680 	  0.000000000000 	
Mg	  7.053934144009 	  2.085359057680 	  2.980000000000 	
Mg	  6.053934144009 	  6.065359057680 	  0.000000000000 	
Mg	  7.053934144009 	  6.065359057680 	  2.980000000000 	
Mg	  2.165333453384 	  0.000000000000 	  2.051084316665 	
Mg	  3.165333453384 	  0.000000000000 	  5.031084316665 	
Mg	  2.165333453384 	  3.980000000000 	  2.051084316665 	
Mg	  3.165333453384 	  3.980000000000 	  5.031084316665 	
Mg	  6.145333453384 	  0.000000000000 	  2.051084316665 	
Mg	  7.145333453384 	  0.000000000000 	  5.031084316665 	
Mg	  6.145333453384 	  3.980000000000 	  2.051084316665 	
Mg	  7.145333453384 	  3.980000000000 	  5.031084316665 	
Mg	  0.057124568360 	  2.108208885024 	  2.051084316665 	
Mg	  1.057124568360 	  2.108208885024 	  5.031084316665 	
Mg	  0.057124568360 	  6.088208885024 	  2.051084316665 	
Mg	  1.057124568360 	  6.088208885024 	  5.031084316665 	
Mg	  4.037124568360 	  2.108208885024 	  2.051084316665 	
Mg	  5.037124568360 	  2.108208885024 	  5.031084316665 	
Mg	  4.037124568360 	  6.088208885024 	  2.051084316665 	
Mg	  5.037124568360 	  6.088208885024 	  5.031084316665 	
O	  2.108208885024 	  0.000000000000 	  0.000000000000 	
O	  3.108208885024 	  0.000000000000 	  2.980000000000 	
O	  2.108208885024 	  3.980000000000 	  0.000000000000 	
O	  3.108208885024 	  3.980000000000 	  2.980000000000 	
O	  6.088208885024 	  0.000000000000 	  0.000000000000 	
O	  7.088208885024 	  0.000000000000 	  2.980000000000 	
O	  6.088208885024 	  3.980000000000 	  0.000000000000 	
O	  7.088208885024 	  3.980000000000 	  2.980000000000 	
O	  0.000000000000 	  2.108208885024 	  0.000000000000 	
O	  1.000000000000 	  2.108208885024 	  2.980000000000 	
O	  0.000000000000 	  6.088208885024 	  0.000000000000 	
O	  1.000000000000 	  6.088208885024 	  2.980000000000 	
O	  3.980000000000 	  2.108208885024 	  0.000000000000 	
O	  4.980000000000 	  2.108208885024 	  2.980000000000 	
O	  3.980000000000 	  6.088208885024 	  0.000000000000 	
O	  4.980000000000 	  6.088208885024 	  2.980000000000 	
O	  0.057124568360 	  0.000000000000 	  2.051084316665 	
O	  1.057124568360 	  0.000000000000 	  5.031084316665 	
O	  0.057124568360 	  3.980000000000 	  2.051084316665 	
O	  1.057124568360 	  3.980000000000 	  5.031084316665 	
O	  4.037124568360 	  0.000000000000 	  2.051084316665 	
O	  5.037124568360 	  0.000000000000 	  5.031084316665 	
O	  4.037124568360 	  3.980000000000 	  2.051084316665 	
O	  5.037124568360 	  3.980000000000 	  5.031084316665 	
O	  2.211033108072 	  2.033147202200 	  2.051084316665 	
O	  3.211033108072 	  2.033147202200 	  5.031084316665 	
O	  2.211033108072 	  6.013147202200 	  2.051084316665 	
O	  3.211033108072 	  6.013147202200 	  5.031084316665 	
O	  6.191033108072 	  2.033147202200 	  2.051084316665 	
O	  7.191033108072 	  2.033147202200 	  5.031084316665 	
O	  6.191033108072 	  6.013147202200 	  2.051084316665 	
O	  7.191033108072 	  6.013147202200 	  5.031084316665 	
64 
Energy: 3.2066674656299349e-01 
Mg	  0.000000000000 	  0.000000000000 	  0.000000000000 	
Mg	  1.000000000000 	  0.000000000000 	  2.980000000000 	
Mg	  0.000000000000 	  3.980000000000 	  0.000000000000 	
Mg	  1.000000000000 	  3.980000000000 	  2.980000000000 	
Mg	  3.980000000000 	  0.000000000000 	  0.000000000000 	
Mg	  4.980000000000 	  0.000000000000 	  2.980000000000 	
Mg	  3.980000000000 	  3.980000000000 	  0.000000000000 	
Mg	  4.980000000000 	  3.980000000000 	  2.980000000000 	
Mg	  2.099484528920 	  2.105193808202 	  0.000000000000 	
Mg	  3.099484528920 	  2.105193808202 	  2.980000000000 	
Mg	  2.099484528920 	  6.085193808202 	  0.000000000000 	
Mg	  3.099484528920 	  6.085193808202 	  2.980000000000 	
Mg	  6.079484528920 	  2.105193808202 	  0.000000000000 	
Mg	  7.079484528920 	  2.105193808202 	  2.980000000000 	
Mg	  6.079484528920 	  6.085193808202 	  0.000000000000 	
Mg	  7.079484528920 	  6.085193808202 	  2.980000000000 	
Mg	  2.145158763180 	  0.000000000000 	  2.088065970355 	
Mg	  3.145158763180 	  0.000000000000 	  5.068065970355 	
Mg	  2.145158763180 	  3.980000000000 	  2.088065970355 	
Mg	  3.145158763180 	  3.980000000000 	  5.068065970355 	
Mg	  6.125158763180 	  0.000000000000 	  2.088065970355 	
Mg	  7.125158763180 	  0.000000000000 	  5.068065970355 	
Mg	  6.125158763180 	  3.980000000000 	  2.088065970355 	
Mg	  7.125158763180 	  3.980000000000 	  5.068065970355 	
Mg	  0.028546396412 	  2.116612366767 	  2.088065970355 	
Mg	  1.028546396412 	  2.116612366767 	  5.068065970355 	
Mg	  0.028546396412 	  6.096612366767 	  2.088065970355 	
Mg	  1.028546396412 	  6.096612366767 	  5.068065970355 	
Mg	  4.008546396412 	  2.116612366767 	  2.088065970355 	
Mg	  5.008546396412 	  2.116612366767 	  5.068065970355 	
Mg	  4.008546396412 	  6.096612366767 	  2.088065970355 	
Mg	  5.008546396412 	  6.096612366767 	  5.068065970355 	
O	  2.116612366767 	  0.000000000000 	  0.000000000000 	
O	  3.116612366767 	  0.000000000000 	  2.980000000000 	
O	  2.116612366767 	  3.980000000000 	  0.000000000000 	
O	  3.116612366767 	  3.980000000000 	  2.980000000000 	
O	  6.096612366767 	  0.000000000000 	  0.000000000000 	
O	  7.096612366767 	  0.000000000000 	  2.980000000000 	
O	  6.096612366767 	  3.980000000000 	  0.000000000000 	
O	  7.096612366767 	  3.980000000000 	  2.980000000000 	
O	  0.000000000000 	  2.116612366767 	  0.000000000000 	
O	  1.000000000000 	  2.116612366767 	  2.980000000000 	
O	  0.000000000000 	  6.096612366767 	  0.000000000000 	
O	  1.000000000000 	  6.096612366767 	  2.980000000000 	
O	  3.980000000000 	  2.116612366767 	  0.000000000000 	
O	  4.980000000000 	  2.116612366767 	  2.980000000000 	
O	  3.980000000000 	  6.096612366767 	  0.000000000000 	
O	  4.980000000000 	  6.096612366767 	  2.980000000000 	
O	  0.028546396412 	  0.000000000000 	  2.088065970355 	
O	  1.028546396412 	  0.000000000000 	  5.068065970355 	
O	  0.028546396412 	  3.980000000000 	  2.088065970355 	
O	  1.028546396412 	  3.980000000000 	  5.068065970355 	
O	  4.008546396412 	  0.000000000000 	  2.088065970355 	
O	  5.008546396412 	  0.000000000000 	  5.068065970355 	
O	  4.008546396412 	  3.980000000000 	  2.088065970355 	
O	  5.008546396412 	  3.980000000000 	  5.068065970355 	
O	  2.167995880310 	  2.079102401881 	  2.088065970355 	
O	  3.167995880310 	  2.079102401881 	  5.068065970355 	
O	  2.167995880310 	  6.059102401881 	  2.088065970355 	
O	  3.167995880310 	  6.059102401881 	  5.068065970355 	
O	  6.147995880310 	  2.079102401881 	  2.088065970355 	
O	  7.147995880310 	  2.079102401881 	  5.068065970355 	
O	  6.147995880310 	  6.059102401881 	  2.088065970355 	
O	  7.147995880310 	  6.059102401881 	  5.068065970355 	
64 
Energy: 0.0000000000000000e+00 
Mg	  0.000000000000 	  0.000000000000 	  0.000000000000 	
Mg	  1.000000000000 	  0.000000000000 	  2.980000000000 	
Mg	  0.000000000000 	  3.980000000000 	  0.000000000000 	
Mg	  1.000000000000 	  3.980000000000 	  2.980000000000 	
Mg	  3.980000000000 	  0.000000000000 	  0.000000000000 	
Mg	  4.980000000000 	  0.000000000000 	  2.980000000000 	
Mg	  3.980000000000 	  3.980000000000 	  0.000000000000 	
Mg	  4.980000000000 	  3.980000000000 	  2.980000000000 	
Mg	  2.125000000000 	  2.125000000000 	  0.000000000000 	
Mg	  3.125000000000 	  2.125000000000 	  2.980000000000 	
Mg	  2.125000000000 	  6.105000000000 	  0.000000000000 	
Mg	  3.125000000000 	  6.105000000000 	  2.980000000000 	
Mg	  6.105000000000 	  2.125000000000 	  0.000000000000 	
Mg	  7.105000000000 	  2.125000000000 	  2.980000000000 	
Mg	  6.105000000000 	  6.105000000000 	  0.000000000000 	
Mg	  7.105000000000 	  6.105000000000 	  2.980000000000 	
Mg	  2.125000000000 	  0.000000000000 	  2.125000000000 	
Mg	  3.125000000000 	  0.000000000000 	  5.105000000000 	
Mg	  2.125000000000 	  3.980000000000 	  2.125000000000 	
Mg	  3.125000000000 	  3.980000000000 	  5.105000000000 	
Mg	  6.105000000000 	  0.000000000000 	  2.125000000000 	
Mg	  7.105000000000 	  0.000000000000 	  5.105000000000 	
Mg	  6.105000000000 	  3.980000000000 	  2.125000000000 	
Mg	  7.105000000000 	  3.980000000000 	  5.105000000000 	
Mg	  0.000000000000 	  2.125000000000 	  2.125000000000 	
Mg	  1.000000000000 	  2.125000000000 	  5.105000000000 	
Mg	  0.000000000000 	  6.105000000000 	  2.125000000000 	
Mg	  1.000000000000 	  6.105000000000 	  5.105000000000 	
Mg	  3.980000000000 	  2.125000000000 	  2.125000000000 	
Mg	  4.980000000000 	  2.125000000000 	  5.105000000000 	
Mg	  3.980000000000 	  6.105000000000 	  2.125000000000 	
Mg	  4.980000000000 	  6.105000000000 	  5.105000000000 	
O	  2.125000000000 	  0.000000000000 	  0.000000000000 	
O	  3.125000000000 	  0.000000000000 	  2.980000000000 	
O	  2.125000000000 	  3.980000000000 	  0.000000000000 	
O	  3.125000000000 	  3.980000000000 	  2.980000000000 	
O	  6.105000000000 	  0.000000000000 	  0.000000000000 	
O	  7.105000000000 	  0.000000000000 	  2.980000000000 	
O	  6.105000000000 	  3.980000000000 	  0.000000000000 	
O	  7.105000000000 	  3.980000000000 	  2.980000000000 	
O	  0.000000000000 	  2.125000000000 	  0.000000000000 	
O	  1.000000000000 	  2.125000000000 	  2.980000000000 	
O	  0.000000000000 	  6.105000000000 	  0.000000000000 	
O	  1.000000000000 	  6.105000000000 	  2.980000000000 	
O	  3.980000000000 	  2.125000000000 	  0.000000000000 	
O	  4.980000000000 	  2.125000000000 	  2.980000000000 	
O	  3.980000000000 	  6.105000000000 	  0.000000000000 	
O	  4.980000000000 	  6.105000000000 	  2.980000000000 	
O	  0.000000000000 	  0.000000000000 	  2.125000000000 	
O	  1.000000000000 	  0.000000000000 	  5.105000000000 	
O	  0.000000000000 	  3.980000000000 	  2.125000000000 	
O	  1.000000000000 	  3.980000000000 	  5.105000000000 	
O	  3.980000000000 	  0.000000000000 	  2.125000000000 	
O	  4.980000000000 	  0.000000000000 	  5.105000000000 	
O	  3.980000000000 	  3.980000000000 	  2.125000000000 	
O	  4.980000000000 	  3.980000000000 	  5.105000000000 	
O	  2.125000000000 	  2.125000000000 	  2.125000000000 	
O	  3.125000000000 	  2.125000000000 	  5.105000000000 	
O	  2.125000000000 	  6.105000000000 	  2.125000000000 	
O	  3.125000000000 	  6.105000000000 	  5.105000000000 	
O	  6.105000000000 	  2.125000000000 	  2.125000000000 	
O	  7.105000000000 	  2.125000000000 	  5.105000000000 	
O	  6.105000000000 	  6.105000000000 	  2.125000000000 	
O	  7.105000000000 	  6.105000000000 	  5.105000000000 	
