768 
Energy: -7.3825508041559999e+01 
S	  8.778583098100 	  1.541356859400 	  0.034410210600 	
S	  8.210038968100 	  1.541359669400 	 10.164966930600 	
S	  8.778551998100 	  7.724918619400 	  0.034407380600 	
S	  8.210007868100 	  7.724921429400 	 10.164964100600 	
S	 23.459410398100 	  1.541366089400 	  0.062540140600 	
S	 22.890866268100 	  1.541368899400 	 10.193096860600 	
S	 23.459379298100 	  7.724927849400 	  0.062537310600 	
S	 22.890835168100 	  7.724930659400 	 10.193094030600 	
S	  5.617972169000 	  4.633116300900 	  5.058959345800 	
S	  5.049428039000 	  4.633119110900 	 15.189516065800 	
S	  5.617941069000 	 10.816678060900 	  5.058956515800 	
S	  5.049396939000 	 10.816680870900 	 15.189513235800 	
S	 20.298799469000 	  4.633125530900 	  5.087089275800 	
S	 19.730255339000 	  4.633128340900 	 15.217645995800 	
S	 20.298768369000 	 10.816687290900 	  5.087086445800 	
S	 19.730224239000 	 10.816690100900 	 15.217643165800 	
S	  5.333668977500 	  4.642216569600 	 10.124273508100 	
S	  4.765124847500 	  4.642219379600 	 20.254830228100 	
S	  5.333637877500 	 10.825778329600 	 10.124270678100 	
S	  4.765093747500 	 10.825781139600 	 20.254827398100 	
S	 20.014496277500 	  4.642225799600 	 10.152403438100 	
S	 19.445952147500 	  4.642228609600 	 20.282960158100 	
S	 20.014465177500 	 10.825787559600 	 10.152400608100 	
S	 19.445921047500 	 10.825790369600 	 20.282957328100 	
S	  8.494280183300 	  1.550457870200 	  5.099724677400 	
S	  7.925736053300 	  1.550460680200 	 15.230281397400 	
S	  8.494249083300 	  7.734019630200 	  5.099721847400 	
S	  7.925704953300 	  7.734022440200 	 15.230278567400 	
S	 23.175107483300 	  1.550467100200 	  5.127854607400 	
S	 22.606563353300 	  1.550469910200 	 15.258411327400 	
S	 23.175076383300 	  7.734028860200 	  5.127851777400 	
S	 22.606532253300 	  7.734031670200 	 15.258408497400 	
C	  6.798118307500 	  2.504334010600 	  9.780797448900 	
C	  6.229574177500 	  2.504336820600 	 19.911354168900 	
C	  6.798087207500 	  8.687895770600 	  9.780794618900 	
C	  6.229543077500 	  8.687898580600 	 19.911351338900 	
C	 21.478945607500 	  2.504343240600 	  9.808927378900 	
C	 20.910401477500 	  2.504346050600 	 19.939484098900 	
C	 21.478914507500 	  8.687905000600 	  9.808924548900 	
C	 20.910370377500 	  8.687907810600 	 19.939481268900 	
C	  7.029858902800 	  5.596110217300 	  5.443156977400 	
C	  6.461314772800 	  5.596113027300 	 15.573713697400 	
C	  7.029827802800 	 11.779671977300 	  5.443154147400 	
C	  6.461283672800 	 11.779674787300 	 15.573710867400 	
C	 21.710686202800 	  5.596119447300 	  5.471286907400 	
C	 21.142142072800 	  5.596122257300 	 15.601843627400 	
C	 21.710655102800 	 11.779681207300 	  5.471284077400 	
C	 21.142110972800 	 11.779684017300 	 15.601840797400 	
C	  7.314133768200 	  3.679239356500 	  0.377886269800 	
C	  6.745589638200 	  3.679242166500 	 10.508442989800 	
C	  7.314102668200 	  9.862801116500 	  0.377883439800 	
C	  6.745558538200 	  9.862803926500 	 10.508440159800 	
C	 21.994961068200 	  3.679248586500 	  0.406016199800 	
C	 21.426416938200 	  3.679251396500 	 10.536572919800 	
C	 21.994929968200 	  9.862810346500 	  0.406013369800 	
C	 21.426385838200 	  9.862813156500 	 10.536570089800 	
C	  7.082393302600 	  0.587464077300 	  4.715527045500 	
C	  6.513849172600 	  0.587466887300 	 14.846083765500 	
C	  7.082362202600 	  6.771025837300 	  4.715524215500 	
C	  6.513818072600 	  6.771028647300 	 14.846080935500 	
C	 21.763220602600 	  0.587473307300 	  4.743656975500 	
C	 21.194676472600 	  0.587476117300 	 14.874213695500 	
C	 21.763189502600 	  6.771035067300 	  4.743654145500 	
C	 21.194645372600 	  6.771037877300 	 14.874210865500 	
C	  5.707537281800 	  2.321126042300 	  8.876603728600 	
C	  5.138993151800 	  2.321128852300 	 19.007160448600 	
C	  5.707506181800 	  8.504687802300 	  8.876600898600 	
C	  5.138962051800 	  8.504690612300 	 19.007157618600 	
C	 20.388364581800 	  2.321135272300 	  8.904733658600 	
C	 19.819820451800 	  2.321138082300 	 19.035290378600 	
C	 20.388333481800 	  8.504697032300 	  8.904730828600 	
C	 19.819789351800 	  8.504699842300 	 19.035287548600 	
C	  8.120442166400 	  5.412901958300 	  6.347351676700 	
C	  7.551898036400 	  5.412904768300 	 16.477908396700 	
C	  8.120411066400 	 11.596463718300 	  6.347348846700 	
C	  7.551866936400 	 11.596466528300 	 16.477905566700 	
C	 22.801269466400 	  5.412911188300 	  6.375481606700 	
C	 22.232725336400 	  5.412913998300 	 16.506038326700 	
C	 22.801238366400 	 11.596472948300 	  6.375478776700 	
C	 22.232694236400 	 11.596475758300 	 16.506035496700 	
C	  8.404714652800 	  3.862447386700 	  1.282079888500 	
C	  7.836170522800 	  3.862450196700 	 11.412636608500 	
C	  8.404683552800 	 10.046009146700 	  1.282077058500 	
C	  7.836139422800 	 10.046011956700 	 11.412633778500 	
C	 23.085541952800 	  3.862456616700 	  1.310209818500 	
C	 22.516997822800 	  3.862459426700 	 11.440766538500 	
C	 23.085510852800 	 10.046018376700 	  1.310206988500 	
C	 22.516966722800 	 10.046021186700 	 11.440763708500 	
C	  5.991810044800 	  0.770672274600 	  3.811332244900 	
C	  5.423265914800 	  0.770675084600 	 13.941888964900 	
C	  5.991778944800 	  6.954234034600 	  3.811329414900 	
C	  5.423234814800 	  6.954236844600 	 13.941886134900 	
C	 20.672637344800 	  0.770681504600 	  3.839462174900 	
C	 20.104093214800 	  0.770684314600 	 13.970018894900 	
C	 20.672606244800 	  6.954243264600 	  3.839459344900 	
C	 20.104062114800 	  6.954246074600 	 13.970016064900 	
C	  4.807288713200 	  3.418578044500 	  8.955234686400 	
C	  4.238744583200 	  3.418580854500 	 19.085791406400 	
C	  4.807257613200 	  9.602139804500 	  8.955231856400 	
C	  4.238713483200 	  9.602142614500 	 19.085788576400 	
C	 19.488116013200 	  3.418587274500 	  8.983364616400 	
C	 18.919571883200 	  3.418590084500 	 19.113921336400 	
C	 19.488084913200 	  9.602149034500 	  8.983361786400 	
C	 18.919540783200 	  9.602151844500 	 19.113918506400 	
C	  9.020685667900 	  0.326811214600 	  6.268754309600 	
C	  8.452141537900 	  0.326814024600 	 16.399311029600 	
C	  9.020654567900 	  6.510372974600 	  6.268751479600 	
C	  8.452110437900 	  6.510375784600 	 16.399308199600 	
C	 23.701512967900 	  0.326820444600 	  6.296884239600 	
C	 23.132968837900 	  0.326823254600 	 16.427440959600 	
C	 23.701481867900 	  6.510382204600 	  6.296881409600 	
C	 23.132937737900 	  6.510385014600 	 16.427438129600 	
C	  9.304963215700 	  2.764995446300 	  1.203449032000 	
C	  8.736419085700 	  2.764998256300 	 11.334005752000 	
C	  9.304932115700 	  8.948557206300 	  1.203446202000 	
C	  8.736387985700 	  8.948560016300 	 11.334002922000 	
C	 23.985790515700 	  2.765004676300 	  1.231578962000 	
C	 23.417246385700 	  2.765007486300 	 11.362135682000 	
C	 23.985759415700 	  8.948566436300 	  1.231576132000 	
C	 23.417215285700 	  8.948569246300 	 11.362132852000 	
C	  5.091566543200 	  5.856762956400 	  3.889929612000 	
C	  4.523022413200 	  5.856765766400 	 14.020486332000 	
C	  5.091535443200 	 12.040324716400 	  3.889926782000 	
C	  4.522991313200 	 12.040327526400 	 14.020483502000 	
C	 19.772393843200 	  5.856772186400 	  3.918059542000 	
C	 19.203849713200 	  5.856774996400 	 14.048616262000 	
C	 19.772362743200 	 12.040333946400 	  3.918056712000 	
C	 19.203818613200 	 12.040336756400 	 14.048613432000 	
C	  3.638231112900 	  3.456968704600 	  8.193277916700 	
C	  3.069686982900 	  3.456971514600 	 18.323834636700 	
C	  3.638200012900 	  9.640530464600 	  8.193275086700 	
C	  3.069655882900 	  9.640533274600 	 18.323831806700 	
C	 18.319058412900 	  3.456977934600 	  8.221407846700 	
C	 17.750514282900 	  3.456980744600 	 18.351964566700 	
C	 18.319027312900 	  9.640539694600 	  8.221405016700 	
C	 17.750483182900 	  9.640542504600 	 18.351961736700 	
C	 10.189735933600 	  0.365211363600 	  7.030719744100 	
C	  9.621191803600 	  0.365214173600 	 17.161276464100 	
C	 10.189704833600 	  6.548773123600 	  7.030716914100 	
C	  9.621160703600 	  6.548775933600 	 17.161273634100 	
C	 24.870563233600 	  0.365220593600 	  7.058849674100 	
C	 24.302019103600 	  0.365223403600 	 17.189406394100 	
C	 24.870532133600 	  6.548782353600 	  7.058846844100 	
C	 24.301988003600 	  6.548785163600 	 17.189403564100 	
C	 10.474020810300 	  2.726604848100 	  1.965405903000 	
C	  9.905476680300 	  2.726607658100 	 12.095962623000 	
C	 10.473989710300 	  8.910166608100 	  1.965403073000 	
C	  9.905445580300 	  8.910169418100 	 12.095959793000 	
C	 25.154848110300 	  2.726614078100 	  1.993535833000 	
C	 24.586303980300 	  2.726616888100 	 12.124092553000 	
C	 25.154817010300 	  8.910175838100 	  1.993533003000 	
C	 24.586272880300 	  8.910178648100 	 12.124089723000 	
C	  3.922516277600 	  5.818362745600 	  3.127964177500 	
C	  3.353972147600 	  5.818365555600 	 13.258520897500 	
C	  3.922485177600 	 12.001924505600 	  3.127961347500 	
C	  3.353941047600 	 12.001927315600 	 13.258518067500 	
C	 18.603343577600 	  5.818371975600 	  3.156094107500 	
C	 18.034799447600 	  5.818374785600 	 13.286650827500 	
C	 18.603312477600 	 12.001933735600 	  3.156091277500 	
C	 18.034768347600 	 12.001936545600 	 13.286647997500 	
H	  2.977023765500 	  4.314908014000 	  8.276816523600 	
H	  2.408479635500 	  4.314910824000 	 18.407373243600 	
H	  2.976992665500 	 10.498469774000 	  8.276813693600 	
H	  2.408448535500 	 10.498472584000 	 18.407370413600 	
H	 17.657851065500 	  4.314917244000 	  8.304946453600 	
H	 17.089306935500 	  4.314920054000 	 18.435503173600 	
H	 17.657819965500 	 10.498479004000 	  8.304943623600 	
H	 17.089275835500 	 10.498481814000 	 18.435500343600 	
H	 10.850920197100 	  1.223158377000 	  6.947191975500 	
H	 10.282376067100 	  1.223161187000 	 17.077748695500 	
H	 10.850889097100 	  7.406720137000 	  6.947189145500 	
H	 10.282344967100 	  7.406722947000 	 17.077745865500 	
H	 25.531747497100 	  1.223167607000 	  6.975321905500 	
H	 24.963203367100 	  1.223170417000 	 17.105878625500 	
H	 25.531716397100 	  7.406729367000 	  6.975319075500 	
H	 24.963172267100 	  7.406732177000 	 17.105875795500 	
H	 11.135228163400 	  1.868665538700 	  1.881867194800 	
H	 10.566684033400 	  1.868668348700 	 12.012423914800 	
H	 11.135197063400 	  8.052227298700 	  1.881864364800 	
H	 10.566652933400 	  8.052230108700 	 12.012421084800 	
H	 25.816055463400 	  1.868674768700 	  1.909997124800 	
H	 25.247511333400 	  1.868677578700 	 12.040553844800 	
H	 25.816024363400 	  8.052236528700 	  1.909994294800 	
H	 25.247480233400 	  8.052239338700 	 12.040551014800 	
H	  3.261332160800 	  4.960415670400 	  3.211491946300 	
H	  2.692788030800 	  4.960418480400 	 13.342048666300 	
H	  3.261301060800 	 11.143977430400 	  3.211489116300 	
H	  2.692756930800 	 11.143980240400 	 13.342045836300 	
H	 17.942159460800 	  4.960424900400 	  3.239621876300 	
H	 17.373615330800 	  4.960427710400 	 13.370178596300 	
H	 17.942128360800 	 11.143986660400 	  3.239619046300 	
H	 17.373584230800 	 11.143989470400 	 13.370175766300 	
C	  3.326383536000 	  2.393111112500 	  7.336713806700 	
C	  2.757839406000 	  2.393113922500 	 17.467270526700 	
C	  3.326352436000 	  8.576672872500 	  7.336710976700 	
C	  2.757808306000 	  8.576675682500 	 17.467267696700 	
C	 18.007210836000 	  2.393120342500 	  7.364843736700 	
C	 17.438666706000 	  2.393123152500 	 17.495400456700 	
C	 18.007179736000 	  8.576682102500 	  7.364840906700 	
C	 17.438635606000 	  8.576684912500 	 17.495397626700 	
C	 10.501585199000 	  5.484900443400 	  7.887257318900 	
C	  9.933041069000 	  5.484903253400 	 18.017814038900 	
C	 10.501554099000 	 11.668462203400 	  7.887254488900 	
C	  9.933009969000 	 11.668465013400 	 18.017811208900 	
C	 25.182412499000 	  5.484909673400 	  7.915387248900 	
C	 24.613868369000 	  5.484912483400 	 18.045943968900 	
C	 25.182381399000 	 11.668471433400 	  7.915384418900 	
C	 24.613837269000 	 11.668474243400 	 18.045941138900 	
C	 10.785868240400 	  3.790462378300 	  2.821970012800 	
C	 10.217324110400 	  3.790465188300 	 12.952526732800 	
C	 10.785837140400 	  9.974024138300 	  2.821967182800 	
C	 10.217293010400 	  9.974026948300 	 12.952523902800 	
C	 25.466695540400 	  3.790471608300 	  2.850099942800 	
C	 24.898151410400 	  3.790474418300 	 12.980656662800 	
C	 25.466664440400 	  9.974033368300 	  2.850097112800 	
C	 24.898120310400 	  9.974036178300 	 12.980653832800 	
C	  3.610667164600 	  0.698673603900 	  2.271426501600 	
C	  3.042123034600 	  0.698676413900 	 12.401983221600 	
C	  3.610636064600 	  6.882235363900 	  2.271423671600 	
C	  3.042091934600 	  6.882238173900 	 12.401980391600 	
C	 18.291494464600 	  0.698682833900 	  2.299556431600 	
C	 17.722950334600 	  0.698685643900 	 12.430113151600 	
C	 18.291463364600 	  6.882244593900 	  2.299553601600 	
C	 17.722919234600 	  6.882247403900 	 12.430110321600 	
C	  4.246239376200 	  1.326745920100 	  7.232392811600 	
C	  3.677695246200 	  1.326748730100 	 17.362949531600 	
C	  4.246208276200 	  7.510307680100 	  7.232389981600 	
C	  3.677664146200 	  7.510310490100 	 17.362946701600 	
C	 18.927066676200 	  1.326755150100 	  7.260522741600 	
C	 18.358522546200 	  1.326757960100 	 17.391079461600 	
C	 18.927035576200 	  7.510316910100 	  7.260519911600 	
C	 18.358491446200 	  7.510319720100 	 17.391076631600 	
C	  9.581760883400 	  4.418519382000 	  7.991559269300 	
C	  9.013216753400 	  4.418522192000 	 18.122115989300 	
C	  9.581729783400 	 10.602081142000 	  7.991556439300 	
C	  9.013185653400 	 10.602083952000 	 18.122113159300 	
C	 24.262588183400 	  4.418528612000 	  8.019689199300 	
C	 23.694044053400 	  4.418531422000 	 18.150245919300 	
C	 24.262557083400 	 10.602090372000 	  8.019686369300 	
C	 23.694012953400 	 10.602093182000 	 18.150243089300 	
C	  9.866012247700 	  4.856827447100 	  2.926291108900 	
C	  9.297468117700 	  4.856830257100 	 13.056847828900 	
C	  9.865981147700 	 11.040389207100 	  2.926288278900 	
C	  9.297437017700 	 11.040392017100 	 13.056844998900 	
C	 24.546839547700 	  4.856836677100 	  2.954421038900 	
C	 23.978295417700 	  4.856839487100 	 13.084977758900 	
C	 24.546808447700 	 11.040398437100 	  2.954418208900 	
C	 23.978264317700 	 11.040401247100 	 13.084974928900 	
C	  4.530491333400 	  1.765054665300 	  2.167124550900 	
C	  3.961947203400 	  1.765057475300 	 12.297681270900 	
C	  4.530460233400 	  7.948616425300 	  2.167121720900 	
C	  3.961916103400 	  7.948619235300 	 12.297678440900 	
C	 19.211318633400 	  1.765063895300 	  2.195254480900 	
C	 18.642774503400 	  1.765066705300 	 12.325811200900 	
C	 19.211287533400 	  7.948625655300 	  2.195251650900 	
C	 18.642743403400 	  7.948628465300 	 12.325808370900 	
H	  4.049839811700 	  0.502303909100 	  6.552247741900 	
H	  3.481295681700 	  0.502306719100 	 16.682804461900 	
H	  4.049808711700 	  6.685865669100 	  6.552244911900 	
H	  3.481264581700 	  6.685868479100 	 16.682801631900 	
H	 18.730667111700 	  0.502313139100 	  6.580377671900 	
H	 18.162122981700 	  0.502315949100 	 16.710934391900 	
H	 18.730636011700 	  6.685874899100 	  6.580374841900 	
H	 18.162091881700 	  6.685877709100 	 16.710931561900 	
H	  9.778172631800 	  3.594078723200 	  8.671703784000 	
H	  9.209628501800 	  3.594081533200 	 18.802260504000 	
H	  9.778141531800 	  9.777640483200 	  8.671700954000 	
H	  9.209597401800 	  9.777643293200 	 18.802257674000 	
H	 24.458999931800 	  3.594087953200 	  8.699833714000 	
H	 23.890455801800 	  3.594090763200 	 18.830390434000 	
H	 24.458968831800 	  9.777649713200 	  8.699830884000 	
H	 23.890424701800 	  9.777652523200 	 18.830387604000 	
H	 10.062411806500 	  5.681269458100 	  3.606436279800 	
H	  9.493867676500 	  5.681272268100 	 13.736992999800 	
H	 10.062380706500 	 11.864831218100 	  3.606433449800 	
H	  9.493836576500 	 11.864834028100 	 13.736990169800 	
H	 24.743239106500 	  5.681278688100 	  3.634566209800 	
H	 24.174694976500 	  5.681281498100 	 13.765122929800 	
H	 24.743208006500 	 11.864840448100 	  3.634563379800 	
H	 24.174663876500 	 11.864843258100 	 13.765120099800 	
H	  4.334079585100 	  2.589495324100 	  1.486980036300 	
H	  3.765535455100 	  2.589498134100 	 11.617536756300 	
H	  4.334048485100 	  8.773057084100 	  1.486977206300 	
H	  3.765504355100 	  8.773059894100 	 11.617533926300 	
H	 19.014906885100 	  2.589504554100 	  1.515109966300 	
H	 18.446362755100 	  2.589507364100 	 11.645666686300 	
H	 19.014875785100 	  8.773066314100 	  1.515107136300 	
H	 18.446331655100 	  8.773069124100 	 11.645663856300 	
C	  5.415710393500 	  1.283137318900 	  7.979564150100 	
C	  4.847166263500 	  1.283140128900 	 18.110120870100 	
C	  5.415679293500 	  7.466699078900 	  7.979561320100 	
C	  4.847135163500 	  7.466701888900 	 18.110118040100 	
C	 20.096537693500 	  1.283146548900 	  8.007694080100 	
C	 19.527993563500 	  1.283149358900 	 18.138250800100 	
C	 20.096506593500 	  7.466708308900 	  8.007691250100 	
C	 19.527962463500 	  7.466711118900 	 18.138247970100 	
C	  8.412295413000 	  4.374903959500 	  7.244378051500 	
C	  7.843751283000 	  4.374906769500 	 17.374934771500 	
C	  8.412264313000 	 10.558465719500 	  7.244375221500 	
C	  7.843720183000 	 10.558468529500 	 17.374931941500 	
C	 23.093122713000 	  4.374913189500 	  7.272507981500 	
C	 22.524578583000 	  4.374915999500 	 17.403064701500 	
C	 23.093091613000 	 10.558474949500 	  7.272505151500 	
C	 22.524547483000 	 10.558477759500 	 17.403061871500 	
C	  8.696541388600 	  4.900436048200 	  2.179119568000 	
C	  8.127997258600 	  4.900438858200 	 12.309676288000 	
C	  8.696510288600 	 11.083997808200 	  2.179116738000 	
C	  8.127966158600 	 11.084000618200 	 12.309673458000 	
C	 23.377368688600 	  4.900445278200 	  2.207249498000 	
C	 22.808824558600 	  4.900448088200 	 12.337806218000 	
C	 23.377337588600 	 11.084007038200 	  2.207246668000 	
C	 22.808793458600 	 11.084009848200 	 12.337803388000 	
C	  5.699956798100 	  1.808670211500 	  2.914305870100 	
C	  5.131412668100 	  1.808673021500 	 13.044862590100 	
C	  5.699925698100 	  7.992231971500 	  2.914303040100 	
C	  5.131381568100 	  7.992234781500 	 13.044859760100 	
C	 20.380784098100 	  1.808679441500 	  2.942435800100 	
C	 19.812239968100 	  1.808682251500 	 13.072992520100 	
C	 20.380752998100 	  7.992241201500 	  2.942432970100 	
C	 19.812208868100 	  7.992244011500 	 13.072989690100 	
H	  6.095413680900 	  0.440179673500 	  7.880948511900 	
H	  5.526869550900 	  0.440182483500 	 18.011505231900 	
H	  6.095382580900 	  6.623741433500 	  7.880945681900 	
H	  5.526838450900 	  6.623744243500 	 18.011502401900 	
H	 20.776240980900 	  0.440188903500 	  7.909078441900 	
H	 20.207696850900 	  0.440191713500 	 18.039635161900 	
H	 20.776209880900 	  6.623750663500 	  7.909075611900 	
H	 20.207665750900 	  6.623753473500 	 18.039632331900 	
H	  7.732618281700 	  3.531935504600 	  7.342985579400 	
H	  7.164074151700 	  3.531938314600 	 17.473542299400 	
H	  7.732587181700 	  9.715497264600 	  7.342982749400 	
H	  7.164043051700 	  9.715500074600 	 17.473539469400 	
H	 22.413445581700 	  3.531944734600 	  7.371115509400 	
H	 21.844901451700 	  3.531947544600 	 17.501672229400 	
H	 22.413414481700 	  9.715506494600 	  7.371112679400 	
H	 21.844870351700 	  9.715509304600 	 17.501669399400 	
H	  8.016837948600 	  5.743393631800 	  2.277735307300 	
H	  7.448293818600 	  5.743396441800 	 12.408292027300 	
H	  8.016806848600 	 11.926955391800 	  2.277732477300 	
H	  7.448262718600 	 11.926958201800 	 12.408289197300 	
H	 22.697665248600 	  5.743402861800 	  2.305865237300 	
H	 22.129121118600 	  5.743405671800 	 12.436421957300 	
H	 22.697634148600 	 11.926964621800 	  2.305862407300 	
H	 22.129090018600 	 11.926967431800 	 12.436419127300 	
H	  6.379633929400 	  2.651638728300 	  2.815698342200 	
H	  5.811089799400 	  2.651641538300 	 12.946255062200 	
H	  6.379602829400 	  8.835200488300 	  2.815695512200 	
H	  5.811058699400 	  8.835203298300 	 12.946252232200 	
H	 21.060461229400 	  2.651647958300 	  2.843828272200 	
H	 20.491917099400 	  2.651650768300 	 12.974384992200 	
H	 21.060430129400 	  8.835209718300 	  2.843825442200 	
H	 20.491885999400 	  8.835212528300 	 12.974382162200 	
C	  2.038932514800 	  2.415402770700 	  6.496426445200 	
C	  1.470388384800 	  2.415405580700 	 16.626983165200 	
C	  2.038901414800 	  8.598964530700 	  6.496423615200 	
C	  1.470357284800 	  8.598967340700 	 16.626980335200 	
C	 16.719759814800 	  2.415412000700 	  6.524556375200 	
C	 16.151215684800 	  2.415414810700 	 16.655113095200 	
C	 16.719728714800 	  8.598973760700 	  6.524553545200 	
C	 16.151184584800 	  8.598976570700 	 16.655110265200 	
C	 11.789036815200 	  5.507193873300 	  8.727543141800 	
C	 11.220492685200 	  5.507196683300 	 18.858099861800 	
C	 11.789005715200 	 11.690755633300 	  8.727540311800 	
C	 11.220461585200 	 11.690758443300 	 18.858097031800 	
C	 26.469864115200 	  5.507203103300 	  8.755673071800 	
C	 25.901319985200 	  5.507205913300 	 18.886229791800 	
C	 26.469833015200 	 11.690764863300 	  8.755670241800 	
C	 25.901288885200 	 11.690767673300 	 18.886226961800 	
C	 12.073319255900 	  3.768170843800 	  3.662257475500 	
C	 11.504775125900 	  3.768173653800 	 13.792814195500 	
C	 12.073288155900 	  9.951732603800 	  3.662254645500 	
C	 11.504744025900 	  9.951735413800 	 13.792811365500 	
C	 26.754146555900 	  3.768180073800 	  3.690387405500 	
C	 26.185602425900 	  3.768182883800 	 13.820944125500 	
C	 26.754115455900 	  9.951741833800 	  3.690384575500 	
C	 26.185571325900 	  9.951744643800 	 13.820941295500 	
C	  2.323215700900 	  0.676380050400 	  1.431140577700 	
C	  1.754671570900 	  0.676382860400 	 11.561697297700 	
C	  2.323184600900 	  6.859941810400 	  1.431137747700 	
C	  1.754640470900 	  6.859944620400 	 11.561694467700 	
C	 17.004043000900 	  0.676389280400 	  1.459270507700 	
C	 16.435498870900 	  0.676392090400 	 11.589827227700 	
C	 17.004011900900 	  6.859951040400 	  1.459267677700 	
C	 16.435467770900 	  6.859953850400 	 11.589824397700 	
C	  2.316129708800 	  3.196526817000 	  5.195239794800 	
C	  1.747585578800 	  3.196529627000 	 15.325796514800 	
C	  2.316098608800 	  9.380088577000 	  5.195236964800 	
C	  1.747554478800 	  9.380091387000 	 15.325793684800 	
C	 16.996957008800 	  3.196536047000 	  5.223369724800 	
C	 16.428412878800 	  3.196538857000 	 15.353926444800 	
C	 16.996925908800 	  9.380097807000 	  5.223366894800 	
C	 16.428381778800 	  9.380100617000 	 15.353923614800 	
C	 11.511861565400 	  0.104754769900 	 10.028731499500 	
C	 10.943317435400 	  0.104757579900 	 20.159288219500 	
C	 11.511830465400 	  6.288316529900 	 10.028728669500 	
C	 10.943286335400 	  6.288319339900 	 20.159285389500 	
C	 26.192688865400 	  0.104763999900 	 10.056861429500 	
C	 25.624144735400 	  0.104766809900 	 20.187418149500 	
C	 26.192657765400 	  6.288325759900 	 10.056858599500 	
C	 25.624113635400 	  6.288328569900 	 20.187415319500 	
C	 11.796121898000 	  2.987047354100 	  4.963444429600 	
C	 11.227577768000 	  2.987050164100 	 15.094001149600 	
C	 11.796090798000 	  9.170609114100 	  4.963441599600 	
C	 11.227546668000 	  9.170611924100 	 15.093998319600 	
C	 26.476949198000 	  2.987056584100 	  4.991574359600 	
C	 25.908405068000 	  2.987059394100 	 15.122131079600 	
C	 26.476918098000 	  9.170618344100 	  4.991571529600 	
C	 25.908373968000 	  9.170621154100 	 15.122128249600 	
C	  2.600391103200 	  6.078819463000 	  0.129952119000 	
C	  2.031846973200 	  6.078822273000 	 10.260508839000 	
C	  2.600360003200 	 12.262381223000 	  0.129949289000 	
C	  2.031815873200 	 12.262384033000 	 10.260506009000 	
C	 17.281218403200 	  6.078828693000 	  0.158082049000 	
C	 16.712674273200 	  6.078831503000 	 10.288638769000 	
C	 17.281187303200 	 12.262390453000 	  0.158079219000 	
C	 16.712643173200 	 12.262393263000 	 10.288635939000 	
H	  2.612757015800 	  4.227841415400 	  5.421537736000 	
H	  2.044212885800 	  4.227844225400 	 15.552094456000 	
H	  2.612725915800 	 10.411403175400 	  5.421534906000 	
H	  2.044181785800 	 10.411405985400 	 15.552091626000 	
H	 17.293584315800 	  4.227850645400 	  5.449667666000 	
H	 16.725040185800 	  4.227853455400 	 15.580224386000 	
H	 17.293553215800 	 10.411412405400 	  5.449664836000 	
H	 16.725009085800 	 10.411415215400 	 15.580221556000 	
H	 11.215218029300 	  1.136067184600 	  9.802432299100 	
H	 10.646673899300 	  1.136069994600 	 19.932989019100 	
H	 11.215186929300 	  7.319628944600 	  9.802429469100 	
H	 10.646642799300 	  7.319631754600 	 19.932986189100 	
H	 25.896045329300 	  1.136076414600 	  9.830562229100 	
H	 25.327501199300 	  1.136079224600 	 19.961118949100 	
H	 25.896014229300 	  7.319638174600 	  9.830559399100 	
H	 25.327470099300 	  7.319640984600 	 19.961116119100 	
H	 11.499494568300 	  1.955732631900 	  4.737146893600 	
H	 10.930950438300 	  1.955735441900 	 14.867703613600 	
H	 11.499463468300 	  8.139294391900 	  4.737144063600 	
H	 10.930919338300 	  8.139297201900 	 14.867700783600 	
H	 26.180321868300 	  1.955741861900 	  4.765276823600 	
H	 25.611777738300 	  1.955744671900 	 14.895833543600 	
H	 26.180290768300 	  8.139303621900 	  4.765273993600 	
H	 25.611746638300 	  8.139306431900 	 14.895830713600 	
H	  2.897034650700 	  5.047507048200 	  0.356251116800 	
H	  2.328490520700 	  5.047509858200 	 10.486807836800 	
H	  2.897003550700 	 11.231068808200 	  0.356248286800 	
H	  2.328459420700 	 11.231071618200 	 10.486805006800 	
H	 17.577861950700 	  5.047516278200 	  0.384381046800 	
H	 17.009317820700 	  5.047519088200 	 10.514937766800 	
H	 17.577830850700 	 11.231078038200 	  0.384378216800 	
H	 17.009286720700 	 11.231080848200 	 10.514934936800 	
H	  1.412048820700 	  3.230173843200 	  4.570178105800 	
H	  0.843504690700 	  3.230176653200 	 14.700734825800 	
H	  1.412017720700 	  9.413735603200 	  4.570175275800 	
H	  0.843473590700 	  9.413738413200 	 14.700731995800 	
H	 16.092876120700 	  3.230183073200 	  4.598308035800 	
H	 15.524331990700 	  3.230185883200 	 14.728864755800 	
H	 16.092845020700 	  9.413744833200 	  4.598305205800 	
H	 15.524300890700 	  9.413747643200 	 14.728861925800 	
H	 12.984491248900 	  0.138409911600 	  0.523233610500 	
H	 12.415947118900 	  0.138412721600 	 10.653790330500 	
H	 12.984460148900 	  6.321971671600 	  0.523230780500 	
H	 12.415916018900 	  6.321974481600 	 10.653787500500 	
H	 27.665318548900 	  0.138419141600 	  0.551363540500 	
H	 27.096774418900 	  0.138421951600 	 10.681920260500 	
H	 27.665287448900 	  6.321980901600 	  0.551360710500 	
H	 27.096743318900 	  6.321983711600 	 10.681917430500 	
H	 12.700202627900 	  2.953400575200 	  5.588506320900 	
H	 12.131658497900 	  2.953403385200 	 15.719063040900 	
H	 12.700171527900 	  9.136962335200 	  5.588503490900 	
H	 12.131627397900 	  9.136965145200 	 15.719060210900 	
H	 27.381029927900 	  2.953409805200 	  5.616636250900 	
H	 26.812485797900 	  2.953412615200 	 15.747192970900 	
H	 27.380998827900 	  9.136971565200 	  5.616633420900 	
H	 26.812454697900 	  9.136974375200 	 15.747190140900 	
H	  1.127761431100 	  6.045164321200 	  9.635449805400 	
H	  0.559217301100 	  6.045167131200 	 19.766006525400 	
H	  1.127730331100 	 12.228726081200 	  9.635446975400 	
H	  0.559186201100 	 12.228728891200 	 19.766003695400 	
H	 15.808588731100 	  6.045173551200 	  9.663579735400 	
H	 15.240044601100 	  6.045176361200 	 19.794136455400 	
H	 15.808557631100 	 12.228735311200 	  9.663576905400 	
H	 15.240013501100 	 12.228738121200 	 19.794133625400 	
H	  3.117974382100 	  2.721514149100 	  4.615664106800 	
H	  2.549430252100 	  2.721516959100 	 14.746220826800 	
H	  3.117943282100 	  8.905075909100 	  4.615661276800 	
H	  2.549399152100 	  8.905078719100 	 14.746217996800 	
H	 17.798801682100 	  2.721523379100 	  4.643794036800 	
H	 17.230257552100 	  2.721526189100 	 14.774350756800 	
H	 17.798770582100 	  8.905085139100 	  4.643791206800 	
H	 17.230226452100 	  8.905087949100 	 14.774347926800 	
H	 11.278543592100 	  5.813293234200 	  0.477751838000 	
H	 10.709999462100 	  5.813296044200 	 10.608308558000 	
H	 11.278512492100 	 11.996854994200 	  0.477749008000 	
H	 10.709968362100 	 11.996857804200 	 10.608305728000 	
H	 25.959370892100 	  5.813302464200 	  0.505881768000 	
H	 25.390826762100 	  5.813305274200 	 10.636438488000 	
H	 25.959339792100 	 11.996864224200 	  0.505878938000 	
H	 25.390795662100 	 11.996867034200 	 10.636435658000 	
H	 10.994277095000 	  3.462060207400 	  5.543019813300 	
H	 10.425732965000 	  3.462063017400 	 15.673576533300 	
H	 10.994245995000 	  9.645621967400 	  5.543016983300 	
H	 10.425701865000 	  9.645624777400 	 15.673573703300 	
H	 25.675104395000 	  3.462069437400 	  5.571149743300 	
H	 25.106560265000 	  3.462072247400 	 15.701706463300 	
H	 25.675073295000 	  9.645631197400 	  5.571146913300 	
H	 25.106529165000 	  9.645634007400 	 15.701703633300 	
H	  2.833709070800 	  0.370281122300 	  9.680931881800 	
H	  2.265164940800 	  0.370283932300 	 19.811488601800 	
H	  2.833677970800 	  6.553842882300 	  9.680929051800 	
H	  2.265133840800 	  6.553845692300 	 19.811485771800 	
H	 17.514536370800 	  0.370290352300 	  9.709061811800 	
H	 16.945992240800 	  0.370293162300 	 19.839618531800 	
H	 17.514505270800 	  6.553852112300 	  9.709058981800 	
H	 16.945961140800 	  6.553854922300 	 19.839615701800 	
C	  0.887164533100 	  3.099405811500 	  7.256915573700 	
C	  0.318620403100 	  3.099408621500 	 17.387472293700 	
C	  0.887133433100 	  9.282967571500 	  7.256912743700 	
C	  0.318589303100 	  9.282970381500 	 17.387469463700 	
C	 15.567991833100 	  3.099415041500 	  7.285045503700 	
C	 14.999447703100 	  3.099417851500 	 17.415602223700 	
C	 15.567960733100 	  9.282976801500 	  7.285042673700 	
C	 14.999416603100 	  9.282979611500 	 17.415599393700 	
C	 12.940820695000 	  0.007641134200 	  7.967052756600 	
C	 12.372276565000 	  0.007643944200 	 18.097609476600 	
C	 12.940789595000 	  6.191202894200 	  7.967049926600 	
C	 12.372245465000 	  6.191205704200 	 18.097606646600 	
C	 27.621647995000 	  0.007650364200 	  7.995182686600 	
C	 27.053103865000 	  0.007653174200 	 18.125739406600 	
C	 27.621616895000 	  6.191212124200 	  7.995179856600 	
C	 27.053072765000 	  6.191214934200 	 18.125736576600 	
C	 13.225087214900 	  3.084167431900 	  2.901768752300 	
C	 12.656543084900 	  3.084170241900 	 13.032325472300 	
C	 13.225056114900 	  9.267729191900 	  2.901765922300 	
C	 12.656511984900 	  9.267732001900 	 13.032322642300 	
C	 27.905914514900 	  3.084176661900 	  2.929898682300 	
C	 27.337370384900 	  3.084179471900 	 13.060455402300 	
C	 27.905883414900 	  9.267738421900 	  2.929895852300 	
C	 27.337339284900 	  9.267741231900 	 13.060452572300 	
C	  1.171431838100 	  6.175932418400 	  2.191630659100 	
C	  0.602887708100 	  6.175935228400 	 12.322187379100 	
C	  1.171400738100 	 12.359494178400 	  2.191627829100 	
C	  0.602856608100 	 12.359496988400 	 12.322184549100 	
C	 15.852259138100 	  6.175941648400 	  2.219760589100 	
C	 15.283715008100 	  6.175944458400 	 12.350317309100 	
C	 15.852228038100 	 12.359503408400 	  2.219757759100 	
C	 15.283683908100 	 12.359506218400 	 12.350314479100 	
H	  1.090122822200 	  4.156575733700 	  7.463856135200 	
H	  0.521578692200 	  4.156578543700 	 17.594412855200 	
H	  1.090091722200 	 10.340137493700 	  7.463853305200 	
H	  0.521547592200 	 10.340140303700 	 17.594410025200 	
H	 15.770950122200 	  4.156584963700 	  7.491986065200 	
H	 15.202405992200 	  4.156587773700 	 17.622542785200 	
H	 15.770919022200 	 10.340146723700 	  7.491983235200 	
H	 15.202374892200 	 10.340149533700 	 17.622539955200 	
H	 12.737839640600 	  1.064812279800 	  7.760118093700 	
H	 12.169295510600 	  1.064815089800 	 17.890674813700 	
H	 12.737808540600 	  7.248374039800 	  7.760115263700 	
H	 12.169264410600 	  7.248376849800 	 17.890671983700 	
H	 27.418666940600 	  1.064821509800 	  7.788248023700 	
H	 26.850122810600 	  1.064824319800 	 17.918804743700 	
H	 27.418635840600 	  7.248383269800 	  7.788245193700 	
H	 26.850091710600 	  7.248386079800 	 17.918801913700 	
H	 13.022128767600 	  2.026997447900 	  2.694828393100 	
H	 12.453584637600 	  2.027000257900 	 12.825385113100 	
H	 13.022097667600 	  8.210559207900 	  2.694825563100 	
H	 12.453553537600 	  8.210562017900 	 12.825382283100 	
H	 27.702956067600 	  2.027006677900 	  2.722958323100 	
H	 27.134411937600 	  2.027009487900 	 12.853515043100 	
H	 27.702924967600 	  8.210568437900 	  2.722955493100 	
H	 27.134380837600 	  8.210571247900 	 12.853512213100 	
H	  1.374413050700 	  5.118761334700 	  2.398565119600 	
H	  0.805868920700 	  5.118764144700 	 12.529121839600 	
H	  1.374381950700 	 11.302323094700 	  2.398562289600 	
H	  0.805837820700 	 11.302325904700 	 12.529119009600 	
H	 16.055240350700 	  5.118770564700 	  2.426695049600 	
H	 15.486696220700 	  5.118773374700 	 12.557251769600 	
H	 16.055209250700 	 11.302332324700 	  2.426692219600 	
H	 15.486665120700 	 11.302335134700 	 12.557248939600 	
H	  0.683561485800 	  2.596531593500 	  8.210188040200 	
H	  0.115017355800 	  2.596534403500 	 18.340744760200 	
H	  0.683530385800 	  8.780093353500 	  8.210185210200 	
H	  0.114986255800 	  8.780096163500 	 18.340741930200 	
H	 15.364388785800 	  2.596540823500 	  8.238317970200 	
H	 14.795844655800 	  2.596543633500 	 18.368874690200 	
H	 15.364357685800 	  8.780102583500 	  8.238315140200 	
H	 14.795813555800 	  8.780105393500 	 18.368871860200 	
H	 13.144397725400 	  5.688341754300 	  7.013772246600 	
H	 12.575853595400 	  5.688344564300 	 17.144328966600 	
H	 13.144366625400 	 11.871903514300 	  7.013769416600 	
H	 12.575822495400 	 11.871906324300 	 17.144326136600 	
H	 27.825225025400 	  5.688350984300 	  7.041902176600 	
H	 27.256680895400 	  5.688353794300 	 17.172458896600 	
H	 27.825193925400 	 11.871912744300 	  7.041899346600 	
H	 27.256649795400 	 11.871915554300 	 17.172456066600 	
H	 13.428690561400 	  3.587041340800 	  1.948496185000 	
H	 12.860146431400 	  3.587044150800 	 12.079052905000 	
H	 13.428659461400 	  9.770603100800 	  1.948493355000 	
H	 12.860115331400 	  9.770605910800 	 12.079050075000 	
H	 28.109517861400 	  3.587050570800 	  1.976626115000 	
H	 27.540973731400 	  3.587053380800 	 12.107182835000 	
H	 28.109486761400 	  9.770612330800 	  1.976623285000 	
H	 27.540942631400 	  9.770615140800 	 12.107180005000 	
H	  0.967854649600 	  0.495231612900 	  3.144911371300 	
H	  0.399310519600 	  0.495234422900 	 13.275468091300 	
H	  0.967823549600 	  6.678793372900 	  3.144908541300 	
H	  0.399279419600 	  6.678796182900 	 13.275465261300 	
H	 15.648681949600 	  0.495240842900 	  3.173041301300 	
H	 15.080137819600 	  0.495243652900 	 13.303598021300 	
H	 15.648650849600 	  6.678802602900 	  3.173038471300 	
H	 15.080106719600 	  6.678805412900 	 13.303595191300 	
H	 -0.027515277800 	  3.062154096700 	  6.650929329100 	
H	 -0.596059407800 	  3.062156906700 	 16.781486049100 	
H	 -0.027546377800 	  9.245715856700 	  6.650926499100 	
H	 -0.596090507800 	  9.245718666700 	 16.781483219100 	
H	 14.653312022200 	  3.062163326700 	  6.679059259100 	
H	 14.084767892200 	  3.062166136700 	 16.809615979100 	
H	 14.653280922200 	  9.245725086700 	  6.679056429100 	
H	 14.084736792200 	  9.245727896700 	 16.809613149100 	
H	 13.855469667900 	  6.153952088900 	  8.573035597100 	
H	 13.286925537900 	  6.153954898900 	 18.703592317100 	
H	 13.855438567900 	 12.337513848900 	  8.573032767100 	
H	 13.286894437900 	 12.337516658900 	 18.703589487100 	
H	 28.536296967900 	  6.153961318900 	  8.601165527100 	
H	 27.967752837900 	  6.153964128900 	 18.731722247100 	
H	 28.536265867900 	 12.337523078900 	  8.601162697100 	
H	 27.967721737900 	 12.337525888900 	 18.731719417100 	
H	 14.139766867500 	  3.121419146800 	  3.507755199200 	
H	 13.571222737500 	  3.121421956800 	 13.638311919200 	
H	 14.139735767500 	  9.304980906800 	  3.507752369200 	
H	 13.571191637500 	  9.304983716800 	 13.638309089200 	
H	 28.820594167500 	  3.121428376800 	  3.535885129200 	
H	 28.252050037500 	  3.121431186800 	 13.666441849200 	
H	 28.820563067500 	  9.304990136800 	  3.535882299200 	
H	 28.252018937500 	  9.304992946800 	 13.666439019200 	
H	  0.256782865300 	  0.029621463700 	  1.585647818500 	
H	 -0.311761264700 	  0.029624273700 	 11.716204538500 	
H	  0.256751765300 	  6.213183223700 	  1.585644988500 	
H	 -0.311792364700 	  6.213186033700 	 11.716201708500 	
H	 14.937610165300 	  0.029630693700 	  1.613777748500 	
H	 14.369066035300 	  0.029633503700 	 11.744334468500 	
H	 14.937579065300 	  6.213192453700 	  1.613774918500 	
H	 14.369034935300 	  6.213195263700 	 11.744331638500 	
C	  1.581473236200 	  0.991044022700 	  6.130188493600 	
C	  1.012929106200 	  0.991046832700 	 16.260745213600 	
C	  1.581442136200 	  7.174605782700 	  6.130185663600 	
C	  1.012898006200 	  7.174608592700 	 16.260742383600 	
C	 16.262300536200 	  0.991053252700 	  6.158318423600 	
C	 15.693756406200 	  0.991056062700 	 16.288875143600 	
C	 16.262269436200 	  7.174615012700 	  6.158315593600 	
C	 15.693725306200 	  7.174617822700 	 16.288872313600 	
C	 12.246521765400 	  4.082837103900 	  9.093781709700 	
C	 11.677977635400 	  4.082839913900 	 19.224338429700 	
C	 12.246490665400 	 10.266398863900 	  9.093778879700 	
C	 11.677946535400 	 10.266401673900 	 19.224335599700 	
C	 26.927349065400 	  4.082846333900 	  9.121911639700 	
C	 26.358804935400 	  4.082849143900 	 19.252468359700 	
C	 26.927317965400 	 10.266408093900 	  9.121908809700 	
C	 26.358773835400 	 10.266410903900 	 19.252465529700 	
C	 12.530778715400 	  5.192529777300 	  4.028494819600 	
C	 11.962234585400 	  5.192532587300 	 14.159051539600 	
C	 12.530747615400 	 11.376091537300 	  4.028491989600 	
C	 11.962203485400 	 11.376094347300 	 14.159048709600 	
C	 27.211606015400 	  5.192539007300 	  4.056624749600 	
C	 26.643061885400 	  5.192541817300 	 14.187181469600 	
C	 27.211574915400 	 11.376100767300 	  4.056621919600 	
C	 26.643030785400 	 11.376103577300 	 14.187178639600 	
C	  1.865730445700 	  2.100736819800 	  1.064902211900 	
C	  1.297186315700 	  2.100739629800 	 11.195458931900 	
C	  1.865699345700 	  8.284298579800 	  1.064899381900 	
C	  1.297155215700 	  8.284301389800 	 11.195456101900 	
C	 16.546557745700 	  2.100746049800 	  1.093032141900 	
C	 15.978013615700 	  2.100748859800 	 11.223588861900 	
C	 16.546526645700 	  8.284307809800 	  1.093029311900 	
C	 15.977982515700 	  8.284310619800 	 11.223586031900 	
H	  0.610675950600 	  1.034865784000 	  5.618136422600 	
H	  0.042131820600 	  1.034868594000 	 15.748693142600 	
H	  0.610644850600 	  7.218427544000 	  5.618133592600 	
H	  0.042100720600 	  7.218430354000 	 15.748690312600 	
H	 15.291503250600 	  1.034875014000 	  5.646266352600 	
H	 14.722959120600 	  1.034877824000 	 15.776823072600 	
H	 15.291472150600 	  7.218436774000 	  5.646263522600 	
H	 14.722928020600 	  7.218439584000 	 15.776820242600 	
H	 13.217317326700 	  4.126663991400 	  9.605838297400 	
H	 12.648773196700 	  4.126666801400 	 19.736395017400 	
H	 13.217286226700 	 10.310225751400 	  9.605835467400 	
H	 12.648742096700 	 10.310228561400 	 19.736392187400 	
H	 27.898144626700 	  4.126673221400 	  9.633968227400 	
H	 27.329600496700 	  4.126676031400 	 19.764524947400 	
H	 27.898113526700 	 10.310234981400 	  9.633965397400 	
H	 27.329569396700 	 10.310237791400 	 19.764522117400 	
H	 13.501575842900 	  5.148708016000 	  4.540547092900 	
H	 12.933031712900 	  5.148710826000 	 14.671103812900 	
H	 13.501544742900 	 11.332269776000 	  4.540544262900 	
H	 12.933000612900 	 11.332272586000 	 14.671100982900 	
H	 28.182403142900 	  5.148717246000 	  4.568677022900 	
H	 27.613859012900 	  5.148720056000 	 14.699233742900 	
H	 28.182372042900 	 11.332279006000 	  4.568674192900 	
H	 27.613827912900 	 11.332281816000 	 14.699230912900 	
H	  0.894934890100 	  2.056909870500 	  0.552845522900 	
H	  0.326390760100 	  2.056912680500 	 10.683402242900 	
H	  0.894903790100 	  8.240471630500 	  0.552842692900 	
H	  0.326359660100 	  8.240474440500 	 10.683399412900 	
H	 15.575762190100 	  2.056919100500 	  0.580975452900 	
H	 15.007218060100 	  2.056921910500 	 10.711532172900 	
H	 15.575731090100 	  8.240480860500 	  0.580972622900 	
H	 15.007186960100 	  8.240483670500 	 10.711529342900 	
H	  1.459783142400 	  0.369871747300 	  7.026704052400 	
H	  0.891239012400 	  0.369874557300 	 17.157260772400 	
H	  1.459752042400 	  6.553433507300 	  7.026701222400 	
H	  0.891207912400 	  6.553436317300 	 17.157257942400 	
H	 16.140610442400 	  0.369880977300 	  7.054833982400 	
H	 15.572066312400 	  0.369883787300 	 17.185390702400 	
H	 16.140579342400 	  6.553442737300 	  7.054831152400 	
H	 15.572035212400 	  6.553445547300 	 17.185387872400 	
H	 12.368224107600 	  3.461662627600 	  8.197272303400 	
H	 11.799679977600 	  3.461665437600 	 18.327829023400 	
H	 12.368193007600 	  9.645224387600 	  8.197269473400 	
H	 11.799648877600 	  9.645227197600 	 18.327826193400 	
H	 27.049051407600 	  3.461671857600 	  8.225402233400 	
H	 26.480507277600 	  3.461674667600 	 18.355958953400 	
H	 27.049020307600 	  9.645233617600 	  8.225399403400 	
H	 26.480476177600 	  9.645236427600 	 18.355956123400 	
H	 12.652468820600 	  5.813701619900 	  3.131979058100 	
H	 12.083924690600 	  5.813704429900 	 13.262535778100 	
H	 12.652437720600 	 11.997263379900 	  3.131976228100 	
H	 12.083893590600 	 11.997266189900 	 13.262532948100 	
H	 27.333296120600 	  5.813710849900 	  3.160108988100 	
H	 26.764751990600 	  5.813713659900 	 13.290665708100 	
H	 27.333265020600 	 11.997272609900 	  3.160106158100 	
H	 26.764720890600 	 11.997275419900 	 13.290662878100 	
H	  1.744027951100 	  2.721911110600 	  1.961411719200 	
H	  1.175483821100 	  2.721913920600 	 12.091968439200 	
H	  1.743996851100 	  8.905472870600 	  1.961408889200 	
H	  1.175452721100 	  8.905475680600 	 12.091965609200 	
H	 16.424855251100 	  2.721920340600 	  1.989541649200 	
H	 15.856311121100 	  2.721923150600 	 12.120098369200 	
H	 16.424824151100 	  8.905482100600 	  1.989538819200 	
H	 15.856280021100 	  8.905484910600 	 12.120095539200 	
H	  2.286177287500 	  0.494504553500 	  5.453213134500 	
H	  1.717633157500 	  0.494507363500 	 15.583769854500 	
H	  2.286146187500 	  6.678066313500 	  5.453210304500 	
H	  1.717602057500 	  6.678069123500 	 15.583767024500 	
H	 16.967004587500 	  0.494513783500 	  5.481343064500 	
H	 16.398460457500 	  0.494516593500 	 15.611899784500 	
H	 16.966973487500 	  6.678075543500 	  5.481340234500 	
H	 16.398429357500 	  6.678078353500 	 15.611896954500 	
H	 11.541823906000 	  3.586296368900 	  9.770757120400 	
H	 10.973279776000 	  3.586299178900 	 19.901313840400 	
H	 11.541792806000 	  9.769858128900 	  9.770754290400 	
H	 10.973248676000 	  9.769860938900 	 19.901311010400 	
H	 26.222651206000 	  3.586305598900 	  9.798887050400 	
H	 25.654107076000 	  3.586308408900 	 19.929443770400 	
H	 26.222620106000 	  9.769867358900 	  9.798884220400 	
H	 25.654075976000 	  9.769870168900 	 19.929440940400 	
H	 11.826074523000 	  5.689069555700 	  4.705470077100 	
H	 11.257530393000 	  5.689072365700 	 14.836026797100 	
H	 11.826043423000 	 11.872631315700 	  4.705467247100 	
H	 11.257499293000 	 11.872634125700 	 14.836023967100 	
H	 26.506901823000 	  5.689078785700 	  4.733600007100 	
H	 25.938357693000 	  5.689081595700 	 14.864156727100 	
H	 26.506870723000 	 11.872640545700 	  4.733597177100 	
H	 25.938326593000 	 11.872643355700 	 14.864153897100 	
H	  2.570428293700 	  2.597277802200 	  0.387927003800 	
H	  2.001884163700 	  2.597280612200 	 10.518483723800 	
H	  2.570397193700 	  8.780839562200 	  0.387924173800 	
H	  2.001853063700 	  8.780842372200 	 10.518480893800 	
H	 17.251255593700 	  2.597287032200 	  0.416056933800 	
H	 16.682711463700 	  2.597289842200 	 10.546613653800 	
H	 17.251224493700 	  8.780848792200 	  0.416054103800 	
H	 16.682680363700 	  8.780851602200 	 10.546610823800 	
768 
Energy: -9.1166287249199996e+01 
S	  8.729194024683 	  1.558356781724 	  0.050626630670 	
S	  8.160649894683 	  1.558359591724 	 10.181183350670 	
S	  8.729162924683 	  7.741918541724 	  0.050623800670 	
S	  8.160618794683 	  7.741921351724 	 10.181180520670 	
S	 23.410021324683 	  1.558366011724 	  0.078756560670 	
S	 22.841477194683 	  1.558368821724 	 10.209313280670 	
S	 23.409990224683 	  7.741927771724 	  0.078753730670 	
S	 22.841446094683 	  7.741930581724 	 10.209310450670 	
S	  5.619227146662 	  4.646211001539 	  5.071072905769 	
S	  5.050683016662 	  4.646213811539 	 15.201629625769 	
S	  5.619196046662 	 10.829772761539 	  5.071070075769 	
S	  5.050651916662 	 10.829775571539 	 15.201626795769 	
S	 20.300054446662 	  4.646220231539 	  5.099202835769 	
S	 19.731510316662 	  4.646223041539 	 15.229759555769 	
S	 20.300023346662 	 10.829781991539 	  5.099200005769 	
S	 19.731479216662 	 10.829784801539 	 15.229756725769 	
S	  5.341787892881 	  4.618638415317 	 10.156682087877 	
S	  4.773243762881 	  4.618641225317 	 20.287238807877 	
S	  5.341756792881 	 10.802200175317 	 10.156679257877 	
S	  4.773212662881 	 10.802202985317 	 20.287235977877 	
S	 20.022615192881 	  4.618647645317 	 10.184812017877 	
S	 19.454071062881 	  4.618650455317 	 20.315368737877 	
S	 20.022584092881 	 10.802209405317 	 10.184809187877 	
S	 19.454039962881 	 10.802212215317 	 20.315365907877 	
S	  8.451755145813 	  1.530784871199 	  5.136236065006 	
S	  7.883211015813 	  1.530787681199 	 15.266792785006 	
S	  8.451724045813 	  7.714346631199 	  5.136233235006 	
S	  7.883179915813 	  7.714349441199 	 15.266789955006 	
S	 23.132582445813 	  1.530794101199 	  5.164365995006 	
S	 22.564038315813 	  1.530796911199 	 15.294922715006 	
S	 23.132551345813 	  7.714355861199 	  5.164363165006 	
S	 22.564007215813 	  7.714358671199 	 15.294919885006 	
C	  6.739440990487 	  2.566270473248 	  9.830194109331 	
C	  6.170896860487 	  2.566273283248 	 19.960750829331 	
C	  6.739409890487 	  8.749832233248 	  9.830191279331 	
C	  6.170865760487 	  8.749835043248 	 19.960747999331 	
C	 21.420268290487 	  2.566279703248 	  9.858324039331 	
C	 20.851724160487 	  2.566282513248 	 19.988880759331 	
C	 21.420237190487 	  8.749841463248 	  9.858321209331 	
C	 20.851693060487 	  8.749844273248 	 19.988877929331 	
C	  7.055829307033 	  5.592111290574 	  5.508217606715 	
C	  6.487285177033 	  5.592114100574 	 15.638774326715 	
C	  7.055798207033 	 11.775673050574 	  5.508214776715 	
C	  6.487254077033 	 11.775675860574 	 15.638771496715 	
C	 21.736656607033 	  5.592120520574 	  5.536347536715 	
C	 21.168112477033 	  5.592123330574 	 15.666904256715 	
C	 21.736625507033 	 11.775682280574 	  5.536344706715 	
C	 21.168081377033 	 11.775685090574 	 15.666901426715 	
C	  7.331540976671 	  3.610724672606 	  0.377114631602 	
C	  6.762996846671 	  3.610727482606 	 10.507671351602 	
C	  7.331509876671 	  9.794286432606 	  0.377111801602 	
C	  6.762965746671 	  9.794289242606 	 10.507668521602 	
C	 22.012368276671 	  3.610733902606 	  0.405244561602 	
C	 21.443824146671 	  3.610736712606 	 10.535801281602 	
C	 22.012337176671 	  9.794295662606 	  0.405241731602 	
C	 21.443793046671 	  9.794298472606 	 10.535798451602 	
C	  7.015152850250 	  0.584884693484 	  4.699091353073 	
C	  6.446608720250 	  0.584887503484 	 14.829648073073 	
C	  7.015121750250 	  6.768446453484 	  4.699088523073 	
C	  6.446577620250 	  6.768449263484 	 14.829645243073 	
C	 21.695980150250 	  0.584893923484 	  4.727221283073 	
C	 21.127436020250 	  0.584896733484 	 14.857778003073 	
C	 21.695949050250 	  6.768455683484 	  4.727218453073 	
C	 21.127404920250 	  6.768458493484 	 14.857775173073 	
C	  5.677759522485 	  2.336185384354 	  8.907426095927 	
C	  5.109215392485 	  2.336188194354 	 19.037982815927 	
C	  5.677728422485 	  8.519747144354 	  8.907423265927 	
C	  5.109184292485 	  8.519749954354 	 19.037979985927 	
C	 20.358586822485 	  2.336194614354 	  8.935556025927 	
C	 19.790042692485 	  2.336197424354 	 19.066112745927 	
C	 20.358555722485 	  8.519756374354 	  8.935553195927 	
C	 19.790011592485 	  8.519759184354 	 19.066109915927 	
C	  8.106885889125 	  5.412539056768 	  6.385138060981 	
C	  7.538341759125 	  5.412541866768 	 16.515694780981 	
C	  8.106854789125 	 11.596100816768 	  6.385135230981 	
C	  7.538310659125 	 11.596103626768 	 16.515691950981 	
C	 22.787713189125 	  5.412548286768 	  6.413267990981 	
C	 22.219169059125 	  5.412551096768 	 16.543824710981 	
C	 22.787682089125 	 11.596110046768 	  6.413265160981 	
C	 22.219137959125 	 11.596112856768 	 16.543821880981 	
C	  8.393222232153 	  3.840809783704 	  1.299882485099 	
C	  7.824678102153 	  3.840812593704 	 11.430439205099 	
C	  8.393191132153 	 10.024371543704 	  1.299879655099 	
C	  7.824647002153 	 10.024374353704 	 11.430436375099 	
C	 23.074049532153 	  3.840819013704 	  1.328012415099 	
C	 22.505505402153 	  3.840821823704 	 11.458569135099 	
C	 23.074018432153 	 10.024380773704 	  1.328009585099 	
C	 22.505474302153 	 10.024383583704 	 11.458566305099 	
C	  5.964096213042 	  0.764456893449 	  3.822170797044 	
C	  5.395552083042 	  0.764459703449 	 13.952727517044 	
C	  5.964065113042 	  6.948018653449 	  3.822167967044 	
C	  5.395520983042 	  6.948021463449 	 13.952724687044 	
C	 20.644923513042 	  0.764466123449 	  3.850300727044 	
C	 20.076379383042 	  0.764468933449 	 13.980857447044 	
C	 20.644892413042 	  6.948027883449 	  3.850297897044 	
C	 20.076348283042 	  6.948030693449 	 13.980854617044 	
C	  4.777476876928 	  3.379972375909 	  8.946155266460 	
C	  4.208932746928 	  3.379975185909 	 19.076711986460 	
C	  4.777445776928 	  9.563534135909 	  8.946152436460 	
C	  4.208901646928 	  9.563536945909 	 19.076709156460 	
C	 19.458304176928 	  3.379981605909 	  8.974285196460 	
C	 18.889760046928 	  3.379984415909 	 19.104841916460 	
C	 19.458273076928 	  9.563543365909 	  8.974282366460 	
C	 18.889728946928 	  9.563546175909 	 19.104839086460 	
C	  9.019457327716 	  0.301616954736 	  6.348258338283 	
C	  8.450913197716 	  0.301619764736 	 16.478815058283 	
C	  9.019426227716 	  6.485178714736 	  6.348255508283 	
C	  8.450882097716 	  6.485181524736 	 16.478812228283 	
C	 23.700284627716 	  0.301626184736 	  6.376388268283 	
C	 23.131740497716 	  0.301628994736 	 16.506944988283 	
C	 23.700253527716 	  6.485187944736 	  6.376385438283 	
C	 23.131709397716 	  6.485190754736 	 16.506942158283 	
C	  9.293504872846 	  2.797022891095 	  1.261153423496 	
C	  8.724960742846 	  2.797025701095 	 11.391710143496 	
C	  9.293473772846 	  8.980584651095 	  1.261150593496 	
C	  8.724929642846 	  8.980587461095 	 11.391707313496 	
C	 23.974332172846 	  2.797032121095 	  1.289283353496 	
C	 23.405788042846 	  2.797034931095 	 11.419840073496 	
C	 23.974301072846 	  8.980593881095 	  1.289280523496 	
C	 23.405756942846 	  8.980596691095 	 11.419837243496 	
C	  5.051524810945 	  5.875378937031 	  3.859050551232 	
C	  4.482980680945 	  5.875381747031 	 13.989607271232 	
C	  5.051493710945 	 12.058940697031 	  3.859047721232 	
C	  4.482949580945 	 12.058943507031 	 13.989604441232 	
C	 19.732352110945 	  5.875388167031 	  3.887180481232 	
C	 19.163807980945 	  5.875390977031 	 14.017737201232 	
C	 19.732321010945 	 12.058949927031 	  3.887177651232 	
C	 19.163776880945 	 12.058952737031 	 14.017734371232 	
C	  3.683589890125 	  3.417089729806 	  8.219005798762 	
C	  3.115045760125 	  3.417092539806 	 18.349562518762 	
C	  3.683558790125 	  9.600651489806 	  8.219002968762 	
C	  3.115014660125 	  9.600654299806 	 18.349559688762 	
C	 18.364417190125 	  3.417098959806 	  8.247135728762 	
C	 17.795873060125 	  3.417101769806 	 18.377692448762 	
C	 18.364386090125 	  9.600660719806 	  8.247132898762 	
C	 17.795841960125 	  9.600663529806 	 18.377689618762 	
C	 10.097884358958 	  0.348134074873 	  7.056849631360 	
C	  9.529340228958 	  0.348136884873 	 17.187406351360 	
C	 10.097853258958 	  6.531695834873 	  7.056846801360 	
C	  9.529309128958 	  6.531698644873 	 17.187403521360 	
C	 24.778711658958 	  0.348143304873 	  7.084979561360 	
C	 24.210167528958 	  0.348146114873 	 17.215536281360 	
C	 24.778680558958 	  6.531705064873 	  7.084976731360 	
C	 24.210136428958 	  6.531707874873 	 17.215533451360 	
C	 10.387391911711 	  2.759905603852 	  1.988303039789 	
C	  9.818847781711 	  2.759908413852 	 12.118859759789 	
C	 10.387360811711 	  8.943467363852 	  1.988300209789 	
C	  9.818816681711 	  8.943470173852 	 12.118856929789 	
C	 25.068219211711 	  2.759914833852 	  2.016432969789 	
C	 24.499675081711 	  2.759917643852 	 12.146989689789 	
C	 25.068188111711 	  8.943476593852 	  2.016430139789 	
C	 24.499643981711 	  8.943479403852 	 12.146986859789 	
C	  3.973097754427 	  5.828861776446 	  3.150459295081 	
C	  3.404553624427 	  5.828864586446 	 13.281016015081 	
C	  3.973066654427 	 12.012423536446 	  3.150456465081 	
C	  3.404522524427 	 12.012426346446 	 13.281013185081 	
C	 18.653925054427 	  5.828871006446 	  3.178589225081 	
C	 18.085380924427 	  5.828873816446 	 13.309145945081 	
C	 18.653893954427 	 12.012432766446 	  3.178586395081 	
C	 18.085349824427 	 12.012435576446 	 13.309143115081 	
H	  2.985040594676 	  4.320623772294 	  8.302846103526 	
H	  2.416496464676 	  4.320626582294 	 18.433402823526 	
H	  2.985009494676 	 10.504185532294 	  8.302843273526 	
H	  2.416465364676 	 10.504188342294 	 18.433399993526 	
H	 17.665867894676 	  4.320633002294 	  8.330976033526 	
H	 17.097323764676 	  4.320635812294 	 18.461532753526 	
H	 17.665836794676 	 10.504194762294 	  8.330973203526 	
H	 17.097292664676 	 10.504197572294 	 18.461529923526 	
H	 10.807462032540 	  1.229942156211 	  6.992724450533 	
H	 10.238917902540 	  1.229944966211 	 17.123281170533 	
H	 10.807430932540 	  7.413503916211 	  6.992721620533 	
H	 10.238886802540 	  7.413506726211 	 17.123278340533 	
H	 25.488289332540 	  1.229951386211 	  7.020854380533 	
H	 24.919745202540 	  1.229954196211 	 17.151411100533 	
H	 25.488258232540 	  7.413513146211 	  7.020851550533 	
H	 24.919714102540 	  7.413515956211 	 17.151408270533 	
H	 11.085941177307 	  1.856371543949 	  1.904462637902 	
H	 10.517397047307 	  1.856374353949 	 12.035019357902 	
H	 11.085910077307 	  8.039933303949 	  1.904459807902 	
H	 10.517365947307 	  8.039936113949 	 12.035016527902 	
H	 25.766768477307 	  1.856380773949 	  1.932592567902 	
H	 25.198224347307 	  1.856383583949 	 12.063149287902 	
H	 25.766737377307 	  8.039942533949 	  1.932589737902 	
H	 25.198193247307 	  8.039945343949 	 12.063146457902 	
H	  3.263520199971 	  4.947053602008 	  3.214584497057 	
H	  2.694976069971 	  4.947056412008 	 13.345141217057 	
H	  3.263489099971 	 11.130615362008 	  3.214581667057 	
H	  2.694944969971 	 11.130618172008 	 13.345138387057 	
H	 17.944347499971 	  4.947062832008 	  3.242714427057 	
H	 17.375803369971 	  4.947065642008 	 13.373271147057 	
H	 17.944316399971 	 11.130624592008 	  3.242711597057 	
H	 17.375772269971 	 11.130627402008 	 13.373268317057 	
C	  3.364361582555 	  2.425058171418 	  7.387515830144 	
C	  2.795817452555 	  2.425060981418 	 17.518072550144 	
C	  3.364330482555 	  8.608619931418 	  7.387513000144 	
C	  2.795786352555 	  8.608622741418 	 17.518069720144 	
C	 18.045188882555 	  2.425067401418 	  7.415645760144 	
C	 17.476644752555 	  2.425070211418 	 17.546202480144 	
C	 18.045157782555 	  8.608629161418 	  7.415642930144 	
C	 17.476613652555 	  8.608631971418 	 17.546199650144 	
C	 10.435102085065 	  5.492147261622 	  7.922889882114 	
C	  9.866557955065 	  5.492150071622 	 18.053446602114 	
C	 10.435070985065 	 11.675709021622 	  7.922887052114 	
C	  9.866526855065 	 11.675711831622 	 18.053443772114 	
C	 25.115929385065 	  5.492156491622 	  7.951019812114 	
C	 24.547385255065 	  5.492159301622 	 18.081576532114 	
C	 25.115898285065 	 11.675718251622 	  7.951016982114 	
C	 24.547354155065 	 11.675721061622 	 18.081573702114 	
C	 10.706620047133 	  3.751937074055 	  2.819792943316 	
C	 10.138075917133 	  3.751939884055 	 12.950349663316 	
C	 10.706588947133 	  9.935498834055 	  2.819790113316 	
C	 10.138044817133 	  9.935501644055 	 12.950346833316 	
C	 25.387447347133 	  3.751946304055 	  2.847922873316 	
C	 24.818903217133 	  3.751949114055 	 12.978479593316 	
C	 25.387416247133 	  9.935508064055 	  2.847920043316 	
C	 24.818872117133 	  9.935510874055 	 12.978476763316 	
C	  3.635880123795 	  0.684848552772 	  2.284418976971 	
C	  3.067335993795 	  0.684851362772 	 12.414975696971 	
C	  3.635849023795 	  6.868410312772 	  2.284416146971 	
C	  3.067304893795 	  6.868413122772 	 12.414972866971 	
C	 18.316707423795 	  0.684857782772 	  2.312548906971 	
C	 17.748163293795 	  0.684860592772 	 12.443105626971 	
C	 18.316676323795 	  6.868419542772 	  2.312546076971 	
C	 17.748132193795 	  6.868422352772 	 12.443102796971 	
C	  4.264638819873 	  1.398374390055 	  7.312672401237 	
C	  3.696094689873 	  1.398377200055 	 17.443229121237 	
C	  4.264607719873 	  7.581936150055 	  7.312669571237 	
C	  3.696063589873 	  7.581938960055 	 17.443226291237 	
C	 18.945466119873 	  1.398383620055 	  7.340802331237 	
C	 18.376921989873 	  1.398386430055 	 17.471359051237 	
C	 18.945435019873 	  7.581945380055 	  7.340799501237 	
C	 18.376890889873 	  7.581948190055 	 17.471356221237 	
C	  9.527957045570 	  4.489045865128 	  7.979239793943 	
C	  8.959412915570 	  4.489048675128 	 18.109796513943 	
C	  9.527925945570 	 10.672607625128 	  7.979236963943 	
C	  8.959381815570 	 10.672610435128 	 18.109793683943 	
C	 24.208784345570 	  4.489055095128 	  8.007369723943 	
C	 23.640240215570 	  4.489057905128 	 18.137926443943 	
C	 24.208753245570 	 10.672616855128 	  8.007366893943 	
C	 23.640209115570 	 10.672619665128 	 18.137923613943 	
C	  9.806342698578 	  4.778620813735 	  2.894636468005 	
C	  9.237798568578 	  4.778623623735 	 13.025193188005 	
C	  9.806311598578 	 10.962182573735 	  2.894633638005 	
C	  9.237767468578 	 10.962185383735 	 13.025190358005 	
C	 24.487169998578 	  4.778630043735 	  2.922766398005 	
C	 23.918625868578 	  4.778632853735 	 13.053323118005 	
C	 24.487138898578 	 10.962191803735 	  2.922763568005 	
C	 23.918594768578 	 10.962194613735 	 13.053320288005 	
C	  4.543024976481 	  1.687949894022 	  2.228069033174 	
C	  3.974480846481 	  1.687952704022 	 12.358625753174 	
C	  4.542993876481 	  7.871511654022 	  2.228066203174 	
C	  3.974449746481 	  7.871514464022 	 12.358622923174 	
C	 19.223852276481 	  1.687959124022 	  2.256198963174 	
C	 18.655308146481 	  1.687961934022 	 12.386755683174 	
C	 19.223821176481 	  7.871520884022 	  2.256196133174 	
C	 18.655277046481 	  7.871523694022 	 12.386752853174 	
H	  4.037889090358 	  0.545513968487 	  6.586518668297 	
H	  3.469344960358 	  0.545516778487 	 16.717075388297 	
H	  4.037857990358 	  6.729075728487 	  6.586515838297 	
H	  3.469313860358 	  6.729078538487 	 16.717072558297 	
H	 18.718716390358 	  0.545523198487 	  6.614648598297 	
H	 18.150172260358 	  0.545526008487 	 16.745205318297 	
H	 18.718685290358 	  6.729084958487 	  6.614645768297 	
H	 18.150141160358 	  6.729087768487 	 16.745202488297 	
H	  9.753480883125 	  3.635004959838 	  8.706268593638 	
H	  9.184936753125 	  3.635007769838 	 18.836825313638 	
H	  9.753449783125 	  9.818566719838 	  8.706265763638 	
H	  9.184905653125 	  9.818569529838 	 18.836822483638 	
H	 24.434308183125 	  3.635014189838 	  8.734398523638 	
H	 23.865764053125 	  3.635016999838 	 18.864955243638 	
H	 24.434277083125 	  9.818575949838 	  8.734395693638 	
H	 23.865732953125 	  9.818578759838 	 18.864952413638 	
H	 10.033092419888 	  5.631481194726 	  3.620790252177 	
H	  9.464548289888 	  5.631484004726 	 13.751346972177 	
H	 10.033061319888 	 11.815042954726 	  3.620787422177 	
H	  9.464517189888 	 11.815045764726 	 13.751344142177 	
H	 24.713919719888 	  5.631490424726 	  3.648920182177 	
H	 24.145375589888 	  5.631493234726 	 13.779476902177 	
H	 24.713888619888 	 11.815052184726 	  3.648917352177 	
H	 24.145344489888 	 11.815054994726 	 13.779474072177 	
H	  4.317501144887 	  2.541990828497 	  1.501040262508 	
H	  3.748957014887 	  2.541993638497 	 11.631596982508 	
H	  4.317470044887 	  8.725552588497 	  1.501037432508 	
H	  3.748925914887 	  8.725555398497 	 11.631594152508 	
H	 18.998328444887 	  2.542000058497 	  1.529170192508 	
H	 18.429784314887 	  2.542002868497 	 11.659726912508 	
H	 18.998297344887 	  8.725561818497 	  1.529167362508 	
H	 18.429753214887 	  8.725564628497 	 11.659724082508 	
C	  5.340846912363 	  1.349825836471 	  8.009936557626 	
C	  4.772302782363 	  1.349828646471 	 18.140493277626 	
C	  5.340815812363 	  7.533387596471 	  8.009933727626 	
C	  4.772271682363 	  7.533390406471 	 18.140490447626 	
C	 20.021674212363 	  1.349835066471 	  8.038066487626 	
C	 19.453130082363 	  1.349837876471 	 18.168623207626 	
C	 20.021643112363 	  7.533396826471 	  8.038063657626 	
C	 19.453098982363 	  7.533399636471 	 18.168620377626 	
C	  8.451536344808 	  4.440145415768 	  7.281954698020 	
C	  7.882992214808 	  4.440148225768 	 17.412511418020 	
C	  8.451505244808 	 10.623707175768 	  7.281951868020 	
C	  7.882961114808 	 10.623709985768 	 17.412508588020 	
C	 23.132363644808 	  4.440154645768 	  7.310084628020 	
C	 22.563819514808 	  4.440157455768 	 17.440641348020 	
C	 23.132332544808 	 10.623716405768 	  7.310081798020 	
C	 22.563788414808 	 10.623719215768 	 17.440638518020 	
C	  8.730134721458 	  4.827169345152 	  2.197372138154 	
C	  8.161590591458 	  4.827172155152 	 12.327928858154 	
C	  8.730103621458 	 11.010731105152 	  2.197369308154 	
C	  8.161559491458 	 11.010733915152 	 12.327926028154 	
C	 23.410962021458 	  4.827178575152 	  2.225502068154 	
C	 22.842417891458 	  4.827181385152 	 12.356058788154 	
C	 23.410930921458 	 11.010740335152 	  2.225499238154 	
C	 22.842386791458 	 11.010743145152 	 12.356055958154 	
C	  5.619445784266 	  1.736850472130 	  2.925354214897 	
C	  5.050901654266 	  1.736853282130 	 13.055910934897 	
C	  5.619414684266 	  7.920412232130 	  2.925351384897 	
C	  5.050870554266 	  7.920415042130 	 13.055908104897 	
C	 20.300273084266 	  1.736859702130 	  2.953484144897 	
C	 19.731728954266 	  1.736862512130 	 13.084040864897 	
C	 20.300241984266 	  7.920421462130 	  2.953481314897 	
C	 19.731697854266 	  7.920424272130 	 13.084038034897 	
H	  6.059213567225 	  0.466073615961 	  7.914708175764 	
H	  5.490669437225 	  0.466076425961 	 18.045264895764 	
H	  6.059182467225 	  6.649635375961 	  7.914705345764 	
H	  5.490638337225 	  6.649638185961 	 18.045262065764 	
H	 20.740040867225 	  0.466082845961 	  7.942838105764 	
H	 20.171496737225 	  0.466085655961 	 18.073394825764 	
H	 20.740009767225 	  6.649644605961 	  7.942835275764 	
H	 20.171465637225 	  6.649647415961 	 18.073391995764 	
H	  7.732757407669 	  3.555134893947 	  7.378327108233 	
H	  7.164213277669 	  3.555137703947 	 17.508883828233 	
H	  7.732726307669 	  9.738696653947 	  7.378324278233 	
H	  7.164182177669 	  9.738699463947 	 17.508880998233 	
H	 22.413584707669 	  3.555144123947 	  7.406457038233 	
H	 21.845040577669 	  3.555146933947 	 17.537013758233 	
H	 22.413553607669 	  9.738705883947 	  7.406454208233 	
H	 21.845009477669 	  9.738708693947 	 17.537010928233 	
H	  8.011767961337 	  5.710921470079 	  2.292600572549 	
H	  7.443223831337 	  5.710924280079 	 12.423157292549 	
H	  8.011736861337 	 11.894483230079 	  2.292597742549 	
H	  7.443192731337 	 11.894486040079 	 12.423154462549 	
H	 22.692595261337 	  5.710930700079 	  2.320730502549 	
H	 22.124051131337 	  5.710933510079 	 12.451287222549 	
H	 22.692564161337 	 11.894492460079 	  2.320727672549 	
H	 22.124020031337 	 11.894495270079 	 12.451284392549 	
H	  6.338224669827 	  2.621861031482 	  2.828981771850 	
H	  5.769680539827 	  2.621863841482 	 12.959538491850 	
H	  6.338193569827 	  8.805422791482 	  2.828978941850 	
H	  5.769649439827 	  8.805425601482 	 12.959535661850 	
H	 21.019051969827 	  2.621870261482 	  2.857111701850 	
H	 20.450507839827 	  2.621873071482 	 12.987668421850 	
H	 21.019020869827 	  8.805432021482 	  2.857108871850 	
H	 20.450476739827 	  8.805434831482 	 12.987665591850 	
C	  1.990026257620 	  2.452270845481 	  6.483429935928 	
C	  1.421482127620 	  2.452273655481 	 16.613986655928 	
C	  1.989995157620 	  8.635832605481 	  6.483427105928 	
C	  1.421451027620 	  8.635835415481 	 16.613983825928 	
C	 16.670853557620 	  2.452280075481 	  6.511559865928 	
C	 16.102309427620 	  2.452282885481 	 16.642116585928 	
C	 16.670822457620 	  8.635841835481 	  6.511557035928 	
C	 16.102278327620 	  8.635844645481 	 16.642113755928 	
C	 11.810647830715 	  5.528933302995 	  8.805383937828 	
C	 11.242103700715 	  5.528936112995 	 18.935940657828 	
C	 11.810616730715 	 11.712495062995 	  8.805381107828 	
C	 11.242072600715 	 11.712497872995 	 18.935937827828 	
C	 26.491475130715 	  5.528942532995 	  8.833513867828 	
C	 25.922931000715 	  5.528945342995 	 18.964070587828 	
C	 26.491444030715 	 11.712504292995 	  8.833511037828 	
C	 25.922899900715 	 11.712507102995 	 18.964067757828 	
C	 12.080955260469 	  3.724724543831 	  3.723878882349 	
C	 11.512411130469 	  3.724727353831 	 13.854435602349 	
C	 12.080924160469 	  9.908286303831 	  3.723876052349 	
C	 11.512380030469 	  9.908289113831 	 13.854432772349 	
C	 26.761782560469 	  3.724733773831 	  3.752008812349 	
C	 26.193238430469 	  3.724736583831 	 13.882565532349 	
C	 26.761751460469 	  9.908295533831 	  3.752005982349 	
C	 26.193207330469 	  9.908298343831 	 13.882562702349 	
C	  2.260334471191 	  0.648062357399 	  1.401924859154 	
C	  1.691790341191 	  0.648065167399 	 11.532481579154 	
C	  2.260303371191 	  6.831624117399 	  1.401922029154 	
C	  1.691759241191 	  6.831626927399 	 11.532478749154 	
C	 16.941161771191 	  0.648071587399 	  1.430054789154 	
C	 16.372617641191 	  0.648074397399 	 11.560611509154 	
C	 16.941130671191 	  6.831633347399 	  1.430051959154 	
C	 16.372586541191 	  6.831636157399 	 11.560608679154 	
C	  2.264230953218 	  3.065590536445 	  5.320886142978 	
C	  1.695686823218 	  3.065593346445 	 15.451442862978 	
C	  2.264199853218 	  9.249152296445 	  5.320883312978 	
C	  1.695655723218 	  9.249155106445 	 15.451440032978 	
C	 16.945058253218 	  3.065599766445 	  5.349016072978 	
C	 16.376514123218 	  3.065602576445 	 15.479572792978 	
C	 16.945027153218 	  9.249161526445 	  5.349013242978 	
C	 16.376483023218 	  9.249164336445 	 15.479569962978 	
C	 11.529136500757 	 -0.018169559172 	  9.875704547957 	
C	 10.960592370757 	 -0.018166749172 	 20.006261267957 	
C	 11.529105400757 	  6.165392200828 	  9.875701717957 	
C	 10.960561270757 	  6.165395010828 	 20.006258437957 	
C	 26.209963800757 	 -0.018160329172 	  9.903834477957 	
C	 25.641419670757 	 -0.018157519172 	 20.034391197957 	
C	 26.209932700757 	  6.165401430828 	  9.903831647957 	
C	 25.641388570757 	  6.165404240828 	 20.034388367957 	
C	 11.806750309650 	  3.111405144559 	  4.886423194202 	
C	 11.238206179650 	  3.111407954559 	 15.016979914202 	
C	 11.806719209650 	  9.294966904559 	  4.886420364202 	
C	 11.238175079650 	  9.294969714559 	 15.016977084202 	
C	 26.487577609650 	  3.111414374559 	  4.914553124202 	
C	 25.919033479650 	  3.111417184559 	 15.045109844202 	
C	 26.487546509650 	  9.294976134559 	  4.914550294202 	
C	 25.919002379650 	  9.294978944559 	 15.045107014202 	
C	  2.541845830635 	  6.195165508258 	  0.331604177017 	
C	  1.973301700635 	  6.195168318258 	 10.462160897017 	
C	  2.541814730635 	 12.378727268258 	  0.331601347017 	
C	  1.973270600635 	 12.378730078258 	 10.462158067017 	
C	 17.222673130635 	  6.195174738258 	  0.359734107017 	
C	 16.654129000635 	  6.195177548258 	 10.490290827017 	
C	 17.222642030635 	 12.378736498258 	  0.359731277017 	
C	 16.654097900635 	 12.378739308258 	 10.490287997017 	
H	  2.656711970367 	  4.121495513945 	  5.380864091952 	
H	  2.088167840367 	  4.121498323945 	 15.511420811952 	
H	  2.656680870367 	 10.305057273945 	  5.380861261952 	
H	  2.088136740367 	 10.305060083945 	 15.511417981952 	
H	 17.337539270367 	  4.121504743945 	  5.408994021952 	
H	 16.768995140367 	  4.121507553945 	 15.539550741952 	
H	 17.337508170367 	 10.305066503945 	  5.408991191952 	
H	 16.768964040367 	 10.305069313945 	 15.539547911952 	
H	 11.125753820178 	  1.018944968724 	  9.918781544589 	
H	 10.557209690178 	  1.018947778724 	 20.049338264589 	
H	 11.125722720178 	  7.202506728724 	  9.918778714589 	
H	 10.557178590178 	  7.202509538724 	 20.049335434589 	
H	 25.806581120178 	  1.018954198724 	  9.946911474589 	
H	 25.238036990178 	  1.018957008724 	 20.077468194589 	
H	 25.806550020178 	  7.202515958724 	  9.946908644589 	
H	 25.238005890178 	  7.202518768724 	 20.077465364589 	
H	 11.414269466121 	  2.055500117881 	  4.826445501482 	
H	 10.845725336121 	  2.055502927881 	 14.957002221482 	
H	 11.414238366121 	  8.239061877881 	  4.826442671482 	
H	 10.845694236121 	  8.239064687881 	 14.956999391482 	
H	 26.095096766121 	  2.055509347881 	  4.854575431482 	
H	 25.526552636121 	  2.055512157881 	 14.985132151482 	
H	 26.095065666121 	  8.239071107881 	  4.854572601482 	
H	 25.526521536121 	  8.239073917881 	 14.985129321482 	
H	  2.945228572235 	  5.158051009619 	  0.288526956565 	
H	  2.376684442235 	  5.158053819619 	 10.419083676565 	
H	  2.945197472235 	 11.341612769619 	  0.288524126565 	
H	  2.376653342235 	 11.341615579619 	 10.419080846565 	
H	 17.626055872235 	  5.158060239619 	  0.316656886565 	
H	 17.057511742235 	  5.158063049619 	 10.447213606565 	
H	 17.626024772235 	 11.341621999619 	  0.316654056565 	
H	 17.057480642235 	 11.341624809619 	 10.447210776565 	
H	  1.418246243709 	  3.173832012300 	  4.585618097996 	
H	  0.849702113709 	  3.173834822300 	 14.716174817996 	
H	  1.418215143709 	  9.357393772300 	  4.585615267996 	
H	  0.849671013709 	  9.357396582300 	 14.716171987996 	
H	 16.099073543709 	  3.173841242300 	  4.613748027996 	
H	 15.530529413709 	  3.173844052300 	 14.744304747996 	
H	 16.099042443709 	  9.357403002300 	  4.613745197996 	
H	 15.530498313709 	  9.357405812300 	 14.744301917996 	
H	 12.997360813064 	  0.094568784796 	  0.585444114941 	
H	 12.428816683064 	  0.094571594796 	 10.716000834941 	
H	 12.997329713064 	  6.278130544796 	  0.585441284941 	
H	 12.428785583064 	  6.278133354796 	 10.715998004941 	
H	 27.678188113064 	  0.094578014796 	  0.613574044941 	
H	 27.109643983064 	  0.094580824796 	 10.744130764941 	
H	 27.678157013064 	  6.278139774796 	  0.613571214941 	
H	 27.109612883064 	  6.278142584796 	 10.744127934941 	
H	 12.652734985886 	  3.003164085106 	  5.621691310150 	
H	 12.084190855886 	  3.003166895106 	 15.752248030150 	
H	 12.652703885886 	  9.186725845106 	  5.621688480150 	
H	 12.084159755886 	  9.186728655106 	 15.752245200150 	
H	 27.333562285886 	  3.003173315106 	  5.649821240150 	
H	 26.765018155886 	  3.003176125106 	 15.780377960150 	
H	 27.333531185886 	  9.186735075106 	  5.649818410150 	
H	 26.764987055886 	  9.186737885106 	 15.780375130150 	
H	  1.073621618908 	  6.082427183152 	  9.621864472260 	
H	  0.505077488908 	  6.082429993152 	 19.752421192260 	
H	  1.073590518908 	 12.265988943152 	  9.621861642260 	
H	  0.505046388908 	 12.265991753152 	 19.752418362260 	
H	 15.754448918908 	  6.082436413152 	  9.649994402260 	
H	 15.185904788908 	  6.082439223152 	 19.780551122260 	
H	 15.754417818908 	 12.265998173152 	  9.649991572260 	
H	 15.185873688908 	 12.266000983152 	 19.780548292260 	
H	  3.067170474924 	  2.609148641349 	  4.672377044092 	
H	  2.498626344924 	  2.609151451349 	 14.802933764092 	
H	  3.067139374924 	  8.792710401349 	  4.672374214092 	
H	  2.498595244924 	  8.792713211349 	 14.802930934092 	
H	 17.747997774924 	  2.609157871349 	  4.700506974092 	
H	 17.179453644924 	  2.609160681349 	 14.831063694092 	
H	 17.747966674924 	  8.792719631349 	  4.700504144092 	
H	 17.179422544924 	  8.792722441349 	 14.831060864092 	
H	 11.229934303922 	  5.696911524606 	  0.482907865763 	
H	 10.661390173922 	  5.696914334606 	 10.613464585763 	
H	 11.229903203922 	 11.880473284606 	  0.482905035763 	
H	 10.661359073922 	 11.880476094606 	 10.613461755763 	
H	 25.910761603922 	  5.696920754606 	  0.511037795763 	
H	 25.342217473922 	  5.696923564606 	 10.641594515763 	
H	 25.910730503922 	 11.880482514606 	  0.511034965763 	
H	 25.342186373922 	 11.880485324606 	 10.641591685763 	
H	 11.003810696408 	  3.567847296884 	  5.534931942303 	
H	 10.435266566408 	  3.567850106884 	 15.665488662303 	
H	 11.003779596408 	  9.751409056884 	  5.534929112303 	
H	 10.435235466408 	  9.751411866884 	 15.665485832303 	
H	 25.684637996408 	  3.567856526884 	  5.563061872303 	
H	 25.116093866408 	  3.567859336884 	 15.693618592303 	
H	 25.684606896408 	  9.751418286884 	  5.563059042303 	
H	 25.116062766408 	  9.751421096884 	 15.693615762303 	
H	  2.841048096227 	  0.480084559715 	  9.724400974672 	
H	  2.272503966227 	  0.480087369715 	 19.854957694672 	
H	  2.841016996227 	  6.663646319715 	  9.724398144672 	
H	  2.272472866227 	  6.663649129715 	 19.854954864672 	
H	 17.521875396227 	  0.480093789715 	  9.752530904672 	
H	 16.953331266227 	  0.480096599715 	 19.883087624672 	
H	 17.521844296227 	  6.663655549715 	  9.752528074672 	
H	 16.953300166227 	  6.663658359715 	 19.883084794672 	
C	  1.032297087538 	  3.122522519231 	  7.131008574478 	
C	  0.463752957538 	  3.122525329231 	 17.261565294478 	
C	  1.032265987538 	  9.306084279231 	  7.131005744478 	
C	  0.463721857538 	  9.306087089231 	 17.261562464478 	
C	 15.713124387538 	  3.122531749231 	  7.159138504478 	
C	 15.144580257538 	  3.122534559231 	 17.289695224478 	
C	 15.713093287538 	  9.306093509231 	  7.159135674478 	
C	 15.144549157538 	  9.306096319231 	 17.289692394478 	
C	 12.764638313455 	  0.044917246822 	  8.205219622943 	
C	 12.196094183455 	  0.044920056822 	 18.335776342943 	
C	 12.764607213455 	  6.228479006822 	  8.205216792943 	
C	 12.196063083455 	  6.228481816822 	 18.335773512943 	
C	 27.445465613455 	  0.044926476822 	  8.233349552943 	
C	 26.876921483455 	  0.044929286822 	 18.363906272943 	
C	 27.445434513455 	  6.228488236822 	  8.233346722943 	
C	 26.876890383455 	  6.228491046822 	 18.363903442943 	
C	 13.038684655945 	  3.054472479892 	  3.076300444758 	
C	 12.470140525945 	  3.054475289892 	 13.206857164758 	
C	 13.038653555945 	  9.238034239892 	  3.076297614758 	
C	 12.470109425945 	  9.238037049892 	 13.206854334758 	
C	 27.719511955945 	  3.054481709892 	  3.104430374758 	
C	 27.150967825945 	  3.054484519892 	 13.234987094758 	
C	 27.719480855945 	  9.238043469892 	  3.104427544758 	
C	 27.150936725945 	  9.238046279892 	 13.234984264758 	
C	  1.306343945663 	  6.132078164572 	  2.002089011736 	
C	  0.737799815663 	  6.132080974572 	 12.132645731736 	
C	  1.306312845663 	 12.315639924572 	  2.002086181736 	
C	  0.737768715663 	 12.315642734572 	 12.132642901736 	
C	 15.987171245663 	  6.132087394572 	  2.030218941736 	
C	 15.418627115663 	  6.132090204572 	 12.160775661736 	
C	 15.987140145663 	 12.315649154572 	  2.030216111736 	
C	 15.418596015663 	 12.315651964572 	 12.160772831736 	
H	  1.200309848465 	  4.213868149114 	  7.370024825533 	
H	  0.631765718465 	  4.213870959114 	 17.500581545533 	
H	  1.200278748465 	 10.397429909114 	  7.370021995533 	
H	  0.631734618465 	 10.397432719114 	 17.500578715533 	
H	 15.881137148465 	  4.213877379114 	  7.398154755533 	
H	 15.312593018465 	  4.213880189114 	 17.528711475533 	
H	 15.881106048465 	 10.397439139114 	  7.398151925533 	
H	 15.312561918465 	 10.397441949114 	 17.528708645533 	
H	 12.603013264994 	  1.110632567455 	  7.917895936345 	
H	 12.034469134995 	  1.110635377455 	 18.048452656345 	
H	 12.602982164995 	  7.294194327455 	  7.917893106345 	
H	 12.034438034995 	  7.294197137455 	 18.048449826345 	
H	 27.283840564994 	  1.110641797455 	  7.946025866345 	
H	 26.715296434994 	  1.110644607455 	 18.076582586345 	
H	 27.283809464994 	  7.294203557455 	  7.946023036345 	
H	 26.715265334994 	  7.294206367455 	 18.076579756345 	
H	 12.870671758072 	  1.963126835793 	  2.837284461158 	
H	 12.302127628072 	  1.963129645793 	 12.967841181158 	
H	 12.870640658072 	  8.146688595793 	  2.837281631158 	
H	 12.302096528072 	  8.146691405793 	 12.967838351158 	
H	 27.551499058072 	  1.963136065793 	  2.865414391158 	
H	 26.982954928072 	  1.963138875793 	 12.995971111158 	
H	 27.551467958072 	  8.146697825793 	  2.865411561158 	
H	 26.982923828072 	  8.146700635793 	 12.995968281158 	
H	  1.467969186845 	  5.066362792098 	  2.289412374947 	
H	  0.899425056845 	  5.066365602098 	 12.419969094947 	
H	  1.467938086845 	 11.249924552098 	  2.289409544947 	
H	  0.899393956845 	 11.249927362098 	 12.419966264947 	
H	 16.148796486845 	  5.066372022098 	  2.317542304947 	
H	 15.580252356845 	  5.066374832098 	 12.448099024947 	
H	 16.148765386845 	 11.249933782098 	  2.317539474947 	
H	 15.580221256845 	 11.249936592098 	 12.448096194947 	
H	  0.734952869893 	  2.765881197448 	  8.158452367826 	
H	  0.166408739893 	  2.765884007448 	 18.289009087826 	
H	  0.734921769893 	  8.949442957448 	  8.158449537826 	
H	  0.166377639893 	  8.949445767448 	 18.289006257826 	
H	 15.415780169893 	  2.765890427448 	  8.186582297826 	
H	 14.847236039893 	  2.765893237448 	 18.317139017826 	
H	 15.415749069893 	  8.949452187448 	  8.186579467826 	
H	 14.847204939893 	  8.949454997448 	 18.317136187826 	
H	 13.056228196693 	  5.861840823899 	  7.123001929569 	
H	 12.487684066693 	  5.861843633899 	 17.253558649569 	
H	 13.056197096693 	 12.045402583899 	  7.122999099569 	
H	 12.487652966693 	 12.045405393899 	 17.253555819569 	
H	 27.737055496693 	  5.861850053899 	  7.151131859569 	
H	 27.168511366693 	  5.861852863899 	 17.281688579569 	
H	 27.737024396693 	 12.045411813899 	  7.151129029569 	
H	 27.168480266693 	 12.045414623899 	 17.281685749569 	
H	 13.336029187156 	  3.411113673914 	  2.048856721471 	
H	 12.767485057156 	  3.411116483914 	 12.179413441471 	
H	 13.335998087156 	  9.594675433914 	  2.048853891471 	
H	 12.767453957156 	  9.594678243914 	 12.179410611471 	
H	 28.016856487156 	  3.411122903914 	  2.076986651471 	
H	 27.448312357156 	  3.411125713914 	 12.207543371471 	
H	 28.016825387156 	  9.594684663914 	  2.076983821471 	
H	 27.448281257156 	  9.594687473914 	 12.207540541471 	
H	  1.014754044243 	  0.315154291461 	  3.084306710690 	
H	  0.446209914243 	  0.315157101461 	 13.214863430690 	
H	  1.014722944243 	  6.498716051461 	  3.084303880690 	
H	  0.446178814243 	  6.498718861461 	 13.214860600690 	
H	 15.695581344243 	  0.315163521461 	  3.112436640690 	
H	 15.127037214243 	  0.315166331461 	 13.242993360690 	
H	 15.695550244243 	  6.498725281461 	  3.112433810690 	
H	 15.127006114243 	  6.498728091461 	 13.242990530690 	
H	  0.041639924482 	  3.162152977132 	  6.597560020496 	
H	 -0.526904205518 	  3.162155787132 	 16.728116740496 	
H	  0.041608824482 	  9.345714737132 	  6.597557190496 	
H	 -0.526935305518 	  9.345717547132 	 16.728113910496 	
H	 14.722467224482 	  3.162162207132 	  6.625689950496 	
H	 14.153923094482 	  3.162165017132 	 16.756246670496 	
H	 14.722436124482 	  9.345723967132 	  6.625687120496 	
H	 14.153891994482 	  9.345726777132 	 16.756243840496 	
H	 13.721202602721 	  6.244978750894 	  8.679882204731 	
H	 13.152658472721 	  6.244981560894 	 18.810438924731 	
H	 13.721171502721 	 12.428540510894 	  8.679879374731 	
H	 13.152627372721 	 12.428543320894 	 18.810436094731 	
H	 28.402029902721 	  6.244987980894 	  8.708012134731 	
H	 27.833485772721 	  6.244990790894 	 18.838568854731 	
H	 28.401998802721 	 12.428549740894 	  8.708009304731 	
H	 27.833454672721 	 12.428552550894 	 18.838566024731 	
H	 14.029341615882 	  3.014842107605 	  3.609749353216 	
H	 13.460797485882 	  3.014844917605 	 13.740306073216 	
H	 14.029310515882 	  9.198403867605 	  3.609746523216 	
H	 13.460766385882 	  9.198406677605 	 13.740303243216 	
H	 28.710168915882 	  3.014851337605 	  3.637879283216 	
H	 28.141624785882 	  3.014854147605 	 13.768436003216 	
H	 28.710137815882 	  9.198413097605 	  3.637876453216 	
H	 28.141593685882 	  9.198415907605 	 13.768433173216 	
H	  0.349779700113 	 -0.067983426986 	  1.527426379233 	
H	 -0.218764429887 	 -0.067980616986 	 11.657983099233 	
H	  0.349748600113 	  6.115578333014 	  1.527423549233 	
H	 -0.218795529887 	  6.115581143014 	 11.657980269233 	
H	 15.030607000113 	 -0.067974196986 	  1.555556309233 	
H	 14.462062870113 	 -0.067971386986 	 11.686113029233 	
H	 15.030575900113 	  6.115587563014 	  1.555553479233 	
H	 14.462031770113 	  6.115590373014 	 11.686110199233 	
C	  1.561585531298 	  1.212456181745 	  6.244170876948 	
C	  0.993041401298 	  1.212458991745 	 16.374727596948 	
C	  1.561554431298 	  7.396017941745 	  6.244168046948 	
C	  0.993010301298 	  7.396020751745 	 16.374724766948 	
C	 16.242412831298 	  1.212465411745 	  6.272300806948 	
C	 15.673868701298 	  1.212468221745 	 16.402857526948 	
C	 16.242381731298 	  7.396027171745 	  6.272297976948 	
C	 15.673837601298 	  7.396029981745 	 16.402854696948 	
C	 12.228988915307 	  4.308388741663 	  9.049243161100 	
C	 11.660444785307 	  4.308391551663 	 19.179799881100 	
C	 12.228957815307 	 10.491950501663 	  9.049240331100 	
C	 11.660413685307 	 10.491953311663 	 19.179797051100 	
C	 26.909816215307 	  4.308397971663 	  9.077373091100 	
C	 26.341272085307 	  4.308400781663 	 19.207929811100 	
C	 26.909785115307 	 10.491959731663 	  9.077370261100 	
C	 26.341240985307 	 10.491962541663 	 19.207926981100 	
C	 12.509396151840 	  4.964539793245 	  3.963137600474 	
C	 11.940852021840 	  4.964542603245 	 14.093694320474 	
C	 12.509365051840 	 11.148101553245 	  3.963134770474 	
C	 11.940820921840 	 11.148104363245 	 14.093691490474 	
C	 27.190223451840 	  4.964549023245 	  3.991267530474 	
C	 26.621679321840 	  4.964551833245 	 14.121824250474 	
C	 27.190192351840 	 11.148110783245 	  3.991264700474 	
C	 26.621648221840 	 11.148113593245 	 14.121821420474 	
C	  1.841993096283 	  1.868606893323 	  1.158065841674 	
C	  1.273448966283 	  1.868609703323 	 11.288622561674 	
C	  1.841961996283 	  8.052168653323 	  1.158063011674 	
C	  1.273417866283 	  8.052171463323 	 11.288619731674 	
C	 16.522820396283 	  1.868616123323 	  1.186195771674 	
C	 15.954276266283 	  1.868618933323 	 11.316752491674 	
C	 16.522789296283 	  8.052177883323 	  1.186192941674 	
C	 15.954245166283 	  8.052180693323 	 11.316749661674 	
H	  0.573816391366 	  1.125834631498 	  5.712480761769 	
H	  0.005272261366 	  1.125837441498 	 15.843037481769 	
H	  0.573785291366 	  7.309396391498 	  5.712477931769 	
H	  0.005241161366 	  7.309399201498 	 15.843034651769 	
H	 15.254643691366 	  1.125843861498 	  5.740610691769 	
H	 14.686099561366 	  1.125846671498 	 15.871167411769 	
H	 15.254612591366 	  7.309405621498 	  5.740607861769 	
H	 14.686068461366 	  7.309408431498 	 15.871164581769 	
H	 13.216292708353 	  4.216976265430 	  9.581078330964 	
H	 12.647748578353 	  4.216979075430 	 19.711635050964 	
H	 13.216261608353 	 10.400538025430 	  9.581075500964 	
H	 12.647717478353 	 10.400540835430 	 19.711632220964 	
H	 27.897120008353 	  4.216985495430 	  9.609208260964 	
H	 27.328575878353 	  4.216988305430 	 19.739764980964 	
H	 27.897088908353 	 10.400547255430 	  9.609205430964 	
H	 27.328544778353 	 10.400550065430 	 19.739762150964 	
H	 13.497165235998 	  5.051161113456 	  4.494827809862 	
H	 12.928621105998 	  5.051163923456 	 14.625384529862 	
H	 13.497134135998 	 11.234722873456 	  4.494824979862 	
H	 12.928590005998 	 11.234725683456 	 14.625381699862 	
H	 28.177992535998 	  5.051170343456 	  4.522957739862 	
H	 27.609448405998 	  5.051173153456 	 14.653514459862 	
H	 28.177961435998 	 11.234732103456 	  4.522954909862 	
H	 27.609417305998 	 11.234734913456 	 14.653511629862 	
H	  0.854689310572 	  1.960019314277 	  0.626230641881 	
H	  0.286145180572 	  1.960022124277 	 10.756787361881 	
H	  0.854658210572 	  8.143581074277 	  0.626227811881 	
H	  0.286114080572 	  8.143583884277 	 10.756784531881 	
H	 15.535516610572 	  1.960028544277 	  0.654360571881 	
H	 14.966972480572 	  1.960031354277 	 10.784917291881 	
H	 15.535485510572 	  8.143590304277 	  0.654357741881 	
H	 14.966941380572 	  8.143593114277 	 10.784914461881 	
H	  1.402546696806 	  0.530084744777 	  7.130478589998 	
H	  0.834002566806 	  0.530087554777 	 17.261035309998 	
H	  1.402515596806 	  6.713646504777 	  7.130475759998 	
H	  0.833971466806 	  6.713649314777 	 17.261032479998 	
H	 16.083373996806 	  0.530093974777 	  7.158608519998 	
H	 15.514829866806 	  0.530096784777 	 17.289165239998 	
H	 16.083342896806 	  6.713655734777 	  7.158605689998 	
H	 15.514798766806 	  6.713658544777 	 17.289162409998 	
H	 12.388946866491 	  3.621782120459 	  8.163933279313 	
H	 11.820402736491 	  3.621784930459 	 18.294489999313 	
H	 12.388915766491 	  9.805343880459 	  8.163930449313 	
H	 11.820371636491 	  9.805346690459 	 18.294487169313 	
H	 27.069774166491 	  3.621791350459 	  8.192063209313 	
H	 26.501230036491 	  3.621794160459 	 18.322619929313 	
H	 27.069743066491 	  9.805353110459 	  8.192060379313 	
H	 26.501198936491 	  9.805355920459 	 18.322617099313 	
H	 12.668435077155 	  5.646910719936 	  3.076829556536 	
H	 12.099890947155 	  5.646913529936 	 13.207386276536 	
H	 12.668403977155 	 11.830472479936 	  3.076826726536 	
H	 12.099859847155 	 11.830475289936 	 13.207383446536 	
H	 27.349262377155 	  5.646919949936 	  3.104959486536 	
H	 26.780718247155 	  5.646922759936 	 13.235516206536 	
H	 27.349231277155 	 11.830481709936 	  3.104956656536 	
H	 26.780687147155 	 11.830484519936 	 13.235513376536 	
H	  1.682035029362 	  2.555213328589 	  2.043375845311 	
H	  1.113490899362 	  2.555216138589 	 12.173932565311 	
H	  1.682003929362 	  8.738775088589 	  2.043373015311 	
H	  1.113459799362 	  8.738777898589 	 12.173929735311 	
H	 16.362862329362 	  2.555222558589 	  2.071505775311 	
H	 15.794318199362 	  2.555225368589 	 12.202062495311 	
H	 16.362831229362 	  8.738784318589 	  2.071502945311 	
H	 15.794287099362 	  8.738787128589 	 12.202059665311 	
H	  2.205626446678 	  0.536697911592 	  5.610394283051 	
H	  1.637082316678 	  0.536700721592 	 15.740951003051 	
H	  2.205595346678 	  6.720259671592 	  5.610391453051 	
H	  1.637051216678 	  6.720262481592 	 15.740948173051 	
H	 16.886453746678 	  0.536707141592 	  5.638524213051 	
H	 16.317909616678 	  0.536709951592 	 15.769080933051 	
H	 16.886422646678 	  6.720268901592 	  5.638521383051 	
H	 16.317878516678 	  6.720271711592 	 15.769078103051 	
H	 11.586615097368 	  3.628446434526 	  9.682600108003 	
H	 11.018070967368 	  3.628449244526 	 19.813156828003 	
H	 11.586583997368 	  9.812008194526 	  9.682597278003 	
H	 11.018039867368 	  9.812011004526 	 19.813153998003 	
H	 26.267442397368 	  3.628455664526 	  9.710730038003 	
H	 25.698898267368 	  3.628458474526 	 19.841286758003 	
H	 26.267411297368 	  9.812017424526 	  9.710727208003 	
H	 25.698867167368 	  9.812020234526 	 19.841283928003 	
H	 11.865355164836 	  5.640298065112 	  4.596914074206 	
H	 11.296811034836 	  5.640300875112 	 14.727470794206 	
H	 11.865324064836 	 11.823859825112 	  4.596911244206 	
H	 11.296779934836 	 11.823862635112 	 14.727467964206 	
H	 26.546182464836 	  5.640307295112 	  4.625044004206 	
H	 25.977638334836 	  5.640310105112 	 14.755600724206 	
H	 26.546151364836 	 11.823869055112 	  4.625041174206 	
H	 25.977607234836 	 11.823871865112 	 14.755597894206 	
H	  2.484366909228 	  2.548549444086 	  0.524709155142 	
H	  1.915822779228 	  2.548552254086 	 10.655265875142 	
H	  2.484335809228 	  8.732111204086 	  0.524706325142 	
H	  1.915791679228 	  8.732114014086 	 10.655263045142 	
H	 17.165194209228 	  2.548558674086 	  0.552839085142 	
H	 16.596650079228 	  2.548561484086 	 10.683395805142 	
H	 17.165163109228 	  8.732120434086 	  0.552836255142 	
H	 16.596618979228 	  8.732123244086 	 10.683392975142 	
768 
Energy: -9.7048346935889995e+01 
S	  8.679935514018 	  1.547144712316 	  0.061491546053 	
S	  8.111391384018 	  1.547147522316 	 10.192048266053 	
S	  8.679904414018 	  7.730706472316 	  0.061488716053 	
S	  8.111360284018 	  7.730709282316 	 10.192045436053 	
S	 23.360762814018 	  1.547153942316 	  0.089621476053 	
S	 22.792218684018 	  1.547156752316 	 10.220178196053 	
S	 23.360731714018 	  7.730715702316 	  0.089618646053 	
S	 22.792187584018 	  7.730718512316 	 10.220175366053 	
S	  5.606471078734 	  4.630597543368 	  5.097826817070 	
S	  5.037926948734 	  4.630600353368 	 15.228383537070 	
S	  5.606439978734 	 10.814159303368 	  5.097823987070 	
S	  5.037895848734 	 10.814162113368 	 15.228380707070 	
S	 20.287298378734 	  4.630606773368 	  5.125956747070 	
S	 19.718754248734 	  4.630609583368 	 15.256513467070 	
S	 20.287267278734 	 10.814168533368 	  5.125953917070 	
S	 19.718723148734 	 10.814171343368 	 15.256510637070 	
S	  5.335814678511 	  4.621046852364 	 10.210891867900 	
S	  4.767270548511 	  4.621049662364 	 20.341448587900 	
S	  5.335783578511 	 10.804608612364 	 10.210889037900 	
S	  4.767239448511 	 10.804611422364 	 20.341445757900 	
S	 20.016641978511 	  4.621056082364 	 10.239021797900 	
S	 19.448097848511 	  4.621058892364 	 20.369578517900 	
S	 20.016610878511 	 10.804617842364 	 10.239018967900 	
S	 19.448066748511 	 10.804620652364 	 20.369575687900 	
S	  8.409279610532 	  1.537594615594 	  5.174556771477 	
S	  7.840735480532 	  1.537597425594 	 15.305113491477 	
S	  8.409248510532 	  7.721156375594 	  5.174553941477 	
S	  7.840704380532 	  7.721159185594 	 15.305110661477 	
S	 23.090106910532 	  1.537603845594 	  5.202686701477 	
S	 22.521562780532 	  1.537606655594 	 15.333243421477 	
S	 23.090075810532 	  7.721165605594 	  5.202683871477 	
S	 22.521531680532 	  7.721168415594 	 15.333240591477 	
C	  6.709816312746 	  2.568339205232 	  9.887288926376 	
C	  6.141272182746 	  2.568342015232 	 20.017845646376 	
C	  6.709785212746 	  8.751900965232 	  9.887286096376 	
C	  6.141241082746 	  8.751903775232 	 20.017842816376 	
C	 21.390643612746 	  2.568348435232 	  9.915418856376 	
C	 20.822099482746 	  2.568351245232 	 20.045975576376 	
C	 21.390612512746 	  8.751910195232 	  9.915416026376 	
C	 20.822068382746 	  8.751913005232 	 20.045972746376 	
C	  7.038629784129 	  5.579060376825 	  5.558485800627 	
C	  6.470085654129 	  5.579063186825 	 15.689042520627 	
C	  7.038598684129 	 11.762622136825 	  5.558482970627 	
C	  6.470054554129 	 11.762624946825 	 15.689039690627 	
C	 21.719457084129 	  5.579069606825 	  5.586615730627 	
C	 21.150912954129 	  5.579072416825 	 15.717172450627 	
C	 21.719425984129 	 11.762631366825 	  5.586612900627 	
C	 21.150881854129 	 11.762634176825 	 15.717169620627 	
C	  7.305933931902 	  3.599852313491 	  0.385094492473 	
C	  6.737389801902 	  3.599855123491 	 10.515651212473 	
C	  7.305902831902 	  9.783414073491 	  0.385091662473 	
C	  6.737358701902 	  9.783416883491 	 10.515648382473 	
C	 21.986761231902 	  3.599861543491 	  0.413224422473 	
C	 21.418217101902 	  3.599864353491 	 10.543781142473 	
C	 21.986730131902 	  9.783423303491 	  0.413221592473 	
C	 21.418186001902 	  9.783426113491 	 10.543778312473 	
C	  6.977120768792 	  0.589131885400 	  4.713897759436 	
C	  6.408576638792 	  0.589134695400 	 14.844454479436 	
C	  6.977089668792 	  6.772693645400 	  4.713894929436 	
C	  6.408545538792 	  6.772696455400 	 14.844451649436 	
C	 21.657948068792 	  0.589141115400 	  4.742027689436 	
C	 21.089403938792 	  0.589143925400 	 14.872584409436 	
C	 21.657916968792 	  6.772702875400 	  4.742024859436 	
C	 21.089372838792 	  6.772705685400 	 14.872581579436 	
C	  5.657039298476 	  2.346010447708 	  8.956821042086 	
C	  5.088495168476 	  2.346013257708 	 19.087377762086 	
C	  5.657008198476 	  8.529572207708 	  8.956818212086 	
C	  5.088464068476 	  8.529575017708 	 19.087374932086 	
C	 20.337866598476 	  2.346019677708 	  8.984950972086 	
C	 19.769322468476 	  2.346022487708 	 19.115507692086 	
C	 20.337835498476 	  8.529581437708 	  8.984948142086 	
C	 19.769291368476 	  8.529584247708 	 19.115504862086 	
C	  8.067643303190 	  5.409543561502 	  6.428389415878 	
C	  7.499099173190 	  5.409546371502 	 16.558946135878 	
C	  8.067612203190 	 11.593105321502 	  6.428386585878 	
C	  7.499068073190 	 11.593108131502 	 16.558943305878 	
C	 22.748470603190 	  5.409552791502 	  6.456519345878 	
C	 22.179926473190 	  5.409555601502 	 16.587076065878 	
C	 22.748439503190 	 11.593114551502 	  6.456516515878 	
C	 22.179895373190 	 11.593117361502 	 16.587073235878 	
C	  8.358710741628 	  3.822181094159 	  1.315562220086 	
C	  7.790166611628 	  3.822183904159 	 11.446118940086 	
C	  8.358679641628 	 10.005742854159 	  1.315559390086 	
C	  7.790135511628 	 10.005745664159 	 11.446116110086 	
C	 23.039538041628 	  3.822190324159 	  1.343692150086 	
C	 22.470993911628 	  3.822193134159 	 11.474248870086 	
C	 23.039506941628 	 10.005752084159 	  1.343689320086 	
C	 22.470962811628 	 10.005754894159 	 11.474246040086 	
C	  5.948107169467 	  0.758648683508 	  3.843994078001 	
C	  5.379563039467 	  0.758651493508 	 13.974550798001 	
C	  5.948076069467 	  6.942210443508 	  3.843991248001 	
C	  5.379531939467 	  6.942213253508 	 13.974547968001 	
C	 20.628934469467 	  0.758657913508 	  3.872124008001 	
C	 20.060390339467 	  0.758660723508 	 14.002680728001 	
C	 20.628903369467 	  6.942219673508 	  3.872121178001 	
C	 20.060359239467 	  6.942222483508 	 14.002677898001 	
C	  4.764318591204 	  3.387269726722 	  8.986887601046 	
C	  4.195774461204 	  3.387272536722 	 19.117444321046 	
C	  4.764287491204 	  9.570831486722 	  8.986884771046 	
C	  4.195743361204 	  9.570834296722 	 19.117441491046 	
C	 19.445145891204 	  3.387278956722 	  9.015017531046 	
C	 18.876601761204 	  3.387281766722 	 19.145574251046 	
C	 19.445114791204 	  9.570840716722 	  9.015014701046 	
C	 18.876570661204 	  9.570843526722 	 19.145571421046 	
C	  8.995184526948 	  0.321404278163 	  6.400377908150 	
C	  8.426640396948 	  0.321407088163 	 16.530934628150 	
C	  8.995153426948 	  6.504966038163 	  6.400375078150 	
C	  8.426609296948 	  6.504968848163 	 16.530931798150 	
C	 23.676011826948 	  0.321413508163 	  6.428507838150 	
C	 23.107467696948 	  0.321416318163 	 16.559064558150 	
C	 23.675980726948 	  6.504975268163 	  6.428505008150 	
C	 23.107436596948 	  6.504978078163 	 16.559061728150 	
C	  9.251431443616 	  2.780921901688 	  1.285495761807 	
C	  8.682887313616 	  2.780924711688 	 11.416052481807 	
C	  9.251400343616 	  8.964483661688 	  1.285492931807 	
C	  8.682856213616 	  8.964486471688 	 11.416049651807 	
C	 23.932258743616 	  2.780931131688 	  1.313625691807 	
C	 23.363714613616 	  2.780933941688 	 11.444182411807 	
C	 23.932227643616 	  8.964492891688 	  1.313622861807 	
C	 23.363683513616 	  8.964495701688 	 11.444179581807 	
C	  5.020565987687 	  5.846787906886 	  3.872005645688 	
C	  4.452021857687 	  5.846790716886 	 14.002562365688 	
C	  5.020534887687 	 12.030349666886 	  3.872002815688 	
C	  4.451990757687 	 12.030352476886 	 14.002559535688 	
C	 19.701393287687 	  5.846797136886 	  3.900135575688 	
C	 19.132849157687 	  5.846799946886 	 14.030692295688 	
C	 19.701362187687 	 12.030358896886 	  3.900132745688 	
C	 19.132818057687 	 12.030361706886 	 14.030689465688 	
C	  3.687607785722 	  3.435932845822 	  8.258808533411 	
C	  3.119063655722 	  3.435935655822 	 18.389365253411 	
C	  3.687576685722 	  9.619494605822 	  8.258805703411 	
C	  3.119032555722 	  9.619497415822 	 18.389362423411 	
C	 18.368435085722 	  3.435942075822 	  8.286938463411 	
C	 17.799890955722 	  3.435944885822 	 18.417495183411 	
C	 18.368403985722 	  9.619503835822 	  8.286935633411 	
C	 17.799859855722 	  9.619506645822 	 18.417492353411 	
C	 10.039473164174 	  0.378562302892 	  7.098283484608 	
C	  9.470929034174 	  0.378565112892 	 17.228840204608 	
C	 10.039442064174 	  6.562124062892 	  7.098280654608 	
C	  9.470897934174 	  6.562126872892 	 17.228837374608 	
C	 24.720300464174 	  0.378571532892 	  7.126413414608 	
C	 24.151756334174 	  0.378574342892 	 17.256970134608 	
C	 24.720269364174 	  6.562133292892 	  7.126410584608 	
C	 24.151725234174 	  6.562136102892 	 17.256967304608 	
C	 10.328142304233 	  2.732258861535 	  2.013574993015 	
C	  9.759598174233 	  2.732261671535 	 12.144131713015 	
C	 10.328111204233 	  8.915820621535 	  2.013572163015 	
C	  9.759567074233 	  8.915823431535 	 12.144128883015 	
C	 25.008969604233 	  2.732268091535 	  2.041704923015 	
C	 24.440425474233 	  2.732270901535 	 12.172261643015 	
C	 25.008938504233 	  8.915829851535 	  2.041702093015 	
C	 24.440394374233 	  8.915832661535 	 12.172258813015 	
C	  3.976277275578 	  5.789629862876 	  3.174100154299 	
C	  3.407733145578 	  5.789632672876 	 13.304656874299 	
C	  3.976246175578 	 11.973191622876 	  3.174097324299 	
C	  3.407702045578 	 11.973194432876 	 13.304654044299 	
C	 18.657104575578 	  5.789639092876 	  3.202230084299 	
C	 18.088560445578 	  5.789641902876 	 13.332786804299 	
C	 18.657073475578 	 11.973200852876 	  3.202227254299 	
C	 18.088529345578 	 11.973203662876 	 13.332783974299 	
H	  2.990597684537 	  4.349515897480 	  8.340749160392 	
H	  2.422053554537 	  4.349518707480 	 18.471305880392 	
H	  2.990566584537 	 10.533077657480 	  8.340746330392 	
H	  2.422022454537 	 10.533080467480 	 18.471303050392 	
H	 17.671424984537 	  4.349525127480 	  8.368879090392 	
H	 17.102880854537 	  4.349527937480 	 18.499435810392 	
H	 17.671393884537 	 10.533086887480 	  8.368876260392 	
H	 17.102849754537 	 10.533089697480 	 18.499432980392 	
H	 10.753355022529 	  1.263360933971 	  7.047749004804 	
H	 10.184810892529 	  1.263363743971 	 17.178305724804 	
H	 10.753323922529 	  7.446922693971 	  7.047746174804 	
H	 10.184779792529 	  7.446925503971 	 17.178302894804 	
H	 25.434182322529 	  1.263370163971 	  7.075878934804 	
H	 24.865638192529 	  1.263372973971 	 17.206435654804 	
H	 25.434151222529 	  7.446931923971 	  7.075876104804 	
H	 24.865607092529 	  7.446934733971 	 17.206432824804 	
H	 11.025152364129 	  1.818675778765 	  1.931634302448 	
H	 10.456608234129 	  1.818678588765 	 12.062191022448 	
H	 11.025121264129 	  8.002237538765 	  1.931631472448 	
H	 10.456577134129 	  8.002240348765 	 12.062188192448 	
H	 25.705979664129 	  1.818685008765 	  1.959764232448 	
H	 25.137435534129 	  1.818687818765 	 12.090320952448 	
H	 25.705948564129 	  8.002246768765 	  1.959761402448 	
H	 25.137404434129 	  8.002249578765 	 12.090318122448 	
H	  3.262395538050 	  4.904831135972 	  3.224634682293 	
H	  2.693851408050 	  4.904833945972 	 13.355191402293 	
H	  3.262364438050 	 11.088392895972 	  3.224631852293 	
H	  2.693820308050 	 11.088395705972 	 13.355188572293 	
H	 17.943222838050 	  4.904840365972 	  3.252764612293 	
H	 17.374678708050 	  4.904843175972 	 13.383321332293 	
H	 17.943191738050 	 11.088402125972 	  3.252761782293 	
H	 17.374647608050 	 11.088404935972 	 13.383318502293 	
C	  3.368225233676 	  2.461224647152 	  7.425224822278 	
C	  2.799681103676 	  2.461227457152 	 17.555781542278 	
C	  3.368194133676 	  8.644786407152 	  7.425221992278 	
C	  2.799650003676 	  8.644789217152 	 17.555778712278 	
C	 18.049052533676 	  2.461233877152 	  7.453354752278 	
C	 17.480508403676 	  2.461236687152 	 17.583911472278 	
C	 18.049021433676 	  8.644795637152 	  7.453351922278 	
C	 17.480477303676 	  8.644798447152 	 17.583908642278 	
C	 10.387919780247 	  5.515822205560 	  7.989376840145 	
C	  9.819375650247 	  5.515825015560 	 18.119933560145 	
C	 10.387888680247 	 11.699383965560 	  7.989374010145 	
C	  9.819344550247 	 11.699386775560 	 18.119930730145 	
C	 25.068747080247 	  5.515831435560 	  8.017506770145 	
C	 24.500202950247 	  5.515834245560 	 18.148063490145 	
C	 25.068715980247 	 11.699393195560 	  8.017503940145 	
C	 24.500171850247 	 11.699396005560 	 18.148060660145 	
C	 10.647524684716 	  3.706966991371 	  2.847158604480 	
C	 10.078980554716 	  3.706969801371 	 12.977715324480 	
C	 10.647493584716 	  9.890528751371 	  2.847155774480 	
C	 10.078949454716 	  9.890531561371 	 12.977712494480 	
C	 25.328351984716 	  3.706976221371 	  2.875288534480 	
C	 24.759807854716 	  3.706979031371 	 13.005845254480 	
C	 25.328320884716 	  9.890537981371 	  2.875285704480 	
C	 24.759776754716 	  9.890540791371 	 13.005842424480 	
C	  3.627830692632 	  0.652369943416 	  2.283006773150 	
C	  3.059286562632 	  0.652372753416 	 12.413563493150 	
C	  3.627799592632 	  6.835931703416 	  2.283003943150 	
C	  3.059255462632 	  6.835934513416 	 12.413560663150 	
C	 18.308657992632 	  0.652379173416 	  2.311136703150 	
C	 17.740113862632 	  0.652381983416 	 12.441693423150 	
C	 18.308626892632 	  6.835940933416 	  2.311133873150 	
C	 17.740082762632 	  6.835943743416 	 12.441690593150 	
C	  4.256932585872 	  1.433554918361 	  7.356497664863 	
C	  3.688388455872 	  1.433557728361 	 17.487054384863 	
C	  4.256901485872 	  7.617116678361 	  7.356494834863 	
C	  3.688357355872 	  7.617119488361 	 17.487051554863 	
C	 18.937759885872 	  1.433564148361 	  7.384627594863 	
C	 18.369215755872 	  1.433566958361 	 17.515184314863 	
C	 18.937728785872 	  7.617125908361 	  7.384624764863 	
C	 18.369184655872 	  7.617128718361 	 17.515181484863 	
C	  9.487420846942 	  4.520593650352 	  8.028191315595 	
C	  8.918876716942 	  4.520596460352 	 18.158748035595 	
C	  9.487389746942 	 10.704155410352 	  8.028188485595 	
C	  8.918845616942 	 10.704158220352 	 18.158745205595 	
C	 24.168248146942 	  4.520602880352 	  8.056321245595 	
C	 23.599704016942 	  4.520605690352 	 18.186877965595 	
C	 24.168217046942 	 10.704164640352 	  8.056318415595 	
C	 23.599672916942 	 10.704167450352 	 18.186875135595 	
C	  9.758817252866 	  4.734636701144 	  2.915885830000 	
C	  9.190273122866 	  4.734639511144 	 13.046442550000 	
C	  9.758786152866 	 10.918198461144 	  2.915883000000 	
C	  9.190242022866 	 10.918201271144 	 13.046439720000 	
C	 24.439644552866 	  4.734645931144 	  2.944015760000 	
C	 23.871100422866 	  4.734648741144 	 13.074572480000 	
C	 24.439613452866 	 10.918207691144 	  2.944012930000 	
C	 23.871069322866 	 10.918210501144 	 13.074569650000 	
C	  4.528329446876 	  1.647598429673 	  2.244192226260 	
C	  3.959785316876 	  1.647601239673 	 12.374748946260 	
C	  4.528298346876 	  7.831160189673 	  2.244189396260 	
C	  3.959754216876 	  7.831162999673 	 12.374746116260 	
C	 19.209156746876 	  1.647607659673 	  2.272322156260 	
C	 18.640612616876 	  1.647610469673 	 12.402878876260 	
C	 19.209125646876 	  7.831169419673 	  2.272319326260 	
C	 18.640581516876 	  7.831172229673 	 12.402876046260 	
H	  4.025012657506 	  0.582984383242 	  6.619470829254 	
H	  3.456468527506 	  0.582987193242 	 16.750027549254 	
H	  4.024981557506 	  6.766546143242 	  6.619467999254 	
H	  3.456437427506 	  6.766548953242 	 16.750024719254 	
H	 18.705839957506 	  0.582993613242 	  6.647600759254 	
H	 18.137295827506 	  0.582996423242 	 16.778157479254 	
H	 18.705808857506 	  6.766555373242 	  6.647597929254 	
H	 18.137264727506 	  6.766558183242 	 16.778154649254 	
H	  9.717958375528 	  3.668316252887 	  8.765896593757 	
H	  9.149414245528 	  3.668319062887 	 18.896453313757 	
H	  9.717927275528 	  9.851878012887 	  8.765893763757 	
H	  9.149383145528 	  9.851880822887 	 18.896450483757 	
H	 24.398785675528 	  3.668325482887 	  8.794026523757 	
H	 23.830241545528 	  3.668328292887 	 18.924583243757 	
H	 24.398754575528 	  9.851887242887 	  8.794023693757 	
H	 23.830210445528 	  9.851890052887 	 18.924580413757 	
H	  9.990737188413 	  5.585207215970 	  3.652912679670 	
H	  9.422193058413 	  5.585210025970 	 13.783469399670 	
H	  9.990706088413 	 11.768768975970 	  3.652909849670 	
H	  9.422161958413 	 11.768771785970 	 13.783466569670 	
H	 24.671564488413 	  5.585216445970 	  3.681042609670 	
H	 24.103020358413 	  5.585219255970 	 13.811599329670 	
H	 24.671533388413 	 11.768778205970 	  3.681039779670 	
H	 24.102989258413 	 11.768781015970 	 13.811596499670 	
H	  4.297791884646 	  2.499875872896 	  1.506487006813 	
H	  3.729247754646 	  2.499878682896 	 11.637043726813 	
H	  4.297760784646 	  8.683437632896 	  1.506484176813 	
H	  3.729216654646 	  8.683440442896 	 11.637040896813 	
H	 18.978619184646 	  2.499885102896 	  1.534616936813 	
H	 18.410075054646 	  2.499887912896 	 11.665173656813 	
H	 18.978588084646 	  8.683446862896 	  1.534614106813 	
H	 18.410043954646 	  8.683449672896 	 11.665170826813 	
C	  5.312449957849 	  1.372660486701 	  8.053122609850 	
C	  4.743905827849 	  1.372663296701 	 18.183679329850 	
C	  5.312418857849 	  7.556222246701 	  8.053119779850 	
C	  4.743874727849 	  7.556225056701 	 18.183676499850 	
C	 19.993277257849 	  1.372669716701 	  8.081252539850 	
C	 19.424733127849 	  1.372672526701 	 18.211809259850 	
C	 19.993246157849 	  7.556231476701 	  8.081249709850 	
C	 19.424702027849 	  7.556234286701 	 18.211806429850 	
C	  8.431114111796 	  4.459061224819 	  7.330848890197 	
C	  7.862569981796 	  4.459064034819 	 17.461405610197 	
C	  8.431083011796 	 10.642622984819 	  7.330846060197 	
C	  7.862538881796 	 10.642625794819 	 17.461402780197 	
C	 23.111941411796 	  4.459070454819 	  7.358978820197 	
C	 22.543397281796 	  4.459073264819 	 17.489535540197 	
C	 23.111910311796 	 10.642632214819 	  7.358975990197 	
C	 22.543366181796 	 10.642635024819 	 17.489532710197 	
C	  8.703299979181 	  4.795531096206 	  2.219260732241 	
C	  8.134755849181 	  4.795533906206 	 12.349817452241 	
C	  8.703268879181 	 10.979092856206 	  2.219257902241 	
C	  8.134724749181 	 10.979095666206 	 12.349814622241 	
C	 23.384127279181 	  4.795540326206 	  2.247390662241 	
C	 22.815583149181 	  4.795543136206 	 12.377947382241 	
C	 23.384096179181 	 10.979102086206 	  2.247387832241 	
C	 22.815552049181 	 10.979104896206 	 12.377944552241 	
C	  5.584636335752 	  1.709130967041 	  2.941534683433 	
C	  5.016092205752 	  1.709133777041 	 13.072091403433 	
C	  5.584605235752 	  7.892692727041 	  2.941531853433 	
C	  5.016061105752 	  7.892695537041 	 13.072088573433 	
C	 20.265463635752 	  1.709140197041 	  2.969664613433 	
C	 19.696919505752 	  1.709143007041 	 13.100221333433 	
C	 20.265432535752 	  7.892701957041 	  2.969661783433 	
C	 19.696888405752 	  7.892704767041 	 13.100218503433 	
H	  6.029601852155 	  0.479478503885 	  7.959791864084 	
H	  5.461057722155 	  0.479481313885 	 18.090348584084 	
H	  6.029570752155 	  6.663040263885 	  7.959789034084 	
H	  5.461026622155 	  6.663043073885 	 18.090345754084 	
H	 20.710429152155 	  0.479487733885 	  7.987921794084 	
H	 20.141885022155 	  0.479490543885 	 18.118478514084 	
H	 20.710398052155 	  6.663049493885 	  7.987918964084 	
H	 20.141853922155 	  6.663052303885 	 18.118475684084 	
H	  7.713588264833 	  3.564227547280 	  7.425731043500 	
H	  7.145044134833 	  3.564230357280 	 17.556287763500 	
H	  7.713557164833 	  9.747789307280 	  7.425728213500 	
H	  7.145013034833 	  9.747792117280 	 17.556284933500 	
H	 22.394415564833 	  3.564236777280 	  7.453860973500 	
H	 21.825871434833 	  3.564239587280 	 17.584417693500 	
H	 22.394384464833 	  9.747798537280 	  7.453858143500 	
H	 21.825840334833 	  9.747801347280 	 17.584414863500 	
H	  7.986147996614 	  5.688712993873 	  2.312591489866 	
H	  7.417603866614 	  5.688715803873 	 12.443148209866 	
H	  7.986116896614 	 11.872274753873 	  2.312588659866 	
H	  7.417572766614 	 11.872277563873 	 12.443145379866 	
H	 22.666975296614 	  5.688722223873 	  2.340721419866 	
H	 22.098431166614 	  5.688725033873 	 12.471278139866 	
H	 22.666944196614 	 11.872283983873 	  2.340718589866 	
H	 22.098400066614 	 11.872286793873 	 12.471275309866 	
H	  6.302162128464 	  2.603964673331 	  2.846652473780 	
H	  5.733617998464 	  2.603967483331 	 12.977209193780 	
H	  6.302131028464 	  8.787526433331 	  2.846649643780 	
H	  5.733586898464 	  8.787529243331 	 12.977206363780 	
H	 20.982989428464 	  2.603973903331 	  2.874782403780 	
H	 20.414445298464 	  2.603976713331 	 13.005339123780 	
H	 20.982958328464 	  8.787535663331 	  2.874779573780 	
H	 20.414414198464 	  8.787538473331 	 13.005336293780 	
C	  1.957938712065 	  2.502671230354 	  6.487527017863 	
C	  1.389394582065 	  2.502674040354 	 16.618083737863 	
C	  1.957907612065 	  8.686232990354 	  6.487524187863 	
C	  1.389363482065 	  8.686235800354 	 16.618080907863 	
C	 16.638766012065 	  2.502680460354 	  6.515656947863 	
C	 16.070221882065 	  2.502683270354 	 16.646213667863 	
C	 16.638734912065 	  8.686242220354 	  6.515654117863 	
C	 16.070190782065 	  8.686245030354 	 16.646210837863 	
C	 11.748448162494 	  5.539313383198 	  8.858989758317 	
C	 11.179904032494 	  5.539316193198 	 18.989546478317 	
C	 11.748417062494 	 11.722875143198 	  8.858986928317 	
C	 11.179872932494 	 11.722877953198 	 18.989543648317 	
C	 26.429275462494 	  5.539322613198 	  8.887119688317 	
C	 25.860731332494 	  5.539325423198 	 19.017676408317 	
C	 26.429244362494 	 11.722884373198 	  8.887116858317 	
C	 25.860700232494 	 11.722887183198 	 19.017673578317 	
C	 12.057811074179 	  3.665520627418 	  3.784856458388 	
C	 11.489266944179 	  3.665523437418 	 13.915413178388 	
C	 12.057779974179 	  9.849082387418 	  3.784853628388 	
C	 11.489235844179 	  9.849085197418 	 13.915410348388 	
C	 26.738638374179 	  3.665529857418 	  3.812986388388 	
C	 26.170094244179 	  3.665532667418 	 13.943543108388 	
C	 26.738607274179 	  9.849091617418 	  3.812983558388 	
C	 26.170063144179 	  9.849094427418 	 13.943540278388 	
C	  2.267302301210 	  0.628878610138 	  1.413393851148 	
C	  1.698758171210 	  0.628881420138 	 11.543950571148 	
C	  2.267271201210 	  6.812440370138 	  1.413391021148 	
C	  1.698727071210 	  6.812443180138 	 11.543947741148 	
C	 16.948129601210 	  0.628887840138 	  1.441523781148 	
C	 16.379585471210 	  0.628890650138 	 11.572080501148 	
C	 16.948098501210 	  6.812449600138 	  1.441520951148 	
C	 16.379554371210 	  6.812452410138 	 11.572077671148 	
C	  2.217888641982 	  2.957918110612 	  5.398171290521 	
C	  1.649344511982 	  2.957920920612 	 15.528728010521 	
C	  2.217857541982 	  9.141479870612 	  5.398168460521 	
C	  1.649313411982 	  9.141482680612 	 15.528725180521 	
C	 16.898715941982 	  2.957927340612 	  5.426301220521 	
C	 16.330171811982 	  2.957930150612 	 15.556857940521 	
C	 16.898684841982 	  9.141489100612 	  5.426298390521 	
C	 16.330140711982 	  9.141491910612 	 15.556855110521 	
C	 11.518589256942 	 -0.114641517412 	  9.921611133694 	
C	 10.950045126942 	 -0.114638707412 	 20.052167853694 	
C	 11.518558156942 	  6.068920242588 	  9.921608303694 	
C	 10.950014026942 	  6.068923052588 	 20.052165023694 	
C	 26.199416556942 	 -0.114632287412 	  9.949741063694 	
C	 25.630872426942 	 -0.114629477412 	 20.080297783694 	
C	 26.199385456942 	  6.068929472588 	  9.949738233694 	
C	 25.630841326942 	  6.068932282588 	 20.080294953694 	
C	 11.797860655957 	  3.210273743235 	  4.874212860277 	
C	 11.229316525957 	  3.210276553235 	 15.004769580277 	
C	 11.797829555957 	  9.393835503235 	  4.874210030277 	
C	 11.229285425957 	  9.393838313235 	 15.004766750277 	
C	 26.478687955957 	  3.210282973235 	  4.902342790277 	
C	 25.910143825957 	  3.210285783235 	 15.032899510277 	
C	 26.478656855957 	  9.393844733235 	  4.902339960277 	
C	 25.910112725957 	  9.393847543235 	 15.032896680277 	
C	  2.497161190284 	  6.282833795186 	  0.350772451238 	
C	  1.928617060284 	  6.282836605186 	 10.481329171238 	
C	  2.497130090284 	 12.466395555186 	  0.350769621238 	
C	  1.928585960284 	 12.466398365186 	 10.481326341238 	
C	 17.177988490284 	  6.282843025186 	  0.378902381238 	
C	 16.609444360284 	  6.282845835186 	 10.509459101238 	
C	 17.177957390284 	 12.466404785186 	  0.378899551238 	
C	 16.609413260284 	 12.466407595186 	 10.509456271238 	
H	  2.720570688432 	  3.975494601051 	  5.331228641570 	
H	  2.152026558432 	  3.975497411051 	 15.461785361570 	
H	  2.720539588432 	 10.159056361051 	  5.331225811570 	
H	  2.151995458432 	 10.159059171051 	 15.461782531570 	
H	 17.401397988432 	  3.975503831051 	  5.359358571570 	
H	 16.832853858432 	  3.975506641051 	 15.489915291570 	
H	 17.401366888432 	 10.159065591051 	  5.359355741570 	
H	 16.832822758432 	 10.159068401051 	 15.489912461570 	
H	 11.012375181107 	  0.870468928887 	 10.061820364172 	
H	 10.443831051107 	  0.870471738887 	 20.192377084172 	
H	 11.012344081107 	  7.054030688887 	 10.061817534172 	
H	 10.443799951107 	  7.054033498887 	 20.192374254172 	
H	 25.693202481107 	  0.870478158887 	 10.089950294172 	
H	 25.124658351107 	  0.870480968887 	 20.220507014172 	
H	 25.693171381107 	  7.054039918887 	 10.089947464172 	
H	 25.124627251107 	  7.054042728887 	 20.220504184172 	
H	 11.295179044744 	  2.192696990028 	  4.941155494277 	
H	 10.726634914744 	  2.192699800028 	 15.071712214277 	
H	 11.295147944744 	  8.376258750028 	  4.941152664277 	
H	 10.726603814744 	  8.376261560028 	 15.071709384277 	
H	 25.976006344744 	  2.192706220028 	  4.969285424277 	
H	 25.407462214744 	  2.192709030028 	 15.099842144277 	
H	 25.975975244744 	  8.376267980028 	  4.969282594277 	
H	 25.407431114744 	  8.376270790028 	 15.099839314277 	
H	  3.003375303379 	  5.297723397892 	  0.210562943919 	
H	  2.434831173379 	  5.297726207892 	 10.341119663919 	
H	  3.003344203379 	 11.481285157892 	  0.210560113919 	
H	  2.434800073379 	 11.481287967892 	 10.341116833919 	
H	 17.684202603379 	  5.297732627892 	  0.238692873919 	
H	 17.115658473379 	  5.297735437892 	 10.369249593919 	
H	 17.684171503379 	 11.481294387892 	  0.238690043919 	
H	 17.115627373379 	 11.481297197892 	 10.369246763919 	
H	  1.417342761514 	  3.095919926880 	  4.608258041053 	
H	  0.848798631514 	  3.095922736880 	 14.738814761053 	
H	  1.417311661514 	  9.279481686880 	  4.608255211053 	
H	  0.848767531514 	  9.279484496880 	 14.738811931053 	
H	 16.098170061514 	  3.095929156880 	  4.636387971053 	
H	 15.529625931514 	  3.095931966880 	 14.766944691053 	
H	 16.098138961514 	  9.279490916880 	  4.636385141053 	
H	 15.529594831514 	  9.279493726880 	 14.766941861053 	
H	 12.950810534821 	  0.026386147576 	  0.619524818592 	
H	 12.382266404821 	  0.026388957576 	 10.750081538592 	
H	 12.950779434821 	  6.209947907576 	  0.619521988592 	
H	 12.382235304821 	  6.209950717576 	 10.750078708592 	
H	 27.631637834821 	  0.026395377576 	  0.647654748592 	
H	 27.063093704821 	  0.026398187576 	 10.778211468592 	
H	 27.631606734821 	  6.209957137576 	  0.647651918592 	
H	 27.063062604821 	  6.209959947576 	 10.778208638592 	
H	 12.598406682836 	  3.072272428055 	  5.664126058353 	
H	 12.029862552836 	  3.072275238055 	 15.794682778353 	
H	 12.598375582836 	  9.255834188055 	  5.664123228353 	
H	 12.029831452836 	  9.255836998055 	 15.794679948353 	
H	 27.279233982836 	  3.072281658055 	  5.692255988353 	
H	 26.710689852836 	  3.072284468055 	 15.822812708353 	
H	 27.279202882836 	  9.255843418055 	  5.692253158353 	
H	 26.710658752836 	  9.255846228055 	 15.822809878353 	
H	  1.064939981945 	  6.141806155214 	  9.652858674277 	
H	  0.496395851945 	  6.141808965214 	 19.783415394277 	
H	  1.064908881945 	 12.325367915214 	  9.652855844277 	
H	  0.496364751945 	 12.325370725214 	 19.783412564277 	
H	 15.745767281945 	  6.141815385214 	  9.680988604277 	
H	 15.177223151945 	  6.141818195214 	 19.811545324277 	
H	 15.745736181945 	 12.325377145214 	  9.680985774277 	
H	 15.177192051945 	 12.325379955214 	 19.811542494277 	
H	  3.005686295018 	  2.453277191498 	  4.751949630631 	
H	  2.437142165018 	  2.453280001498 	 14.882506350631 	
H	  3.005655195018 	  8.636838951498 	  4.751946800631 	
H	  2.437111065018 	  8.636841761498 	 14.882503520631 	
H	 17.686513595018 	  2.453286421498 	  4.780079560631 	
H	 17.117969465018 	  2.453289231498 	 14.910636280631 	
H	 17.686482495018 	  8.636848181498 	  4.780076730631 	
H	 17.117938365018 	  8.636850991498 	 14.910633450631 	
H	 11.212405107005 	  5.539871253190 	  0.453430126793 	
H	 10.643860977005 	  5.539874063190 	 10.583986846793 	
H	 11.212374007005 	 11.723433013190 	  0.453427296793 	
H	 10.643829877005 	 11.723435823190 	 10.583984016793 	
H	 25.893232407005 	  5.539880483190 	  0.481560056793 	
H	 25.324688277005 	  5.539883293190 	 10.612116776793 	
H	 25.893201307005 	 11.723442243190 	  0.481557226793 	
H	 25.324657177005 	 11.723445053190 	 10.612113946793 	
H	 11.010062885168 	  3.714915005385 	  5.520434175990 	
H	 10.441518755168 	  3.714917815385 	 15.650990895990 	
H	 11.010031785168 	  9.898476765385 	  5.520431345990 	
H	 10.441487655168 	  9.898479575385 	 15.650988065990 	
H	 25.690890185168 	  3.714924235385 	  5.548564105990 	
H	 25.122346055168 	  3.714927045385 	 15.679120825990 	
H	 25.690859085168 	  9.898485995385 	  5.548561275990 	
H	 25.122314955168 	  9.898488805385 	 15.679117995990 	
H	  2.803345412419 	  0.628321146875 	  9.818953570915 	
H	  2.234801282419 	  0.628323956875 	 19.949510290915 	
H	  2.803314312419 	  6.811882906875 	  9.818950740915 	
H	  2.234770182419 	  6.811885716875 	 19.949507460915 	
H	 17.484172712419 	  0.628330376875 	  9.847083500915 	
H	 16.915628582419 	  0.628333186875 	 19.977640220915 	
H	 17.484141612419 	  6.811892136875 	  9.847080670915 	
H	 16.915597482419 	  6.811894946875 	 19.977637390915 	
C	  1.136458491951 	  3.197867334451 	  7.025894301155 	
C	  0.567914361951 	  3.197870144451 	 17.156451021155 	
C	  1.136427391951 	  9.381429094451 	  7.025891471155 	
C	  0.567883261951 	  9.381431904451 	 17.156448191155 	
C	 15.817285791951 	  3.197876564451 	  7.054024231155 	
C	 15.248741661951 	  3.197879374451 	 17.184580951155 	
C	 15.817254691951 	  9.381438324451 	  7.054021401155 	
C	 15.248710561951 	  9.381441134451 	 17.184578121155 	
C	 12.672273173695 	  0.146232074914 	  8.363326359470 	
C	 12.103729043695 	  0.146234884914 	 18.493883079470 	
C	 12.672242073695 	  6.329793834914 	  8.363323529470 	
C	 12.103697943695 	  6.329796644914 	 18.493880249470 	
C	 27.353100473695 	  0.146241304914 	  8.391456289470 	
C	 26.784556343695 	  0.146244114914 	 18.522013009470 	
C	 27.353069373695 	  6.329803064914 	  8.391453459470 	
C	 26.784525243695 	  6.329805874914 	 18.522010179470 	
C	 12.879291669784 	  2.970324041046 	  3.246489102885 	
C	 12.310747539784 	  2.970326851046 	 13.377045822885 	
C	 12.879260569784 	  9.153885801046 	  3.246486272885 	
C	 12.310716439784 	  9.153888611046 	 13.377042992885 	
C	 27.560118969784 	  2.970333271046 	  3.274619032885 	
C	 26.991574839784 	  2.970336081046 	 13.405175752885 	
C	 27.560087869784 	  9.153895031046 	  3.274616202885 	
C	 26.991543739784 	  9.153897841046 	 13.405172922885 	
C	  1.343477275821 	  6.021959699449 	  1.909057124747 	
C	  0.774933145821 	  6.021962509449 	 12.039613844747 	
C	  1.343446175821 	 12.205521459449 	  1.909054294747 	
C	  0.774902045821 	 12.205524269449 	 12.039611014747 	
C	 16.024304575821 	  6.021968929449 	  1.937187054747 	
C	 15.455760445821 	  6.021971739449 	 12.067743774747 	
C	 16.024273475821 	 12.205530689449 	  1.937184224747 	
C	 15.455729345821 	 12.205533499449 	 12.067740944747 	
H	  1.348461749779 	  4.296575180800 	  7.242479366025 	
H	  0.779917619779 	  4.296577990800 	 17.373036086025 	
H	  1.348430649779 	 10.480136940800 	  7.242476536025 	
H	  0.779886519779 	 10.480139750800 	 17.373033256025 	
H	 16.029289049779 	  4.296584410800 	  7.270609296025 	
H	 15.460744919779 	  4.296587220800 	 17.401166016025 	
H	 16.029257949779 	 10.480146170800 	  7.270606466025 	
H	 15.460713819779 	 10.480148980800 	 17.401163186025 	
H	 12.407331283293 	  1.202133080755 	  8.133778423049 	
H	 11.838787153293 	  1.202135890755 	 18.264335143049 	
H	 12.407300183293 	  7.385694840755 	  8.133775593049 	
H	 11.838756053293 	  7.385697650755 	 18.264332313049 	
H	 27.088158583293 	  1.202142310755 	  8.161908353049 	
H	 26.519614453293 	  1.202145120755 	 18.292465073049 	
H	 27.088127483293 	  7.385704070755 	  8.161905523049 	
H	 26.519583353293 	  7.385706880755 	 18.292462243049 	
H	 12.667288323629 	  1.871616148193 	  3.029904315848 	
H	 12.098744193629 	  1.871618958193 	 13.160461035848 	
H	 12.667257223629 	  8.055177908193 	  3.029901485848 	
H	 12.098713093629 	  8.055180718193 	 13.160458205848 	
H	 27.348115623629 	  1.871625378193 	  3.058034245848 	
H	 26.779571493629 	  1.871628188193 	 13.188590965848 	
H	 27.348084523629 	  8.055187138193 	  3.058031415848 	
H	 26.779540393629 	  8.055189948193 	 13.188588135848 	
H	  1.608419325694 	  4.966058658368 	  2.138604696604 	
H	  1.039875195694 	  4.966061468368 	 12.269161416604 	
H	  1.608388225694 	 11.149620418368 	  2.138601866604 	
H	  1.039844095694 	 11.149623228368 	 12.269158586604 	
H	 16.289246625694 	  4.966067888368 	  2.166734626604 	
H	 15.720702495694 	  4.966070698368 	 12.297291346604 	
H	 16.289215525694 	 11.149629648368 	  2.166731796604 	
H	 15.720671395694 	 11.149632458368 	 12.297288516604 	
H	  0.808756848974 	  2.986379125673 	  8.094580255577 	
H	  0.240212718974 	  2.986381935673 	 18.225136975577 	
H	  0.808725748974 	  9.169940885673 	  8.094577425577 	
H	  0.240181618974 	  9.169943695673 	 18.225134145577 	
H	 15.489584148974 	  2.986388355673 	  8.122710185577 	
H	 14.921040018974 	  2.986391165673 	 18.253266905577 	
H	 15.489553048974 	  9.169950115673 	  8.122707355577 	
H	 14.921008918974 	  9.169952925673 	 18.253264075577 	
H	 12.929591805962 	  6.077275923063 	  7.293231319913 	
H	 12.361047675962 	  6.077278733063 	 17.423788039913 	
H	 12.929560705962 	 12.260837683063 	  7.293228489913 	
H	 12.361016575962 	 12.260840493063 	 17.423785209913 	
H	 27.610419105962 	  6.077285153063 	  7.321361249913 	
H	 27.041874975962 	  6.077287963063 	 17.451917969913 	
H	 27.610388005962 	 12.260846913063 	  7.321358419913 	
H	 27.041843875962 	 12.260849723063 	 17.451915139913 	
H	 13.206993718181 	  3.181812396627 	  2.177803306830 	
H	 12.638449588181 	  3.181815206627 	 12.308360026830 	
H	 13.206962618181 	  9.365374156627 	  2.177800476830 	
H	 12.638418488181 	  9.365376966627 	 12.308357196830 	
H	 27.887821018181 	  3.181821626627 	  2.205933236830 	
H	 27.319276888181 	  3.181824436627 	 12.336489956830 	
H	 27.887789918181 	  9.365383386627 	  2.205930406830 	
H	 27.319245788181 	  9.365386196627 	 12.336487126830 	
H	  1.086158703995 	  0.090915597986 	  2.979152161023 	
H	  0.517614573995 	  0.090918407986 	 13.109708881023 	
H	  1.086127603995 	  6.274477357986 	  2.979149331023 	
H	  0.517583473995 	  6.274480167986 	 13.109706051023 	
H	 15.766986003995 	  0.090924827986 	  3.007282091023 	
H	 15.198441873995 	  0.090927637986 	 13.137838811023 	
H	 15.766954903995 	  6.274486587986 	  3.007279261023 	
H	 15.198410773995 	  6.274489397986 	 13.137835981023 	
H	  0.130143607114 	  3.292279992076 	  6.515809102328 	
H	 -0.438400522886 	  3.292282802076 	 16.646365822328 	
H	  0.130112507114 	  9.475841752076 	  6.515806272328 	
H	 -0.438431622886 	  9.475844562076 	 16.646362992328 	
H	 14.810970907114 	  3.292289222076 	  6.543939032328 	
H	 14.242426777114 	  3.292292032076 	 16.674495752328 	
H	 14.810939807114 	  9.475850982076 	  6.543936202328 	
H	 14.242395677114 	  9.475853792076 	 16.674492922328 	
H	 13.583088293399 	  6.365567052101 	  8.852714006928 	
H	 13.014544163399 	  6.365569862101 	 18.983270726928 	
H	 13.583057193399 	 12.549128812101 	  8.852711176928 	
H	 13.014513063399 	 12.549131622101 	 18.983267896928 	
H	 28.263915593399 	  6.365576282101 	  8.880843936928 	
H	 27.695371463399 	  6.365579092101 	 19.011400656928 	
H	 28.263884493399 	 12.549138042101 	  8.880841106928 	
H	 27.695340363399 	 12.549140852101 	 19.011397826928 	
H	 13.885606345745 	  2.875911549481 	  3.756574753790 	
H	 13.317062215745 	  2.875914359481 	 13.887131473790 	
H	 13.885575245745 	  9.059473309481 	  3.756571923790 	
H	 13.317031115745 	  9.059476119481 	 13.887128643790 	
H	 28.566433645745 	  2.875920779481 	  3.784704683790 	
H	 27.997889515745 	  2.875923589481 	 13.915261403790 	
H	 28.566402545745 	  9.059482539481 	  3.784701853790 	
H	 27.997858415745 	  9.059485349481 	 13.915258573790 	
H	  0.432662162162 	 -0.197375359570 	  1.419669485840 	
H	 -0.135881967838 	 -0.197372549570 	 11.550226205840 	
H	  0.432631062162 	  5.986186400430 	  1.419666655840 	
H	 -0.135913067838 	  5.986189210430 	 11.550223375840 	
H	 15.113489462162 	 -0.197366129570 	  1.447799415840 	
H	 14.544945332162 	 -0.197363319570 	 11.578356135840 	
H	 15.113458362162 	  5.986195630430 	  1.447796585840 	
H	 14.544914232162 	  5.986198440430 	 11.578353305840 	
C	  1.504921485851 	  1.398381658502 	  6.359525822286 	
C	  0.936377355851 	  1.398384468502 	 16.490082542286 	
C	  1.504890385851 	  7.581943418502 	  6.359522992286 	
C	  0.936346255851 	  7.581946228502 	 16.490079712286 	
C	 16.185748785851 	  1.398390888502 	  6.387655752286 	
C	 15.617204655851 	  1.398393698502 	 16.518212472286 	
C	 16.185717685851 	  7.581952648502 	  6.387652922286 	
C	 15.617173555851 	  7.581955458502 	 16.518209642286 	
C	 12.236401104525 	  4.493171131163 	  9.027693573338 	
C	 11.667856974525 	  4.493173941163 	 19.158250293338 	
C	 12.236370004525 	 10.676732891163 	  9.027690743338 	
C	 11.667825874525 	 10.676735701163 	 19.158247463338 	
C	 26.917228404525 	  4.493180361163 	  9.055823503338 	
C	 26.348684274525 	  4.493183171163 	 19.186380223338 	
C	 26.917197304525 	 10.676742121163 	  9.055820673338 	
C	 26.348653174525 	 10.676744931163 	 19.186377393338 	
C	 12.510828386014 	  4.769811041491 	  3.912857364534 	
C	 11.942284256014 	  4.769813851491 	 14.043414084534 	
C	 12.510797286014 	 10.953372801491 	  3.912854534534 	
C	 11.942253156014 	 10.953375611491 	 14.043411254534 	
C	 27.191655686014 	  4.769820271491 	  3.940987294534 	
C	 26.623111556014 	  4.769823081491 	 14.071544014534 	
C	 27.191624586014 	 10.953382031491 	  3.940984464534 	
C	 26.623080456014 	 10.953384841491 	 14.071541184534 	
C	  1.779349134412 	  1.675020796817 	  1.244690261558 	
C	  1.210805004412 	  1.675023606817 	 11.375246981558 	
C	  1.779318034412 	  7.858582556817 	  1.244687431558 	
C	  1.210773904412 	  7.858585366817 	 11.375244151558 	
C	 16.460176434412 	  1.675030026817 	  1.272820191558 	
C	 15.891632304412 	  1.675032836817 	 11.403376911558 	
C	 16.460145334412 	  7.858591786817 	  1.272817361558 	
C	 15.891601204412 	  7.858594596817 	 11.403374081558 	
H	  0.514033335713 	  1.254995817512 	  5.832877161803 	
H	 -0.054510794287 	  1.254998627512 	 15.963433881803 	
H	  0.514002235713 	  7.438557577512 	  5.832874331803 	
H	 -0.054541894287 	  7.438560387512 	 15.963431051803 	
H	 15.194860635713 	  1.255005047512 	  5.861007091803 	
H	 14.626316505713 	  1.255007857512 	 15.991563811803 	
H	 15.194829535713 	  7.438566807512 	  5.861004261803 	
H	 14.626285405713 	  7.438569617512 	 15.991560981803 	
H	 13.226424105386 	  4.342621696362 	  9.553303745022 	
H	 12.657879975386 	  4.342624506362 	 19.683860465022 	
H	 13.226393005386 	 10.526183456362 	  9.553300915022 	
H	 12.657848875386 	 10.526186266362 	 19.683857635022 	
H	 27.907251405386 	  4.342630926362 	  9.581433675022 	
H	 27.338707275386 	  4.342633736362 	 19.711990395022 	
H	 27.907220305386 	 10.526192686362 	  9.581430845022 	
H	 27.338676175386 	 10.526195496362 	 19.711987565022 	
H	 13.501716531444 	  4.913196549034 	  4.439506161377 	
H	 12.933172401444 	  4.913199359034 	 14.570062881377 	
H	 13.501685431444 	 11.096758309034 	  4.439503331377 	
H	 12.933141301444 	 11.096761119034 	 14.570060051377 	
H	 28.182543831444 	  4.913205779034 	  4.467636091377 	
H	 27.613999701444 	  4.913208589034 	 14.598192811377 	
H	 28.182512731444 	 11.096767539034 	  4.467633261377 	
H	 27.613968601444 	 11.096770349034 	 14.598189981377 	
H	  0.789326113092 	  1.825570185436 	  0.719080117289 	
H	  0.220781983092 	  1.825572995436 	 10.849636837289 	
H	  0.789295013092 	  8.009131945436 	  0.719077287289 	
H	  0.220750883092 	  8.009134755436 	 10.849634007289 	
H	 15.470153413092 	  1.825579415436 	  0.747210047289 	
H	 14.901609283092 	  1.825582225436 	 10.877766767289 	
H	 15.470122313092 	  8.009141175436 	  0.747207217289 	
H	 14.901578183092 	  8.009143985436 	 10.877763937289 	
H	  1.328720538415 	  0.748496693061 	  7.278635455102 	
H	  0.760176408415 	  0.748499503061 	 17.409192175102 	
H	  1.328689438415 	  6.932058453061 	  7.278632625102 	
H	  0.760145308415 	  6.932061263061 	 17.409189345102 	
H	 16.009547838415 	  0.748505923061 	  7.306765385102 	
H	 15.441003708415 	  0.748508733061 	 17.437322105102 	
H	 16.009516738415 	  6.932067683061 	  7.306762555102 	
H	 15.440972608415 	  6.932070493061 	 17.437319275102 	
H	 12.413744192641 	  3.836684300525 	  8.109025107180 	
H	 11.845200062641 	  3.836687110525 	 18.239581827180 	
H	 12.413713092641 	 10.020246060525 	  8.109022277180 	
H	 11.845168962641 	 10.020248870525 	 18.239578997180 	
H	 27.094571492641 	  3.836693530525 	  8.137155037180 	
H	 26.526027362641 	  3.836696340525 	 18.267711757180 	
H	 27.094540392641 	 10.020255290525 	  8.137152207180 	
H	 26.525996262641 	 10.020258100525 	 18.267708927180 	
H	 12.687029487522 	  5.419695541470 	  2.993747405363 	
H	 12.118485357522 	  5.419698351470 	 13.124304125363 	
H	 12.686998387522 	 11.603257301470 	  2.993744575363 	
H	 12.118454257522 	 11.603260111470 	 13.124301295363 	
H	 27.367856787522 	  5.419704771470 	  3.021877335363 	
H	 26.799312657522 	  5.419707581470 	 13.152434055363 	
H	 27.367825687522 	 11.603266531470 	  3.021874505363 	
H	 26.799281557522 	 11.603269341470 	 13.152431225363 	
H	  1.602005962584 	  2.331507436476 	  2.163358840141 	
H	  1.033461832584 	  2.331510246476 	 12.293915560141 	
H	  1.601974862584 	  8.515069196476 	  2.163356010141 	
H	  1.033430732584 	  8.515072006476 	 12.293912730141 	
H	 16.282833262584 	  2.331516666476 	  2.191488770141 	
H	 15.714289132584 	  2.331519476476 	 12.322045490141 	
H	 16.282802162584 	  8.515078426476 	  2.191485940141 	
H	 15.714258032584 	  8.515081236476 	 12.322042660141 	
H	  2.099032629225 	  0.593920974763 	  5.818395387725 	
H	  1.530488499225 	  0.593923784763 	 15.948952107725 	
H	  2.099001529225 	  6.777482734763 	  5.818392557725 	
H	  1.530457399225 	  6.777485544763 	 15.948949277725 	
H	 16.779859929225 	  0.593930204763 	  5.846525317725 	
H	 16.211315799225 	  0.593933014763 	 15.977082037725 	
H	 16.779828829225 	  6.777491964763 	  5.846522487725 	
H	 16.211284699225 	  6.777494774763 	 15.977079207725 	
H	 11.644506746003 	  3.682715004172 	  9.567434553209 	
H	 11.075962616003 	  3.682717814172 	 19.697991273209 	
H	 11.644475646003 	  9.866276764172 	  9.567431723209 	
H	 11.075931516003 	  9.866279574172 	 19.697988443209 	
H	 26.325334046003 	  3.682724234172 	  9.595564483209 	
H	 25.756789916003 	  3.682727044172 	 19.726121203209 	
H	 26.325302946003 	  9.866285994172 	  9.595561653209 	
H	 25.756758816003 	  9.866288804172 	 19.726118373209 	
H	 11.916717067073 	  5.574271540861 	  4.453988006321 	
H	 11.348172937073 	  5.574274350861 	 14.584544726321 	
H	 11.916685967073 	 11.757833300861 	  4.453985176321 	
H	 11.348141837073 	 11.757836110861 	 14.584541896321 	
H	 26.597544367073 	  5.574280770861 	  4.482117936321 	
H	 26.029000237073 	  5.574283580861 	 14.612674656321 	
H	 26.597513267073 	 11.757842530861 	  4.482115106321 	
H	 26.028969137073 	 11.757845340861 	 14.612671826321 	
H	  2.371243457170 	  2.485477160132 	  0.704949606592 	
H	  1.802699327170 	  2.485479970132 	 10.835506326592 	
H	  2.371212357170 	  8.669038920132 	  0.704946776592 	
H	  1.802668227170 	  8.669041730132 	 10.835503496592 	
H	 17.052070757170 	  2.485486390132 	  0.733079536592 	
H	 16.483526627170 	  2.485489200132 	 10.863636256592 	
H	 17.052039657170 	  8.669048150132 	  0.733076706592 	
H	 16.483495527170 	  8.669050960132 	 10.863633426592 	
768 
Energy: -1.0016453157050000e+02 
S	  8.631692818117 	  1.531483647907 	  0.071112196414 	
S	  8.063148688117 	  1.531486457907 	 10.201668916414 	
S	  8.631661718117 	  7.715045407907 	  0.071109366414 	
S	  8.063117588117 	  7.715048217907 	 10.201666086414 	
S	 23.312520118117 	  1.531492877907 	  0.099242126414 	
S	 22.743975988117 	  1.531495687907 	 10.229798846414 	
S	 23.312489018117 	  7.715054637907 	  0.099239296414 	
S	 22.743944888117 	  7.715057447907 	 10.229796016414 	
S	  5.591755621979 	  4.610242076374 	  5.126592917330 	
S	  5.023211491979 	  4.610244886374 	 15.257149637330 	
S	  5.591724521979 	 10.793803836374 	  5.126590087330 	
S	  5.023180391979 	 10.793806646374 	 15.257146807330 	
S	 20.272582921979 	  4.610251306374 	  5.154722847330 	
S	 19.704038791979 	  4.610254116374 	 15.285279567330 	
S	 20.272551821979 	 10.793813066374 	  5.154720017330 	
S	 19.704007691979 	 10.793815876374 	 15.285276737330 	
S	  5.327604022035 	  4.627709562522 	 10.267785250960 	
S	  4.759059892035 	  4.627712372522 	 20.398341970959 	
S	  5.327572922035 	 10.811271322522 	 10.267782420960 	
S	  4.759028792035 	 10.811274132522 	 20.398339140960 	
S	 20.008431322035 	  4.627718792522 	 10.295915180960 	
S	 19.439887192035 	  4.627721602522 	 20.426471900960 	
S	 20.008400222035 	 10.811280552522 	 10.295912350960 	
S	 19.439856092035 	 10.811283362522 	 20.426469070960 	
S	  8.367541837266 	  1.548951646651 	  5.212304624002 	
S	  7.798997707266 	  1.548954456651 	 15.342861344002 	
S	  8.367510737266 	  7.732513406651 	  5.212301794002 	
S	  7.798966607266 	  7.732516216651 	 15.342858514002 	
S	 23.048369137266 	  1.548960876651 	  5.240434554002 	
S	 22.479825007266 	  1.548963686651 	 15.370991274002 	
S	 23.048338037266 	  7.732522636651 	  5.240431724002 	
S	 22.479793907266 	  7.732525446651 	 15.370988444002 	
C	  6.685979051894 	  2.565093701233 	  9.946955445388 	
C	  6.117434921894 	  2.565096511233 	 20.077512165388 	
C	  6.685947951894 	  8.748655461233 	  9.946952615388 	
C	  6.117403821894 	  8.748658271233 	 20.077509335388 	
C	 21.366806351894 	  2.565102931233 	  9.975085375388 	
C	 20.798262221894 	  2.565105741233 	 20.105642095388 	
C	 21.366775251894 	  8.748664691233 	  9.975082545388 	
C	 20.798231121894 	  8.748667501233 	 20.105639265388 	
C	  7.011820914523 	  5.579377689741 	  5.585283840102 	
C	  6.443276784523 	  5.579380499741 	 15.715840560102 	
C	  7.011789814523 	 11.762939449741 	  5.585281010102 	
C	  6.443245684523 	 11.762942259741 	 15.715837730102 	
C	 21.692648214523 	  5.579386919741 	  5.613413770102 	
C	 21.124104084523 	  5.579389729741 	 15.743970490102 	
C	 21.692617114523 	 11.762948679741 	  5.613410940102 	
C	 21.124072984523 	 11.762951489741 	 15.743967660102 	
C	  7.273317833658 	  3.594099468027 	  0.391941981879 	
C	  6.704773703658 	  3.594102278027 	 10.522498701879 	
C	  7.273286733658 	  9.777661228027 	  0.391939151879 	
C	  6.704742603658 	  9.777664038027 	 10.522495871879 	
C	 21.954145133658 	  3.594108698027 	  0.420071911879 	
C	 21.385601003658 	  3.594111508027 	 10.550628631879 	
C	 21.954114033658 	  9.777670458027 	  0.420069081879 	
C	 21.385569903658 	  9.777673268027 	 10.550625801879 	
C	  6.947476404968 	  0.579816129452 	  4.753613653957 	
C	  6.378932274968 	  0.579818939452 	 14.884170373957 	
C	  6.947445304968 	  6.763377889452 	  4.753610823957 	
C	  6.378901174968 	  6.763380699452 	 14.884167543957 	
C	 21.628303704968 	  0.579825359452 	  4.781743583957 	
C	 21.059759574968 	  0.579828169452 	 14.912300303957 	
C	 21.628272604968 	  6.763387119452 	  4.781740753957 	
C	 21.059728474968 	  6.763389929452 	 14.912297473957 	
C	  5.638661042052 	  2.354607080748 	  9.008517208415 	
C	  5.070116912052 	  2.354609890748 	 19.139073928415 	
C	  5.638629942052 	  8.538168840748 	  9.008514378415 	
C	  5.070085812052 	  8.538171650748 	 19.139071098415 	
C	 20.319488342052 	  2.354616310748 	  9.036647138415 	
C	 19.750944212052 	  2.354619120748 	 19.167203858415 	
C	 20.319457242052 	  8.538178070748 	  9.036644308415 	
C	 19.750913112052 	  8.538180880748 	 19.167201028415 	
C	  8.042314150592 	  5.417491789661 	  6.471252280474 	
C	  7.473770020592 	  5.417494599661 	 16.601809000474 	
C	  8.042283050592 	 11.601053549661 	  6.471249450474 	
C	  7.473738920592 	 11.601056359661 	 16.601806170474 	
C	 22.723141450592 	  5.417501019661 	  6.499382210474 	
C	 22.154597320592 	  5.417503829661 	 16.629938930474 	
C	 22.723110350592 	 11.601062779661 	  6.499379380474 	
C	 22.154566220592 	 11.601065589661 	 16.629936100474 	
C	  8.320635661958 	  3.804586120225 	  1.330380077839 	
C	  7.752091531958 	  3.804588930225 	 11.460936797839 	
C	  8.320604561958 	  9.988147880225 	  1.330377247839 	
C	  7.752060431958 	  9.988150690225 	 11.460933967839 	
C	 23.001462961958 	  3.804595350225 	  1.358510007839 	
C	 22.432918831958 	  3.804598160225 	 11.489066727839 	
C	 23.001431861958 	  9.988157110225 	  1.358507177839 	
C	 22.432887731958 	  9.988159920225 	 11.489063897839 	
C	  5.916983069547 	  0.741702022849 	  3.867645190947 	
C	  5.348438939547 	  0.741704832849 	 13.998201910947 	
C	  5.916951969547 	  6.925263782849 	  3.867642360947 	
C	  5.348407839547 	  6.925266592849 	 13.998199080947 	
C	 20.597810369547 	  0.741711252849 	  3.895775120947 	
C	 20.029266239547 	  0.741714062849 	 14.026331840947 	
C	 20.597779269547 	  6.925273012849 	  3.895772290947 	
C	 20.029235139547 	  6.925275822849 	 14.026329010947 	
C	  4.754587046743 	  3.402766377286 	  9.036029023060 	
C	  4.186042916743 	  3.402769187286 	 19.166585743060 	
C	  4.754555946743 	  9.586328137286 	  9.036026193060 	
C	  4.186011816743 	  9.586330947286 	 19.166582913060 	
C	 19.435414346743 	  3.402775607286 	  9.064158953060 	
C	 18.866870216743 	  3.402778417286 	 19.194715673060 	
C	 19.435383246743 	  9.586337367286 	  9.064156123060 	
C	 18.866839116743 	  9.586340177286 	 19.194712843060 	
C	  8.949238740653 	  0.337755781241 	  6.445874012082 	
C	  8.380694610653 	  0.337758591241 	 16.576430732082 	
C	  8.949207640653 	  6.521317541241 	  6.445871182082 	
C	  8.380663510653 	  6.521320351241 	 16.576427902082 	
C	 23.630066040653 	  0.337765011241 	  6.474003942082 	
C	 23.061521910653 	  0.337767821241 	 16.604560662082 	
C	 23.630034940653 	  6.521326771241 	  6.474001112082 	
C	 23.061490810653 	  6.521329581241 	 16.604557832082 	
C	  9.204709650811 	  2.756426888669 	  1.302868352030 	
C	  8.636165520811 	  2.756429698669 	 11.433425072030 	
C	  9.204678550811 	  8.939988648669 	  1.302865522030 	
C	  8.636134420811 	  8.939991458669 	 11.433422242030 	
C	 23.885536950811 	  2.756436118669 	  1.330998282030 	
C	 23.316992820811 	  2.756438928669 	 11.461555002030 	
C	 23.885505850811 	  8.939997878669 	  1.330995452030 	
C	 23.316961720811 	  8.940000688669 	 11.461552172030 	
C	  5.010058524297 	  5.821437975951 	  3.893023543240 	
C	  4.441514394297 	  5.821440785951 	 14.023580263240 	
C	  5.010027424297 	 12.004999735951 	  3.893020713240 	
C	  4.441483294297 	 12.005002545951 	 14.023577433240 	
C	 19.690885824297 	  5.821447205951 	  3.921153473240 	
C	 19.122341694297 	  5.821450015951 	 14.051710193240 	
C	 19.690854724297 	 12.005008965951 	  3.921150643240 	
C	 19.122310594297 	 12.005011775951 	 14.051707363240 	
C	  3.685153010808 	  3.463977728854 	  8.300058409519 	
C	  3.116608880808 	  3.463980538854 	 18.430615129519 	
C	  3.685121910808 	  9.647539488854 	  8.300055579519 	
C	  3.116577780808 	  9.647542298854 	 18.430612299519 	
C	 18.365980310808 	  3.463986958854 	  8.328188339519 	
C	 17.797436180808 	  3.463989768854 	 18.458745059519 	
C	 18.365949210808 	  9.647548718854 	  8.328185509519 	
C	 17.797405080808 	  9.647551528854 	 18.458742229519 	
C	  9.995264268791 	  0.406589912294 	  7.158387206038 	
C	  9.426720138792 	  0.406592722294 	 17.288943926038 	
C	  9.995233168792 	  6.590151672294 	  7.158384376038 	
C	  9.426689038792 	  6.590154482294 	 17.288941096038 	
C	 24.676091568791 	  0.406599142294 	  7.186517136038 	
C	 24.107547438791 	  0.406601952294 	 17.317073856038 	
C	 24.676060468791 	  6.590160902294 	  7.186514306038 	
C	 24.107516338791 	  6.590163712294 	 17.317071026038 	
C	 10.274143736057 	  2.695215629251 	  2.038839138151 	
C	  9.705599606057 	  2.695218439251 	 12.169395858151 	
C	 10.274112636057 	  8.878777389251 	  2.038836308151 	
C	  9.705568506057 	  8.878780199251 	 12.169393028151 	
C	 24.954971036057 	  2.695224859251 	  2.066969068151 	
C	 24.386426906057 	  2.695227669251 	 12.197525788151 	
C	 24.954939936057 	  8.878786619251 	  2.066966238151 	
C	 24.386395806057 	  8.878789429251 	 12.197522958151 	
C	  3.964032868133 	  5.752603841737 	  3.180510486503 	
C	  3.395488738133 	  5.752606651737 	 13.311067206503 	
C	  3.964001768133 	 11.936165601737 	  3.180507656503 	
C	  3.395457638133 	 11.936168411737 	 13.311064376503 	
C	 18.644860168133 	  5.752613071737 	  3.208640416503 	
C	 18.076316038133 	  5.752615881737 	 13.339197136503 	
C	 18.644829068133 	 11.936174831737 	  3.208637586503 	
C	 18.076284938133 	 11.936177641737 	 13.339194306503 	
H	  2.995379914324 	  4.383059096924 	  8.379734652369 	
H	  2.426835784324 	  4.383061906924 	 18.510291372369 	
H	  2.995348814324 	 10.566620856924 	  8.379731822369 	
H	  2.426804684324 	 10.566623666924 	 18.510288542369 	
H	 17.676207214324 	  4.383068326924 	  8.407864582369 	
H	 17.107663084324 	  4.383071136924 	 18.538421302369 	
H	 17.676176114324 	 10.566630086924 	  8.407861752369 	
H	 17.107631984324 	 10.566632896924 	 18.538418472369 	
H	 10.698829134899 	  1.301470239745 	  7.103282087319 	
H	 10.130285004899 	  1.301473049745 	 17.233838807319 	
H	 10.698798034899 	  7.485031999745 	  7.103279257319 	
H	 10.130253904899 	  7.485034809745 	 17.233835977319 	
H	 25.379656434899 	  1.301479469745 	  7.131412017319 	
H	 24.811112304899 	  1.301482279745 	 17.261968737319 	
H	 25.379625334899 	  7.485041229745 	  7.131409187319 	
H	 24.811081204899 	  7.485044039745 	 17.261965907319 	
H	 10.963916784166 	  1.776134217501 	  1.959162870260 	
H	 10.395372654166 	  1.776137027501 	 12.089719590260 	
H	 10.963885684166 	  7.959695977501 	  1.959160040260 	
H	 10.395341554166 	  7.959698787501 	 12.089716760260 	
H	 25.644744084166 	  1.776143447501 	  1.987292800260 	
H	 25.076199954166 	  1.776146257501 	 12.117849520260 	
H	 25.644712984166 	  7.959705207501 	  1.987289970260 	
H	 25.076168854166 	  7.959708017501 	 12.117846690260 	
H	  3.260468126590 	  4.857723422141 	  3.235615680475 	
H	  2.691923996590 	  4.857726232141 	 13.366172400475 	
H	  3.260437026590 	 11.041285182141 	  3.235612850475 	
H	  2.691892896590 	 11.041287992141 	 13.366169570475 	
H	 17.941295426590 	  4.857732652141 	  3.263745610475 	
H	 17.372751296590 	  4.857735462141 	 13.394302330475 	
H	 17.941264326590 	 11.041294412141 	  3.263742780475 	
H	 17.372720196590 	 11.041297222141 	 13.394299500475 	
C	  3.364456486083 	  2.497330102585 	  7.458672638130 	
C	  2.795912356083 	  2.497332912585 	 17.589229358130 	
C	  3.364425386083 	  8.680891862585 	  7.458669808130 	
C	  2.795881256083 	  8.680894672585 	 17.589226528130 	
C	 18.045283786083 	  2.497339332585 	  7.486802568130 	
C	 17.476739656083 	  2.497342142585 	 17.617359288130 	
C	 18.045252686083 	  8.680901092585 	  7.486799738130 	
C	 17.476708556083 	  8.680903902585 	 17.617356458130 	
C	 10.340410127765 	  5.552031794155 	  8.044638698722 	
C	  9.771865997765 	  5.552034604155 	 18.175195418722 	
C	 10.340379027765 	 11.735593554155 	  8.044635868722 	
C	  9.771834897765 	 11.735596364155 	 18.175192588722 	
C	 25.021237427765 	  5.552041024155 	  8.072768628722 	
C	 24.452693297765 	  5.552043834155 	 18.203325348722 	
C	 25.021206327765 	 11.735602784155 	  8.072765798722 	
C	 24.452662197765 	 11.735605594155 	 18.203322518722 	
C	 10.594840078706 	  3.661863214713 	  2.880224771563 	
C	 10.026295948706 	  3.661866024713 	 13.010781491563 	
C	 10.594808978706 	  9.845424974713 	  2.880221941563 	
C	 10.026264848706 	  9.845427784713 	 13.010778661563 	
C	 25.275667378706 	  3.661872444713 	  2.908354701563 	
C	 24.707123248706 	  3.661875254713 	 13.038911421563 	
C	 25.275636278706 	  9.845434204713 	  2.908351871563 	
C	 24.707092148706 	  9.845437014713 	 13.038908591563 	
C	  3.618886977900 	  0.607161963863 	  2.294259008171 	
C	  3.050342847900 	  0.607164773863 	 12.424815728171 	
C	  3.618855877900 	  6.790723723863 	  2.294256178171 	
C	  3.050311747900 	  6.790726533863 	 12.424812898171 	
C	 18.299714277900 	  0.607171193863 	  2.322388938171 	
C	 17.731170147900 	  0.607174003863 	 12.452945658171 	
C	 18.299683177900 	  6.790732953863 	  2.322386108171 	
C	 17.731139047900 	  6.790735763863 	 12.452942828171 	
C	  4.244756297887 	  1.462356848464 	  7.392951136221 	
C	  3.676212167887 	  1.462359658464 	 17.523507856221 	
C	  4.244725197887 	  7.645918608464 	  7.392948306221 	
C	  3.676181067887 	  7.645921418464 	 17.523505026221 	
C	 18.925583597887 	  1.462366078464 	  7.421081066221 	
C	 18.357039467887 	  1.462368888464 	 17.551637786221 	
C	 18.925552497887 	  7.645927838464 	  7.421078236221 	
C	 18.357008367887 	  7.645930648464 	 17.551634956221 	
C	  9.449611602567 	  4.544500617681 	  8.086071763324 	
C	  8.881067472567 	  4.544503427681 	 18.216628483324 	
C	  9.449580502567 	 10.728062377681 	  8.086068933324 	
C	  8.881036372567 	 10.728065187681 	 18.216625653324 	
C	 24.130438902567 	  4.544509847681 	  8.114201693324 	
C	 23.561894772567 	  4.544512657681 	 18.244758413324 	
C	 24.130407802567 	 10.728071607681 	  8.114198863324 	
C	 23.561863672567 	 10.728074417681 	 18.244755583324 	
C	  9.714540230993 	  4.696836460878 	  2.945946321225 	
C	  9.145996100993 	  4.696839270878 	 13.076503041225 	
C	  9.714509130993 	 10.880398220878 	  2.945943491225 	
C	  9.145965000993 	 10.880401030878 	 13.076500211225 	
C	 24.395367530993 	  4.696845690878 	  2.974076251225 	
C	 23.826823400993 	  4.696848500878 	 13.104632971225 	
C	 24.395336430993 	 10.880407450878 	  2.974073421225 	
C	 23.826792300993 	 10.880410260878 	 13.104630141225 	
C	  4.509685341300 	  1.614693064442 	  2.252825832120 	
C	  3.941141211300 	  1.614695874442 	 12.383382552120 	
C	  4.509654241300 	  7.798254824442 	  2.252823002120 	
C	  3.941110111300 	  7.798257634442 	 12.383379722120 	
C	 19.190512641300 	  1.614702294442 	  2.280955762120 	
C	 18.621968511300 	  1.614705104442 	 12.411512482120 	
C	 19.190481541300 	  7.798264054442 	  2.280952932120 	
C	 18.621937411300 	  7.798266864442 	 12.411509652120 	
H	  4.012363353337 	  0.617278146081 	  6.650294973927 	
H	  3.443819223337 	  0.617280956081 	 16.780851693927 	
H	  4.012332253337 	  6.800839906081 	  6.650292143927 	
H	  3.443788123337 	  6.800842716081 	 16.780848863927 	
H	 18.693190653337 	  0.617287376081 	  6.678424903927 	
H	 18.124646523337 	  0.617290186081 	 16.808981623927 	
H	 18.693159553337 	  6.800849136081 	  6.678422073927 	
H	 18.124615423337 	  6.800851946081 	 16.808978793927 	
H	  9.680862598151 	  3.698142558521 	  8.829792301286 	
H	  9.112318468151 	  3.698145368521 	 18.960349021286 	
H	  9.680831498151 	  9.881704318521 	  8.829789471286 	
H	  9.112287368151 	  9.881707128521 	 18.960346191286 	
H	 24.361689898151 	  3.698151788521 	  8.857922231286 	
H	 23.793145768151 	  3.698154598521 	 18.988478951286 	
H	 24.361658798151 	  9.881713548521 	  8.857919401286 	
H	 23.793114668151 	  9.881716358521 	 18.988476121286 	
H	  9.946933203324 	  5.541915171789 	  3.688602463163 	
H	  9.378389073324 	  5.541917981789 	 13.819159183163 	
H	  9.946902103324 	 11.725476931789 	  3.688599633163 	
H	  9.378357973324 	 11.725479741789 	 13.819156353163 	
H	 24.627760503324 	  5.541924401789 	  3.716732393163 	
H	 24.059216373324 	  5.541927211789 	 13.847289113163 	
H	 24.627729403324 	 11.725486161789 	  3.716729563163 	
H	 24.059185273324 	 11.725488971789 	 13.847286283163 	
H	  4.278434266867 	  2.461051183887 	  1.509105382409 	
H	  3.709890136867 	  2.461053993887 	 11.639662102409 	
H	  4.278403166867 	  8.644612943887 	  1.509102552409 	
H	  3.709859036867 	  8.644615753887 	 11.639659272409 	
H	 18.959261566867 	  2.461060413887 	  1.537235312409 	
H	 18.390717436867 	  2.461063223887 	 11.667792032409 	
H	 18.959230466867 	  8.644622173887 	  1.537232482409 	
H	 18.390686336867 	  8.644624983887 	 11.667789202409 	
C	  5.292352817384 	  1.388078813914 	  8.097758305225 	
C	  4.723808687384 	  1.388081623914 	 18.228315025225 	
C	  5.292321717384 	  7.571640573914 	  8.097755475225 	
C	  4.723777587384 	  7.571643383914 	 18.228312195225 	
C	 19.973180117384 	  1.388088043914 	  8.125888235225 	
C	 19.404635987384 	  1.388090853914 	 18.256444955225 	
C	 19.973149017384 	  7.571649803914 	  8.125885405225 	
C	 19.404604887384 	  7.571652613914 	 18.256442125225 	
C	  8.401238733133 	  4.469783517712 	  7.380895094187 	
C	  7.832694603133 	  4.469786327712 	 17.511451814187 	
C	  8.401207633133 	 10.653345277712 	  7.380892264187 	
C	  7.832663503133 	 10.653348087712 	 17.511448984187 	
C	 23.082066033133 	  4.469792747712 	  7.409025024187 	
C	 22.513521903133 	  4.469795557712 	 17.539581744187 	
C	 23.082034933133 	 10.653354507712 	  7.409022194187 	
C	 22.513490803133 	 10.653357317712 	 17.539578914187 	
C	  8.666943797331 	  4.771114446281 	  2.241139017152 	
C	  8.098399667331 	  4.771117256281 	 12.371695737152 	
C	  8.666912697331 	 10.954676206281 	  2.241136187152 	
C	  8.098368567331 	 10.954679016281 	 12.371692907152 	
C	 23.347771097331 	  4.771123676281 	  2.269268947152 	
C	 22.779226967331 	  4.771126486281 	 12.399825667152 	
C	 23.347739997331 	 10.954685436281 	  2.269266117152 	
C	 22.779195867331 	 10.954688246281 	 12.399822837152 	
C	  5.558058399266 	  1.689410256632 	  2.958002474049 	
C	  4.989514269266 	  1.689413066632 	 13.088559194049 	
C	  5.558027299266 	  7.872972016632 	  2.957999644049 	
C	  4.989483169266 	  7.872974826632 	 13.088556364049 	
C	 20.238885699266 	  1.689419486632 	  2.986132404049 	
C	 19.670341569266 	  1.689422296632 	 13.116689124049 	
C	 20.238854599266 	  7.872981246632 	  2.986129574049 	
C	 19.670310469266 	  7.872984056632 	 13.116686294049 	
H	  6.002741263917 	  0.489244372546 	  8.005767984343 	
H	  5.434197133917 	  0.489247182546 	 18.136324704343 	
H	  6.002710163917 	  6.672806132546 	  8.005765154343 	
H	  5.434166033917 	  6.672808942546 	 18.136321874343 	
H	 20.683568563917 	  0.489253602546 	  8.033897914343 	
H	 20.115024433917 	  0.489256412546 	 18.164454634343 	
H	 20.683537463917 	  6.672815362546 	  8.033895084343 	
H	 20.114993333917 	  6.672818172546 	 18.164451804343 	
H	  7.690506691464 	  3.569413536858 	  7.474356533203 	
H	  7.121962561464 	  3.569416346858 	 17.604913253203 	
H	  7.690475591464 	  9.752975296858 	  7.474353703203 	
H	  7.121931461464 	  9.752978106858 	 17.604910423203 	
H	 22.371333991464 	  3.569422766858 	  7.502486463203 	
H	 21.802789861464 	  3.569425576858 	 17.633043183203 	
H	 22.371302891464 	  9.752984526858 	  7.502483633203 	
H	 21.802758761464 	  9.752987336858 	 17.633040353203 	
H	  7.956555274897 	  5.669948819243 	  2.333129311489 	
H	  7.388011144897 	  5.669951629243 	 12.463686031489 	
H	  7.956524174897 	 11.853510579243 	  2.333126481489 	
H	  7.387980044897 	 11.853513389243 	 12.463683201489 	
H	 22.637382574897 	  5.669958049243 	  2.361259241489 	
H	 22.068838444897 	  5.669960859243 	 12.491815961489 	
H	 22.637351474897 	 11.853519809243 	  2.361256411489 	
H	 22.068807344897 	 11.853522619243 	 12.491813131489 	
H	  6.268790391394 	  2.589780259412 	  2.864540957222 	
H	  5.700246261394 	  2.589783069412 	 12.995097677222 	
H	  6.268759291394 	  8.773342019412 	  2.864538127222 	
H	  5.700215161394 	  8.773344829412 	 12.995094847222 	
H	 20.949617691394 	  2.589789489412 	  2.892670887222 	
H	 20.381073561394 	  2.589792299412 	 13.023227607222 	
H	 20.949586591394 	  8.773351249412 	  2.892668057222 	
H	 20.381042461394 	  8.773354059412 	 13.023224777222 	
C	  1.963869189672 	  2.553993529801 	  6.516816569537 	
C	  1.395325059672 	  2.553996339801 	 16.647373289537 	
C	  1.963838089672 	  8.737555289801 	  6.516813739537 	
C	  1.395293959672 	  8.737558099801 	 16.647370459537 	
C	 16.644696489672 	  2.554002759801 	  6.544946499537 	
C	 16.076152359672 	  2.554005569801 	 16.675503219537 	
C	 16.644665389672 	  8.737564519801 	  6.544943669537 	
C	 16.076121259672 	  8.737567329801 	 16.675500389537 	
C	 11.652665368262 	  5.577098003327 	  8.900747061185 	
C	 11.084121238262 	  5.577100813327 	 19.031303781185 	
C	 11.652634268262 	 11.760659763327 	  8.900744231185 	
C	 11.084090138262 	 11.760662573327 	 19.031300951185 	
C	 26.333492668262 	  5.577107233327 	  8.928876991185 	
C	 25.764948538262 	  5.577110043327 	 19.059433711185 	
C	 26.333461568262 	 11.760668993327 	  8.928874161185 	
C	 25.764917438262 	 11.760671803327 	 19.059430881185 	
C	 11.995427649751 	  3.605200087278 	  3.822081271916 	
C	 11.426883519751 	  3.605202897278 	 13.952637991916 	
C	 11.995396549751 	  9.788761847278 	  3.822078441916 	
C	 11.426852419751 	  9.788764657278 	 13.952635161916 	
C	 26.676254949751 	  3.605209317278 	  3.850211201916 	
C	 26.107710819751 	  3.605212127278 	 13.980767921916 	
C	 26.676223849751 	  9.788771077278 	  3.850208371916 	
C	 26.107679719751 	  9.788773887278 	 13.980765091916 	
C	  2.306631632414 	  0.582095589624 	  1.438150712687 	
C	  1.738087502414 	  0.582098399624 	 11.568707432687 	
C	  2.306600532414 	  6.765657349624 	  1.438147882687 	
C	  1.738056402414 	  6.765660159624 	 11.568704602687 	
C	 16.987458932414 	  0.582104819624 	  1.466280642687 	
C	 16.418914802414 	  0.582107629624 	 11.596837362687 	
C	 16.987427832414 	  6.765666579624 	  1.466277812687 	
C	 16.418883702414 	  6.765669389624 	 11.596834532687 	
C	  2.180263197817 	  2.875368663092 	  5.448476259688 	
C	  1.611719067817 	  2.875371473092 	 15.579032979688 	
C	  2.180232097817 	  9.058930423092 	  5.448473429688 	
C	  1.611687967817 	  9.058933233092 	 15.579030149688 	
C	 16.861090497817 	  2.875377893092 	  5.476606189688 	
C	 16.292546367817 	  2.875380703092 	 15.607162909688 	
C	 16.861059397817 	  9.058939653092 	  5.476603359688 	
C	 16.292515267817 	  9.058942463092 	 15.607160079688 	
C	 11.510689209859 	 -0.192528382313 	  9.975775762788 	
C	 10.942145079859 	 -0.192525572313 	 20.106332482788 	
C	 11.510658109859 	  5.991033377687 	  9.975772932788 	
C	 10.942113979859 	  5.991036187687 	 20.106329652788 	
C	 26.191516509859 	 -0.192519152313 	 10.003905692788 	
C	 25.622972379859 	 -0.192516342313 	 20.134462412788 	
C	 26.191485409859 	  5.991042607687 	 10.003902862788 	
C	 25.622941279859 	  5.991045417687 	 20.134459582788 	
C	 11.779032447971 	  3.283824743862 	  4.890421937574 	
C	 11.210488317971 	  3.283827553862 	 15.020978657574 	
C	 11.779001347971 	  9.467386503862 	  4.890419107574 	
C	 11.210457217971 	  9.467389313862 	 15.020975827574 	
C	 26.459859747971 	  3.283833973862 	  4.918551867574 	
C	 25.891315617971 	  3.283836783862 	 15.049108587574 	
C	 26.459828647971 	  9.467395733862 	  4.918549037574 	
C	 25.891284517971 	  9.467398543862 	 15.049105757574 	
C	  2.448607733386 	  6.351722255249 	  0.363122008755 	
C	  1.880063603386 	  6.351725065249 	 10.493678728755 	
C	  2.448576633386 	 12.535284015249 	  0.363119178755 	
C	  1.880032503386 	 12.535286825249 	 10.493675898755 	
C	 17.129435033386 	  6.351731485249 	  0.391251938755 	
C	 16.560890903386 	  6.351734295249 	 10.521808658755 	
C	 17.129403933386 	 12.535293245249 	  0.391249108755 	
C	 16.560859803386 	 12.535296055249 	 10.521805828755 	
H	  2.789325379728 	  3.803434995847 	  5.266163816351 	
H	  2.220781249728 	  3.803437805847 	 15.396720536351 	
H	  2.789294279728 	  9.986996755847 	  5.266160986351 	
H	  2.220750149728 	  9.986999565847 	 15.396717706351 	
H	 17.470152679728 	  3.803444225847 	  5.294293746351 	
H	 16.901608549728 	  3.803447035847 	 15.424850466351 	
H	 17.470121579728 	  9.987005985847 	  5.294290916351 	
H	 16.901577449728 	  9.987008795847 	 15.424847636351 	
H	 10.897801388183 	  0.708906152191 	 10.218395804464 	
H	 10.329257258183 	  0.708908962191 	 20.348952524464 	
H	 10.897770288183 	  6.892467912191 	 10.218392974464 	
H	 10.329226158183 	  6.892470722191 	 20.348949694464 	
H	 25.578628688183 	  0.708915382191 	 10.246525734464 	
H	 25.010084558183 	  0.708918192191 	 20.377082454464 	
H	 25.578597588183 	  6.892477142191 	 10.246522904464 	
H	 25.010053458183 	  6.892479952191 	 20.377079624464 	
H	 11.169971088350 	  2.355757508808 	  5.072733935370 	
H	 10.601426958350 	  2.355760318808 	 15.203290655370 	
H	 11.169939988350 	  8.539319268808 	  5.072731105370 	
H	 10.601395858350 	  8.539322078808 	 15.203287825370 	
H	 25.850798388350 	  2.355766738808 	  5.100863865370 	
H	 25.282254258350 	  2.355769548808 	 15.231420585370 	
H	 25.850767288350 	  8.539328498808 	  5.100861035370 	
H	 25.282223158350 	  8.539331308808 	 15.231417755370 	
H	  3.061495560949 	  5.450287801443 	  0.120501645714 	
H	  2.492951430949 	  5.450290611443 	 10.251058365714 	
H	  3.061464460949 	 11.633849561443 	  0.120498815714 	
H	  2.492920330949 	 11.633852371443 	 10.251055535714 	
H	 17.742322860949 	  5.450297031443 	  0.148631575714 	
H	 17.173778730949 	  5.450299841443 	 10.279188295714 	
H	 17.742291760949 	 11.633858791443 	  0.148628745714 	
H	 17.173747630949 	 11.633861601443 	 10.279185465714 	
H	  1.417623316855 	  3.017364280619 	  4.631728035837 	
H	  0.849079186855 	  3.017367090619 	 14.762284755837 	
H	  1.417592216855 	  9.200926040619 	  4.631725205837 	
H	  0.849048086855 	  9.200928850619 	 14.762281925837 	
H	 16.098450616855 	  3.017373510619 	  4.659857965837 	
H	 15.529906486855 	  3.017376320619 	 14.790414685837 	
H	 16.098419516855 	  9.200935270619 	  4.659855135837 	
H	 15.529875386855 	  9.200938080619 	 14.790411855837 	
H	 12.890786588360 	 -0.045458213744 	  0.647510841615 	
H	 12.322242458360 	 -0.045455403744 	 10.778067561615 	
H	 12.890755488360 	  6.138103546256 	  0.647508011615 	
H	 12.322211358360 	  6.138106356256 	 10.778064731615 	
H	 27.571613888360 	 -0.045448983744 	  0.675640771615 	
H	 27.003069758360 	 -0.045446173744 	 10.806197491615 	
H	 27.571582788360 	  6.138112776256 	  0.675637941615 	
H	 27.003038658360 	  6.138115586256 	 10.806194661615 	
H	 12.541672738600 	  3.141829613265 	  5.707170092872 	
H	 11.973128608600 	  3.141832423265 	 15.837726812872 	
H	 12.541641638600 	  9.325391373265 	  5.707167262872 	
H	 11.973097508600 	  9.325394183265 	 15.837723982872 	
H	 27.222500038600 	  3.141838843265 	  5.735300022872 	
H	 26.653955908600 	  3.141841653265 	 15.865856742872 	
H	 27.222468938600 	  9.325400603265 	  5.735297192872 	
H	 26.653924808600 	  9.325403413265 	 15.865853912872 	
H	  1.068510369673 	  6.204652133193 	  9.691386899857 	
H	  0.499966239673 	  6.204654943193 	 19.821943619857 	
H	  1.068479269673 	 12.388213893193 	  9.691384069857 	
H	  0.499935139673 	 12.388216703193 	 19.821940789857 	
H	 15.749337669673 	  6.204661363193 	  9.719516829857 	
H	 15.180793539673 	  6.204664173193 	 19.850073549857 	
H	 15.749306569673 	 12.388223123193 	  9.719513999857 	
H	 15.180762439673 	 12.388225933193 	 19.850070719857 	
H	  2.938660304007 	  2.314130754842 	  4.835675759176 	
H	  2.370116174007 	  2.314133564842 	 14.966232479176 	
H	  2.938629204007 	  8.497692514842 	  4.835672929176 	
H	  2.370085074007 	  8.497695324842 	 14.966229649176 	
H	 17.619487604007 	  2.314139984842 	  4.863805689176 	
H	 17.050943474007 	  2.314142794842 	 14.994362409176 	
H	 17.619456504007 	  8.497701744842 	  4.863802859176 	
H	 17.050912374007 	  8.497704554842 	 14.994359579176 	
H	 11.203929911481 	  5.380821935116 	  0.421763548461 	
H	 10.635385781481 	  5.380824745116 	 10.552320268461 	
H	 11.203898811481 	 11.564383695116 	  0.421760718461 	
H	 10.635354681481 	 11.564386505116 	 10.552317438461 	
H	 25.884757211481 	  5.380831165116 	  0.449893478461 	
H	 25.316213081481 	  5.380833975116 	 10.580450198461 	
H	 25.884726111481 	 11.564392925116 	  0.449890648461 	
H	 25.316181981481 	 11.564395735116 	 10.580447368461 	
H	 11.020635274793 	  3.845063363978 	  5.503222140765 	
H	 10.452091144793 	  3.845066173978 	 15.633778860765 	
H	 11.020604174793 	 10.028625123978 	  5.503219310765 	
H	 10.452060044793 	 10.028627933978 	 15.633776030765 	
H	 25.701462574793 	  3.845072593978 	  5.531352070765 	
H	 25.132918444793 	  3.845075403978 	 15.661908790765 	
H	 25.701431474793 	 10.028634353978 	  5.531349240765 	
H	 25.132887344793 	 10.028637163978 	 15.661905960765 	
H	  2.755367096719 	  0.778372063065 	  9.917134348765 	
H	  2.186822966719 	  0.778374873065 	 20.047691068765 	
H	  2.755335996719 	  6.961933823065 	  9.917131518765 	
H	  2.186791866719 	  6.961936633065 	 20.047688238765 	
H	 17.436194396719 	  0.778381293065 	  9.945264278765 	
H	 16.867650266719 	  0.778384103065 	 20.075820998765 	
H	 17.436163296719 	  6.961943053065 	  9.945261448765 	
H	 16.867619166719 	  6.961945863065 	 20.075818168765 	
C	  1.211360433308 	  3.293584322700 	  6.945544022430 	
C	  0.642816303308 	  3.293587132700 	 17.076100742430 	
C	  1.211329333308 	  9.477146082700 	  6.945541192430 	
C	  0.642785203308 	  9.477148892700 	 17.076097912430 	
C	 15.892187733308 	  3.293593552700 	  6.973673952430 	
C	 15.323643603308 	  3.293596362700 	 17.104230672430 	
C	 15.892156633308 	  9.477155312700 	  6.973671122430 	
C	 15.323612503308 	  9.477158122700 	 17.104227842430 	
C	 12.581755777269 	  0.261287997307 	  8.517224737695 	
C	 12.013211647269 	  0.261290807307 	 18.647781457695 	
C	 12.581724677269 	  6.444849757307 	  8.517221907695 	
C	 12.013180547269 	  6.444852567307 	 18.647778627695 	
C	 27.262583077269 	  0.261297227307 	  8.545354667695 	
C	 26.694038947269 	  0.261300037307 	 18.675911387695 	
C	 27.262551977269 	  6.444858987307 	  8.545351837695 	
C	 26.694007847269 	  6.444861797307 	 18.675908557695 	
C	 12.747936360911 	  2.865608826256 	  3.393353210093 	
C	 12.179392230911 	  2.865611636256 	 13.523909930093 	
C	 12.747905260911 	  9.049170586256 	  3.393350380093 	
C	 12.179361130911 	  9.049173396256 	 13.523907100093 	
C	 27.428763660911 	  2.865618056256 	  3.421483140093 	
C	 26.860219530911 	  2.865620866256 	 13.552039860093 	
C	 27.428732560911 	  9.049179816256 	  3.421480310093 	
C	 26.860188430911 	  9.049182626256 	 13.552037030093 	
C	  1.377541239571 	  5.897905412027 	  1.821672924056 	
C	  0.808997109571 	  5.897908222027 	 11.952229644056 	
C	  1.377510139571 	 12.081467172027 	  1.821670094056 	
C	  0.808966009571 	 12.081469982027 	 11.952226814056 	
C	 16.058368539571 	  5.897914642027 	  1.849802854056 	
C	 15.489824409571 	  5.897917452027 	 11.980359574056 	
C	 16.058337439571 	 12.081476402027 	  1.849800024056 	
C	 15.489793309571 	 12.081479212027 	 11.980356744056 	
H	  1.493706613132 	  4.375328139742 	  7.115774920723 	
H	  0.925162483132 	  4.375330949742 	 17.246331640723 	
H	  1.493675513132 	 10.558889899742 	  7.115772090723 	
H	  0.925131383132 	 10.558892709742 	 17.246328810723 	
H	 16.174533913132 	  4.375337369742 	  7.143904850723 	
H	 15.605989783132 	  4.375340179742 	 17.274461570723 	
H	 16.174502813132 	 10.558899129742 	  7.143902020723 	
H	 15.605958683132 	 10.558901939742 	 17.274458740723 	
H	 12.208116827801 	  1.295391305125 	  8.353497768222 	
H	 11.639572697801 	  1.295394115125 	 18.484054488222 	
H	 12.208085727801 	  7.478953065125 	  8.353494938222 	
H	 11.639541597801 	  7.478955875125 	 18.484051658222 	
H	 26.888944127801 	  1.295400535125 	  8.381627698222 	
H	 26.320399997801 	  1.295403345125 	 18.512184418222 	
H	 26.888913027801 	  7.478962295125 	  8.381624868222 	
H	 26.320368897801 	  7.478965105125 	 18.512181588222 	
H	 12.465590212282 	  1.783864766725 	  3.223122585651 	
H	 11.897046082282 	  1.783867576725 	 13.353679305651 	
H	 12.465559112282 	  7.967426526725 	  3.223119755651 	
H	 11.897014982282 	  7.967429336725 	 13.353676475651 	
H	 27.146417512282 	  1.783873996725 	  3.251252515651 	
H	 26.577873382282 	  1.783876806725 	 13.381809235651 	
H	 27.146386412282 	  7.967435756725 	  3.251249685651 	
H	 26.577842282282 	  7.967438566725 	 13.381806405651 	
H	  1.751180310068 	  4.863802092827 	  1.985399499314 	
H	  1.182636180068 	  4.863804902827 	 12.115956219314 	
H	  1.751149210068 	 11.047363852827 	  1.985396669314 	
H	  1.182605080068 	 11.047366662827 	 12.115953389314 	
H	 16.432007610068 	  4.863811322827 	  2.013529429314 	
H	 15.863463480068 	  4.863814132827 	 12.144086149314 	
H	 16.431976510068 	 11.047373082827 	  2.013526599314 	
H	 15.863432380068 	 11.047375892827 	 12.144083319314 	
H	  0.885695210520 	  3.220198775261 	  8.025519067050 	
H	  0.317151080520 	  3.220201585261 	 18.156075787050 	
H	  0.885664110520 	  9.403760535261 	  8.025516237050 	
H	  0.317119980520 	  9.403763345261 	 18.156072957050 	
H	 15.566522510520 	  3.220208005261 	  8.053648997050 	
H	 14.997978380520 	  3.220210815261 	 18.184205717050 	
H	 15.566491410520 	  9.403769765261 	  8.053646167050 	
H	 14.997947280520 	  9.403772575261 	 18.184202887050 	
H	 12.800927096820 	  6.300041197786 	  7.460816002921 	
H	 12.232382966820 	  6.300044007786 	 17.591372722921 	
H	 12.800895996820 	 12.483602957786 	  7.460813172921 	
H	 12.232351866820 	 12.483605767786 	 17.591369892921 	
H	 27.481754396820 	  6.300050427786 	  7.488945932921 	
H	 26.913210266820 	  6.300053237786 	 17.619502652921 	
H	 27.481723296820 	 12.483612187786 	  7.488943102921 	
H	 26.913179166820 	 12.483614997786 	 17.619499822921 	
H	 13.073602263871 	  2.938994807198 	  2.313378237694 	
H	 12.505058133871 	  2.938997617198 	 12.443934957694 	
H	 13.073571163871 	  9.122556567198 	  2.313375407694 	
H	 12.505027033871 	  9.122559377198 	 12.443932127694 	
H	 27.754429563871 	  2.939004037198 	  2.341508167694 	
H	 27.185885433871 	  2.939006847198 	 12.472064887694 	
H	 27.754398463871 	  9.122565797198 	  2.341505337694 	
H	 27.185854333871 	  9.122568607198 	 12.472062057694 	
H	  1.158370049135 	 -0.140847980054 	  2.878081671449 	
H	  0.589825919135 	 -0.140845170054 	 13.008638391449 	
H	  1.158338949135 	  6.042713779946 	  2.878078841449 	
H	  0.589794819135 	  6.042716589946 	 13.008635561449 	
H	 15.839197349135 	 -0.140838750054 	  2.906211601449 	
H	 15.270653219135 	 -0.140835940054 	 13.036768321449 	
H	 15.839166249135 	  6.042723009946 	  2.906208771449 	
H	 15.270622119135 	  6.042725819946 	 13.036765491449 	
H	  0.217307893058 	  3.425130769726 	  6.431365321986 	
H	 -0.351236236942 	  3.425133579726 	 16.561922041986 	
H	  0.217276793058 	  9.608692529726 	  6.431362491986 	
H	 -0.351267336942 	  9.608695339726 	 16.561919211986 	
H	 14.898135193058 	  3.425139999726 	  6.459495251986 	
H	 14.329591063058 	  3.425142809726 	 16.590051971986 	
H	 14.898104093058 	  9.608701759726 	  6.459492421986 	
H	 14.329559963058 	  9.608704569726 	 16.590049141986 	
H	 13.454939643077 	  6.494920740071 	  9.035497800396 	
H	 12.886395513077 	  6.494923550071 	 19.166054520396 	
H	 13.454908543077 	 12.678482500071 	  9.035494970396 	
H	 12.886364413077 	 12.678485310071 	 19.166051690396 	
H	 28.135766943077 	  6.494929970071 	  9.063627730396 	
H	 27.567222813077 	  6.494932780071 	 19.194184450396 	
H	 28.135735843077 	 12.678491730071 	  9.063624900396 	
H	 27.567191713077 	 12.678494540071 	 19.194181620396 	
H	 13.741988821317 	  2.734062511572 	  3.907532345503 	
H	 13.173444691317 	  2.734065321572 	 14.038089065503 	
H	 13.741957721317 	  8.917624271572 	  3.907529515503 	
H	 13.173413591317 	  8.917627081572 	 14.038086235503 	
H	 28.422816121317 	  2.734071741572 	  3.935662275503 	
H	 27.854271991317 	  2.734074551572 	 14.066218995503 	
H	 28.422785021317 	  8.917633501572 	  3.935659445503 	
H	 27.854240891317 	  8.917636311572 	 14.066216165503 	
H	  0.504357333449 	 -0.335727399132 	  1.303399943937 	
H	 -0.064186796551 	 -0.335724589132 	 11.433956663937 	
H	  0.504326233449 	  5.847834360868 	  1.303397113937 	
H	 -0.064217896551 	  5.847837170868 	 11.433953833937 	
H	 15.185184633449 	 -0.335718169132 	  1.331529873937 	
H	 14.616640503449 	 -0.335715359132 	 11.462086593937 	
H	 15.185153533449 	  5.847843590868 	  1.331527043937 	
H	 14.616609403449 	  5.847846400868 	 11.462083763937 	
C	  1.441186753835 	  1.547043465980 	  6.463257015627 	
C	  0.872642623835 	  1.547046275980 	 16.593813735627 	
C	  1.441155653835 	  7.730605225980 	  6.463254185627 	
C	  0.872611523835 	  7.730608035980 	 16.593810905627 	
C	 16.122014053835 	  1.547052695980 	  6.491386945627 	
C	 15.553469923835 	  1.547055505980 	 16.621943665627 	
C	 16.121982953835 	  7.730614455980 	  6.491384115627 	
C	 15.553438823835 	  7.730617265980 	 16.621940835627 	
C	 12.252548261273 	  4.634487786760 	  9.020341645461 	
C	 11.684004131273 	  4.634490596760 	 19.150898365461 	
C	 12.252517161273 	 10.818049546760 	  9.020338815461 	
C	 11.683973031273 	 10.818052356760 	 19.150895535461 	
C	 26.933375561273 	  4.634497016760 	  9.048471575461 	
C	 26.364831431273 	  4.634499826760 	 19.179028295461 	
C	 26.933344461273 	 10.818058776760 	  9.048468745461 	
C	 26.364800331273 	 10.818061586760 	 19.179025465461 	
C	 12.518109601471 	  4.612151099012 	  3.875640118692 	
C	 11.949565471471 	  4.612153909012 	 14.006196838692 	
C	 12.518078501471 	 10.795712859012 	  3.875637288692 	
C	 11.949534371471 	 10.795715669012 	 14.006194008692 	
C	 27.198936901471 	  4.612160329012 	  3.903770048692 	
C	 26.630392771471 	  4.612163139012 	 14.034326768692 	
C	 27.198905801471 	 10.795722089012 	  3.903767218692 	
C	 26.630361671471 	 10.795724899012 	 14.034323938692 	
C	  1.706748564247 	  1.524705713023 	  1.318556368178 	
C	  1.138204434247 	  1.524708523023 	 11.449113088178 	
C	  1.706717464247 	  7.708267473023 	  1.318553538178 	
C	  1.138173334247 	  7.708270283023 	 11.449110258178 	
C	 16.387575864247 	  1.524714943023 	  1.346686298178 	
C	 15.819031734247 	  1.524717753023 	 11.477243018178 	
C	 16.387544764247 	  7.708276703023 	  1.346683468178 	
C	 15.819000634247 	  7.708279513023 	 11.477240188178 	
H	  0.451354955368 	  1.385626379647 	  5.953830800138 	
H	 -0.117189174632 	  1.385629189647 	 16.084387520138 	
H	  0.451323855368 	  7.569188139647 	  5.953827970138 	
H	 -0.117220274632 	  7.569190949647 	 16.084384690138 	
H	 15.132182255368 	  1.385635609647 	  5.981960730138 	
H	 14.563638125368 	  1.385638419647 	 16.112517450138 	
H	 15.132151155368 	  7.569197369647 	  5.981957900138 	
H	 14.563607025368 	  7.569200179647 	 16.112514620138 	
H	 13.239982306919 	  4.468532762825 	  9.527925195487 	
H	 12.671438176919 	  4.468535572825 	 19.658481915487 	
H	 13.239951206919 	 10.652094522825 	  9.527922365487 	
H	 12.671407076919 	 10.652097332825 	 19.658479085487 	
H	 27.920809606919 	  4.468541992825 	  9.556055125487 	
H	 27.352265476919 	  4.468544802825 	 19.686611845487 	
H	 27.920778506919 	 10.652103752825 	  9.556052295487 	
H	 27.352234376919 	 10.652106562825 	 19.686609015487 	
H	 13.507941498733 	  4.773567876167 	  4.385066601535 	
H	 12.939397368733 	  4.773570686167 	 14.515623321535 	
H	 13.507910398733 	 10.957129636167 	  4.385063771535 	
H	 12.939366268733 	 10.957132446167 	 14.515620491535 	
H	 28.188768798733 	  4.773577106167 	  4.413196531535 	
H	 27.620224668733 	  4.773579916167 	 14.543753251535 	
H	 28.188737698733 	 10.957138866167 	  4.413193701535 	
H	 27.620193568733 	 10.957141676167 	 14.543750421535 	
H	  0.719314480032 	  1.690660697964 	  0.810972897560 	
H	  0.150770350032 	  1.690663507964 	 10.941529617560 	
H	  0.719283380032 	  7.874222457964 	  0.810970067560 	
H	  0.150739250032 	  7.874225267964 	 10.941526787560 	
H	 15.400141780032 	  1.690669927964 	  0.839102827560 	
H	 14.831597650032 	  1.690672737964 	 10.969659547560 	
H	 15.400110680032 	  7.874231687964 	  0.839099997560 	
H	 14.831566550032 	  7.874234497964 	 10.969656717560 	
H	  1.257060467234 	  0.970111543228 	  7.415974046930 	
H	  0.688516337234 	  0.970114353228 	 17.546530766930 	
H	  1.257029367234 	  7.153673303228 	  7.415971216930 	
H	  0.688485237234 	  7.153676113228 	 17.546527936930 	
H	 15.937887767234 	  0.970120773228 	  7.444103976930 	
H	 15.369343637234 	  0.970123583228 	 17.574660696930 	
H	 15.937856667234 	  7.153682533228 	  7.444101146930 	
H	 15.369312537234 	  7.153685343228 	 17.574657866930 	
H	 12.435327050035 	  4.053167162732 	  8.066378453525 	
H	 11.866782920035 	  4.053169972732 	 18.196935173525 	
H	 12.435295950035 	 10.236728922732 	  8.066375623525 	
H	 11.866751820035 	 10.236731732732 	 18.196932343525 	
H	 27.116154350035 	  4.053176392732 	  8.094508383525 	
H	 26.547610220035 	  4.053179202732 	 18.225065103525 	
H	 27.116123250035 	 10.236738152732 	  8.094505553525 	
H	 26.547579120035 	 10.236740962732 	 18.225062273525 	
H	 12.702236239106 	  5.189082629715 	  2.922922658896 	
H	 12.133692109106 	  5.189085439715 	 13.053479378896 	
H	 12.702205139106 	 11.372644389715 	  2.922919828896 	
H	 12.133661009106 	 11.372647199715 	 13.053476548896 	
H	 27.383063539106 	  5.189091859715 	  2.951052588896 	
H	 26.814519409106 	  5.189094669715 	 13.081609308896 	
H	 27.383032439106 	 11.372653619715 	  2.951049758896 	
H	 26.814488309106 	 11.372656429715 	 13.081606478896 	
H	  1.523969741835 	  2.106026159029 	  2.272519638476 	
H	  0.955425611835 	  2.106028969029 	 12.403076358476 	
H	  1.523938641835 	  8.289587919029 	  2.272516808476 	
H	  0.955394511835 	  8.289590729029 	 12.403073528476 	
H	 16.204797041835 	  2.106035389029 	  2.300649568476 	
H	 15.636252911835 	  2.106038199029 	 12.431206288476 	
H	 16.204765941835 	  8.289597149029 	  2.300646738476 	
H	 15.636221811835 	  8.289599959029 	 12.431203458476 	
H	  1.975736914729 	  0.648909432896 	  6.046413218396 	
H	  1.407192784729 	  0.648912242896 	 16.176969938396 	
H	  1.975705814729 	  6.832471192896 	  6.046410388396 	
H	  1.407161684729 	  6.832474002896 	 16.176967108396 	
H	 16.656564214729 	  0.648918662896 	  6.074543148396 	
H	 16.088020084729 	  0.648921472896 	 16.205099868396 	
H	 16.656533114729 	  6.832480422896 	  6.074540318396 	
H	 16.087988984729 	  6.832483232896 	 16.205097038396 	
H	 11.717134991913 	  3.733593216550 	  9.434409081229 	
H	 11.148590861913 	  3.733596026550 	 19.564965801229 	
H	 11.717103891913 	  9.917154976550 	  9.434406251229 	
H	 11.148559761913 	  9.917157786550 	 19.564962971229 	
H	 26.397962291913 	  3.733602446550 	  9.462539011229 	
H	 25.829418161913 	  3.733605256550 	 19.593095731229 	
H	 26.397931191913 	  9.917164206550 	  9.462536181229 	
H	 25.829387061913 	  9.917167016550 	 19.593092901229 	
H	 11.983559063734 	  5.510284801861 	  4.292484803584 	
H	 11.415014933734 	  5.510287611861 	 14.423041523584 	
H	 11.983527963734 	 11.693846561861 	  4.292481973584 	
H	 11.414983833734 	 11.693849371861 	 14.423038693584 	
H	 26.664386363734 	  5.510294031861 	  4.320614733584 	
H	 26.095842233734 	  5.510296841861 	 14.451171453584 	
H	 26.664355263734 	 11.693855791861 	  4.320611903584 	
H	 26.095811133734 	 11.693858601861 	 14.451168623584 	
H	  2.242161762107 	  2.425600502206 	  0.904489336422 	
H	  1.673617632107 	  2.425603312206 	 11.035046056422 	
H	  2.242130662107 	  8.609162262206 	  0.904486506422 	
H	  1.673586532107 	  8.609165072206 	 11.035043226422 	
H	 16.922989062107 	  2.425609732206 	  0.932619266422 	
H	 16.354444932107 	  2.425612542206 	 11.063175986422 	
H	 16.922957962107 	  8.609171492206 	  0.932616436422 	
H	 16.354413832107 	  8.609174302206 	 11.063173156422 	
768 
Energy: -1.0224630329590001e+02 
S	  8.583298006595 	  1.515864113451 	  0.080711815131 	
S	  8.014753876595 	  1.515866923451 	 10.211268535131 	
S	  8.583266906595 	  7.699425873451 	  0.080708985131 	
S	  8.014722776595 	  7.699428683451 	 10.211265705131 	
S	 23.264125306595 	  1.515873343451 	  0.108841745131 	
S	 22.695581176595 	  1.515876153451 	 10.239398465131 	
S	 23.264094206595 	  7.699435103451 	  0.108838915131 	
S	 22.695550076595 	  7.699437913451 	 10.239395635131 	
S	  5.577069020310 	  4.589841677642 	  5.155341929456 	
S	  5.008524890310 	  4.589844487642 	 15.285898649456 	
S	  5.577037920310 	 10.773403437642 	  5.155339099456 	
S	  5.008493790310 	 10.773406247642 	 15.285895819456 	
S	 20.257896320310 	  4.589850907642 	  5.183471859456 	
S	 19.689352190310 	  4.589853717642 	 15.314028579456 	
S	 20.257865220310 	 10.773412667642 	  5.183469029456 	
S	 19.689321090310 	 10.773415477642 	 15.314025749456 	
S	  5.319569160014 	  4.634334516810 	 10.324671767142 	
S	  4.751025030014 	  4.634337326810 	 20.455228487142 	
S	  5.319538060014 	 10.817896276810 	 10.324668937142 	
S	  4.750993930014 	 10.817899086810 	 20.455225657142 	
S	 20.000396460014 	  4.634343746810 	 10.352801697142 	
S	 19.431852330014 	  4.634346556810 	 20.483358417142 	
S	 20.000365360014 	 10.817905506810 	 10.352798867142 	
S	 19.431821230014 	 10.817908316810 	 20.483355587142 	
S	  8.325798887744 	  1.560357383924 	  5.250041666118 	
S	  7.757254757744 	  1.560360193924 	 15.380598386118 	
S	  8.325767787744 	  7.743919143924 	  5.250038836118 	
S	  7.757223657744 	  7.743921953924 	 15.380595556118 	
S	 23.006626187744 	  1.560366613924 	  5.278171596118 	
S	 22.438082057744 	  1.560369423924 	 15.408728316118 	
S	 23.006595087744 	  7.743928373924 	  5.278168766118 	
S	 22.438050957744 	  7.743931183924 	 15.408725486118 	
C	  6.662232782033 	  2.562185938027 	 10.006908743976 	
C	  6.093688652033 	  2.562188748027 	 20.137465463976 	
C	  6.662201682033 	  8.745747698027 	 10.006905913976 	
C	  6.093657552033 	  8.745750508027 	 20.137462633976 	
C	 21.343060082033 	  2.562195168027 	 10.035038673976 	
C	 20.774515952033 	  2.562197978027 	 20.165595393976 	
C	 21.343028982033 	  8.745756928027 	 10.035035843976 	
C	 20.774484852033 	  8.745759738027 	 20.165592563976 	
C	  6.984804299708 	  5.581239987665 	  5.610410171111 	
C	  6.416260169708 	  5.581242797665 	 15.740966891111 	
C	  6.984773199708 	 11.764801747665 	  5.610407341111 	
C	  6.416229069708 	 11.764804557665 	 15.740964061111 	
C	 21.665631599708 	  5.581249217665 	  5.638540101111 	
C	 21.097087469708 	  5.581252027665 	 15.769096821111 	
C	 21.665600499708 	 11.764810977665 	  5.638537271111 	
C	 21.097056369708 	 11.764813787665 	 15.769093991111 	
C	  7.240634423075 	  3.588012656190 	  0.398474792918 	
C	  6.672090293075 	  3.588015466190 	 10.529031512918 	
C	  7.240603323075 	  9.771574416190 	  0.398471962918 	
C	  6.672059193075 	  9.771577226190 	 10.529028682918 	
C	 21.921461723075 	  3.588021886190 	  0.426604722918 	
C	 21.352917593075 	  3.588024696190 	 10.557161442918 	
C	 21.921430623075 	  9.771583646190 	  0.426601892918 	
C	 21.352886493075 	  9.771586456190 	 10.557158612918 	
C	  6.918063464726 	  0.568959162768 	  4.794973358050 	
C	  6.349519334726 	  0.568961972768 	 14.925530078050 	
C	  6.918032364726 	  6.752520922768 	  4.794970528050 	
C	  6.349488234726 	  6.752523732768 	 14.925527248050 	
C	 21.598890764726 	  0.568968392768 	  4.823103288050 	
C	 21.030346634726 	  0.568971202768 	 14.953660008050 	
C	 21.598859664726 	  6.752530152768 	  4.823100458050 	
C	 21.030315534726 	  6.752532962768 	 14.953657178050 	
C	  5.620287903402 	  2.363174370226 	  9.060175639256 	
C	  5.051743773402 	  2.363177180226 	 19.190732359256 	
C	  5.620256803402 	  8.546736130226 	  9.060172809256 	
C	  5.051712673402 	  8.546738940226 	 19.190729529256 	
C	 20.301115203402 	  2.363183600226 	  9.088305569256 	
C	 19.732571073402 	  2.363186410226 	 19.218862289256 	
C	 20.301084103402 	  8.546745360226 	  9.088302739256 	
C	 19.732539973402 	  8.546748170226 	 19.218859459256 	
C	  8.017467602243 	  5.426397786351 	  6.514097710414 	
C	  7.448923472243 	  5.426400596351 	 16.644654430414 	
C	  8.017436502243 	 11.609959546351 	  6.514094880414 	
C	  7.448892372243 	 11.609962356351 	 16.644651600414 	
C	 22.698294902243 	  5.426407016351 	  6.542227640414 	
C	 22.129750772243 	  5.426409826351 	 16.672784360414 	
C	 22.698263802243 	 11.609968776351 	  6.542224810414 	
C	 22.129719672243 	 11.609971586351 	 16.672781530414 	
C	  8.282579143423 	  3.787024264290 	  1.345207772886 	
C	  7.714035013423 	  3.787027074290 	 11.475764492886 	
C	  8.282548043423 	  9.970586024290 	  1.345204942886 	
C	  7.714003913423 	  9.970588834290 	 11.475761662886 	
C	 22.963406443423 	  3.787033494290 	  1.373337702886 	
C	 22.394862313423 	  3.787036304290 	 11.503894422886 	
C	 22.963375343423 	  9.970595254290 	  1.373334872886 	
C	 22.394831213423 	  9.970598064290 	 11.503891592886 	
C	  5.885400043118 	  0.723801367137 	  3.891285840741 	
C	  5.316855913118 	  0.723804177137 	 14.021842560741 	
C	  5.885368943118 	  6.907363127137 	  3.891283010741 	
C	  5.316824813118 	  6.907365937137 	 14.021839730741 	
C	 20.566227343118 	  0.723810597137 	  3.919415770741 	
C	 19.997683213118 	  0.723813407137 	 14.049972490741 	
C	 20.566196243118 	  6.907372357137 	  3.919412940741 	
C	 19.997652113118 	  6.907375167137 	 14.049969660741 	
C	  4.744967456069 	  3.418366708892 	  9.085288905684 	
C	  4.176423326069 	  3.418369518892 	 19.215845625684 	
C	  4.744936356069 	  9.601928468892 	  9.085286075684 	
C	  4.176392226069 	  9.601931278892 	 19.215842795684 	
C	 19.425794756069 	  3.418375938892 	  9.113418835684 	
C	 18.857250626069 	  3.418378748892 	 19.243975555684 	
C	 19.425763656069 	  9.601937698892 	  9.113416005684 	
C	 18.857219526069 	  9.601940508892 	 19.243972725684 	
C	  8.902546168280 	  0.353209772545 	  6.491178238717 	
C	  8.334002038280 	  0.353212582545 	 16.621734958717 	
C	  8.902515068280 	  6.536771532545 	  6.491175408717 	
C	  8.333970938280 	  6.536774342545 	 16.621732128717 	
C	 23.583373468280 	  0.353219002545 	  6.519308168717 	
C	 23.014829338280 	  0.353221812545 	 16.649864888717 	
C	 23.583342368280 	  6.536780762545 	  6.519305338717 	
C	 23.014798238280 	  6.536783572545 	 16.649862058717 	
C	  9.157899582973 	  2.731831968808 	  1.320094583123 	
C	  8.589355452973 	  2.731834778808 	 11.450651303123 	
C	  9.157868482973 	  8.915393728808 	  1.320091753123 	
C	  8.589324352973 	  8.915396538808 	 11.450648473123 	
C	 23.838726882973 	  2.731841198808 	  1.348224513123 	
C	 23.270182752973 	  2.731844008808 	 11.478781233123 	
C	 23.838695782973 	  8.915402958808 	  1.348221683123 	
C	 23.270151652973 	  8.915405768808 	 11.478778403123 	
C	  5.000321526409 	  5.796989331913 	  3.914205418813 	
C	  4.431777396409 	  5.796992141913 	 14.044762138813 	
C	  5.000290426409 	 11.980551091913 	  3.914202588813 	
C	  4.431746296409 	 11.980553901913 	 14.044759308813 	
C	 19.681148826409 	  5.796998561913 	  3.942335348813 	
C	 19.112604696409 	  5.797001371913 	 14.072892068813 	
C	 19.681117726409 	 11.980560321913 	  3.942332518813 	
C	 19.112573596409 	 11.980563131913 	 14.072889238813 	
C	  3.682638075105 	  3.492173163534 	  8.341306650816 	
C	  3.114093945105 	  3.492175973534 	 18.471863370816 	
C	  3.682606975105 	  9.675734923534 	  8.341303820816 	
C	  3.114062845105 	  9.675737733534 	 18.471860540816 	
C	 18.363465375105 	  3.492182393534 	  8.369436580816 	
C	 17.794921245105 	  3.492185203534 	 18.499993300816 	
C	 18.363434275105 	  9.675744153534 	  8.369433750816 	
C	 17.794890145105 	  9.675746963534 	 18.499990470816 	
C	  9.951750290003 	  0.434021301481 	  7.219616999673 	
C	  9.383206160003 	  0.434024111481 	 17.350173719673 	
C	  9.951719190003 	  6.617583061481 	  7.219614169673 	
C	  9.383175060003 	  6.617585871481 	 17.350170889673 	
C	 24.632577590003 	  0.434030531481 	  7.247746929673 	
C	 24.064033460003 	  0.434033341481 	 17.378303649673 	
C	 24.632546490003 	  6.617592291481 	  7.247744099673 	
C	 24.064002360003 	  6.617595101481 	 17.378300819673 	
C	 10.220229007429 	  2.658025620145 	  2.064077019714 	
C	  9.651684877429 	  2.658028430145 	 12.194633739714 	
C	 10.220197907429 	  8.841587380145 	  2.064074189714 	
C	  9.651653777429 	  8.841590190145 	 12.194630909714 	
C	 24.901056307429 	  2.658034850145 	  2.092206949714 	
C	 24.332512177429 	  2.658037660145 	 12.222763669714 	
C	 24.901025207429 	  8.841596610145 	  2.092204119714 	
C	 24.332481077429 	  8.841599420145 	 12.222760839714 	
C	  3.951117221166 	  5.716177815174 	  3.185766848314 	
C	  3.382573091166 	  5.716180625174 	 13.316323568314 	
C	  3.951086121166 	 11.899739575174 	  3.185764018314 	
C	  3.382541991166 	 11.899742385174 	 13.316320738314 	
C	 18.631944521166 	  5.716187045174 	  3.213896778314 	
C	 18.063400391166 	  5.716189855174 	 13.344453498314 	
C	 18.631913421166 	 11.899748805174 	  3.213893948314 	
C	 18.063369291166 	 11.899751615174 	 13.344450668314 	
H	  3.000578391183 	  4.416921302152 	  8.419220705694 	
H	  2.432034261183 	  4.416924112152 	 18.549777425694 	
H	  3.000547291183 	 10.600483062152 	  8.419217875694 	
H	  2.432003161183 	 10.600485872152 	 18.549774595694 	
H	 17.681405691183 	  4.416930532152 	  8.447350635694 	
H	 17.112861561183 	  4.416933342152 	 18.577907355694 	
H	 17.681374591183 	 10.600492292152 	  8.447347805694 	
H	 17.112830461183 	 10.600495102152 	 18.577904525694 	
H	 10.643732204892 	  1.340078603539 	  7.157954104709 	
H	 10.075188074892 	  1.340081413539 	 17.288510824709 	
H	 10.643701104892 	  7.523640363539 	  7.157951274709 	
H	 10.075156974892 	  7.523643173539 	 17.288507994709 	
H	 25.324559504892 	  1.340087833539 	  7.186084034709 	
H	 24.756015374892 	  1.340090643539 	 17.316640754709 	
H	 25.324528404892 	  7.523649593539 	  7.186081204709 	
H	 24.755984274892 	  7.523652403539 	 17.316637924709 	
H	 10.902288634087 	  1.733277423852 	  1.986162979451 	
H	 10.333744504087 	  1.733280233852 	 12.116719699451 	
H	 10.902257534087 	  7.916839183852 	  1.986160149451 	
H	 10.333713404087 	  7.916841993852 	 12.116716869451 	
H	 25.583115934087 	  1.733286653852 	  2.014292909451 	
H	 25.014571804087 	  1.733289463852 	 12.144849629451 	
H	 25.583084834087 	  7.916848413852 	  2.014290079451 	
H	 25.014540704087 	  7.916851223852 	 12.144846799451 	
H	  3.259135432705 	  4.810120425806 	  3.247429842835 	
H	  2.690591302705 	  4.810123235806 	 13.377986562835 	
H	  3.259104332705 	 10.993682185806 	  3.247427012835 	
H	  2.690560202705 	 10.993684995806 	 13.377983732835 	
H	 17.939962732705 	  4.810129655806 	  3.275559772835 	
H	 17.371418602705 	  4.810132465806 	 13.406116492835 	
H	 17.939931632705 	 10.993691415806 	  3.275556942835 	
H	 17.371387502705 	 10.993694225806 	 13.406113662835 	
C	  3.359466971645 	  2.533507938541 	  7.491344066120 	
C	  2.790922841645 	  2.533510748541 	 17.621900786120 	
C	  3.359435871645 	  8.717069698541 	  7.491341236120 	
C	  2.790891741645 	  8.717072508541 	 17.621897956120 	
C	 18.040294271645 	  2.533517168541 	  7.519473996120 	
C	 17.471750141645 	  2.533519978541 	 17.650030716120 	
C	 18.040263171645 	  8.717078928541 	  7.519471166120 	
C	 17.471719041645 	  8.717081738541 	 17.650027886120 	
C	 10.293603260999 	  5.589426004311 	  8.099430722115 	
C	  9.725059130999 	  5.589428814311 	 18.229987442115 	
C	 10.293572160999 	 11.772987764311 	  8.099427892115 	
C	  9.725028030999 	 11.772990574311 	 18.229984612115 	
C	 24.974430560999 	  5.589435234311 	  8.127560652115 	
C	 24.405886430999 	  5.589438044311 	 18.258117372115 	
C	 24.974399460999 	 11.772996994311 	  8.127557822115 	
C	 24.405855330999 	 11.772999804311 	 18.258114542115 	
C	 10.543399895824 	  3.616690833559 	  2.914039414375 	
C	  9.974855765824 	  3.616693643559 	 13.044596134375 	
C	 10.543368795824 	  9.800252593559 	  2.914036584375 	
C	  9.974824665824 	  9.800255403559 	 13.044593304375 	
C	 25.224227195824 	  3.616700063559 	  2.942169344375 	
C	 24.655683065824 	  3.616702873559 	 13.072726064375 	
C	 25.224196095824 	  9.800261823559 	  2.942166514375 	
C	 24.655651965824 	  9.800264633559 	 13.072723234375 	
C	  3.609264157532 	  0.560773135827 	  2.305953180527 	
C	  3.040720027532 	  0.560775945827 	 12.436509900527 	
C	  3.609233057532 	  6.744334895827 	  2.305950350527 	
C	  3.040688927532 	  6.744337705827 	 12.436507070527 	
C	 18.290091457532 	  0.560782365827 	  2.334083110527 	
C	 17.721547327532 	  0.560785175827 	 12.464639830527 	
C	 18.290060357532 	  6.744344125827 	  2.334080280527 	
C	 17.721516227532 	  6.744346935827 	 12.464637000527 	
C	  4.232409796458 	  1.490656869733 	  7.429784333195 	
C	  3.663865666458 	  1.490659679733 	 17.560341053195 	
C	  4.232378696458 	  7.674218629733 	  7.429781503195 	
C	  3.663834566458 	  7.674221439733 	 17.560338223195 	
C	 18.913237096458 	  1.490666099733 	  7.457914263195 	
C	 18.344692966458 	  1.490668909733 	 17.588470983195 	
C	 18.913205996458 	  7.674227859733 	  7.457911433195 	
C	 18.344661866458 	  7.674230669733 	 17.588468153195 	
C	  9.412005004010 	  4.568019301626 	  8.143972067217 	
C	  8.843460874010 	  4.568022111626 	 18.274528787217 	
C	  9.411973904010 	 10.751581061626 	  8.143969237217 	
C	  8.843429774010 	 10.751583871626 	 18.274525957217 	
C	 24.092832304010 	  4.568028531626 	  8.172101997217 	
C	 23.524288174010 	  4.568031341626 	 18.302658717217 	
C	 24.092801204010 	 10.751590291626 	  8.172099167217 	
C	 23.524257074010 	 10.751593101626 	 18.302655887217 	
C	  9.670457100814 	  4.659541902942 	  2.975599187525 	
C	  9.101912970814 	  4.659544712942 	 13.106155907525 	
C	  9.670426000814 	 10.843103662942 	  2.975596357525 	
C	  9.101881870814 	 10.843106472942 	 13.106153077525 	
C	 24.351284400814 	  4.659551132942 	  3.003729117525 	
C	 23.782740270814 	  4.659553942942 	 13.134285837525 	
C	 24.351253300814 	 10.843112892942 	  3.003726287525 	
C	 23.782709170814 	 10.843115702942 	 13.134283007525 	
C	  4.490862269470 	  1.582179757041 	  2.261411683799 	
C	  3.922318139470 	  1.582182567041 	 12.391968403799 	
C	  4.490831169470 	  7.765741517041 	  2.261408853799 	
C	  3.922287039470 	  7.765744327041 	 12.391965573799 	
C	 19.171689569470 	  1.582188987041 	  2.289541613799 	
C	 18.603145439470 	  1.582191797041 	 12.420098333799 	
C	 19.171658469470 	  7.765750747041 	  2.289538783799 	
C	 18.603114339470 	  7.765753557041 	 12.420095503799 	
H	  4.000479512614 	  0.651422151892 	  6.680839674225 	
H	  3.431935382614 	  0.651424961892 	 16.811396394225 	
H	  4.000448412614 	  6.834983911892 	  6.680836844225 	
H	  3.431904282614 	  6.834986721892 	 16.811393564225 	
H	 18.681306812614 	  0.651431381892 	  6.708969604225 	
H	 18.112762682614 	  0.651434191892 	 16.839526324225 	
H	 18.681275712614 	  6.834993141892 	  6.708966774225 	
H	 18.112731582614 	  6.834995951892 	 16.839523494225 	
H	  9.642970732602 	  3.727800630430 	  8.894032640500 	
H	  9.074426602602 	  3.727803440430 	 19.024589360500 	
H	  9.642939632602 	  9.911362390430 	  8.894029810500 	
H	  9.074395502602 	  9.911365200430 	 19.024586530500 	
H	 24.323798032602 	  3.727809860430 	  8.922162570500 	
H	 23.755253902602 	  3.727812670430 	 19.052719290500 	
H	 24.323766932602 	  9.911371620430 	  8.922159740500 	
H	 23.755222802602 	  9.911374430430 	 19.052716460500 	
H	  9.902387434936 	  5.498776658198 	  3.724543792298 	
H	  9.333843304936 	  5.498779468198 	 13.855100512298 	
H	  9.902356334936 	 11.682338418198 	  3.724540962298 	
H	  9.333812204936 	 11.682341228198 	 13.855097682298 	
H	 24.583214734936 	  5.498785888198 	  3.752673722298 	
H	 24.014670604936 	  5.498788698198 	 13.883230442298 	
H	 24.583183634936 	 11.682347648198 	  3.752670892298 	
H	 24.014639504936 	 11.682350458198 	 13.883227612298 	
H	  4.259896416207 	  2.422398502858 	  1.511351227035 	
H	  3.691352286207 	  2.422401312858 	 11.641907947035 	
H	  4.259865316207 	  8.605960262858 	  1.511348397035 	
H	  3.691321186207 	  8.605963072858 	 11.641905117035 	
H	 18.940723716207 	  2.422407732858 	  1.539481157035 	
H	 18.372179586207 	  2.422410542858 	 11.670037877035 	
H	 18.940692616207 	  8.605969492858 	  1.539478327035 	
H	 18.372148486207 	  8.605972302858 	 11.670035047035 	
C	  5.272423479326 	  1.403372350598 	  8.142431053152 	
C	  4.703879349326 	  1.403375160598 	 18.272987773152 	
C	  5.272392379326 	  7.586934110598 	  8.142428223152 	
C	  4.703848249326 	  7.586936920598 	 18.272984943152 	
C	 19.953250779326 	  1.403381580598 	  8.170560983152 	
C	 19.384706649326 	  1.403384390598 	 18.301117703152 	
C	 19.953219679326 	  7.586943340598 	  8.170558153152 	
C	 19.384675549326 	  7.586946150598 	 18.301114873152 	
C	  8.371246555452 	  4.480365850066 	  7.430910709192 	
C	  7.802702425452 	  4.480368660066 	 17.561467429192 	
C	  8.371215455452 	 10.663927610066 	  7.430907879192 	
C	  7.802671325452 	 10.663930420066 	 17.561464599192 	
C	 23.052073855452 	  4.480375080066 	  7.459040639192 	
C	 22.483529725452 	  4.480377890066 	 17.589597359192 	
C	 23.052042755452 	 10.663936840066 	  7.459037809192 	
C	 22.483498625452 	 10.663939650066 	 17.589594529192 	
C	  8.630443491914 	  4.746826361139 	  2.262952350953 	
C	  8.061899361914 	  4.746829171139 	 12.393509070953 	
C	  8.630412391914 	 10.930388121139 	  2.262949520953 	
C	  8.061868261914 	 10.930390931139 	 12.393506240953 	
C	 23.311270791914 	  4.746835591139 	  2.291082280953 	
C	 22.742726661914 	  4.746838401139 	 12.421639000953 	
C	 23.311239691914 	 10.930397351139 	  2.291079450953 	
C	 22.742695561914 	 10.930400161139 	 12.421636170953 	
C	  5.531620939833 	  1.669833281042 	  2.974472954506 	
C	  4.963076809833 	  1.669836091042 	 13.105029674506 	
C	  5.531589839833 	  7.853395041042 	  2.974470124506 	
C	  4.963045709833 	  7.853397851042 	 13.105026844506 	
C	 20.212448239833 	  1.669842511042 	  3.002602884506 	
C	 19.643904109833 	  1.669845321042 	 13.133159604506 	
C	 20.212417139833 	  7.853404271042 	  3.002600054506 	
C	 19.643873009833 	  7.853407081042 	 13.133156774506 	
H	  5.975934563122 	  0.498970139104 	  8.051724843521 	
H	  5.407390433122 	  0.498972949104 	 18.182281563521 	
H	  5.975903463122 	  6.682531899104 	  8.051722013521 	
H	  5.407359333122 	  6.682534709104 	 18.182278733521 	
H	 20.656761863122 	  0.498979369104 	  8.079854773521 	
H	 20.088217733122 	  0.498982179104 	 18.210411493521 	
H	 20.656730763122 	  6.682541129104 	  8.079851943521 	
H	 20.088186633122 	  6.682543939104 	 18.210408663521 	
H	  7.667409924190 	  3.574580271803 	  7.522955713257 	
H	  7.098865794190 	  3.574583081803 	 17.653512433257 	
H	  7.667378824190 	  9.758142031803 	  7.522952883257 	
H	  7.098834694190 	  9.758144841803 	 17.653509603257 	
H	 22.348237224190 	  3.574589501803 	  7.551085643257 	
H	 21.779693094190 	  3.574592311803 	 17.681642363257 	
H	 22.348206124190 	  9.758151261803 	  7.551082813257 	
H	 21.779661994190 	  9.758154071803 	 17.681639533257 	
H	  7.926932344695 	  5.651228520718 	  2.353658495616 	
H	  7.358388214695 	  5.651231330718 	 12.484215215616 	
H	  7.926901244695 	 11.834790280718 	  2.353655665616 	
H	  7.358357114695 	 11.834793090718 	 12.484212385616 	
H	 22.607759644695 	  5.651237750718 	  2.381788425616 	
H	 22.039215514695 	  5.651240560718 	 12.512345145616 	
H	 22.607728544695 	 11.834799510718 	  2.381785595616 	
H	 22.039184414695 	 11.834802320718 	 12.512342315616 	
H	  6.235457526821 	  2.575618874403 	  2.882427851714 	
H	  5.666913396821 	  2.575621684403 	 13.012984571714 	
H	  6.235426426821 	  8.759180634403 	  2.882425021714 	
H	  5.666882296821 	  8.759183444403 	 13.012981741714 	
H	 20.916284826821 	  2.575628104403 	  2.910557781714 	
H	 20.347740696821 	  2.575630914403 	 13.041114501714 	
H	 20.916253726821 	  8.759189864403 	  2.910554951714 	
H	 20.347709596821 	  8.759192674403 	 13.041111671714 	
C	  1.996093272491 	  2.604238444435 	  6.571027998156 	
C	  1.427549142491 	  2.604241254435 	 16.701584718156 	
C	  1.996062172491 	  8.787800204435 	  6.571025168156 	
C	  1.427518042491 	  8.787803014435 	 16.701581888156 	
C	 16.676920572491 	  2.604247674435 	  6.599157928156 	
C	 16.108376442491 	  2.604250484435 	 16.729714648156 	
C	 16.676889472491 	  8.787809434435 	  6.599155098156 	
C	 16.108345342491 	  8.787812244435 	 16.729711818156 	
C	 11.556390007514 	  5.625674782628 	  8.939883588987 	
C	 10.987845877514 	  5.625677592628 	 19.070440308987 	
C	 11.556358907514 	 11.809236542628 	  8.939880758987 	
C	 10.987814777514 	 11.809239352628 	 19.070437478987 	
C	 26.237217307514 	  5.625684012628 	  8.968013518987 	
C	 25.668673177514 	  5.625686822628 	 19.098570238987 	
C	 26.237186207514 	 11.809245772628 	  8.968010688987 	
C	 25.668642077514 	 11.809248582628 	 19.098567408987 	
C	 11.906774539302 	  3.545960687063 	  3.834356605479 	
C	 11.338230409302 	  3.545963497063 	 13.964913325479 	
C	 11.906743439302 	  9.729522447063 	  3.834353775479 	
C	 11.338199309302 	  9.729525257063 	 13.964910495479 	
C	 26.587601839302 	  3.545969917063 	  3.862486535479 	
C	 26.019057709302 	  3.545972727063 	 13.993043255479 	
C	 26.587570739302 	  9.729531677063 	  3.862483705479 	
C	 26.019026609302 	  9.729534487063 	 13.993040425479 	
C	  2.346477224521 	  0.524524175016 	  1.465500440411 	
C	  1.777933094521 	  0.524526985016 	 11.596057160411 	
C	  2.346446124521 	  6.708085935016 	  1.465497610411 	
C	  1.777901994521 	  6.708088745016 	 11.596054330411 	
C	 17.027304524521 	  0.524533405016 	  1.493630370411 	
C	 16.458760394521 	  0.524536215016 	 11.624187090411 	
C	 17.027273424521 	  6.708095165016 	  1.493627540411 	
C	 16.458729294521 	  6.708097975016 	 11.624184260411 	
C	  2.145931936081 	  2.806205472316 	  5.488529289102 	
C	  1.577387806081 	  2.806208282316 	 15.619086009102 	
C	  2.145900836081 	  8.989767232316 	  5.488526459102 	
C	  1.577356706081 	  8.989770042316 	 15.619083179102 	
C	 16.826759236081 	  2.806214702316 	  5.516659219102 	
C	 16.258215106081 	  2.806217512316 	 15.647215939102 	
C	 16.826728136081 	  8.989776462316 	  5.516656389102 	
C	 16.258184006081 	  8.989779272316 	 15.647213109102 	
C	 11.495820546019 	 -0.269290163133 	 10.019066350006 	
C	 10.927276416019 	 -0.269287353133 	 20.149623070006 	
C	 11.495789446019 	  5.914271596867 	 10.019063520006 	
C	 10.927245316019 	  5.914274406867 	 20.149620240006 	
C	 26.176647846019 	 -0.269280933133 	 10.047196280006 	
C	 25.608103716019 	 -0.269278123133 	 20.177753000006 	
C	 26.176616746019 	  5.914280826867 	 10.047193450006 	
C	 25.608072616019 	  5.914283636867 	 20.177750170006 	
C	 11.756933568825 	  3.343993292020 	  4.916855290183 	
C	 11.188389438825 	  3.343996102020 	 15.047412010183 	
C	 11.756902468825 	  9.527555052020 	  4.916852460183 	
C	 11.188358338825 	  9.527557862020 	 15.047409180183 	
C	 26.437760868825 	  3.344002522020 	  4.944985220183 	
C	 25.869216738825 	  3.344005332020 	 15.075541940183 	
C	 26.437729768825 	  9.527564282020 	  4.944982390183 	
C	 25.869185638825 	  9.527567092020 	 15.075539110183 	
C	  2.407046582771 	  6.419489378532 	  0.386317701302 	
C	  1.838502452771 	  6.419492188532 	 10.516874421302 	
C	  2.407015482771 	 12.603051138532 	  0.386314871302 	
C	  1.838471352771 	 12.603053948532 	 10.516871591302 	
C	 17.087873882771 	  6.419498608532 	  0.414447631302 	
C	 16.519329752771 	  6.419501418532 	 10.545004351302 	
C	 17.087842782771 	 12.603060368532 	  0.414444801302 	
C	 16.519298652771 	 12.603063178532 	 10.545001521302 	
H	  2.857035742050 	  3.610033224035 	  5.189786165804 	
H	  2.288491612050 	  3.610036034035 	 15.320342885804 	
H	  2.857004642050 	  9.793594984035 	  5.189783335804 	
H	  2.288460512050 	  9.793597794035 	 15.320340055804 	
H	 17.537863042050 	  3.610042454035 	  5.217916095804 	
H	 16.969318912050 	  3.610045264035 	 15.348472815804 	
H	 17.537831942050 	  9.793604214035 	  5.217913265804 	
H	 16.969287812050 	  9.793607024035 	 15.348469985804 	
H	 10.796227483567 	  0.538789232267 	 10.375630030831 	
H	 10.227683353567 	  0.538792042267 	 20.506186750831 	
H	 10.796196383567 	  6.722350992267 	 10.375627200831 	
H	 10.227652253567 	  6.722353802267 	 20.506183920831 	
H	 25.477054783567 	  0.538798462267 	 10.403759960831 	
H	 24.908510653567 	  0.538801272267 	 20.534316680831 	
H	 25.477023683567 	  6.722360222267 	 10.403757130831 	
H	 24.908479553567 	  6.722363032267 	 20.534313850831 	
H	 11.045831125583 	  2.540163573957 	  5.215597069822 	
H	 10.477286995583 	  2.540166383957 	 15.346153789822 	
H	 11.045800025583 	  8.723725333957 	  5.215594239822 	
H	 10.477255895583 	  8.723728143957 	 15.346150959822 	
H	 25.726658425583 	  2.540172803957 	  5.243726999822 	
H	 25.158114295583 	  2.540175613957 	 15.374283719822 	
H	 25.726627325583 	  8.723734563957 	  5.243724169822 	
H	 25.158083195583 	  8.723737373957 	 15.374280889822 	
H	  3.106639614680 	  5.611410108283 	  0.029753666127 	
H	  2.538095484680 	  5.611412918283 	 10.160310386127 	
H	  3.106608514680 	 11.794971868283 	  0.029750836127 	
H	  2.538064384680 	 11.794974678283 	 10.160307556127 	
H	 17.787466914680 	  5.611419338283 	  0.057883596127 	
H	 17.218922784680 	  5.611422148283 	 10.188440316127 	
H	 17.787435814680 	 11.794981098283 	  0.057880766127 	
H	 17.218891684680 	 11.794983908283 	 10.188437486127 	
H	  1.418293841790 	  2.939804707439 	  4.653394991756 	
H	  0.849749711790 	  2.939807517439 	 14.783951711756 	
H	  1.418262741790 	  9.123366467439 	  4.653392161756 	
H	  0.849718611790 	  9.123369277439 	 14.783948881756 	
H	 16.099121141790 	  2.939813937439 	  4.681524921756 	
H	 15.530577011790 	  2.939816747439 	 14.812081641756 	
H	 16.099090041790 	  9.123375697439 	  4.681522091756 	
H	 15.530545911790 	  9.123378507439 	 14.812078811756 	
H	 12.820034910334 	 -0.118008378719 	  0.668576358379 	
H	 12.251490780334 	 -0.118005568719 	 10.799133078379 	
H	 12.820003810334 	  6.065553381281 	  0.668573528379 	
H	 12.251459680334 	  6.065556191281 	 10.799130248379 	
H	 27.500862210334 	 -0.117999148719 	  0.696706288379 	
H	 26.932318080334 	 -0.117996338719 	 10.827263008379 	
H	 27.500831110334 	  6.065562611281 	  0.696703458379 	
H	 26.932286980334 	  6.065565421281 	 10.827260178379 	
H	 12.484572495485 	  3.210394504823 	  5.751989244776 	
H	 11.916028365485 	  3.210397314823 	 15.882545964776 	
H	 12.484541395485 	  9.393956264823 	  5.751986414776 	
H	 11.915997265485 	  9.393959074823 	 15.882543134776 	
H	 27.165399795485 	  3.210403734823 	  5.780119174776 	
H	 26.596855665485 	  3.210406544823 	 15.910675894776 	
H	 27.165368695485 	  9.393965494823 	  5.780116344776 	
H	 26.596824565485 	  9.393968304823 	 15.910673064776 	
H	  1.082832158916 	  6.268207688091 	  9.736807726667 	
H	  0.514288028916 	  6.268210498091 	 19.867364446666 	
H	  1.082801058916 	 12.451769448091 	  9.736804896667 	
H	  0.514256928916 	 12.451772258091 	 19.867361616666 	
H	 15.763659458916 	  6.268216918091 	  9.764937656667 	
H	 15.195115328916 	  6.268219728091 	 19.895494376666 	
H	 15.763628358916 	 12.451778678091 	  9.764934826667 	
H	 15.195084228916 	 12.451781488091 	 19.895491546666 	
H	  2.874609445067 	  2.193276033004 	  4.910829542025 	
H	  2.306065315067 	  2.193278843004 	 15.041386262025 	
H	  2.874578345067 	  8.376837793004 	  4.910826712025 	
H	  2.306034215067 	  8.376840603004 	 15.041383432025 	
H	 17.555436745067 	  2.193285263004 	  4.938959472025 	
H	 16.986892615067 	  2.193288073004 	 15.069516192025 	
H	 17.555405645067 	  8.376847023004 	  4.938956642025 	
H	 16.986861515067 	  8.376849833004 	 15.069513362025 	
H	 11.202759142740 	  5.232089188695 	  0.397803442275 	
H	 10.634215012740 	  5.232091998695 	 10.528360162275 	
H	 11.202728042740 	 11.415650948695 	  0.397800612275 	
H	 10.634183912740 	 11.415653758695 	 10.528357332275 	
H	 25.883586442740 	  5.232098418695 	  0.425933372275 	
H	 25.315042312740 	  5.232101228695 	 10.556490092275 	
H	 25.883555342740 	 11.415660178695 	  0.425930542275 	
H	 25.315011212740 	 11.415662988695 	 10.556487262275 	
H	 11.028256364952 	  3.956924110223 	  5.494554341899 	
H	 10.459712234952 	  3.956926920223 	 15.625111061899 	
H	 11.028225264952 	 10.140485870223 	  5.494551511899 	
H	 10.459681134952 	 10.140488680223 	 15.625108231899 	
H	 25.709083664952 	  3.956933340223 	  5.522684271899 	
H	 25.140539534952 	  3.956936150223 	 15.653240991899 	
H	 25.709052564952 	 10.140495100223 	  5.522681441899 	
H	 25.140508434952 	 10.140497910223 	 15.653238161899 	
H	  2.700108029365 	  0.918110215910 	 10.007580760143 	
H	  2.131563899365 	  0.918113025910 	 20.138137480143 	
H	  2.700076929365 	  7.101671975910 	 10.007577930143 	
H	  2.131532799365 	  7.101674785910 	 20.138134650143 	
H	 17.380935329365 	  0.918119445910 	 10.035710690143 	
H	 16.812391199365 	  0.918122255910 	 20.166267410143 	
H	 17.380904229365 	  7.101681205910 	 10.035707860143 	
H	 16.812360099365 	  7.101684015910 	 20.166264580143 	
C	  1.274767531363 	  3.398854093963 	  6.876066293219 	
C	  0.706223401363 	  3.398856903963 	 17.006623013219 	
C	  1.274736431363 	  9.582415853963 	  6.876063463219 	
C	  0.706192301363 	  9.582418663963 	 17.006620183219 	
C	 15.955594831363 	  3.398863323963 	  6.904196223219 	
C	 15.387050701363 	  3.398866133963 	 17.034752943219 	
C	 15.955563731363 	  9.582425083963 	  6.904193393219 	
C	 15.387019601363 	  9.582427893963 	 17.034750113219 	
C	 12.477524896578 	  0.380836946776 	  8.675074988417 	
C	 11.908980766578 	  0.380839756776 	 18.805631708417 	
C	 12.477493796578 	  6.564398706776 	  8.675072158417 	
C	 11.908949666578 	  6.564401516776 	 18.805628878417 	
C	 27.158352196578 	  0.380846176776 	  8.703204918417 	
C	 26.589808066578 	  0.380848986776 	 18.833761638417 	
C	 27.158321096578 	  6.564407936776 	  8.703202088417 	
C	 26.589776966578 	  6.564410746776 	 18.833758808417 	
C	 12.628099593234 	  2.751344527371 	  3.529316787533 	
C	 12.059555463234 	  2.751347337371 	 13.659873507533 	
C	 12.628068493234 	  8.934906287371 	  3.529313957533 	
C	 12.059524363234 	  8.934909097371 	 13.659870677533 	
C	 27.308926893234 	  2.751353757371 	  3.557446717533 	
C	 26.740382763234 	  2.751356567371 	 13.688003437533 	
C	 27.308895793234 	  8.934915517371 	  3.557443887533 	
C	 26.740351663234 	  8.934918327371 	 13.688000607533 	
C	  1.425342365335 	  5.769361883794 	  1.730308957582 	
C	  0.856798235335 	  5.769364693794 	 11.860865677582 	
C	  1.425311265335 	 11.952923643794 	  1.730306127582 	
C	  0.856767135335 	 11.952926453794 	 11.860862847582 	
C	 16.106169665335 	  5.769371113794 	  1.758438887582 	
C	 15.537625535335 	  5.769373923794 	 11.888995607582 	
C	 16.106138565335 	 11.952932873794 	  1.758436057582 	
C	 15.537594435335 	 11.952935683794 	 11.888992777582 	
H	  1.632431074644 	  4.453646029007 	  6.992839495079 	
H	  1.063886944644 	  4.453648839007 	 17.123396215079 	
H	  1.632399974644 	 10.637207789007 	  6.992836665079 	
H	  1.063855844644 	 10.637210599007 	 17.123393385079 	
H	 16.313258374644 	  4.453655259007 	  7.020969425079 	
H	 15.744714244644 	  4.453658069007 	 17.151526145079 	
H	 16.313227274644 	 10.637217019007 	  7.020966595079 	
H	 15.744683144644 	 10.637219829007 	 17.151523315079 	
H	 12.012734244051 	  1.385701545796 	  8.572479063016 	
H	 11.444190114051 	  1.385704355796 	 18.703035783016 	
H	 12.012703144051 	  7.569263305796 	  8.572476233016 	
H	 11.444159014051 	  7.569266115796 	 18.703032953016 	
H	 26.693561544051 	  1.385710775796 	  8.600608993016 	
H	 26.125017414051 	  1.385713585796 	 18.731165713016 	
H	 26.693530444051 	  7.569272535796 	  8.600606163016 	
H	 26.124986314051 	  7.569275345796 	 18.731162883016 	
H	 12.270436121664 	  1.696552293195 	  3.412544033547 	
H	 11.701891991664 	  1.696555103195 	 13.543100753547 	
H	 12.270405021664 	  7.880114053195 	  3.412541203547 	
H	 11.701860891664 	  7.880116863195 	 13.543097923547 	
H	 26.951263421664 	  1.696561523195 	  3.440673963547 	
H	 26.382719291664 	  1.696564333195 	 13.571230683547 	
H	 26.951232321664 	  7.880123283195 	  3.440671133547 	
H	 26.382688191664 	  7.880126093195 	 13.571227853547 	
H	  1.890133108596 	  4.764497287676 	  1.832904459061 	
H	  1.321588978596 	  4.764500097676 	 11.963461179061 	
H	  1.890102008596 	 10.948059047676 	  1.832901629061 	
H	  1.321557878596 	 10.948061857676 	 11.963458349061 	
H	 16.570960408596 	  4.764506517676 	  1.861034389061 	
H	 16.002416278596 	  4.764509327676 	 11.991591109061 	
H	 16.570929308596 	 10.948068277676 	  1.861031559061 	
H	 16.002385178596 	 10.948071087676 	 11.991588279061 	
H	  0.964806618828 	  3.460559197355 	  7.950698698906 	
H	  0.396262488828 	  3.460562007355 	 18.081255418906 	
H	  0.964775518828 	  9.644120957355 	  7.950695868906 	
H	  0.396231388828 	  9.644123767355 	 18.081252588906 	
H	 15.645633918828 	  3.460568427355 	  7.978828628906 	
H	 15.077089788828 	  3.460571237355 	 18.109385348906 	
H	 15.645602818828 	  9.644130187355 	  7.978825798906 	
H	 15.077058688828 	  9.644132997355 	 18.109382518906 	
H	 12.669896941482 	  6.523617567853 	  7.634433074929 	
H	 12.101352811482 	  6.523620377853 	 17.764989794929 	
H	 12.669865841482 	 12.707179327853 	  7.634430244929 	
H	 12.101321711482 	 12.707182137853 	 17.764986964929 	
H	 27.350724241482 	  6.523626797853 	  7.662563004929 	
H	 26.782180111482 	  6.523629607853 	 17.793119724929 	
H	 27.350693141482 	 12.707188557853 	  7.662560174929 	
H	 26.782149011482 	 12.707191367853 	 17.793116894929 	
H	 12.938061474398 	  2.689640302287 	  2.454684404682 	
H	 12.369517344398 	  2.689643112287 	 12.585241124682 	
H	 12.938030374398 	  8.873202062287 	  2.454681574682 	
H	 12.369486244398 	  8.873204872287 	 12.585238294682 	
H	 27.618888774398 	  2.689649532287 	  2.482814334682 	
H	 27.050344644398 	  2.689652342287 	 12.613371054682 	
H	 27.618857674398 	  8.873211292287 	  2.482811504682 	
H	 27.050313544398 	  8.873214102287 	 12.613368224682 	
H	  1.232970513355 	 -0.373418886582 	  2.770950895761 	
H	  0.664426383355 	 -0.373416076582 	 12.901507615761 	
H	  1.232939413355 	  5.810142873418 	  2.770948065761 	
H	  0.664395283355 	  5.810145683418 	 12.901504785761 	
H	 15.913797813355 	 -0.373409656582 	  2.799080825761 	
H	 15.345253683355 	 -0.373406846582 	 12.929637545761 	
H	 15.913766713355 	  5.810152103418 	  2.799077995761 	
H	 15.345222583355 	  5.810154913418 	 12.929634715761 	
H	  0.302217604389 	  3.558834426276 	  6.347484532786 	
H	 -0.266326525611 	  3.558837236276 	 16.478041252786 	
H	  0.302186504389 	  9.742396186276 	  6.347481702786 	
H	 -0.266357625611 	  9.742398996276 	 16.478038422786 	
H	 14.983044904389 	  3.558843656276 	  6.375614462786 	
H	 14.414500774389 	  3.558846466276 	 16.506171182786 	
H	 14.983013804389 	  9.742405416276 	  6.375611632786 	
H	 14.414469674389 	  9.742408226276 	 16.506168352786 	
H	 13.328473202961 	  6.626340138168 	  9.218283059098 	
H	 12.759929072961 	  6.626342948168 	 19.348839779098 	
H	 13.328442102961 	 12.809901898168 	  9.218280229098 	
H	 12.759897972961 	 12.809904708168 	 19.348836949098 	
H	 28.009300502961 	  6.626349368168 	  9.246412989098 	
H	 27.440756372961 	  6.626352178168 	 19.376969709098 	
H	 28.009269402961 	 12.809911128168 	  9.246410159098 	
H	 27.440725272961 	 12.809913938168 	 19.376966879098 	
H	 13.600649509003 	  2.591364375470 	  4.057899030677 	
H	 13.032105379003 	  2.591367185470 	 14.188455750677 	
H	 13.600618409003 	  8.774926135470 	  4.057896200677 	
H	 13.032074279003 	  8.774928945470 	 14.188452920677 	
H	 28.281476809003 	  2.591373605470 	  4.086028960677 	
H	 27.712932679003 	  2.591376415470 	 14.216585680677 	
H	 28.281445709003 	  8.774935365470 	  4.086026130677 	
H	 27.712901579003 	  8.774938175470 	 14.216582850677 	
H	  0.574393970593 	 -0.476141373008 	  1.187101038674 	
H	  0.005849840593 	 -0.476138563008 	 11.317657758674 	
H	  0.574362870593 	  5.707420386992 	  1.187098208674 	
H	  0.005818740593 	  5.707423196992 	 11.317654928674 	
H	 15.255221270593 	 -0.476132143008 	  1.215230968674 	
H	 14.686677140593 	 -0.476129333008 	 11.345787688674 	
H	 15.255190170593 	  5.707429616992 	  1.215228138674 	
H	 14.686646040593 	  5.707432426992 	 11.345784858674 	
C	  1.376803286765 	  1.680271836567 	  6.560401059562 	
C	  0.808259156765 	  1.680274646567 	 16.690957779562 	
C	  1.376772186765 	  7.863833596567 	  6.560398229562 	
C	  0.808228056765 	  7.863836406567 	 16.690954949562 	
C	 16.057630586765 	  1.680281066567 	  6.588530989562 	
C	 15.489086456765 	  1.680283876567 	 16.719087709562 	
C	 16.057599486765 	  7.863842826567 	  6.588528159562 	
C	 15.489055356765 	  7.863845636567 	 16.719084879562 	
C	 12.264642409033 	  4.768267955543 	  9.019677637465 	
C	 11.696098279033 	  4.768270765543 	 19.150234357465 	
C	 12.264611309033 	 10.951829715543 	  9.019674807465 	
C	 11.696067179033 	 10.951832525543 	 19.150231527465 	
C	 26.945469709033 	  4.768277185543 	  9.047807567465 	
C	 26.376925579033 	  4.768279995543 	 19.178364287465 	
C	 26.945438609033 	 10.951838945543 	  9.047804737465 	
C	 26.376894479033 	 10.951841755543 	 19.178361457465 	
C	 12.526063290178 	  4.469928575672 	  3.844981993228 	
C	 11.957519160178 	  4.469931385672 	 13.975538713228 	
C	 12.526032190178 	 10.653490335672 	  3.844979163228 	
C	 11.957488060178 	 10.653493145672 	 13.975535883228 	
C	 27.206890590178 	  4.469937805672 	  3.873111923228 	
C	 26.638346460178 	  4.469940615672 	 14.003668643228 	
C	 27.206859490178 	 10.653499565672 	  3.873109093228 	
C	 26.638315360178 	 10.653502375672 	 14.003665813228 	
C	  1.638224679880 	  1.381930888928 	  1.385706653899 	
C	  1.069680549880 	  1.381933698928 	 11.516263373899 	
C	  1.638193579880 	  7.565492648928 	  1.385703823899 	
C	  1.069649449880 	  7.565495458928 	 11.516260543899 	
C	 16.319051979880 	  1.381940118928 	  1.413836583899 	
C	 15.750507849880 	  1.381942928928 	 11.544393303899 	
C	 16.319020879880 	  7.565501878928 	  1.413833753899 	
C	 15.750476749880 	  7.565504688928 	 11.544390473899 	
H	  0.387155047806 	  1.513705887758 	  6.073606691412 	
H	 -0.181389082194 	  1.513708697758 	 16.204163411412 	
H	  0.387123947806 	  7.697267647758 	  6.073603861412 	
H	 -0.181420182194 	  7.697270457758 	 16.204160581412 	
H	 15.067982347806 	  1.513715117758 	  6.101736621412 	
H	 14.499438217806 	  1.513717927758 	 16.232293341412 	
H	 15.067951247806 	  7.697276877758 	  6.101733791412 	
H	 14.499407117806 	  7.697279687758 	 16.232290511412 	
H	 13.254615368433 	  4.591668377009 	  9.503200155304 	
H	 12.686071238433 	  4.591671187009 	 19.633756875304 	
H	 13.254584268433 	 10.775230137009 	  9.503197325304 	
H	 12.686040138433 	 10.775232947009 	 19.633754045304 	
H	 27.935442668433 	  4.591677607009 	  9.531330085304 	
H	 27.366898538433 	  4.591680417009 	 19.661886805304 	
H	 27.935411568433 	 10.775239367009 	  9.531327255304 	
H	 27.366867438433 	 10.775242177009 	 19.661883975304 	
H	 13.515711629311 	  4.636494017995 	  4.331776870528 	
H	 12.947167499311 	  4.636496827995 	 14.462333590528 	
H	 13.515680529311 	 10.820055777995 	  4.331774040528 	
H	 12.947136399311 	 10.820058587995 	 14.462330760528 	
H	 28.196538929311 	  4.636503247995 	  4.359906800528 	
H	 27.627994799311 	  4.636506057995 	 14.490463520528 	
H	 28.196507829311 	 10.820065007995 	  4.359903970528 	
H	 27.627963699311 	 10.820067817995 	 14.490460690528 	
H	  0.648251663694 	  1.558530436860 	  0.902184269163 	
H	  0.079707533694 	  1.558533246860 	 11.032740989163 	
H	  0.648220563694 	  7.742092196860 	  0.902181439163 	
H	  0.079676433694 	  7.742095006860 	 11.032738159163 	
H	 15.329078963694 	  1.558539666860 	  0.930314199163 	
H	 14.760534833694 	  1.558542476860 	 11.060870919163 	
H	 15.329047863694 	  7.742101426860 	  0.930311369163 	
H	 14.760503733694 	  7.742104236860 	 11.060868089163 	
H	  1.186226556352 	  1.183540410802 	  7.543243751601 	
H	  0.617682426352 	  1.183543220802 	 17.673800471601 	
H	  1.186195456352 	  7.367102170802 	  7.543240921601 	
H	  0.617651326352 	  7.367104980802 	 17.673797641601 	
H	 15.867053856352 	  1.183549640802 	  7.571373681601 	
H	 15.298509726352 	  1.183552450802 	 17.701930401601 	
H	 15.867022756352 	  7.367111400802 	  7.571370851601 	
H	 15.298478626352 	  7.367114210802 	 17.701927571601 	
H	 12.455969934711 	  4.262178100704 	  8.034748342749 	
H	 11.887425804711 	  4.262180910704 	 18.165305062749 	
H	 12.455938834711 	 10.445739860704 	  8.034745512749 	
H	 11.887394704711 	 10.445742670704 	 18.165302232749 	
H	 27.136797234711 	  4.262187330704 	  8.062878272749 	
H	 26.568253104711 	  4.262190140704 	 18.193434992749 	
H	 27.136766134711 	 10.445749090704 	  8.062875442749 	
H	 26.568222004711 	 10.445751900704 	 18.193432162749 	
H	 12.716640536468 	  4.966659261844 	  2.862138779033 	
H	 12.148096406468 	  4.966662071844 	 12.992695499033 	
H	 12.716609436468 	 11.150221021844 	  2.862135949033 	
H	 12.148065306468 	 11.150223831844 	 12.992692669033 	
H	 27.397467836468 	  4.966668491844 	  2.890268709033 	
H	 26.828923706468 	  4.966671301844 	 13.020825429033 	
H	 27.397436736468 	 11.150230251844 	  2.890265879033 	
H	 26.828892606468 	 11.150233061844 	 13.020822599033 	
H	  1.446897172411 	  1.888020611163 	  2.370635995101 	
H	  0.878353042411 	  1.888023421163 	 12.501192715101 	
H	  1.446866072411 	  8.071582371163 	  2.370633165101 	
H	  0.878321942411 	  8.071585181163 	 12.501189885101 	
H	 16.127724472411 	  1.888029841163 	  2.398765925101 	
H	 15.559180342411 	  1.888032651163 	 12.529322645101 	
H	 16.127693372411 	  8.071591601163 	  2.398763095101 	
H	 15.559149242411 	  8.071594411163 	 12.529319815101 	
H	  1.840190054788 	  0.703282779794 	  6.289511434254 	
H	  1.271645924788 	  0.703285589794 	 16.420068154254 	
H	  1.840158954788 	  6.886844539794 	  6.289508604254 	
H	  1.271614824788 	  6.886847349794 	 16.420065324254 	
H	 16.521017354788 	  0.703292009794 	  6.317641364254 	
H	 15.952473224788 	  0.703294819794 	 16.448198084254 	
H	 16.520986254788 	  6.886853769794 	  6.317638534254 	
H	 15.952442124788 	  6.886856579794 	 16.448195254254 	
H	 11.802622193684 	  3.784413002377 	  9.286343956368 	
H	 11.234078063684 	  3.784415812377 	 19.416900676368 	
H	 11.802591093684 	  9.967974762377 	  9.286341126368 	
H	 11.234046963684 	  9.967977572377 	 19.416897846368 	
H	 26.483449493684 	  3.784422232377 	  9.314473886368 	
H	 25.914905363684 	  3.784425042377 	 19.445030606368 	
H	 26.483418393684 	  9.967983992377 	  9.314471056368 	
H	 25.914874263684 	  9.967986802377 	 19.445027776368 	
H	 12.062675706741 	  5.446916938709 	  4.115873586470 	
H	 11.494131576741 	  5.446919748709 	 14.246430306470 	
H	 12.062644606741 	 11.630478698709 	  4.115870756470 	
H	 11.494100476741 	 11.630481508709 	 14.246427476470 	
H	 26.743503006741 	  5.446926168709 	  4.144003516470 	
H	 26.174958876741 	  5.446928978709 	 14.274560236470 	
H	 26.743471906741 	 11.630487928709 	  4.144000686470 	
H	 26.174927776741 	 11.630490738709 	 14.274557406470 	
H	  2.100244782374 	  2.365786024279 	  1.119040830063 	
H	  1.531700652374 	  2.365788834279 	 11.249597550063 	
H	  2.100213682374 	  8.549347784279 	  1.119038000063 	
H	  1.531669552374 	  8.549350594279 	 11.249594720063 	
H	 16.781072082374 	  2.365795254279 	  1.147170760063 	
H	 16.212527952374 	  2.365798064279 	 11.277727480063 	
H	 16.781040982374 	  8.549357014279 	  1.147167930063 	
H	 16.212496852374 	  8.549359824279 	 11.277724650063 	
768 
Energy: -1.0379295060299999e+02 
S	  8.534587991509 	  1.500127296891 	  0.090363777976 	
S	  7.966043861509 	  1.500130106891 	 10.220920497976 	
S	  8.534556891509 	  7.683689056891 	  0.090360947976 	
S	  7.966012761509 	  7.683691866891 	 10.220917667976 	
S	 23.215415291509 	  1.500136526891 	  0.118493707976 	
S	 22.646871161509 	  1.500139336891 	 10.249050427976 	
S	 23.215384191509 	  7.683698286891 	  0.118490877976 	
S	 22.646840061509 	  7.683701096891 	 10.249047597976 	
S	  5.562391551706 	  4.569452071714 	  5.184252775966 	
S	  4.993847421706 	  4.569454881714 	 15.314809495966 	
S	  5.562360451706 	 10.753013831714 	  5.184249945966 	
S	  4.993816321706 	 10.753016641714 	 15.314806665966 	
S	 20.243218851706 	  4.569461301714 	  5.212382705966 	
S	 19.674674721706 	  4.569464111714 	 15.342939425966 	
S	 20.243187751706 	 10.753023061714 	  5.212379875966 	
S	 19.674643621706 	 10.753025871714 	 15.342936595966 	
S	  5.311471178415 	  4.641016450474 	 10.381951684176 	
S	  4.742927048415 	  4.641019260474 	 20.512508404176 	
S	  5.311440078415 	 10.824578210474 	 10.381948854176 	
S	  4.742895948415 	 10.824581020474 	 20.512505574176 	
S	 19.992298478415 	  4.641025680474 	 10.410081614176 	
S	 19.423754348415 	  4.641028490474 	 20.540638334176 	
S	 19.992267378415 	 10.824587440474 	 10.410078784176 	
S	 19.423723248415 	 10.824590250474 	 20.540635504176 	
S	  8.283668483201 	  1.571692025521 	  5.288062618300 	
S	  7.715124353201 	  1.571694835521 	 15.418619338300 	
S	  8.283637383201 	  7.755253785521 	  5.288059788300 	
S	  7.715093253201 	  7.755256595521 	 15.418616508300 	
S	 22.964495783201 	  1.571701255521 	  5.316192548300 	
S	 22.395951653201 	  1.571704065521 	 15.446749268300 	
S	 22.964464683201 	  7.755263015521 	  5.316189718300 	
S	 22.395920553201 	  7.755265825521 	 15.446746438300 	
C	  6.638250717127 	  2.558631503239 	 10.067191724139 	
C	  6.069706587127 	  2.558634313239 	 20.197748444139 	
C	  6.638219617127 	  8.742193263239 	 10.067188894139 	
C	  6.069675487127 	  8.742196073239 	 20.197745614139 	
C	 21.319078017127 	  2.558640733239 	 10.095321654139 	
C	 20.750533887127 	  2.558643543239 	 20.225878374139 	
C	 21.319046917127 	  8.742202493239 	 10.095318824139 	
C	 20.750502787127 	  8.742205303239 	 20.225875544139 	
C	  6.958125053070 	  5.577409645636 	  5.641519845688 	
C	  6.389580923070 	  5.577412455636 	 15.772076565688 	
C	  6.958093953070 	 11.760971405636 	  5.641517015688 	
C	  6.389549823070 	 11.760974215636 	 15.772073735688 	
C	 21.638952353070 	  5.577418875636 	  5.669649775688 	
C	 21.070408223070 	  5.577421685636 	 15.800206495688 	
C	 21.638921253070 	 11.760980635636 	  5.669646945688 	
C	 21.070377123070 	 11.760983445636 	 15.800203665688 	
C	  7.207808484421 	  3.582512213535 	  0.405123667050 	
C	  6.639264354421 	  3.582515023535 	 10.535680387050 	
C	  7.207777384421 	  9.766073973535 	  0.405120837050 	
C	  6.639233254421 	  9.766076783535 	 10.535677557050 	
C	 21.888635784421 	  3.582521443535 	  0.433253597050 	
C	 21.320091654421 	  3.582524253535 	 10.563810317050 	
C	 21.888604684421 	  9.766083203535 	  0.433250767050 	
C	 21.320060554421 	  9.766086013535 	 10.563807487050 	
C	  6.887934833750 	  0.563734532767 	  4.830795462534 	
C	  6.319390703750 	  0.563737342767 	 14.961352182534 	
C	  6.887903733750 	  6.747296292767 	  4.830792632534 	
C	  6.319359603750 	  6.747299102767 	 14.961349352534 	
C	 21.568762133750 	  0.563743762767 	  4.858925392534 	
C	 21.000218003750 	  0.563746572767 	 14.989482112534 	
C	 21.568731033750 	  6.747305522767 	  4.858922562534 	
C	 21.000186903750 	  6.747308332767 	 14.989479282534 	
C	  5.601773608555 	  2.371768809975 	  9.112166035610 	
C	  5.033229478555 	  2.371771619975 	 19.242722755610 	
C	  5.601742508555 	  8.555330569975 	  9.112163205610 	
C	  5.033198378555 	  8.555333379975 	 19.242719925610 	
C	 20.282600908555 	  2.371778039975 	  9.140295965610 	
C	 19.714056778555 	  2.371780849975 	 19.270852685610 	
C	 20.282569808555 	  8.555339799975 	  9.140293135610 	
C	 19.714025678555 	  8.555342609975 	 19.270849855610 	
C	  7.987699032181 	  5.431474300343 	  6.557184338403 	
C	  7.419154902181 	  5.431477110343 	 16.687741058403 	
C	  7.987667932181 	 11.615036060343 	  6.557181508403 	
C	  7.419123802181 	 11.615038870343 	 16.687738228403 	
C	 22.668526332182 	  5.431483530343 	  6.585314268403 	
C	 22.099982202182 	  5.431486340343 	 16.715870988403 	
C	 22.668495232181 	 11.615045290343 	  6.585311438403 	
C	 22.099951102181 	 11.615048100343 	 16.715868158403 	
C	  8.244285458133 	  3.769374955597 	  1.360149247576 	
C	  7.675741328133 	  3.769377765597 	 11.490705967576 	
C	  8.244254358133 	  9.952936715597 	  1.360146417576 	
C	  7.675710228133 	  9.952939525597 	 11.490703137576 	
C	 22.925112758133 	  3.769384185597 	  1.388279177576 	
C	 22.356568628133 	  3.769386995597 	 11.518835897576 	
C	 22.925081658133 	  9.952945945597 	  1.388276347576 	
C	 22.356537528133 	  9.952948755597 	 11.518833067576 	
C	  5.858360715815 	  0.709669891419 	  3.915131036903 	
C	  5.289816585815 	  0.709672701419 	 14.045687756903 	
C	  5.858329615815 	  6.893231651419 	  3.915128206903 	
C	  5.289785485815 	  6.893234461419 	 14.045684926903 	
C	 20.539188015815 	  0.709679121419 	  3.943260966903 	
C	 19.970643885815 	  0.709681931419 	 14.073817686903 	
C	 20.539156915815 	  6.893240881419 	  3.943258136903 	
C	 19.970612785815 	  6.893243691419 	 14.073814856903 	
C	  4.735377352227 	  3.434137367660 	  9.134875189938 	
C	  4.166833222227 	  3.434140177660 	 19.265431909938 	
C	  4.735346252227 	  9.617699127660 	  9.134872359938 	
C	  4.166802122227 	  9.617701937660 	 19.265429079938 	
C	 19.416204652227 	  3.434146597660 	  9.163005119938 	
C	 18.847660522227 	  3.434149407660 	 19.293561839938 	
C	 19.416173552227 	  9.617708357660 	  9.163002289938 	
C	 18.847629422227 	  9.617711167660 	 19.293559009938 	
C	  8.860001822626 	  0.372459683102 	  6.536747297103 	
C	  8.291457692626 	  0.372462493102 	 16.667304017103 	
C	  8.859970722626 	  6.556021443102 	  6.536744467103 	
C	  8.291426592626 	  6.556024253102 	 16.667301187103 	
C	 23.540829122626 	  0.372468913102 	  6.564877227103 	
C	 22.972284992626 	  0.372471723102 	 16.695433947103 	
C	 23.540798022626 	  6.556030673102 	  6.564874397103 	
C	 22.972253892626 	  6.556033483102 	 16.695431117103 	
C	  9.110681705219 	  2.707006419045 	  1.337440157435 	
C	  8.542137575219 	  2.707009229045 	 11.467996877435 	
C	  9.110650605219 	  8.890568179045 	  1.337437327435 	
C	  8.542106475219 	  8.890570989045 	 11.467994047435 	
C	 23.791509005219 	  2.707015649045 	  1.365570087435 	
C	 23.222964875219 	  2.707018459045 	 11.496126807435 	
C	 23.791477905219 	  8.890577409045 	  1.365567257435 	
C	 23.222933775219 	  8.890580219045 	 11.496123977435 	
C	  4.986057978927 	  5.768684465144 	  3.935568207151 	
C	  4.417513848927 	  5.768687275144 	 14.066124927151 	
C	  4.986026878927 	 11.952246225144 	  3.935565377151 	
C	  4.417482748927 	 11.952249035144 	 14.066122097151 	
C	 19.666885278927 	  5.768693695144 	  3.963698137151 	
C	 19.098341148927 	  5.768696505144 	 14.094254857151 	
C	 19.666854178927 	 11.952255455144 	  3.963695307151 	
C	 19.098310048927 	 11.952258265144 	 14.094252027151 	
C	  3.680127942457 	  3.520652499472 	  8.382860198257 	
C	  3.111583812457 	  3.520655309472 	 18.513416918257 	
C	  3.680096842457 	  9.704214259472 	  8.382857368257 	
C	  3.111552712457 	  9.704217069472 	 18.513414088257 	
C	 18.360955242457 	  3.520661729472 	  8.410990128257 	
C	 17.792411112457 	  3.520664539472 	 18.541546848257 	
C	 18.360924142457 	  9.704223489472 	  8.410987298257 	
C	 17.792380012457 	  9.704226299472 	 18.541544018257 	
C	  9.905588002761 	  0.464709490889 	  7.276979926265 	
C	  9.337043872761 	  0.464712300889 	 17.407536646265 	
C	  9.905556902761 	  6.648271250889 	  7.276977096265 	
C	  9.337012772761 	  6.648274060889 	 17.407533816265 	
C	 24.586415302761 	  0.464718720889 	  7.305109856265 	
C	 24.017871172761 	  0.464721530889 	 17.435666576265 	
C	 24.586384202761 	  6.648280480889 	  7.305107026265 	
C	 24.017840072761 	  6.648283290889 	 17.435663746265 	
C	 10.165931152756 	  2.620491408212 	  2.089455340462 	
C	  9.597387022756 	  2.620494218212 	 12.220012060462 	
C	 10.165900052756 	  8.804053168212 	  2.089452510462 	
C	  9.597355922756 	  8.804055978212 	 12.220009230462 	
C	 24.846758452756 	  2.620500638212 	  2.117585270462 	
C	 24.278214322756 	  2.620503448212 	 12.248141990462 	
C	 24.846727352756 	  8.804062398212 	  2.117582440462 	
C	 24.278183222756 	  8.804065208212 	 12.248139160462 	
C	  3.940471559482 	  5.676434685639 	  3.195335822417 	
C	  3.371927429482 	  5.676437495639 	 13.325892542417 	
C	  3.940440459482 	 11.859996445639 	  3.195332992417 	
C	  3.371896329482 	 11.859999255639 	 13.325889712417 	
C	 18.621298859482 	  5.676443915639 	  3.223465752417 	
C	 18.052754729482 	  5.676446725639 	 13.354022472417 	
C	 18.621267759482 	 11.860005675639 	  3.223462922417 	
C	 18.052723629482 	 11.860008485639 	 13.354019642417 	
H	  3.005965055449 	  4.451004368632 	  8.459402957913 	
H	  2.437420925449 	  4.451007178632 	 18.589959677913 	
H	  3.005933955449 	 10.634566128632 	  8.459400127913 	
H	  2.437389825449 	 10.634568938632 	 18.589956847913 	
H	 17.686792355449 	  4.451013598632 	  8.487532887913 	
H	 17.118248225449 	  4.451016408632 	 18.618089607913 	
H	 17.686761255449 	 10.634575358632 	  8.487530057913 	
H	 17.118217125449 	 10.634578168632 	 18.618086777913 	
H	 10.588233484930 	  1.378838579626 	  7.212935026861 	
H	 10.019689354930 	  1.378841389626 	 17.343491746861 	
H	 10.588202384930 	  7.562400339626 	  7.212932196861 	
H	 10.019658254930 	  7.562403149626 	 17.343488916861 	
H	 25.269060784930 	  1.378847809626 	  7.241064956861 	
H	 24.700516654930 	  1.378850619626 	 17.371621676861 	
H	 25.269029684930 	  7.562409569626 	  7.241062126861 	
H	 24.700485554930 	  7.562412379626 	 17.371618846861 	
H	 10.840093970450 	  1.690139466597 	  2.012912634478 	
H	 10.271549840450 	  1.690142276597 	 12.143469354478 	
H	 10.840062870450 	  7.873701226597 	  2.012909804478 	
H	 10.271518740450 	  7.873704036597 	 12.143466524478 	
H	 25.520921270450 	  1.690148696597 	  2.041042564478 	
H	 24.952377140450 	  1.690151506597 	 12.171599284478 	
H	 25.520890170450 	  7.873710456597 	  2.041039734478 	
H	 24.952346040450 	  7.873713266597 	 12.171596454478 	
H	  3.257826203585 	  4.762305514936 	  3.259380841910 	
H	  2.689282073585 	  4.762308324936 	 13.389937561910 	
H	  3.257795103585 	 10.945867274936 	  3.259378011910 	
H	  2.689250973585 	 10.945870084936 	 13.389934731910 	
H	 17.938653503585 	  4.762314744936 	  3.287510771910 	
H	 17.370109373585 	  4.762317554936 	 13.418067491910 	
H	 17.938622403585 	 10.945876504936 	  3.287507941910 	
H	 17.370078273585 	 10.945879314936 	 13.418064661910 	
C	  3.354371790363 	  2.570024915166 	  7.524191105231 	
C	  2.785827660363 	  2.570027725166 	 17.654747825231 	
C	  3.354340690363 	  8.753586675166 	  7.524188275231 	
C	  2.785796560363 	  8.753589485166 	 17.654744995231 	
C	 18.035199090363 	  2.570034145166 	  7.552321035231 	
C	 17.466654960363 	  2.570036955166 	 17.682877755231 	
C	 18.035167990363 	  8.753595905166 	  7.552318205231 	
C	 17.466623860363 	  8.753598715166 	 17.682874925231 	
C	 10.248126896913 	  5.623725876645 	  8.158699515809 	
C	  9.679582766913 	  5.623728686645 	 18.289256235809 	
C	 10.248095796913 	 11.807287636645 	  8.158696685809 	
C	  9.679551666913 	 11.807290446645 	 18.289253405809 	
C	 24.928954196913 	  5.623735106645 	  8.186829445809 	
C	 24.360410066913 	  5.623737916645 	 18.317386165809 	
C	 24.928923096913 	 11.807296866645 	  8.186826615809 	
C	 24.360378966913 	 11.807299676645 	 18.317383335809 	
C	 10.491687048229 	  3.571119010759 	  2.948124185629 	
C	  9.923142918229 	  3.571121820759 	 13.078680905629 	
C	 10.491655948229 	  9.754680770759 	  2.948121355629 	
C	  9.923111818229 	  9.754683580759 	 13.078678075629 	
C	 25.172514348229 	  3.571128240759 	  2.976254115629 	
C	 24.603970218229 	  3.571131050759 	 13.106810835629 	
C	 25.172483248229 	  9.754690000759 	  2.976251285629 	
C	 24.603939118229 	  9.754692810759 	 13.106808005629 	
C	  3.597932509118 	  0.517418342023 	  2.313616327510 	
C	  3.029388379118 	  0.517421152023 	 12.444173047510 	
C	  3.597901409118 	  6.700980102023 	  2.313613497510 	
C	  3.029357279118 	  6.700982912023 	 12.444170217510 	
C	 18.278759809118 	  0.517427572023 	  2.341746257510 	
C	 17.710215679118 	  0.517430382023 	 12.472302977510 	
C	 18.278728709118 	  6.700989332023 	  2.341743427510 	
C	 17.710184579118 	  6.700992142023 	 12.472300147510 	
C	  4.220295333545 	  1.518899102195 	  7.466822240717 	
C	  3.651751203545 	  1.518901912195 	 17.597378960717 	
C	  4.220264233545 	  7.702460862195 	  7.466819410717 	
C	  3.651720103545 	  7.702463672195 	 17.597376130717 	
C	 18.901122633545 	  1.518908332195 	  7.494952170717 	
C	 18.332578503545 	  1.518911142195 	 17.625508890717 	
C	 18.901091533545 	  7.702470092195 	  7.494949340717 	
C	 18.332547403545 	  7.702472902195 	 17.625506060717 	
C	  9.374086736338 	  4.591827415314 	  8.202190843230 	
C	  8.805542606338 	  4.591830225314 	 18.332747563230 	
C	  9.374055636338 	 10.775389175314 	  8.202188013230 	
C	  8.805511506338 	 10.775391985314 	 18.332744733230 	
C	 24.054914036338 	  4.591836645314 	  8.230320773230 	
C	 23.486369906338 	  4.591839455314 	 18.360877493230 	
C	 24.054882936338 	 10.775398405314 	  8.230317943230 	
C	 23.486338806338 	 10.775401215314 	 18.360874663230 	
C	  9.625763608840 	  4.622244831112 	  3.005493087140 	
C	  9.057219478840 	  4.622247641112 	 13.136049807140 	
C	  9.625732508840 	 10.805806591112 	  3.005490257140 	
C	  9.057188378840 	 10.805809401112 	 13.136046977140 	
C	 24.306590908840 	  4.622254061112 	  3.033623017140 	
C	 23.738046778840 	  4.622256871112 	 13.164179737140 	
C	 24.306559808840 	 10.805815821112 	  3.033620187140 	
C	 23.738015678840 	 10.805818631112 	 13.164176907140 	
C	  4.471972544099 	  1.549316717185 	  2.270124808779 	
C	  3.903428414099 	  1.549319527185 	 12.400681528779 	
C	  4.471941444099 	  7.732878477185 	  2.270121978779 	
C	  3.903397314099 	  7.732881287185 	 12.400678698779 	
C	 19.152799844099 	  1.549325947185 	  2.298254738779 	
C	 18.584255714099 	  1.549328757185 	 12.428811458779 	
C	 19.152768744099 	  7.732887707185 	  2.298251908779 	
C	 18.584224614099 	  7.732890517185 	 12.428808628779 	
H	  3.987812082182 	  0.685811784665 	  6.711397841150 	
H	  3.419267952182 	  0.685814594665 	 16.841954561150 	
H	  3.987780982182 	  6.869373544665 	  6.711395011150 	
H	  3.419236852182 	  6.869376354665 	 16.841951731150 	
H	 18.668639382182 	  0.685821014665 	  6.739527771150 	
H	 18.100095252182 	  0.685823824665 	 16.870084491150 	
H	 18.668608282182 	  6.869382774665 	  6.739524941150 	
H	 18.100064152182 	  6.869385584665 	 16.870081661150 	
H	  9.605405922800 	  3.757892263983 	  8.958750068354 	
H	  9.036861792800 	  3.757895073983 	 19.089306788354 	
H	  9.605374822800 	  9.941454023983 	  8.958747238354 	
H	  9.036830692800 	  9.941456833983 	 19.089303958354 	
H	 24.286233222800 	  3.757901493983 	  8.986879998354 	
H	 23.717689092800 	  3.757904303983 	 19.117436718354 	
H	 24.286202122800 	  9.941463253983 	  8.986877168354 	
H	 23.717657992800 	  9.941466063983 	 19.117433888354 	
H	  9.858246933327 	  5.455332215596 	  3.760917398599 	
H	  9.289702803327 	  5.455335025596 	 13.891474118599 	
H	  9.858215833327 	 11.638893975596 	  3.760914568599 	
H	  9.289671703327 	 11.638896785596 	 13.891471288599 	
H	 24.539074233327 	  5.455341445596 	  3.789047328599 	
H	 23.970530103327 	  5.455344255596 	 13.919604048599 	
H	 24.539043133327 	 11.638903205596 	  3.789044498599 	
H	 23.970499003327 	 11.638906015596 	 13.919601218599 	
H	  4.240653186096 	  2.383251957227 	  1.513565727231 	
H	  3.672109056096 	  2.383254767227 	 11.644122447231 	
H	  4.240622086096 	  8.566813717227 	  1.513562897231 	
H	  3.672077956096 	  8.566816527227 	 11.644119617231 	
H	 18.921480486096 	  2.383261187227 	  1.541695657231 	
H	 18.352936356096 	  2.383263997227 	 11.672252377231 	
H	 18.921449386096 	  8.566822947227 	  1.541692827231 	
H	 18.352905256096 	  8.566825757227 	 11.672249547231 	
C	  5.252447656844 	  1.418703967476 	  8.187433558403 	
C	  4.683903526844 	  1.418706777476 	 18.317990278403 	
C	  5.252416556844 	  7.602265727476 	  8.187430728403 	
C	  4.683872426844 	  7.602268537476 	 18.317987448403 	
C	 19.933274956844 	  1.418713197476 	  8.215563488403 	
C	 19.364730826844 	  1.418716007476 	 18.346120208403 	
C	 19.933243856844 	  7.602274957476 	  8.215560658403 	
C	 19.364699726844 	  7.602277767476 	 18.346117378403 	
C	  8.341010675566 	  4.491170886635 	  7.481041721315 	
C	  7.772466545566 	  4.491173696635 	 17.611598441315 	
C	  8.340979575566 	 10.674732646635 	  7.481038891315 	
C	  7.772435445566 	 10.674735456635 	 17.611595611315 	
C	 23.021837975566 	  4.491180116635 	  7.509171651315 	
C	 22.453293845566 	  4.491182926635 	 17.639728371315 	
C	 23.021806875566 	 10.674741876635 	  7.509168821315 	
C	 22.453262745566 	 10.674744686635 	 17.639725541315 	
C	  8.593611348066 	  4.722439893467 	  2.284881672026 	
C	  8.025067218066 	  4.722442703467 	 12.415438392026 	
C	  8.593580248066 	 10.906001653467 	  2.284878842026 	
C	  8.025036118066 	 10.906004463467 	 12.415435562026 	
C	 23.274438648066 	  4.722449123467 	  2.313011602026 	
C	 22.705894518066 	  4.722451933467 	 12.443568322026 	
C	 23.274407548066 	 10.906010883467 	  2.313008772026 	
C	 22.705863418066 	 10.906013693467 	 12.443565492026 	
C	  5.505048859263 	  1.649973298063 	  2.991273782028 	
C	  4.936504729263 	  1.649976108063 	 13.121830502028 	
C	  5.505017759263 	  7.833535058063 	  2.991270952028 	
C	  4.936473629263 	  7.833537868063 	 13.121827672028 	
C	 20.185876159263 	  1.649982528063 	  3.019403712028 	
C	 19.617332029263 	  1.649985338063 	 13.149960432028 	
C	 20.185845059263 	  7.833544288063 	  3.019400882028 	
C	 19.617300929263 	  7.833547098063 	 13.149957602028 	
H	  5.948966197123 	  0.508772848602 	  8.097982768819 	
H	  5.380422067123 	  0.508775658602 	 18.228539488819 	
H	  5.948935097123 	  6.692334608602 	  8.097979938819 	
H	  5.380390967123 	  6.692337418602 	 18.228536658819 	
H	 20.629793497123 	  0.508782078602 	  8.126112698819 	
H	 20.061249367123 	  0.508784888602 	 18.256669418819 	
H	 20.629762397123 	  6.692343838602 	  8.126109868819 	
H	 20.061218267123 	  6.692346648602 	 18.256666588819 	
H	  7.644203960431 	  3.579878191629 	  7.571851366904 	
H	  7.075659830431 	  3.579881001629 	 17.702408086904 	
H	  7.644172860431 	  9.763439951629 	  7.571848536904 	
H	  7.075628730431 	  9.763442761629 	 17.702405256904 	
H	 22.325031260431 	  3.579887421629 	  7.599981296904 	
H	 21.756487130431 	  3.579890231629 	 17.730538016904 	
H	 22.325000160431 	  9.763449181629 	  7.599978466904 	
H	 21.756456030431 	  9.763451991629 	 17.730535186904 	
H	  7.897092757106 	  5.632370976707 	  2.374332357949 	
H	  7.328548627106 	  5.632373786707 	 12.504889077949 	
H	  7.897061657106 	 11.815932736707 	  2.374329527949 	
H	  7.328517527106 	 11.815935546707 	 12.504886247949 	
H	 22.577920057106 	  5.632380206707 	  2.402462287949 	
H	 22.009375927106 	  5.632383016707 	 12.533019007949 	
H	 22.577888957106 	 11.815941966707 	  2.402459457949 	
H	 22.009344827106 	 11.815944776707 	 12.533016177949 	
H	  6.201855535760 	  2.561266001350 	  2.900464017127 	
H	  5.633311405760 	  2.561268811350 	 13.031020737127 	
H	  6.201824435760 	  8.744827761350 	  2.900461187127 	
H	  5.633280305760 	  8.744830571350 	 13.031017907127 	
H	 20.882682835760 	  2.561275231350 	  2.928593947127 	
H	 20.314138705760 	  2.561278041350 	 13.059150667127 	
H	 20.882651735760 	  8.744836991350 	  2.928591117127 	
H	 20.314107605760 	  8.744839801350 	 13.059147837127 	
C	  2.024403537423 	  2.655412073609 	  6.624755640060 	
C	  1.455859407423 	  2.655414883609 	 16.755312360060 	
C	  2.024372437423 	  8.838973833609 	  6.624752810060 	
C	  1.455828307423 	  8.838976643609 	 16.755309530060 	
C	 16.705230837423 	  2.655421303609 	  6.652885570060 	
C	 16.136686707423 	  2.655424113609 	 16.783442290060 	
C	 16.705199737423 	  8.838983063609 	  6.652882740060 	
C	 16.136655607423 	  8.838985873609 	 16.783439460060 	
C	 11.473646603525 	  5.672991875829 	  8.989115096175 	
C	 10.905102473525 	  5.672994685829 	 19.119671816175 	
C	 11.473615503525 	 11.856553635829 	  8.989112266175 	
C	 10.905071373525 	 11.856556445829 	 19.119668986175 	
C	 26.154473903525 	  5.673001105829 	  9.017245026175 	
C	 25.585929773525 	  5.673003915829 	 19.147801746175 	
C	 26.154442803525 	 11.856562865829 	  9.017242196175 	
C	 25.585898673525 	 11.856565675829 	 19.147798916175 	
C	 11.821656773662 	  3.485732307474 	  3.847561497214 	
C	 11.253112643662 	  3.485735117474 	 13.978118217214 	
C	 11.821625673662 	  9.669294067474 	  3.847558667214 	
C	 11.253081543662 	  9.669296877474 	 13.978115387214 	
C	 26.502484073662 	  3.485741537474 	  3.875691427214 	
C	 25.933939943662 	  3.485744347474 	 14.006248147214 	
C	 26.502452973662 	  9.669303297474 	  3.875688597214 	
C	 25.933908843662 	  9.669306107474 	 14.006245317214 	
C	  2.372412547859 	  0.468152182954 	  1.483200999997 	
C	  1.803868417859 	  0.468154992954 	 11.613757719997 	
C	  2.372381447859 	  6.651713942954 	  1.483198169997 	
C	  1.803837317859 	  6.651716752954 	 11.613754889997 	
C	 17.053239847859 	  0.468161412954 	  1.511330929997 	
C	 16.484695717859 	  0.468164222954 	 11.641887649997 	
C	 17.053208747859 	  6.651723172954 	  1.511328099997 	
C	 16.484664617859 	  6.651725982954 	 11.641884819997 	
C	  2.122551834516 	  2.744771774723 	  5.527747807046 	
C	  1.554007704516 	  2.744774584723 	 15.658304527046 	
C	  2.122520734516 	  8.928333534723 	  5.527744977046 	
C	  1.553976604516 	  8.928336344723 	 15.658301697046 	
C	 16.803379134516 	  2.744781004723 	  5.555877737046 	
C	 16.234835004516 	  2.744783814723 	 15.686434457046 	
C	 16.803348034516 	  8.928342764723 	  5.555874907046 	
C	 16.234803904516 	  8.928345574723 	 15.686431627046 	
C	 11.465410655298 	 -0.351632113988 	 10.054907015170 	
C	 10.896866525298 	 -0.351629303988 	 20.185463735170 	
C	 11.465379555298 	  5.831929646012 	 10.054904185170 	
C	 10.896835425298 	  5.831932456012 	 20.185460905170 	
C	 26.146237955298 	 -0.351622883988 	 10.083036945170 	
C	 25.577693825298 	 -0.351620073988 	 20.213593665170 	
C	 26.146206855298 	  5.831938876012 	 10.083034115170 	
C	 25.577662725298 	  5.831941686012 	 20.213590835170 	
C	 11.723505322229 	  3.396372138895 	  4.944569242007 	
C	 11.154961192229 	  3.396374948895 	 15.075125962007 	
C	 11.723474222229 	  9.579933898895 	  4.944566412007 	
C	 11.154930092229 	  9.579936708895 	 15.075123132007 	
C	 26.404332622229 	  3.396381368895 	  4.972699172007 	
C	 25.835788492229 	  3.396384178895 	 15.103255892007 	
C	 26.404301522229 	  9.579943128895 	  4.972696342007 	
C	 25.835757392229 	  9.579945938895 	 15.103253062007 	
C	  2.380648418876 	  6.492776098241 	  0.417409020428 	
C	  1.812104288876 	  6.492778908241 	 10.547965740428 	
C	  2.380617318876 	 12.676337858241 	  0.417406190428 	
C	  1.812073188876 	 12.676340668241 	 10.547962910428 	
C	 17.061475718876 	  6.492785328241 	  0.445538950428 	
C	 16.492931588876 	  6.492788138241 	 10.576095670428 	
C	 17.061444618876 	 12.676347088241 	  0.445536120428 	
C	 16.492900488876 	 12.676349898241 	 10.576092840428 	
H	  2.913475524988 	  3.408635160772 	  5.118656939082 	
H	  2.344931394988 	  3.408637970772 	 15.249213659082 	
H	  2.913444424988 	  9.592196920772 	  5.118654109082 	
H	  2.344900294988 	  9.592199730772 	 15.249210829082 	
H	 17.594302824988 	  3.408644390772 	  5.146786869082 	
H	 17.025758694988 	  3.408647200772 	 15.277343589082 	
H	 17.594271724988 	  9.592206150772 	  5.146784039082 	
H	 17.025727594988 	  9.592208960772 	 15.277340759082 	
H	 10.719249365737 	  0.378810594680 	 10.523266995640 	
H	 10.150705235737 	  0.378813404680 	 20.653823715640 	
H	 10.719218265737 	  6.562372354680 	 10.523264165640 	
H	 10.150674135737 	  6.562375164680 	 20.653820885640 	
H	 25.400076665737 	  0.378819824680 	 10.551396925640 	
H	 24.831532535737 	  0.378822634680 	 20.681953645640 	
H	 25.400045565737 	  6.562381584680 	 10.551394095640 	
H	 24.831501435737 	  6.562384394680 	 20.681950815640 	
H	 10.932583086248 	  2.732505176054 	  5.353657401598 	
H	 10.364038956248 	  2.732507986054 	 15.484214121598 	
H	 10.932551986248 	  8.916066936054 	  5.353654571598 	
H	 10.364007856248 	  8.916069746054 	 15.484211291598 	
H	 25.613410386248 	  2.732514406054 	  5.381787331598 	
H	 25.044866256248 	  2.732517216054 	 15.512344051598 	
H	 25.613379286248 	  8.916076166054 	  5.381784501598 	
H	 25.044835156248 	  8.916078976054 	 15.512341221598 	
H	  3.126809665312 	  5.762333907621 	 -0.050951433672 	
H	  2.558265535312 	  5.762336717621 	 10.079605286328 	
H	  3.126778565312 	 11.945895667621 	 -0.050954263672 	
H	  2.558234435312 	 11.945898477621 	 10.079602456328 	
H	 17.807636965312 	  5.762343137621 	 -0.022821503672 	
H	 17.239092835312 	  5.762345947621 	 10.107735216328 	
H	 17.807605865312 	 11.945904897621 	 -0.022824333672 	
H	 17.239061735312 	 11.945907707621 	 10.107732386328 	
H	  1.420051966915 	  2.862002210421 	  4.675303956453 	
H	  0.851507836915 	  2.862005020421 	 14.805860676453 	
H	  1.420020866915 	  9.045563970421 	  4.675301126453 	
H	  0.851476736915 	  9.045566780421 	 14.805857846453 	
H	 16.100879266915 	  2.862011440421 	  4.703433886453 	
H	 15.532335136915 	  2.862014250421 	 14.833990606453 	
H	 16.100848166915 	  9.045573200421 	  4.703431056453 	
H	 15.532304036915 	  9.045576010421 	 14.833987776453 	
H	 12.736559198045 	 -0.192319833468 	  0.679154268870 	
H	 12.168015068045 	 -0.192317023468 	 10.809710988870 	
H	 12.736528098045 	  5.991241926532 	  0.679151438870 	
H	 12.167983968045 	  5.991244736532 	 10.809708158870 	
H	 27.417386498045 	 -0.192310603468 	  0.707284198870 	
H	 26.848842368045 	 -0.192307793468 	 10.837840918870 	
H	 27.417355398045 	  5.991251156532 	  0.707281368870 	
H	 26.848811268045 	  5.991253966532 	 10.837838088870 	
H	 12.426006496030 	  3.279141985653 	  5.797012289253 	
H	 11.857462366030 	  3.279144795653 	 15.927569009253 	
H	 12.425975396030 	  9.462703745653 	  5.797009459253 	
H	 11.857431266030 	  9.462706555653 	 15.927566179253 	
H	 27.106833796030 	  3.279151215653 	  5.825142219253 	
H	 26.538289666030 	  3.279154025653 	 15.955698939253 	
H	 27.106802696030 	  9.462712975653 	  5.825139389253 	
H	 26.538258566030 	  9.462715785653 	 15.955696109253 	
H	  1.109499618572 	  6.333464246069 	  9.793161857295 	
H	  0.540955488572 	  6.333467056069 	 19.923718577295 	
H	  1.109468518572 	 12.517026006069 	  9.793159027295 	
H	  0.540924388572 	 12.517028816069 	 19.923715747295 	
H	 15.790326918572 	  6.333473476069 	  9.821291787295 	
H	 15.221782788572 	  6.333476286069 	 19.951848507295 	
H	 15.790295818572 	 12.517035236069 	  9.821288957295 	
H	 15.221751688572 	 12.517038046069 	 19.951845677295 	
H	  2.810987378744 	  2.066555954828 	  4.981270968725 	
H	  2.242443248744 	  2.066558764828 	 15.111827688725 	
H	  2.810956278744 	  8.250117714828 	  4.981268138725 	
H	  2.242412148744 	  8.250120524828 	 15.111824858725 	
H	 17.491814678744 	  2.066565184828 	  5.009400898725 	
H	 16.923270548744 	  2.066567994828 	 15.139957618725 	
H	 17.491783578744 	  8.250126944828 	  5.009398068725 	
H	 16.923239448744 	  8.250129754828 	 15.139954788725 	
H	 11.202821707090 	  5.075156202790 	  0.390184964531 	
H	 10.634277577090 	  5.075159012790 	 10.520741684531 	
H	 11.202790607090 	 11.258717962790 	  0.390182134531 	
H	 10.634246477090 	 11.258720772790 	 10.520738854531 	
H	 25.883649007090 	  5.075165432790 	  0.418314894531 	
H	 25.315104877090 	  5.075168242790 	 10.548871614531 	
H	 25.883617907090 	 11.258727192790 	  0.418312064531 	
H	 25.315073777090 	 11.258730002790 	 10.548868784531 	
H	 11.035070346391 	  4.074590157881 	  5.491044340479 	
H	 10.466526216391 	  4.074592967881 	 15.621601060479 	
H	 11.035039246391 	 10.258151917881 	  5.491041510479 	
H	 10.466495116391 	 10.258154727881 	 15.621598230479 	
H	 25.715897646391 	  4.074599387881 	  5.519174270479 	
H	 25.147353516391 	  4.074602197881 	 15.649730990479 	
H	 25.715866546391 	 10.258161147881 	  5.519171440479 	
H	 25.147322416391 	 10.258163957881 	 15.649728160479 	
H	  2.643237168036 	  1.065988444764 	 10.082131418570 	
H	  2.074693038036 	  1.065991254764 	 20.212688138570 	
H	  2.643206068036 	  7.249550204764 	 10.082128588570 	
H	  2.074661938036 	  7.249553014764 	 20.212685308570 	
H	 17.324064468036 	  1.065997674764 	 10.110261348570 	
H	 16.755520338036 	  1.066000484764 	 20.240818068570 	
H	 17.324033368036 	  7.249559434764 	 10.110258518570 	
H	 16.755489238036 	  7.249562244764 	 20.240815238570 	
C	  1.339411610513 	  3.507602479105 	  6.811742706527 	
C	  0.770867480513 	  3.507605289105 	 16.942299426527 	
C	  1.339380510513 	  9.691164239105 	  6.811739876527 	
C	  0.770836380513 	  9.691167049105 	 16.942296596527 	
C	 16.020238910513 	  3.507611709105 	  6.839872636527 	
C	 15.451694780513 	  3.507614519105 	 16.970429356527 	
C	 16.020207810513 	  9.691173469105 	  6.839869806527 	
C	 15.451663680513 	  9.691176279105 	 16.970426526527 	
C	 12.368940599867 	  0.509429128617 	  8.830939306543 	
C	 11.800396469867 	  0.509431938617 	 18.961496026543 	
C	 12.368909499867 	  6.692990888617 	  8.830936476543 	
C	 11.800365369867 	  6.692993698617 	 18.961493196543 	
C	 27.049767899867 	  0.509438358617 	  8.859069236543 	
C	 26.481223769867 	  0.509441168617 	 18.989625956543 	
C	 27.049736799867 	  6.693000118617 	  8.859066406543 	
C	 26.481192669867 	  6.693002928617 	 18.989623126543 	
C	 12.506647587589 	  2.633541241206 	  3.660571963469 	
C	 11.938103457589 	  2.633544051206 	 13.791128683469 	
C	 12.506616487589 	  8.817103001206 	  3.660569133469 	
C	 11.938072357589 	  8.817105811206 	 13.791125853469 	
C	 27.187474887589 	  2.633550471206 	  3.688701893469 	
C	 26.618930757589 	  2.633553281206 	 13.819258613469 	
C	 27.187443787589 	  8.817112231206 	  3.688699063469 	
C	 26.618899657589 	  8.817115041206 	 13.819255783469 	
C	  1.477118576216 	  5.631714817725 	  1.641376672169 	
C	  0.908574446216 	  5.631717627725 	 11.771933392169 	
C	  1.477087476216 	 11.815276577725 	  1.641373842169 	
C	  0.908543346216 	 11.815279387725 	 11.771930562169 	
C	 16.157945876216 	  5.631724047725 	  1.669506602169 	
C	 15.589401746216 	  5.631726857725 	 11.800063322169 	
C	 16.157914776216 	 11.815285807725 	  1.669503772169 	
C	 15.589370646216 	 11.815288617725 	 11.800060492169 	
H	  1.772013251416 	  4.534668724552 	  6.864723279880 	
H	  1.203469121416 	  4.534671534552 	 16.995279999880 	
H	  1.771982151416 	 10.718230484552 	  6.864720449880 	
H	  1.203438021416 	 10.718233294552 	 16.995277169880 	
H	 16.452840551416 	  4.534677954552 	  6.892853209880 	
H	 15.884296421416 	  4.534680764552 	 17.023409929880 	
H	 16.452809451416 	 10.718239714552 	  6.892850379880 	
H	 15.884265321416 	 10.718242524552 	 17.023407099880 	
H	 11.816888518255 	  1.474948130300 	  8.797606069891 	
H	 11.248344388255 	  1.474950940300 	 18.928162789891 	
H	 11.816857418255 	  7.658509890300 	  8.797603239891 	
H	 11.248313288255 	  7.658512700300 	 18.928159959891 	
H	 26.497715818255 	  1.474957360300 	  8.825735999891 	
H	 25.929171688255 	  1.474960170300 	 18.956292719891 	
H	 26.497684718255 	  7.658519120300 	  8.825733169891 	
H	 25.929140588255 	  7.658521930300 	 18.956289889891 	
H	 12.074046031188 	  1.606474746170 	  3.607591948292 	
H	 11.505501901188 	  1.606477556170 	 13.738148668292 	
H	 12.074014931188 	  7.790036506170 	  3.607589118292 	
H	 11.505470801188 	  7.790039316170 	 13.738145838292 	
H	 26.754873331188 	  1.606483976170 	  3.635721878292 	
H	 26.186329201188 	  1.606486786170 	 13.766278598292 	
H	 26.754842231188 	  7.790045736170 	  3.635719048292 	
H	 26.186298101188 	  7.790048546170 	 13.766275768292 	
H	  2.029170732914 	  4.666195844444 	  1.674709455917 	
H	  1.460626602914 	  4.666198654444 	 11.805266175917 	
H	  2.029139632914 	 10.849757604444 	  1.674706625917 	
H	  1.460595502914 	 10.849760414444 	 11.805263345917 	
H	 16.709998032914 	  4.666205074444 	  1.702839385917 	
H	 16.141453902914 	  4.666207884444 	 11.833396105917 	
H	 16.709966932914 	 10.849766834444 	  1.702836555917 	
H	 16.141422802914 	 10.849769644444 	 11.833393275917 	
H	  1.045817583712 	  3.698984455838 	  7.871262173502 	
H	  0.477273453712 	  3.698987265838 	 18.001818893502 	
H	  1.045786483712 	  9.882546215838 	  7.871259343502 	
H	  0.477242353712 	  9.882549025838 	 18.001816063502 	
H	 15.726644883712 	  3.698993685838 	  7.899392103502 	
H	 15.158100753712 	  3.698996495838 	 18.029948823502 	
H	 15.726613783712 	  9.882555445838 	  7.899389273502 	
H	 15.158069653712 	  9.882558255838 	 18.029945993502 	
H	 12.536515694538 	  6.743455941730 	  7.814761723309 	
H	 11.967971564538 	  6.743458751730 	 17.945318443309 	
H	 12.536484594538 	 12.927017701730 	  7.814758893309 	
H	 11.967940464538 	 12.927020511730 	 17.945315613309 	
H	 27.217342994538 	  6.743465171730 	  7.842891653309 	
H	 26.648798864538 	  6.743467981730 	 17.973448373309 	
H	 27.217311894538 	 12.927026931730 	  7.842888823309 	
H	 26.648767764538 	 12.927029741730 	 17.973445543309 	
H	 12.800242839075 	  2.442160588904 	  2.601052431131 	
H	 12.231698709075 	  2.442163398904 	 12.731609151131 	
H	 12.800211739075 	  8.625722348904 	  2.601049601131 	
H	 12.231667609075 	  8.625725158904 	 12.731606321131 	
H	 27.481070139075 	  2.442169818904 	  2.629182361131 	
H	 26.912526009075 	  2.442172628904 	 12.759739081131 	
H	 27.481039039075 	  8.625731578904 	  2.629179531131 	
H	 26.912494909075 	  8.625734388904 	 12.759736251131 	
H	  1.309543739063 	 -0.602312106758 	  2.657554294235 	
H	  0.740999609063 	 -0.602309296758 	 12.788111014235 	
H	  1.309512639063 	  5.581249653242 	  2.657551464235 	
H	  0.740968509063 	  5.581252463242 	 12.788108184235 	
H	 15.990371039063 	 -0.602302876758 	  2.685684224235 	
H	 15.421826909063 	 -0.602300066758 	 12.816240944235 	
H	 15.990339939063 	  5.581258883242 	  2.685681394235 	
H	 15.421795809063 	  5.581261693242 	 12.816238114235 	
H	  0.387539075043 	  3.694573575648 	  6.264451136412 	
H	 -0.181005054957 	  3.694576385648 	 16.395007856412 	
H	  0.387507975043 	  9.878135335648 	  6.264448306412 	
H	 -0.181036154957 	  9.878138145648 	 16.395005026412 	
H	 15.068366375043 	  3.694582805648 	  6.292581066412 	
H	 14.499822245043 	  3.694585615648 	 16.423137786412 	
H	 15.068335275043 	  9.878144565648 	  6.292578236412 	
H	 14.499791145043 	  9.878147375648 	 16.423134956412 	
H	 13.197373835372 	  6.758217152020 	  9.398744864467 	
H	 12.628829705372 	  6.758219962020 	 19.529301584467 	
H	 13.197342735372 	 12.941778912020 	  9.398742034467 	
H	 12.628798605372 	 12.941781722020 	 19.529298754467 	
H	 27.878201135372 	  6.758226382020 	  9.426874794467 	
H	 27.309657005372 	  6.758229192020 	 19.557431514467 	
H	 27.878170035372 	 12.941788142020 	  9.426871964467 	
H	 27.309625905372 	 12.941790952020 	 19.557428684467 	
H	 13.458520116768 	  2.446570449827 	  4.207864069033 	
H	 12.889975986768 	  2.446573259827 	 14.338420789033 	
H	 13.458489016768 	  8.630132209827 	  4.207861239033 	
H	 12.889944886768 	  8.630135019827 	 14.338417959033 	
H	 28.139347416768 	  2.446579679827 	  4.235993999033 	
H	 27.570803286768 	  2.446582489827 	 14.366550719033 	
H	 28.139316316768 	  8.630141439827 	  4.235991169033 	
H	 27.570772186768 	  8.630144249827 	 14.366547889033 	
H	  0.648685208021 	 -0.617073263432 	  1.073571330258 	
H	  0.080141078021 	 -0.617070453432 	 11.204128050258 	
H	  0.648654108021 	  5.566488496567 	  1.073568500258 	
H	  0.080109978021 	  5.566491306567 	 11.204125220258 	
H	 15.329512508021 	 -0.617064033432 	  1.101701260258 	
H	 14.760968378021 	 -0.617061223432 	 11.232257980258 	
H	 15.329481408021 	  5.566497726567 	  1.101698430258 	
H	 14.760937278021 	  5.566500536567 	 11.232255150258 	
C	  1.318413225757 	  1.804677934311 	  6.657687693562 	
C	  0.749869095757 	  1.804680744311 	 16.788244413562 	
C	  1.318382125757 	  7.988239694311 	  6.657684863562 	
C	  0.749837995757 	  7.988242504311 	 16.788241583562 	
C	 15.999240525757 	  1.804687164311 	  6.685817623562 	
C	 15.430696395757 	  1.804689974311 	 16.816374343562 	
C	 15.999209425757 	  7.988248924311 	  6.685814793562 	
C	 15.430665295757 	  7.988251734311 	 16.816371513562 	
C	 12.267890531376 	  4.893596162405 	  9.021080024182 	
C	 11.699346401376 	  4.893598972405 	 19.151636744182 	
C	 12.267859431376 	 11.077157922405 	  9.021077194182 	
C	 11.699315301376 	 11.077160732405 	 19.151633914182 	
C	 26.948717831376 	  4.893605392405 	  9.049209954182 	
C	 26.380173701376 	  4.893608202405 	 19.179766674182 	
C	 26.948686731376 	 11.077167152405 	  9.049207124182 	
C	 26.380142601376 	 11.077169962405 	 19.179763844182 	
C	 12.527645477915 	  4.336468012917 	  3.814626871575 	
C	 11.959101347915 	  4.336470822917 	 13.945183591575 	
C	 12.527614377915 	 10.520029772917 	  3.814624041575 	
C	 11.959070247915 	 10.520032582917 	 13.945180761575 	
C	 27.208472777915 	  4.336477242917 	  3.842756801575 	
C	 26.639928647915 	  4.336480052917 	 13.973313521575 	
C	 27.208441677915 	 10.520039002917 	  3.842753971575 	
C	 26.639897547915 	 10.520041812917 	 13.973310691575 	
C	  1.578168493219 	  1.247547738368 	  1.451236303406 	
C	  1.009624363219 	  1.247550548368 	 11.581793023406 	
C	  1.578137393219 	  7.431109498368 	  1.451233473406 	
C	  1.009593263219 	  7.431112308368 	 11.581790193406 	
C	 16.258995793219 	  1.247556968368 	  1.479366233406 	
C	 15.690451663219 	  1.247559778368 	 11.609922953406 	
C	 16.258964693219 	  7.431118728368 	  1.479363403406 	
C	 15.690420563219 	  7.431121538368 	 11.609920123406 	
H	  0.322321468119 	  1.641293321414 	  6.194209896108 	
H	 -0.246222661881 	  1.641296131414 	 16.324766616108 	
H	  0.322290368119 	  7.824855081414 	  6.194207066108 	
H	 -0.246253761881 	  7.824857891414 	 16.324763786108 	
H	 15.003148768119 	  1.641302551414 	  6.222339826108 	
H	 14.434604638119 	  1.641305361414 	 16.352896546108 	
H	 15.003117668119 	  7.824864311414 	  6.222336996108 	
H	 14.434573538119 	  7.824867121414 	 16.352893716108 	
H	 13.268152619662 	  4.714380677996 	  9.477664257038 	
H	 12.699608489662 	  4.714383487996 	 19.608220977038 	
H	 13.268121519662 	 10.897942437996 	  9.477661427038 	
H	 12.699577389662 	 10.897945247996 	 19.608218147038 	
H	 27.948979919662 	  4.714389907996 	  9.505794187038 	
H	 27.380435789662 	  4.714392717996 	 19.636350907038 	
H	 27.948948819662 	 10.897951667996 	  9.505791357038 	
H	 27.380404689662 	 10.897954477996 	 19.636348077038 	
H	 13.523737170356 	  4.499851934206 	  4.278105599355 	
H	 12.955193040356 	  4.499854744206 	 14.408662319355 	
H	 13.523706070356 	 10.683413694206 	  4.278102769355 	
H	 12.955161940356 	 10.683416504206 	 14.408659489355 	
H	 28.204564470356 	  4.499861164206 	  4.306235529355 	
H	 27.636020340356 	  4.499863974206 	 14.436792249355 	
H	 28.204533370356 	 10.683422924206 	  4.306232699355 	
H	 27.635989240356 	 10.683425734206 	 14.436789419355 	
H	  0.577906333819 	  1.426763185586 	  0.994652245729 	
H	  0.009362203819 	  1.426765995586 	 11.125208965729 	
H	  0.577875233819 	  7.610324945586 	  0.994649415729 	
H	  0.009331103819 	  7.610327755586 	 11.125206135729 	
H	 15.258733633819 	  1.426772415586 	  1.022782175729 	
H	 14.690189503819 	  1.426775225586 	 11.153338895729 	
H	 15.258702533819 	  7.610334175586 	  1.022779345729 	
H	 14.690158403819 	  7.610336985586 	 11.153336065729 	
H	  1.112011880706 	  1.398976945504 	  7.674418879005 	
H	  0.543467750706 	  1.398979755504 	 17.804975599005 	
H	  1.111980780706 	  7.582538705504 	  7.674416049005 	
H	  0.543436650706 	  7.582541515504 	 17.804972769005 	
H	 15.792839180706 	  1.398986175504 	  7.702548809005 	
H	 15.224295050706 	  1.398988985504 	 17.833105529005 	
H	 15.792808080706 	  7.582547935504 	  7.702545979005 	
H	 15.224263950706 	  7.582550745504 	 17.833102699005 	
H	 12.479196007873 	  4.473709838954 	  8.001363253885 	
H	 11.910651877873 	  4.473712648954 	 18.131919973885 	
H	 12.479164907873 	 10.657271598954 	  8.001360423885 	
H	 11.910620777873 	 10.657274408954 	 18.131917143885 	
H	 27.160023307873 	  4.473719068954 	  8.029493183885 	
H	 26.591479177873 	  4.473721878954 	 18.160049903885 	
H	 27.159992207873 	 10.657280828954 	  8.029490353885 	
H	 26.591448077873 	 10.657283638954 	 18.160047073885 	
H	 12.734047258120 	  4.742167939402 	  2.797895216165 	
H	 12.165503128120 	  4.742170749402 	 12.928451936165 	
H	 12.734016158120 	 10.925729699402 	  2.797892386165 	
H	 12.165472028120 	 10.925732509402 	 12.928449106165 	
H	 27.414874558120 	  4.742177169402 	  2.826025146165 	
H	 26.846330428120 	  4.742179979402 	 12.956581866165 	
H	 27.414843458120 	 10.925738929402 	  2.826022316165 	
H	 26.846299328120 	 10.925741739402 	 12.956579036165 	
H	  1.366863079400 	  1.667433959905 	  2.470953097662 	
H	  0.798318949400 	  1.667436769905 	 12.601509817662 	
H	  1.366831979400 	  7.850995719905 	  2.470950267662 	
H	  0.798287849400 	  7.850998529905 	 12.601506987662 	
H	 16.047690379400 	  1.667443189905 	  2.499083027662 	
H	 15.479146249400 	  1.667445999905 	 12.629639747662 	
H	 16.047659279400 	  7.851004949905 	  2.499080197662 	
H	 15.479115149400 	  7.851007759905 	 12.629636917662 	
H	  1.700875547297 	  0.768497954128 	  6.533853724562 	
H	  1.132331417297 	  0.768500764128 	 16.664410444562 	
H	  1.700844447297 	  6.952059714128 	  6.533850894562 	
H	  1.132300317297 	  6.952062524128 	 16.664407614562 	
H	 16.381702847297 	  0.768507184128 	  6.561983654562 	
H	 15.813158717297 	  0.768509994128 	 16.692540374562 	
H	 16.381671747297 	  6.952068944128 	  6.561980824562 	
H	 15.813127617297 	  6.952071754128 	 16.692537544562 	
H	 11.891987415305 	  3.847672778788 	  9.137462459557 	
H	 11.323443285305 	  3.847675588788 	 19.268019179557 	
H	 11.891956315305 	 10.031234538788 	  9.137459629557 	
H	 11.323412185305 	 10.031237348788 	 19.268016349557 	
H	 26.572814715305 	  3.847682008788 	  9.165592389557 	
H	 26.004270585305 	  3.847684818788 	 19.296149109557 	
H	 26.572783615305 	 10.031243768788 	  9.165589559557 	
H	 26.004239485305 	 10.031246578788 	 19.296146279557 	
H	 12.145181463214 	  5.372647142521 	  3.938464186961 	
H	 11.576637333214 	  5.372649952521 	 14.069020906961 	
H	 12.145150363214 	 11.556208902521 	  3.938461356961 	
H	 11.576606233214 	 11.556211712521 	 14.069018076961 	
H	 26.826008763214 	  5.372656372521 	  3.966594116961 	
H	 26.257464633214 	  5.372659182521 	 14.097150836961 	
H	 26.825977663214 	 11.556218132521 	  3.966591286961 	
H	 26.257433533214 	 11.556220942521 	 14.097148006961 	
H	  1.954071464709 	  2.293471236980 	  1.334854425156 	
H	  1.385527334709 	  2.293474046980 	 11.465411145155 	
H	  1.954040364709 	  8.477032996980 	  1.334851595156 	
H	  1.385496234709 	  8.477035806980 	 11.465408315155 	
H	 16.634898764709 	  2.293480466980 	  1.362984355156 	
H	 16.066354634709 	  2.293483276980 	 11.493541075156 	
H	 16.634867664709 	  8.477042226980 	  1.362981525156 	
H	 16.066323534709 	  8.477045036980 	 11.493538245156 	
768 
Energy: -1.0339637933580001e+02 
S	  8.485348099483 	  1.484170536530 	  0.100222695683 	
S	  7.916803969483 	  1.484173346530 	 10.230779415683 	
S	  8.485316999483 	  7.667732296530 	  0.100219865683 	
S	  7.916772869483 	  7.667735106530 	 10.230776585683 	
S	 23.166175399483 	  1.484179766530 	  0.128352625683 	
S	 22.597631269483 	  1.484182576530 	 10.258909345683 	
S	 23.166144299483 	  7.667741526530 	  0.128349795683 	
S	 22.597600169483 	  7.667744336530 	 10.258906515683 	
S	  5.547597841304 	  4.548858927764 	  5.213446990699 	
S	  4.979053711304 	  4.548861737764 	 15.344003710699 	
S	  5.547566741304 	 10.732420687764 	  5.213444160699 	
S	  4.979022611304 	 10.732423497764 	 15.344000880699 	
S	 20.228425141304 	  4.548868157764 	  5.241576920699 	
S	 19.659881011304 	  4.548870967764 	 15.372133640699 	
S	 20.228394041304 	 10.732429917764 	  5.241574090699 	
S	 19.659849911304 	 10.732432727764 	 15.372130810699 	
S	  5.303318742200 	  4.647825188695 	 10.439713112819 	
S	  4.734774612200 	  4.647827998695 	 20.570269832819 	
S	  5.303287642200 	 10.831386948695 	 10.439710282819 	
S	  4.734743512200 	 10.831389758695 	 20.570267002819 	
S	 19.984146042200 	  4.647834418695 	 10.467843042819 	
S	 19.415601912200 	  4.647837228695 	 20.598399762819 	
S	 19.984114942200 	 10.831396178695 	 10.467840212819 	
S	 19.415570812200 	 10.831398988695 	 20.598396932819 	
S	  8.241069989804 	  1.583137065195 	  5.326488667998 	
S	  7.672525859804 	  1.583139875195 	 15.457045387998 	
S	  8.241038889804 	  7.766698825195 	  5.326485837998 	
S	  7.672494759804 	  7.766701635195 	 15.457042557998 	
S	 22.921897289804 	  1.583146295195 	  5.354618597998 	
S	 22.353353159804 	  1.583149105195 	 15.485175317998 	
S	 22.921866189804 	  7.766708055195 	  5.354615767998 	
S	 22.353322059804 	  7.766710865195 	 15.485172487998 	
C	  6.614318105611 	  2.554609197154 	 10.127219544706 	
C	  6.045773975611 	  2.554612007154 	 20.257776264706 	
C	  6.614287005611 	  8.738170957154 	 10.127216714706 	
C	  6.045742875611 	  8.738173767154 	 20.257773434706 	
C	 21.295145405611 	  2.554618427154 	 10.155349474706 	
C	 20.726601275611 	  2.554621237154 	 20.285906194706 	
C	 21.295114305611 	  8.738180187154 	 10.155346644706 	
C	 20.726570175611 	  8.738182997154 	 20.285903364706 	
C	  6.931500638537 	  5.569720589542 	  5.677392901742 	
C	  6.362956508537 	  5.569723399542 	 15.807949621742 	
C	  6.931469538537 	 11.753282349542 	  5.677390071742 	
C	  6.362925408537 	 11.753285159542 	 15.807946791742 	
C	 21.612327938537 	  5.569729819542 	  5.705522831742 	
C	 21.043783808537 	  5.569732629542 	 15.836079551742 	
C	 21.612296838537 	 11.753291579542 	  5.705520001742 	
C	 21.043752708537 	 11.753294389542 	 15.836076721742 	
C	  7.174348760998 	  3.577386503189 	  0.412716166810 	
C	  6.605804630998 	  3.577389313189 	 10.543272886810 	
C	  7.174317660998 	  9.760948263189 	  0.412713336810 	
C	  6.605773530998 	  9.760951073189 	 10.543270056810 	
C	 21.855176060998 	  3.577395733189 	  0.440846096810 	
C	 21.286631930998 	  3.577398543189 	 10.571402816810 	
C	 21.855144960998 	  9.760957493189 	  0.440843266810 	
C	 21.286600830998 	  9.760960303189 	 10.571399986810 	
C	  6.857167040208 	  0.562275476675 	  4.862542650580 	
C	  6.288622910208 	  0.562278286675 	 14.993099370580 	
C	  6.857135940208 	  6.745837236675 	  4.862539820580 	
C	  6.288591810208 	  6.745840046675 	 14.993096540580 	
C	 21.537994340208 	  0.562284706675 	  4.890672580580 	
C	 20.969450210208 	  0.562287516675 	 15.021229300580 	
C	 21.537963240208 	  6.745846466675 	  4.890669750580 	
C	 20.969419110208 	  6.745849276675 	 15.021226470580 	
C	  5.583086154691 	  2.380456836088 	  9.164681365479 	
C	  5.014542024691 	  2.380459646088 	 19.295238085479 	
C	  5.583055054691 	  8.564018596088 	  9.164678535479 	
C	  5.014510924691 	  8.564021406088 	 19.295235255479 	
C	 20.263913454691 	  2.380466066088 	  9.192811295479 	
C	 19.695369324691 	  2.380468876088 	 19.323368015479 	
C	 20.263882354691 	  8.564027826088 	  9.192808465479 	
C	 19.695338224691 	  8.564030636088 	 19.323365185479 	
C	  7.955003537605 	  5.434617330940 	  6.600779400351 	
C	  7.386459407605 	  5.434620140940 	 16.731336120351 	
C	  7.954972437605 	 11.618179090940 	  6.600776570351 	
C	  7.386428307605 	 11.618181900940 	 16.731333290351 	
C	 22.635830837605 	  5.434626560940 	  6.628909330351 	
C	 22.067286707605 	  5.434629370940 	 16.759466050351 	
C	 22.635799737605 	 11.618188320940 	  6.628906500351 	
C	 22.067255607605 	 11.618191130940 	 16.759463220351 	
C	  8.205580600663 	  3.751538921552 	  1.375254255358 	
C	  7.637036470663 	  3.751541731552 	 11.505810975358 	
C	  8.205549500663 	  9.935100681552 	  1.375251425358 	
C	  7.637005370663 	  9.935103491552 	 11.505808145358 	
C	 22.886407900663 	  3.751548151552 	  1.403384185358 	
C	 22.317863770663 	  3.751550961552 	 11.533940905358 	
C	 22.886376800663 	  9.935109911552 	  1.403381355358 	
C	 22.317832670663 	  9.935112721552 	 11.533938075358 	
C	  5.833663983403 	  0.697378759883 	  3.939156264833 	
C	  5.265119853403 	  0.697381569883 	 14.069712984833 	
C	  5.833632883403 	  6.880940519883 	  3.939153434833 	
C	  5.265088753403 	  6.880943329883 	 14.069710154833 	
C	 20.514491283403 	  0.697387989883 	  3.967286194833 	
C	 19.945947153403 	  0.697390799883 	 14.097842914833 	
C	 20.514460183403 	  6.880949749883 	  3.967283364833 	
C	 19.945916053403 	  6.880952559883 	 14.097840084833 	
C	  4.725694013426 	  3.450029049015 	  9.185204998517 	
C	  4.157149883426 	  3.450031859015 	 19.315761718517 	
C	  4.725662913426 	  9.633590809015 	  9.185202168517 	
C	  4.157118783426 	  9.633593619015 	 19.315758888517 	
C	 19.406521313426 	  3.450038279015 	  9.213334928517 	
C	 18.837977183426 	  3.450041089015 	 19.343891648517 	
C	 19.406490213426 	  9.633600039015 	  9.213332098517 	
C	 18.837946083426 	  9.633602849015 	 19.343888818517 	
C	  8.819617013080 	  0.393850585455 	  6.582601711726 	
C	  8.251072883080 	  0.393853395455 	 16.713158431726 	
C	  8.819585913080 	  6.577412345455 	  6.582598881726 	
C	  8.251041783080 	  6.577415155455 	 16.713155601726 	
C	 23.500444313080 	  0.393859815455 	  6.610731641726 	
C	 22.931900183080 	  0.393862625455 	 16.741288361726 	
C	 23.500413213080 	  6.577421575455 	  6.610728811726 	
C	 22.931869083080 	  6.577424385455 	 16.741285531726 	
C	  9.062972731034 	  2.681966707362 	  1.354730673414 	
C	  8.494428601034 	  2.681969517362 	 11.485287393414 	
C	  9.062941631034 	  8.865528467362 	  1.354727843414 	
C	  8.494397501034 	  8.865531277362 	 11.485284563414 	
C	 23.743800031034 	  2.681975937362 	  1.382860603414 	
C	 23.175255901034 	  2.681978747362 	 11.513417323414 	
C	 23.743768931034 	  8.865537697362 	  1.382857773414 	
C	 23.175224801034 	  8.865540507362 	 11.513414493414 	
C	  4.969050563675 	  5.738145465866 	  3.957334105172 	
C	  4.400506433675 	  5.738148275866 	 14.087890825172 	
C	  4.969019463675 	 11.921707225866 	  3.957331275172 	
C	  4.400475333675 	 11.921710035866 	 14.087887995172 	
C	 19.649877863675 	  5.738154695866 	  3.985464035172 	
C	 19.081333733675 	  5.738157505866 	 14.116020755172 	
C	 19.649846763675 	 11.921716455866 	  3.985461205172 	
C	 19.081302633675 	 11.921719265866 	 14.116017925172 	
C	  3.677567971997 	  3.549596230800 	  8.424915616041 	
C	  3.109023841997 	  3.549599040800 	 18.555472336041 	
C	  3.677536871997 	  9.733157990800 	  8.424912786041 	
C	  3.108992741997 	  9.733160800800 	 18.555469506041 	
C	 18.358395271997 	  3.549605460800 	  8.453045546041 	
C	 17.789851141997 	  3.549608270800 	 18.583602266041 	
C	 18.358364171997 	  9.733167220800 	  8.453042716041 	
C	 17.789820041997 	  9.733170030800 	 18.583599436041 	
C	  9.857472137057 	  0.498044447929 	  7.331340157895 	
C	  9.288928007057 	  0.498047257929 	 17.461896877895 	
C	  9.857441037057 	  6.681606207929 	  7.331337327895 	
C	  9.288896907057 	  6.681609017929 	 17.461894047895 	
C	 24.538299437057 	  0.498053677929 	  7.359470087895 	
C	 23.969755307057 	  0.498056487929 	 17.490026807895 	
C	 24.538268337057 	  6.681615437929 	  7.359467257895 	
C	 23.969724207057 	  6.681618247929 	 17.490023977895 	
C	 10.111098806116 	  2.582399661695 	  2.115020257798 	
C	  9.542554676116 	  2.582402471695 	 12.245576977798 	
C	 10.111067706116 	  8.765961421695 	  2.115017427798 	
C	  9.542523576116 	  8.765964231695 	 12.245574147798 	
C	 24.791926106116 	  2.582408891695 	  2.143150187798 	
C	 24.223381976116 	  2.582411701695 	 12.273706907798 	
C	 24.791895006116 	  8.765970651695 	  2.143147357798 	
C	 24.223350876116 	  8.765973461695 	 12.273704077798 	
C	  3.931195146767 	  5.633951648554 	  3.208595958834 	
C	  3.362651016767 	  5.633954458554 	 13.339152678834 	
C	  3.931164046767 	 11.817513408554 	  3.208593128834 	
C	  3.362619916767 	 11.817516218554 	 13.339149848834 	
C	 18.612022446767 	  5.633960878554 	  3.236725888834 	
C	 18.043478316767 	  5.633963688554 	 13.367282608834 	
C	 18.611991346767 	 11.817522638554 	  3.236723058834 	
C	 18.043447216767 	 11.817525448554 	 13.367279778834 	
H	  3.011310038118 	  4.485413177189 	  8.500503378237 	
H	  2.442765908118 	  4.485415987189 	 18.631060098237 	
H	  3.011278938118 	 10.668974937189 	  8.500500548237 	
H	  2.442734808118 	 10.668977747189 	 18.631057268237 	
H	 17.692137338118 	  4.485422407189 	  8.528633308237 	
H	 17.123593208118 	  4.485425217189 	 18.659190028237 	
H	 17.692106238118 	 10.668984167189 	  8.528630478237 	
H	 17.123562108118 	 10.668986977189 	 18.659187198237 	
H	 10.532115113565 	  1.418093036636 	  7.267936272259 	
H	  9.963570983565 	  1.418095846636 	 17.398492992259 	
H	 10.532084013565 	  7.601654796636 	  7.267933442259 	
H	  9.963539883565 	  7.601657606636 	 17.398490162259 	
H	 25.212942413565 	  1.418102266636 	  7.296066202259 	
H	 24.644398283565 	  1.418105076636 	 17.426622922259 	
H	 25.212911313565 	  7.601664026636 	  7.296063372259 	
H	 24.644367183565 	  7.601666836636 	 17.426620092259 	
H	 10.777356656304 	  1.646582629714 	  2.039432586944 	
H	 10.208812526304 	  1.646585439714 	 12.169989306944 	
H	 10.777325556304 	  7.830144389714 	  2.039429756944 	
H	 10.208781426304 	  7.830147199714 	 12.169986476944 	
H	 25.458183956304 	  1.646591859714 	  2.067562516944 	
H	 24.889639826304 	  1.646594669714 	 12.198119236944 	
H	 25.458152856304 	  7.830153619714 	  2.067559686944 	
H	 24.889608726304 	  7.830156429714 	 12.198116406944 	
H	  3.256552293850 	  4.713902984820 	  3.271999982048 	
H	  2.688008163850 	  4.713905794820 	 13.402556702048 	
H	  3.256521193850 	 10.897464744820 	  3.271997152048 	
H	  2.687977063850 	 10.897467554820 	 13.402553872048 	
H	 17.937379593850 	  4.713912214820 	  3.300129912048 	
H	 17.368835463850 	  4.713915024820 	 13.430686632048 	
H	 17.937348493850 	 10.897473974820 	  3.300127082048 	
H	 17.368804363850 	 10.897476784820 	 13.430683802048 	
C	  3.351024122847 	  2.606781179776 	  7.558456198305 	
C	  2.782479992847 	  2.606783989776 	 17.689012918305 	
C	  3.350993022847 	  8.790342939776 	  7.558453368305 	
C	  2.782448892847 	  8.790345749776 	 17.689010088305 	
C	 18.031851422847 	  2.606790409776 	  7.586586128305 	
C	 17.463307292847 	  2.606793219776 	 17.717142848305 	
C	 18.031820322847 	  8.790352169776 	  7.586583298305 	
C	 17.463276192847 	  8.790354979776 	 17.717140018305 	
C	 10.200580915549 	  5.655939580996 	  8.220221242235 	
C	  9.632036785549 	  5.655942390996 	 18.350777962235 	
C	 10.200549815549 	 11.839501340996 	  8.220218412235 	
C	  9.632005685549 	 11.839504150996 	 18.350775132235 	
C	 24.881408215549 	  5.655948810996 	  8.248351172235 	
C	 24.312864085549 	  5.655951620996 	 18.378907892235 	
C	 24.881377115549 	 11.839510570996 	  8.248348342235 	
C	 24.312832985549 	 11.839513380996 	 18.378905062235 	
C	 10.437642407677 	  3.525214756296 	  2.981479398845 	
C	  9.869098277677 	  3.525217566296 	 13.112036118845 	
C	 10.437611307677 	  9.708776516296 	  2.981476568845 	
C	  9.869067177677 	  9.708779326296 	 13.112033288845 	
C	 25.118469707677 	  3.525223986296 	  3.009609328845 	
C	 24.549925577677 	  3.525226796296 	 13.140166048845 	
C	 25.118438607677 	  9.708785746296 	  3.009606498845 	
C	 24.549894477677 	  9.708788556296 	 13.140163218845 	
C	  3.588086148102 	  0.476056577460 	  2.319715008282 	
C	  3.019542018102 	  0.476059387460 	 12.450271728282 	
C	  3.588055048102 	  6.659618337460 	  2.319712178282 	
C	  3.019510918102 	  6.659621147460 	 12.450268898282 	
C	 18.268913448102 	  0.476065807460 	  2.347844938282 	
C	 17.700369318102 	  0.476068617460 	 12.478401658282 	
C	 18.268882348102 	  6.659627567460 	  2.347842108282 	
C	 17.700338218102 	  6.659630377460 	 12.478398828282 	
C	  4.207685187635 	  1.547357135025 	  7.503982241161 	
C	  3.639141057635 	  1.547359945025 	 17.634538961161 	
C	  4.207654087635 	  7.730918895025 	  7.503979411161 	
C	  3.639109957635 	  7.730921705025 	 17.634536131161 	
C	 18.888512487635 	  1.547366365025 	  7.532112171161 	
C	 18.319968357635 	  1.547369175025 	 17.662668891161 	
C	 18.888481387635 	  7.730928125025 	  7.532109341161 	
C	 18.319937257635 	  7.730930935025 	 17.662666061161 	
C	  9.336072328195 	  4.615784309012 	  8.261178835363 	
C	  8.767528198195 	  4.615787119012 	 18.391735555363 	
C	  9.336041228195 	 10.799346069012 	  8.261176005363 	
C	  8.767497098195 	 10.799348879012 	 18.391732725363 	
C	 24.016899628195 	  4.615793539012 	  8.289308765363 	
C	 23.448355498195 	  4.615796349012 	 18.419865485363 	
C	 24.016868528195 	 10.799355299012 	  8.289305935363 	
C	 23.448324398195 	 10.799358109012 	 18.419862655363 	
C	  9.580981467729 	  4.584638821324 	  3.035953358649 	
C	  9.012437337729 	  4.584641631324 	 13.166510078649 	
C	  9.580950367729 	 10.768200581324 	  3.035950528649 	
C	  9.012406237729 	 10.768203391324 	 13.166507248649 	
C	 24.261808767729 	  4.584648051324 	  3.064083288649 	
C	 23.693264637729 	  4.584650861324 	 13.194640008649 	
C	 24.261777667729 	 10.768209811324 	  3.064080458649 	
C	 23.693233537729 	 10.768212621324 	 13.194637178649 	
C	  4.452594628266 	  1.516211757807 	  2.278757184762 	
C	  3.884050498266 	  1.516214567807 	 12.409313904762 	
C	  4.452563528266 	  7.699773517807 	  2.278754354762 	
C	  3.884019398266 	  7.699776327807 	 12.409311074762 	
C	 19.133421928266 	  1.516220987807 	  2.306887114762 	
C	 18.564877798266 	  1.516223797807 	 12.437443834762 	
C	 19.133390828266 	  7.699782747807 	  2.306884284762 	
C	 18.564846698266 	  7.699785557807 	 12.437441004762 	
H	  3.974146646679 	  0.720985498355 	  6.741534731098 	
H	  3.405602516679 	  0.720988308355 	 16.872091451098 	
H	  3.974115546679 	  6.904547258355 	  6.741531901098 	
H	  3.405571416679 	  6.904550068355 	 16.872088621098 	
H	 18.654973946679 	  0.720994728355 	  6.769664661098 	
H	 18.086429816679 	  0.720997538355 	 16.900221381098 	
H	 18.654942846679 	  6.904556488355 	  6.769661831098 	
H	 18.086398716679 	  6.904559298355 	 16.900218551098 	
H	  9.568261747885 	  3.788581946132 	  9.024933522868 	
H	  8.999717617885 	  3.788584756132 	 19.155490242868 	
H	  9.568230647885 	  9.972143706132 	  9.024930692868 	
H	  8.999686517885 	  9.972146516132 	 19.155487412868 	
H	 24.249089047885 	  3.788591176132 	  9.053063452868 	
H	 23.680544917885 	  3.788593986132 	 19.183620172868 	
H	 24.249057947885 	  9.972152936132 	  9.053060622868 	
H	 23.680513817885 	  9.972155746132 	 19.183617342868 	
H	  9.814520100284 	  5.411010555017 	  3.798400746061 	
H	  9.245975970284 	  5.411013365017 	 13.928957466061 	
H	  9.814489000284 	 11.594572315017 	  3.798397916061 	
H	  9.245944870284 	 11.594575125017 	 13.928954636061 	
H	 24.495347400284 	  5.411019785017 	  3.826530676061 	
H	 23.926803270284 	  5.411022595017 	 13.957087396061 	
H	 24.495316300284 	 11.594581545017 	  3.826527846061 	
H	 23.926772170284 	 11.594584355017 	 13.957084566061 	
H	  4.220404987717 	  2.343414223363 	  1.515002667255 	
H	  3.651860857717 	  2.343417033363 	 11.645559387255 	
H	  4.220373887717 	  8.526975983363 	  1.514999837255 	
H	  3.651829757717 	  8.526978793363 	 11.645556557255 	
H	 18.901232287717 	  2.343423453363 	  1.543132597255 	
H	 18.332688157717 	  2.343426263363 	 11.673689317255 	
H	 18.901201187717 	  8.526985213363 	  1.543129767255 	
H	 18.332657057717 	  8.526988023363 	 11.673686487255 	
C	  5.232388237823 	  1.434156875568 	  8.232970915618 	
C	  4.663844107823 	  1.434159685568 	 18.363527635618 	
C	  5.232357137823 	  7.617718635568 	  8.232968085618 	
C	  4.663813007823 	  7.617721445568 	 18.363524805618 	
C	 19.913215537823 	  1.434166105568 	  8.261100845618 	
C	 19.344671407823 	  1.434168915568 	 18.391657565618 	
C	 19.913184437823 	  7.617727865568 	  8.261098015618 	
C	 19.344640307823 	  7.617730675568 	 18.391654735618 	
C	  8.310369804506 	  4.502100728457 	  7.531585479009 	
C	  7.741825674506 	  4.502103538457 	 17.662142199009 	
C	  8.310338704506 	 10.685662488457 	  7.531582649009 	
C	  7.741794574506 	 10.685665298457 	 17.662139369009 	
C	 22.991197104506 	  4.502109958457 	  7.559715409009 	
C	 22.422652974506 	  4.502112768457 	 17.690272129009 	
C	 22.991166004506 	 10.685671718457 	  7.559712579009 	
C	 22.422621874506 	 10.685674528457 	 17.690269299009 	
C	  8.556278469665 	  4.697838995810 	  2.306964607041 	
C	  7.987734339665 	  4.697841805810 	 12.437521327041 	
C	  8.556247369665 	 10.881400755810 	  2.306961777041 	
C	  7.987703239665 	 10.881403565810 	 12.437518497041 	
C	 23.237105769665 	  4.697848225810 	  2.335094537041 	
C	 22.668561639665 	  4.697851035810 	 12.465651257041 	
C	 23.237074669665 	 10.881409985810 	  2.335091707041 	
C	 22.668530539665 	 10.881412795810 	 12.465648427041 	
C	  5.478297438386 	  1.629895369822 	  3.008350329502 	
C	  4.909753308386 	  1.629898179822 	 13.138907049502 	
C	  5.478266338386 	  7.813457129822 	  3.008347499502 	
C	  4.909722208386 	  7.813459939822 	 13.138904219502 	
C	 20.159124738386 	  1.629904599822 	  3.036480259502 	
C	 19.590580608386 	  1.629907409822 	 13.167036979502 	
C	 20.159093638386 	  7.813466359822 	  3.036477429502 	
C	 19.590549508386 	  7.813469169822 	 13.167034149502 	
H	  5.921728993131 	  0.518681906036 	  8.144722702540 	
H	  5.353184863131 	  0.518684716036 	 18.275279422540 	
H	  5.921697893131 	  6.702243666036 	  8.144719872540 	
H	  5.353153763131 	  6.702246476036 	 18.275276592540 	
H	 20.602556293131 	  0.518691136036 	  8.172852632540 	
H	 20.034012163131 	  0.518693946036 	 18.303409352540 	
H	 20.602525193131 	  6.702252896036 	  8.172849802540 	
H	 20.033981063131 	  6.702255706036 	 18.303406522540 	
H	  7.620754548195 	  3.585240017336 	  7.621241218655 	
H	  7.052210418195 	  3.585242827336 	 17.751797938655 	
H	  7.620723448195 	  9.768801777336 	  7.621238388655 	
H	  7.052179318195 	  9.768804587336 	 17.751795108655 	
H	 22.301581848195 	  3.585249247336 	  7.649371148655 	
H	 21.733037718195 	  3.585252057336 	 17.779927868655 	
H	 22.301550748195 	  9.768811007336 	  7.649368318655 	
H	 21.733006618195 	  9.768813817336 	 17.779925038655 	
H	  7.866937676793 	  5.613313945810 	  2.395212677306 	
H	  7.298393546793 	  5.613316755810 	 12.525769397306 	
H	  7.866906576793 	 11.796875705810 	  2.395209847306 	
H	  7.298362446793 	 11.796878515810 	 12.525766567306 	
H	 22.547764976793 	  5.613323175810 	  2.423342607306 	
H	 21.979220846793 	  5.613325985810 	 12.553899327306 	
H	 22.547733876793 	 11.796884935810 	  2.423339777306 	
H	 21.979189746793 	 11.796887745810 	 12.553896497306 	
H	  6.167912662102 	  2.546756082428 	  2.918694450194 	
H	  5.599368532102 	  2.546758892428 	 13.049251170194 	
H	  6.167881562102 	  8.730317842428 	  2.918691620194 	
H	  5.599337432102 	  8.730320652428 	 13.049248340194 	
H	 20.848739962102 	  2.546765312428 	  2.946824380194 	
H	 20.280195832102 	  2.546768122428 	 13.077381100194 	
H	 20.848708862102 	  8.730327072428 	  2.946821550194 	
H	 20.280164732102 	  8.730329882428 	 13.077378270194 	
C	  2.025607247287 	  2.706401122389 	  6.651762076194 	
C	  1.457063117287 	  2.706403932389 	 16.782318796194 	
C	  2.025576147287 	  8.889962882389 	  6.651759246194 	
C	  1.457032017287 	  8.889965692389 	 16.782315966194 	
C	 16.706434547287 	  2.706410352389 	  6.679892006194 	
C	 16.137890417287 	  2.706413162389 	 16.810448726194 	
C	 16.706403447287 	  8.889972112389 	  6.679889176194 	
C	 16.137859317287 	  8.889974922389 	 16.810445896194 	
C	 11.419631370135 	  5.708023287063 	  9.066231987902 	
C	 10.851087240135 	  5.708026097063 	 19.196788707902 	
C	 11.419600270135 	 11.891585047063 	  9.066229157902 	
C	 10.851056140135 	 11.891587857063 	 19.196785877902 	
C	 26.100458670135 	  5.708032517063 	  9.094361917902 	
C	 25.531914540135 	  5.708035327063 	 19.224918637902 	
C	 26.100427570135 	 11.891594277063 	  9.094359087902 	
C	 25.531883440135 	 11.891597087063 	 19.224915807902 	
C	 11.763060732231 	  3.425595329895 	  3.888175323201 	
C	 11.194516602231 	  3.425598139895 	 14.018732043201 	
C	 11.763029632231 	  9.609157089895 	  3.888172493201 	
C	 11.194485502231 	  9.609159899895 	 14.018729213201 	
C	 26.443888032231 	  3.425604559895 	  3.916305253201 	
C	 25.875343902231 	  3.425607369895 	 14.046861973201 	
C	 26.443856932231 	  9.609166319895 	  3.916302423201 	
C	 25.875312802231 	  9.609169129895 	 14.046859143201 	
C	  2.369035355008 	  0.423972731494 	  1.473704555319 	
C	  1.800491225008 	  0.423975541494 	 11.604261275319 	
C	  2.369004255008 	  6.607534491494 	  1.473701725319 	
C	  1.800460125008 	  6.607537301494 	 11.604258445319 	
C	 17.049862655008 	  0.423981961494 	  1.501834485319 	
C	 16.481318525008 	  0.423984771494 	 11.632391205319 	
C	 17.049831555008 	  6.607543721494 	  1.501831655319 	
C	 16.481287425008 	  6.607546531494 	 11.632388375319 	
C	  2.121514288230 	  2.684239249353 	  5.551133990522 	
C	  1.552970158230 	  2.684242059353 	 15.681690710522 	
C	  2.121483188230 	  8.867801009353 	  5.551131160522 	
C	  1.552939058230 	  8.867803819353 	 15.681687880522 	
C	 16.802341588230 	  2.684248479353 	  5.579263920522 	
C	 16.233797458230 	  2.684251289353 	 15.709820640522 	
C	 16.802310488230 	  8.867810239353 	  5.579261090522 	
C	 16.233766358230 	  8.867813049353 	 15.709817810522 	
C	 11.427674812616 	 -0.400405271985 	 10.105334518060 	
C	 10.859130682616 	 -0.400402461985 	 20.235891238060 	
C	 11.427643712616 	  5.783156488015 	 10.105331688060 	
C	 10.859099582616 	  5.783159298015 	 20.235888408060 	
C	 26.108502112616 	 -0.400396041985 	 10.133464448060 	
C	 25.539957982616 	 -0.400393231985 	 20.264021168060 	
C	 26.108471012616 	  5.783165718015 	 10.133461618060 	
C	 25.539926882616 	  5.783168528015 	 20.264018338060 	
C	 11.667150501555 	  3.447756737138 	  4.988803377366 	
C	 11.098606371555 	  3.447759547138 	 15.119360097366 	
C	 11.667119401555 	  9.631318497138 	  4.988800547366 	
C	 11.098575271555 	  9.631321307138 	 15.119357267366 	
C	 26.347977801555 	  3.447765967138 	  5.016933307366 	
C	 25.779433671555 	  3.447768777138 	 15.147490027366 	
C	 26.347946701555 	  9.631327727138 	  5.016930477366 	
C	 25.779402571555 	  9.631330537138 	 15.147487197366 	
C	  2.360991839546 	  6.532401078838 	  0.434601957775 	
C	  1.792447709546 	  6.532403888838 	 10.565158677775 	
C	  2.360960739546 	 12.715962838838 	  0.434599127775 	
C	  1.792416609546 	 12.715965648838 	 10.565155847775 	
C	 17.041819139546 	  6.532410308838 	  0.462731887775 	
C	 16.473275009546 	  6.532413118838 	 10.593288607775 	
C	 17.041788039546 	 12.715972068838 	  0.462729057775 	
C	 16.473243909546 	 12.715974878838 	 10.593285777775 	
H	  2.959979473373 	  3.235980380325 	  5.075413501151 	
H	  2.391435343373 	  3.235983190325 	 15.205970221151 	
H	  2.959948373373 	  9.419542140325 	  5.075410671151 	
H	  2.391404243373 	  9.419544950325 	 15.205967391151 	
H	 17.640806773373 	  3.235989610325 	  5.103543431151 	
H	 17.072262643373 	  3.235992420325 	 15.234100151151 	
H	 17.640775673373 	  9.419551370325 	  5.103540601151 	
H	 17.072231543373 	  9.419554180325 	 15.234097321151 	
H	 10.628594592345 	  0.217612869613 	 10.660849926493 	
H	 10.060050462345 	  0.217615679613 	 20.791406646493 	
H	 10.628563492345 	  6.401174629613 	 10.660847096493 	
H	 10.060019362345 	  6.401177439613 	 20.791403816493 	
H	 25.309421892345 	  0.217622099613 	 10.688979856493 	
H	 24.740877762345 	  0.217624909613 	 20.819536576493 	
H	 25.309390792345 	  6.401183859613 	 10.688977026493 	
H	 24.740846662345 	  6.401186669613 	 20.819533746493 	
H	 10.828686504007 	  2.896011428570 	  5.464521359835 	
H	 10.260142374007 	  2.896014238570 	 15.595078079835 	
H	 10.828655404007 	  9.079573188570 	  5.464518529835 	
H	 10.260111274007 	  9.079575998570 	 15.595075249835 	
H	 25.509513804007 	  2.896020658570 	  5.492651289835 	
H	 24.940969674007 	  2.896023468570 	 15.623208009835 	
H	 25.509482704007 	  9.079582418570 	  5.492648459835 	
H	 24.940938574007 	  9.079585228570 	 15.623205179835 	
H	  3.160071937032 	  5.914383664156 	 -0.120913906233 	
H	  2.591527807032 	  5.914386474156 	 10.009642813767 	
H	  3.160040837032 	 12.097945424156 	 -0.120916736233 	
H	  2.591496707032 	 12.097948234156 	 10.009639983767 	
H	 17.840899237032 	  5.914392894156 	 -0.092783976233 	
H	 17.272355107032 	  5.914395704156 	 10.037772743767 	
H	 17.840868137032 	 12.097954654156 	 -0.092786806233 	
H	 17.272324007032 	 12.097957464156 	 10.037769913767 	
H	  1.419635014888 	  2.783572535514 	  4.695878835190 	
H	  0.851090884888 	  2.783575345514 	 14.826435555190 	
H	  1.419603914888 	  8.967134295514 	  4.695876005190 	
H	  0.851059784888 	  8.967137105514 	 14.826432725190 	
H	 16.100462314888 	  2.783581765514 	  4.724008765190 	
H	 15.531918184888 	  2.783584575514 	 14.854565485190 	
H	 16.100431214888 	  8.967143525514 	  4.724005935190 	
H	 15.531887084888 	  8.967146335514 	 14.854562655190 	
H	 12.666005885748 	 -0.269125729130 	  0.696403145744 	
H	 12.097461755748 	 -0.269122919130 	 10.826959865744 	
H	 12.665974785748 	  5.914436030870 	  0.696400315744 	
H	 12.097430655748 	  5.914438840870 	 10.826957035744 	
H	 27.346833185748 	 -0.269116499130 	  0.724533075744 	
H	 26.778289055748 	 -0.269113689130 	 10.855089795744 	
H	 27.346802085748 	  5.914445260870 	  0.724530245744 	
H	 26.778257955748 	  5.914448070870 	 10.855086965744 	
H	 12.369031043341 	  3.348423526891 	  5.844057736444 	
H	 11.800486913341 	  3.348426336891 	 15.974614456444 	
H	 12.368999943341 	  9.531985286891 	  5.844054906444 	
H	 11.800455813341 	  9.531988096891 	 15.974611626444 	
H	 27.049858343341 	  3.348432756891 	  5.872187666444 	
H	 26.481314213341 	  3.348435566891 	 16.002744386444 	
H	 27.049827243341 	  9.531994516891 	  5.872184836444 	
H	 26.481283113341 	  9.531997326891 	 16.002741556444 	
H	  1.122660379618 	  6.401122094011 	  9.843533539671 	
H	  0.554116249618 	  6.401124904011 	 19.974090259671 	
H	  1.122629279618 	 12.584683854011 	  9.843530709671 	
H	  0.554085149618 	 12.584686664011 	 19.974087429671 	
H	 15.803487679618 	  6.401131324011 	  9.871663469671 	
H	 15.234943549618 	  6.401134134011 	 20.002220189671 	
H	 15.803456579618 	 12.584693084011 	  9.871660639671 	
H	 15.234912449618 	 12.584695894011 	 20.002217359671 	
H	  2.739772170390 	  1.901733039186 	  5.063639842818 	
H	  2.171228040390 	  1.901735849186 	 15.194196562818 	
H	  2.739741070390 	  8.085294799186 	  5.063637012818 	
H	  2.171196940390 	  8.085297609186 	 15.194193732818 	
H	 17.420599470390 	  1.901742269186 	  5.091769772818 	
H	 16.852055340390 	  1.901745079186 	 15.222326492818 	
H	 17.420568370390 	  8.085304029186 	  5.091766942818 	
H	 16.852024240390 	  8.085306839186 	 15.222323662818 	
H	 11.200191989944 	  4.892582521532 	  0.358075172743 	
H	 10.631647859944 	  4.892585331532 	 10.488631892743 	
H	 11.200160889944 	 11.076144281532 	  0.358072342743 	
H	 10.631616759944 	 11.076147091532 	 10.488629062743 	
H	 25.881019289944 	  4.892591751532 	  0.386205102743 	
H	 25.312475159944 	  4.892594561532 	 10.516761822743 	
H	 25.880988189944 	 11.076153511532 	  0.386202272743 	
H	 25.312444059944 	 11.076156321532 	 10.516758992743 	
H	 11.048893112935 	  4.230264656381 	  5.476295721896 	
H	 10.480348982935 	  4.230267466381 	 15.606852441896 	
H	 11.048862012935 	 10.413826416381 	  5.476292891896 	
H	 10.480317882935 	 10.413829226381 	 15.606849611896 	
H	 25.729720412935 	  4.230273886381 	  5.504425651896 	
H	 25.161176282935 	  4.230276696381 	 15.634982371896 	
H	 25.729689312935 	 10.413835646381 	  5.504422821896 	
H	 25.161145182935 	 10.413838456381 	 15.634979541896 	
H	  2.588474361942 	  1.239414065337 	 10.181861774565 	
H	  2.019930231942 	  1.239416875337 	 20.312418494565 	
H	  2.588443261942 	  7.422975825337 	 10.181858944565 	
H	  2.019899131942 	  7.422978635337 	 20.312415664565 	
H	 17.269301661942 	  1.239423295337 	 10.209991704565 	
H	 16.700757531942 	  1.239426105337 	 20.340548424565 	
H	 17.269270561942 	  7.422985055337 	 10.209988874565 	
H	 16.700726431942 	  7.422987865337 	 20.340545594565 	
C	  1.408516905061 	  3.622410982292 	  6.756046939958 	
C	  0.839972775061 	  3.622413792292 	 16.886603659958 	
C	  1.408485805061 	  9.805972742292 	  6.756044109958 	
C	  0.839941675061 	  9.805975552292 	 16.886600829958 	
C	 16.089344205061 	  3.622420212292 	  6.784176869958 	
C	 15.520800075061 	  3.622423022292 	 16.914733589958 	
C	 16.089313105061 	  9.805981972292 	  6.784174039958 	
C	 15.520768975061 	  9.805984782292 	 16.914730759958 	
C	 12.252724979944 	  0.654212879334 	  8.979988302351 	
C	 11.684180849944 	  0.654215689334 	 19.110545022351 	
C	 12.252693879944 	  6.837774639334 	  8.979985472351 	
C	 11.684149749944 	  6.837777449334 	 19.110542192351 	
C	 26.933552279944 	  0.654222109334 	  9.008118232351 	
C	 26.365008149944 	  0.654224919334 	 19.138674952351 	
C	 26.933521179944 	  6.837783869334 	  9.008115402351 	
C	 26.364977049944 	  6.837786679334 	 19.138672122351 	
C	 12.380150060075 	  2.509584783240 	  3.783887926813 	
C	 11.811605930075 	  2.509587593240 	 13.914444646813 	
C	 12.380118960075 	  8.693146543240 	  3.783885096813 	
C	 11.811574830075 	  8.693149353240 	 13.914441816813 	
C	 27.060977360075 	  2.509594013240 	  3.812017856813 	
C	 26.492433230075 	  2.509596823240 	 13.942574576813 	
C	 27.060946260075 	  8.693155773240 	  3.812015026813 	
C	 26.492402130075 	  8.693158583240 	 13.942571746813 	
C	  1.535941785112 	  5.477783049364 	  1.559948183032 	
C	  0.967397655112 	  5.477785859364 	 11.690504903032 	
C	  1.535910685112 	 11.661344809364 	  1.559945353032 	
C	  0.967366555112 	 11.661347619364 	 11.690502073032 	
C	 16.216769085112 	  5.477792279364 	  1.588078113032 	
C	 15.648224955112 	  5.477795089364 	 11.718634833032 	
C	 16.216737985112 	 11.661354039364 	  1.588075283032 	
C	 15.648193855112 	 11.661356849364 	 11.718632003032 	
H	  1.918945764062 	  4.613691824891 	  6.723181513402 	
H	  1.350401634062 	  4.613694634891 	 16.853738233402 	
H	  1.918914664062 	 10.797253584891 	  6.723178683402 	
H	  1.350370534062 	 10.797256394891 	 16.853735403402 	
H	 16.599773064062 	  4.613701054891 	  6.751311443402 	
H	 16.031228934062 	  4.613703864891 	 16.881868163402 	
H	 16.599741964062 	 10.797262814891 	  6.751308613402 	
H	 16.031197834062 	 10.797265624891 	 16.881865333402 	
H	 11.614187003636 	  1.562934817814 	  9.037851357894 	
H	 11.045642873636 	  1.562937627814 	 19.168408077894 	
H	 11.614155903636 	  7.746496577814 	  9.037848527894 	
H	 11.045611773636 	  7.746499387814 	 19.168405247894 	
H	 26.295014303636 	  1.562944047814 	  9.065981287894 	
H	 25.726470173636 	  1.562946857814 	 19.196538007894 	
H	 26.294983203636 	  7.746505807814 	  9.065978457894 	
H	 25.726439073636 	  7.746508617814 	 19.196535177894 	
H	 11.869721411730 	  1.518303645768 	  3.816753661517 	
H	 11.301177281730 	  1.518306455768 	 13.947310381517 	
H	 11.869690311730 	  7.701865405768 	  3.816750831517 	
H	 11.301146181730 	  7.701868215768 	 13.947307551517 	
H	 26.550548711730 	  1.518312875768 	  3.844883591517 	
H	 25.982004581730 	  1.518315685768 	 13.975440311517 	
H	 26.550517611730 	  7.701874635768 	  3.844880761517 	
H	 25.981973481730 	  7.701877445768 	 13.975437481517 	
H	  2.174479809573 	  4.569061173585 	  1.502084638812 	
H	  1.605935679573 	  4.569063983585 	 11.632641358812 	
H	  2.174448709573 	 10.752622933585 	  1.502081808812 	
H	  1.605904579573 	 10.752625743585 	 11.632638528812 	
H	 16.855307109573 	  4.569070403585 	  1.530214568812 	
H	 16.286762979573 	  4.569073213585 	 11.660771288812 	
H	 16.855276009573 	 10.752632163585 	  1.530211738812 	
H	 16.286731879573 	 10.752634973585 	 11.660768458812 	
H	  1.125313382260 	  3.928798545421 	  7.791318090834 	
H	  0.556769252260 	  3.928801355421 	 17.921874810834 	
H	  1.125282282260 	 10.112360305421 	  7.791315260834 	
H	  0.556738152260 	 10.112363115421 	 17.921871980834 	
H	 15.806140682260 	  3.928807775421 	  7.819448020834 	
H	 15.237596552260 	  3.928810585421 	 17.950004740834 	
H	 15.806109582260 	 10.112369535421 	  7.819445190834 	
H	 15.237565452260 	 10.112372345421 	 17.950001910834 	
H	 12.406544074497 	  6.956632008580 	  7.994582916159 	
H	 11.837999944497 	  6.956634818580 	 18.125139636159 	
H	 12.406512974497 	 13.140193768580 	  7.994580086159 	
H	 11.837968844497 	 13.140196578580 	 18.125136806159 	
H	 27.087371374497 	  6.956641238580 	  8.022712846159 	
H	 26.518827244497 	  6.956644048580 	 18.153269566159 	
H	 27.087340274497 	 13.140202998580 	  8.022710016159 	
H	 26.518796144497 	 13.140205808580 	 18.153266736159 	
H	 12.663354993888 	  2.203198713839 	  2.748616548762 	
H	 12.094810863888 	  2.203201523839 	 12.879173268762 	
H	 12.663323893888 	  8.386760473839 	  2.748613718762 	
H	 12.094779763888 	  8.386763283839 	 12.879170438762 	
H	 27.344182293888 	  2.203207943839 	  2.776746478762 	
H	 26.775638163888 	  2.203210753839 	 12.907303198762 	
H	 27.344151193888 	  8.386769703839 	  2.776743648762 	
H	 26.775607063888 	  8.386772513839 	 12.907300368762 	
H	  1.382123003832 	 -0.824636187932 	  2.545353631853 	
H	  0.813578873832 	 -0.824633377932 	 12.675910351853 	
H	  1.382091903832 	  5.358925572068 	  2.545350801853 	
H	  0.813547773832 	  5.358928382068 	 12.675907521853 	
H	 16.062950303832 	 -0.824626957932 	  2.573483561853 	
H	 15.494406173832 	 -0.824624147932 	 12.704040281853 	
H	 16.062919203832 	  5.358934802068 	  2.573480731853 	
H	 15.494375073832 	  5.358937612068 	 12.704037451853 	
H	  0.476431830637 	  3.832680620103 	  6.183528117754 	
H	 -0.092112299363 	  3.832683430103 	 16.314084837754 	
H	  0.476400730637 	 10.016242380103 	  6.183525287754 	
H	 -0.092143399363 	 10.016245190103 	 16.314082007754 	
H	 15.157259130637 	  3.832689850103 	  6.211658047754 	
H	 14.588715000637 	  3.832692660103 	 16.342214767754 	
H	 15.157228030637 	 10.016251610103 	  6.211655217754 	
H	 14.588683900637 	 10.016254420103 	 16.342211937754 	
H	 13.060002490055 	  6.891219729024 	  9.576892227034 	
H	 12.491458360055 	  6.891222539024 	 19.707448947034 	
H	 13.059971390055 	 13.074781489024 	  9.576889397034 	
H	 12.491427260055 	 13.074784299024 	 19.707446117034 	
H	 27.740829790055 	  6.891228959024 	  9.605022157034 	
H	 27.172285660055 	  6.891231769024 	 19.735578877034 	
H	 27.740798690055 	 13.074790719024 	  9.605019327034 	
H	 27.172254560055 	 13.074793529024 	 19.735576047034 	
H	 13.312235164718 	  2.299315487884 	  4.356407227999 	
H	 12.743691034718 	  2.299318297884 	 14.486963947999 	
H	 13.312204064718 	  8.482877247884 	  4.356404397999 	
H	 12.743659934718 	  8.482880057884 	 14.486961117999 	
H	 27.993062464718 	  2.299324717884 	  4.384537157999 	
H	 27.424518334718 	  2.299327527884 	 14.515093877999 	
H	 27.993031364718 	  8.482886477884 	  4.384534327999 	
H	 27.424487234718 	  8.482889287884 	 14.515091047999 	
H	  0.728664084362 	 -0.759223856029 	  0.963044527508 	
H	  0.160119954362 	 -0.759221046029 	 11.093601247508 	
H	  0.728632984362 	  5.424337903971 	  0.963041697508 	
H	  0.160088854362 	  5.424340713971 	 11.093598417508 	
H	 15.409491384362 	 -0.759214626029 	  0.991174457508 	
H	 14.840947254362 	 -0.759211816029 	 11.121731177508 	
H	 15.409460284362 	  5.424347133971 	  0.991171627508 	
H	 14.840916154362 	  5.424349943971 	 11.121728347508 	
C	  1.262373327998 	  1.914352943885 	  6.769368666945 	
C	  0.693829197998 	  1.914355753885 	 16.899925386945 	
C	  1.262342227998 	  8.097914703885 	  6.769365836945 	
C	  0.693798097998 	  8.097917513885 	 16.899922556945 	
C	 15.943200627998 	  1.914362173885 	  6.797498596945 	
C	 15.374656497998 	  1.914364983885 	 16.928055316945 	
C	 15.943169527998 	  8.097923933885 	  6.797495766945 	
C	 15.374625397998 	  8.097926743885 	 16.928052486945 	
C	 12.273006397035 	  4.996299234138 	  9.006478125064 	
C	 11.704462267035 	  4.996302044138 	 19.137034845064 	
C	 12.272975297035 	 11.179860994138 	  9.006475295064 	
C	 11.704431167035 	 11.179863804138 	 19.137032015064 	
C	 26.953833697035 	  4.996308464138 	  9.034608055064 	
C	 26.385289567035 	  4.996311274138 	 19.165164775064 	
C	 26.953802597035 	 11.179870224138 	  9.034605225064 	
C	 26.385258467035 	 11.179873034138 	 19.165161945064 	
C	 12.526293014035 	  4.217645083393 	  3.770566262981 	
C	 11.957748884035 	  4.217647893393 	 13.901122982981 	
C	 12.526261914035 	 10.401206843393 	  3.770563432981 	
C	 11.957717784035 	 10.401209653393 	 13.901120152981 	
C	 27.207120314035 	  4.217654313393 	  3.798696192981 	
C	 26.638576184035 	  4.217657123393 	 13.929252912981 	
C	 27.207089214035 	 10.401216073393 	  3.798693362981 	
C	 26.638545084035 	 10.401218883393 	 13.929250082981 	
C	  1.515660225610 	  1.135696596772 	  1.533458720247 	
C	  0.947116095610 	  1.135699406772 	 11.664015440247 	
C	  1.515629125610 	  7.319258356772 	  1.533455890247 	
C	  0.947084995610 	  7.319261166772 	 11.664012610247 	
C	 16.196487525610 	  1.135705826772 	  1.561588650247 	
C	 15.627943395610 	  1.135708636772 	 11.692145370247 	
C	 16.196456425610 	  7.319267586772 	  1.561585820247 	
C	 15.627912295610 	  7.319270396772 	 11.692142540247 	
H	  0.257840257698 	  1.769727199081 	  6.317038628514 	
H	 -0.310703872302 	  1.769730009081 	 16.447595348514 	
H	  0.257809157698 	  7.953288959081 	  6.317035798514 	
H	 -0.310734972302 	  7.953291769081 	 16.447592518514 	
H	 14.938667557698 	  1.769736429081 	  6.345168558514 	
H	 14.370123427698 	  1.769739239081 	 16.475725278514 	
H	 14.938636457698 	  7.953298189081 	  6.345165728514 	
H	 14.370092327698 	  7.953300999081 	 16.475722448514 	
H	 13.282268356490 	  4.837435423899 	  9.451328787157 	
H	 12.713724226490 	  4.837438233899 	 19.581885507157 	
H	 13.282237256490 	 11.020997183899 	  9.451325957157 	
H	 12.713693126490 	 11.020999993899 	 19.581882677157 	
H	 27.963095656490 	  4.837444653899 	  9.479458717157 	
H	 27.394551526490 	  4.837447463899 	 19.610015437157 	
H	 27.963064556490 	 11.021006413899 	  9.479455887157 	
H	 27.394520426490 	 11.021009223899 	 19.610012607157 	
H	 13.530825987715 	  4.362270285037 	  4.222897258562 	
H	 12.962281857715 	  4.362273095037 	 14.353453978562 	
H	 13.530794887715 	 10.545832045037 	  4.222894428562 	
H	 12.962250757715 	 10.545834855037 	 14.353451148562 	
H	 28.211653287715 	  4.362279515037 	  4.251027188562 	
H	 27.643109157715 	  4.362282325037 	 14.381583908562 	
H	 28.211622187715 	 10.545841275037 	  4.251024358562 	
H	 27.643078057715 	 10.545844085037 	 14.381581078562 	
H	  0.506398186191 	  1.294560348839 	  1.088608261188 	
H	 -0.062145943809 	  1.294563158839 	 11.219164981188 	
H	  0.506367086191 	  7.478122108839 	  1.088605431188 	
H	 -0.062177043809 	  7.478124918839 	 11.219162151188 	
H	 15.187225486191 	  1.294569578839 	  1.116738191188 	
H	 14.618681356191 	  1.294572388839 	 11.247294911188 	
H	 15.187194386191 	  7.478131338839 	  1.116735361188 	
H	 14.618650256191 	  7.478134148839 	 11.247292081188 	
H	  1.030399734860 	  1.632357525493 	  7.821787967987 	
H	  0.461855604860 	  1.632360335493 	 17.952344687987 	
H	  1.030368634860 	  7.815919285493 	  7.821785137987 	
H	  0.461824504860 	  7.815922095493 	 17.952341857987 	
H	 15.711227034860 	  1.632366755493 	  7.849917897987 	
H	 15.142682904860 	  1.632369565493 	 17.980474617987 	
H	 15.711195934860 	  7.815928515493 	  7.849915067987 	
H	 15.142651804860 	  7.815931325493 	 17.980471787987 	
H	 12.510179692398 	  4.701244078135 	  7.950220687595 	
H	 11.941635562398 	  4.701246888135 	 18.080777407595 	
H	 12.510148592398 	 10.884805838135 	  7.950217857595 	
H	 11.941604462398 	 10.884808648135 	 18.080774577595 	
H	 27.191006992398 	  4.701253308135 	  7.978350617595 	
H	 26.622462862398 	  4.701256118135 	 18.108907337595 	
H	 27.190975892398 	 10.884815068135 	  7.978347787595 	
H	 26.622431762398 	 10.884817878135 	 18.108904507595 	
H	 12.758266931616 	  4.499639698184 	  2.718146678620 	
H	 12.189722801616 	  4.499642508184 	 12.848703398620 	
H	 12.758235831616 	 10.683201458184 	  2.718143848620 	
H	 12.189691701616 	 10.683204268184 	 12.848700568620 	
H	 27.439094231616 	  4.499648928184 	  2.746276608620 	
H	 26.870550101616 	  4.499651738184 	 12.876833328620 	
H	 27.439063131616 	 10.683210688184 	  2.746273778620 	
H	 26.870519001616 	 10.683213498184 	 12.876830498620 	
H	  1.278487028613 	  1.430751628199 	  2.589716177095 	
H	  0.709942898613 	  1.430754438199 	 12.720272897095 	
H	  1.278455928613 	  7.614313388199 	  2.589713347095 	
H	  0.709911798613 	  7.614316198199 	 12.720270067095 	
H	 15.959314328613 	  1.430760858199 	  2.617846107095 	
H	 15.390770198613 	  1.430763668199 	 12.748402827095 	
H	 15.959283228613 	  7.614322618199 	  2.617843277095 	
H	 15.390739098613 	  7.614325428199 	 12.748399997095 	
H	  1.576120718453 	  0.847823827338 	  6.755108643022 	
H	  1.007576588453 	  0.847826637338 	 16.885665363022 	
H	  1.576089618453 	  7.031385587338 	  6.755105813022 	
H	  1.007545488453 	  7.031388397338 	 16.885662533022 	
H	 16.256948018453 	  0.847833057338 	  6.783238573022 	
H	 15.688403888453 	  0.847835867338 	 16.913795293022 	
H	 16.256916918453 	  7.031394817338 	  6.783235743022 	
H	 15.688372788453 	  7.031397627338 	 16.913792463022 	
H	 11.965734563405 	  3.922173269544 	  9.012690449675 	
H	 11.397190433405 	  3.922176079544 	 19.143247169675 	
H	 11.965703463405 	 10.105735029544 	  9.012687619675 	
H	 11.397159333405 	 10.105737839544 	 19.143244339675 	
H	 26.646561863405 	  3.922182499544 	  9.040820379675 	
H	 26.078017733405 	  3.922185309544 	 19.171377099675 	
H	 26.646530763405 	 10.105744259544 	  9.040817549675 	
H	 26.077986633405 	 10.105747069544 	 19.171374269675 	
H	 12.212543811933 	  5.284173794063 	  3.784829866935 	
H	 11.643999681933 	  5.284176604063 	 13.915386586935 	
H	 12.212512711933 	 11.467735554063 	  3.784827036935 	
H	 11.643968581933 	 11.467738364063 	 13.915383756935 	
H	 26.893371111933 	  5.284183024063 	  3.812959796935 	
H	 26.324826981933 	  5.284185834063 	 13.943516516935 	
H	 26.893340011933 	 11.467744784063 	  3.812956966935 	
H	 26.324795881933 	 11.467747594063 	 13.943513686935 	
H	  1.822931921846 	  2.209822605235 	  1.527246952820 	
H	  1.254387791846 	  2.209825415235 	 11.657803672820 	
H	  1.822900821846 	  8.393384365235 	  1.527244122820 	
H	  1.254356691846 	  8.393387175235 	 11.657800842820 	
H	 16.503759221846 	  2.209831835235 	  1.555376882820 	
H	 15.935215091846 	  2.209834645235 	 11.685933602820 	
H	 16.503728121846 	  8.393393595235 	  1.555374052820 	
H	 15.935183991846 	  8.393396405235 	 11.685930772820 	
768 
Energy: -1.0092269427420000e+02 
S	  8.436855903566 	  1.468403276645 	  0.109940332018 	
S	  7.868311773566 	  1.468406086645 	 10.240497052018 	
S	  8.436824803566 	  7.651965036645 	  0.109937502018 	
S	  7.868280673566 	  7.651967846645 	 10.240494222018 	
S	 23.117683203566 	  1.468412506645 	  0.138070262018 	
S	 22.549139073566 	  1.468415316645 	 10.268626982018 	
S	 23.117652103566 	  7.651974266645 	  0.138067432018 	
S	 22.549107973566 	  7.651977076645 	 10.268624152018 	
S	  5.533130792774 	  4.528505420358 	  5.242239472088 	
S	  4.964586662774 	  4.528508230358 	 15.372796192088 	
S	  5.533099692774 	 10.712067180358 	  5.242236642088 	
S	  4.964555562774 	 10.712069990358 	 15.372793362088 	
S	 20.213958092774 	  4.528514650358 	  5.270369402088 	
S	 19.645413962774 	  4.528517460358 	 15.400926122088 	
S	 20.213926992774 	 10.712076410358 	  5.270366572088 	
S	 19.645382862774 	 10.712079220358 	 15.400923292088 	
S	  5.295423980953 	  4.654604677062 	 10.496431282302 	
S	  4.726879850953 	  4.654607487062 	 20.626988002302 	
S	  5.295392880953 	 10.838166437062 	 10.496428452302 	
S	  4.726848750953 	 10.838169247062 	 20.626985172302 	
S	 19.976251280953 	  4.654613907062 	 10.524561212302 	
S	 19.407707150953 	  4.654616717062 	 20.655117932302 	
S	 19.976220180953 	 10.838175667062 	 10.524558382302 	
S	 19.407676050953 	 10.838178477062 	 20.655115102302 	
S	  8.199150202685 	  1.594502720243 	  5.364131911960 	
S	  7.630606072685 	  1.594505530243 	 15.494688631960 	
S	  8.199119102685 	  7.778064480243 	  5.364129081960 	
S	  7.630574972685 	  7.778067290243 	 15.494685801960 	
S	 22.879977502685 	  1.594511950243 	  5.392261841960 	
S	 22.311433372685 	  1.594514760243 	 15.522818561960 	
S	 22.879946402685 	  7.778073710243 	  5.392259011960 	
S	 22.311402272685 	  7.778076520243 	 15.522815731960 	
C	  6.591340393394 	  2.550426955060 	 10.185142506770 	
C	  6.022796263394 	  2.550429765060 	 20.315699226770 	
C	  6.591309293394 	  8.733988715060 	 10.185139676770 	
C	  6.022765163394 	  8.733991525060 	 20.315696396770 	
C	 21.272167693394 	  2.550436185060 	 10.213272436770 	
C	 20.703623563394 	  2.550438995060 	 20.343829156770 	
C	 21.272136593394 	  8.733997945060 	 10.213269606770 	
C	 20.703592463394 	  8.734000755060 	 20.343826326770 	
C	  6.905201884559 	  5.562140214494 	  5.713446323797 	
C	  6.336657754559 	  5.562143024494 	 15.844003043797 	
C	  6.905170784559 	 11.745701974494 	  5.713443493797 	
C	  6.336626654559 	 11.745704784494 	 15.844000213797 	
C	 21.586029184559 	  5.562149444494 	  5.741576253797 	
C	 21.017485054559 	  5.562152254494 	 15.872132973797 	
C	 21.585998084559 	 11.745711204494 	  5.741573423797 	
C	 21.017453954559 	 11.745714014494 	 15.872130143797 	
C	  7.140939509541 	  3.572580979509 	  0.421228984828 	
C	  6.572395379541 	  3.572583789509 	 10.551785704828 	
C	  7.140908409541 	  9.756142739509 	  0.421226154828 	
C	  6.572364279541 	  9.756145549509 	 10.551782874828 	
C	 21.821766809541 	  3.572590209509 	  0.449358914828 	
C	 21.253222679541 	  3.572593019509 	 10.579915634828 	
C	 21.821735709541 	  9.756151969509 	  0.449356084828 	
C	 21.253191579541 	  9.756154779509 	 10.579912804828 	
C	  6.827078954834 	  0.560867991689 	  4.892924933521 	
C	  6.258534824834 	  0.560870801689 	 15.023481653521 	
C	  6.827047854834 	  6.744429751689 	  4.892922103521 	
C	  6.258503724834 	  6.744432561689 	 15.023478823521 	
C	 21.507906254834 	  0.560877221689 	  4.921054863521 	
C	 20.939362124834 	  0.560880031689 	 15.051611583521 	
C	 21.507875154834 	  6.744438981689 	  4.921052033521 	
C	 20.939331024834 	  6.744441791689 	 15.051608753521 	
C	  5.564747816576 	  2.389007342342 	  9.216248760852 	
C	  4.996203686576 	  2.389010152342 	 19.346805480852 	
C	  5.564716716576 	  8.572569102342 	  9.216245930852 	
C	  4.996172586576 	  8.572571912342 	 19.346802650852 	
C	 20.245575116576 	  2.389016572342 	  9.244378690852 	
C	 19.677030986576 	  2.389019382342 	 19.374935410852 	
C	 20.245544016576 	  8.572578332342 	  9.244375860852 	
C	 19.676999886576 	  8.572581142342 	 19.374932580852 	
C	  7.923230958237 	  5.438745645547 	  6.643814820661 	
C	  7.354686828237 	  5.438748455547 	 16.774371540661 	
C	  7.923199858237 	 11.622307405547 	  6.643811990661 	
C	  7.354655728237 	 11.622310215547 	 16.774368710661 	
C	 22.604058258237 	  5.438754875547 	  6.671944750661 	
C	 22.035514128237 	  5.438757685547 	 16.802501470661 	
C	 22.604027158237 	 11.622316635547 	  6.671941920661 	
C	 22.035483028237 	 11.622319445547 	 16.802498640661 	
C	  8.167531998288 	  3.734000657910 	  1.390122657535 	
C	  7.598987868288 	  3.734003467910 	 11.520679377535 	
C	  8.167500898288 	  9.917562417910 	  1.390119827535 	
C	  7.598956768288 	  9.917565227910 	 11.520676547535 	
C	 22.848359298288 	  3.734009887910 	  1.418252587535 	
C	 22.279815168288 	  3.734012697910 	 11.548809307535 	
C	 22.848328198288 	  9.917571647910 	  1.418249757535 	
C	 22.279784068288 	  9.917574457910 	 11.548806477535 	
C	  5.809049705214 	  0.684262596115 	  3.962556595276 	
C	  5.240505575214 	  0.684265406115 	 14.093113315276 	
C	  5.809018605214 	  6.867824356115 	  3.962553765276 	
C	  5.240474475214 	  6.867827166115 	 14.093110485276 	
C	 20.489877005214 	  0.684271826115 	  3.990686525276 	
C	 19.921332875214 	  0.684274636115 	 14.121243245276 	
C	 20.489845905214 	  6.867833586115 	  3.990683695276 	
C	 19.921301775214 	  6.867836396115 	 14.121240415276 	
C	  4.716240570202 	  3.465656684179 	  9.234690786542 	
C	  4.147696440202 	  3.465659494179 	 19.365247506542 	
C	  4.716209470202 	  9.649218444179 	  9.234687956542 	
C	  4.147665340202 	  9.649221254179 	 19.365244676542 	
C	 19.397067870202 	  3.465665914179 	  9.262820716542 	
C	 18.828523740202 	  3.465668724179 	 19.393377436542 	
C	 19.397036770202 	  9.649227674179 	  9.262817886542 	
C	 18.828492640202 	  9.649230484179 	 19.393374606542 	
C	  8.779704151026 	  0.413921268412 	  6.627420351230 	
C	  8.211160021026 	  0.413924078412 	 16.757977071230 	
C	  8.779673051026 	  6.597483028412 	  6.627417521230 	
C	  8.211128921026 	  6.597485838412 	 16.757974241230 	
C	 23.460531451026 	  0.413930498412 	  6.655550281230 	
C	 22.891987321026 	  0.413933308412 	 16.786107001230 	
C	 23.460500351026 	  6.597492258412 	  6.655547451230 	
C	 22.891956221026 	  6.597495068412 	 16.786104171230 	
C	  9.016039231935 	  2.657351292562 	  1.371680669611 	
C	  8.447495101935 	  2.657354102562 	 11.502237389611 	
C	  9.016008131935 	  8.840913052562 	  1.371677839611 	
C	  8.447464001935 	  8.840915862562 	 11.502234559611 	
C	 23.696866531935 	  2.657360522562 	  1.399810599611 	
C	 23.128322401935 	  2.657363332562 	 11.530367319611 	
C	 23.696835431935 	  8.840922282562 	  1.399807769611 	
C	 23.128291301935 	  8.840925092562 	 11.530364489611 	
C	  4.952576569882 	  5.709086938138 	  3.978951238016 	
C	  4.384032439882 	  5.709089748138 	 14.109507958016 	
C	  4.952545469882 	 11.892648698138 	  3.978948408016 	
C	  4.384001339882 	 11.892651508138 	 14.109505128016 	
C	 19.633403869882 	  5.709096168138 	  4.007081168016 	
C	 19.064859739882 	  5.709098978138 	 14.137637888016 	
C	 19.633372769882 	 11.892657928138 	  4.007078338016 	
C	 19.064828639882 	 11.892660738138 	 14.137635058016 	
C	  3.675145405950 	  3.578002665172 	  8.466279737158 	
C	  3.106601275950 	  3.578005475172 	 18.596836457158 	
C	  3.675114305950 	  9.761564425172 	  8.466276907158 	
C	  3.106570175950 	  9.761567235172 	 18.596833627158 	
C	 18.355972705950 	  3.578011895172 	  8.494409667158 	
C	 17.787428575950 	  3.578014705172 	 18.624966387158 	
C	 18.355941605950 	  9.761573655172 	  8.494406837158 	
C	 17.787397475950 	  9.761576465172 	 18.624963557158 	
C	  9.810027865946 	  0.530949412277 	  7.383494205846 	
C	  9.241483735946 	  0.530952222277 	 17.514050925846 	
C	  9.809996765946 	  6.714511172277 	  7.383491375846 	
C	  9.241452635946 	  6.714513982277 	 17.514048095846 	
C	 24.490855165946 	  0.530958642277 	  7.411624135846 	
C	 23.922311035946 	  0.530961452277 	 17.542180855846 	
C	 24.490824065946 	  6.714520402277 	  7.411621305846 	
C	 23.922279935946 	  6.714523212277 	 17.542178025846 	
C	 10.057134427268 	  2.545005462785 	  2.140091932310 	
C	  9.488590297268 	  2.545008272785 	 12.270648652310 	
C	 10.057103327268 	  8.728567222785 	  2.140089102310 	
C	  9.488559197268 	  8.728570032785 	 12.270645822310 	
C	 24.737961727268 	  2.545014692785 	  2.168221862310 	
C	 24.169417597268 	  2.545017502785 	 12.298778582310 	
C	 24.737930627268 	  8.728576452785 	  2.168219032310 	
C	 24.169386497268 	  8.728579262785 	 12.298775752310 	
C	  3.922252509825 	  5.592058855203 	  3.222877738055 	
C	  3.353708379825 	  5.592061665203 	 13.353434458055 	
C	  3.922221409825 	 11.775620615203 	  3.222874908055 	
C	  3.353677279825 	 11.775623425203 	 13.353431628055 	
C	 18.603079809825 	  5.592068085203 	  3.251007668055 	
C	 18.034535679825 	  5.592070895203 	 13.381564388055 	
C	 18.603048709825 	 11.775629845203 	  3.251004838055 	
C	 18.034504579825 	 11.775632655203 	 13.381561558055 	
H	  3.016586426164 	  4.519296374521 	  8.540732604912 	
H	  2.448042296164 	  4.519299184521 	 18.671289324912 	
H	  3.016555326164 	 10.702858134521 	  8.540729774912 	
H	  2.448011196164 	 10.702860944521 	 18.671286494912 	
H	 17.697413726164 	  4.519305604521 	  8.568862534912 	
H	 17.128869596164 	  4.519308414521 	 18.699419254912 	
H	 17.697382626164 	 10.702867364521 	  8.568859704912 	
H	 17.128838496164 	 10.702870174521 	 18.699416424912 	
H	 10.476820963929 	  1.456552917323 	  7.321949768807 	
H	  9.908276833929 	  1.456555727323 	 17.452506488807 	
H	 10.476789863929 	  7.640114677323 	  7.321946938807 	
H	  9.908245733929 	  7.640117487323 	 17.452503658807 	
H	 25.157648263929 	  1.456562147323 	  7.350079698807 	
H	 24.589104133929 	  1.456564957323 	 17.480636418807 	
H	 25.157617163929 	  7.640123907323 	  7.350076868807 	
H	 24.589073033929 	  7.640126717323 	 17.480633588807 	
H	 10.715693309352 	  1.603711657511 	  2.065639191816 	
H	 10.147149179352 	  1.603714467511 	 12.196195911816 	
H	 10.715662209352 	  7.787273417511 	  2.065636361816 	
H	 10.147118079352 	  7.787276227511 	 12.196193081816 	
H	 25.396520609352 	  1.603720887511 	  2.093769121816 	
H	 24.827976479352 	  1.603723697511 	 12.224325841816 	
H	 25.396489509352 	  7.787282647511 	  2.093766291816 	
H	 24.827945379352 	  7.787285457511 	 12.224323011816 	
H	  3.255459532623 	  4.666455281832 	  3.284422331305 	
H	  2.686915402623 	  4.666458091832 	 13.414979051305 	
H	  3.255428432623 	 10.850017041832 	  3.284419501305 	
H	  2.686884302623 	 10.850019851832 	 13.414976221305 	
H	 17.936286832623 	  4.666464511832 	  3.312552261305 	
H	 17.367742702623 	  4.666467321832 	 13.443108981305 	
H	 17.936255732623 	 10.850026271832 	  3.312549431305 	
H	 17.367711602623 	 10.850029081832 	 13.443106151305 	
C	  3.349407552343 	  2.642718862259 	  7.593177876214 	
C	  2.780863422343 	  2.642721672259 	 17.723734596214 	
C	  3.349376452343 	  8.826280622259 	  7.593175046214 	
C	  2.780832322343 	  8.826283432259 	 17.723731766214 	
C	 18.030234852343 	  2.642728092259 	  7.621307806214 	
C	 17.461690722343 	  2.642730902259 	 17.751864526214 	
C	 18.030203752343 	  8.826289852259 	  7.621304976214 	
C	 17.461659622343 	  8.826292662259 	 17.751861696214 	
C	 10.151318587550 	  5.687428720462 	  8.279953610744 	
C	  9.582774457550 	  5.687431530462 	 18.410510330744 	
C	 10.151287487550 	 11.870990480462 	  8.279950780744 	
C	  9.582743357550 	 11.870993290462 	 18.410507500744 	
C	 24.832145887550 	  5.687437950462 	  8.308083540744 	
C	 24.263601757550 	  5.687440760462 	 18.438640260744 	
C	 24.832114787550 	 11.870999710462 	  8.308080710744 	
C	 24.263570657550 	 11.871002520462 	 18.438637430744 	
C	 10.382872088201 	  3.480289326823 	  3.013193515868 	
C	  9.814327958201 	  3.480292136823 	 13.143750235868 	
C	 10.382840988201 	  9.663851086823 	  3.013190685868 	
C	  9.814296858201 	  9.663853896823 	 13.143747405868 	
C	 25.063699388201 	  3.480298556823 	  3.041323445868 	
C	 24.495155258201 	  3.480301366823 	 13.171880165868 	
C	 25.063668288201 	  9.663860316823 	  3.041320615868 	
C	 24.495124158201 	  9.663863126823 	 13.171877335868 	
C	  3.580961504087 	  0.435579629045 	  2.326418503463 	
C	  3.012417374087 	  0.435582439045 	 12.456975223463 	
C	  3.580930404087 	  6.619141389045 	  2.326415673463 	
C	  3.012386274087 	  6.619144199045 	 12.456972393463 	
C	 18.261788804087 	  0.435588859045 	  2.354548433463 	
C	 17.693244674087 	  0.435591669045 	 12.485105153463 	
C	 18.261757704087 	  6.619150619045 	  2.354545603463 	
C	 17.693213574087 	  6.619153429045 	 12.485102323463 	
C	  4.195014170992 	  1.575188655799 	  7.540247158378 	
C	  3.626470040992 	  1.575191465799 	 17.670803878378 	
C	  4.194983070992 	  7.758750415799 	  7.540244328378 	
C	  3.626438940992 	  7.758753225799 	 17.670801048378 	
C	 18.875841470992 	  1.575197885799 	  7.568377088378 	
C	 18.307297340992 	  1.575200695799 	 17.698933808378 	
C	 18.875810370992 	  7.758759645799 	  7.568374258378 	
C	 18.307266240992 	  7.758762455799 	 17.698930978378 	
C	  9.298919594887 	  4.639013611757 	  8.319529771711 	
C	  8.730375464887 	  4.639016421757 	 18.450086491711 	
C	  9.298888494887 	 10.822575371757 	  8.319526941711 	
C	  8.730344364887 	 10.822578181757 	 18.450083661711 	
C	 23.979746894887 	  4.639022841757 	  8.347659701711 	
C	 23.411202764887 	  4.639025651757 	 18.478216421711 	
C	 23.979715794887 	 10.822584601757 	  8.347656871711 	
C	 23.411171664887 	 10.822587411757 	 18.478213591711 	
C	  9.537265566035 	  4.547819574584 	  3.066124173363 	
C	  8.968721436035 	  4.547822384584 	 13.196680893363 	
C	  9.537234466035 	 10.731381334584 	  3.066121343363 	
C	  8.968690336035 	 10.731384144584 	 13.196678063363 	
C	 24.218092866035 	  4.547828804584 	  3.094254103363 	
C	 23.649548736035 	  4.547831614584 	 13.224810823363 	
C	 24.218061766035 	 10.731390564584 	  3.094251273363 	
C	 23.649517636035 	 10.731393374584 	 13.224807993363 	
C	  4.433360409081 	  1.483994641037 	  2.286842076229 	
C	  3.864816279081 	  1.483997451037 	 12.417398796229 	
C	  4.433329309081 	  7.667556401037 	  2.286839246229 	
C	  3.864785179081 	  7.667559211037 	 12.417395966229 	
C	 19.114187709081 	  1.484003871037 	  2.314972006229 	
C	 18.545643579081 	  1.484006681037 	 12.445528726229 	
C	 19.114156609081 	  7.667565631037 	  2.314969176229 	
C	 18.545612479081 	  7.667568441037 	 12.445525896229 	
H	  3.960904673779 	  0.755017272117 	  6.771027411524 	
H	  3.392360543779 	  0.755020082117 	 16.901584131524 	
H	  3.960873573779 	  6.938579032117 	  6.771024581524 	
H	  3.392329443779 	  6.938581842117 	 16.901581301524 	
H	 18.641731973779 	  0.755026502117 	  6.799157341524 	
H	 18.073187843779 	  0.755029312117 	 16.929714061524 	
H	 18.641700873779 	  6.938588262117 	  6.799154511524 	
H	 18.073156743779 	  6.938591072117 	 16.929711231524 	
H	  9.532165139800 	  3.818337163304 	  9.090485111709 	
H	  8.963621009800 	  3.818339973304 	 19.221041831709 	
H	  9.532134039800 	 10.001898923304 	  9.090482281709 	
H	  8.963589909800 	 10.001901733304 	 19.221039001709 	
H	 24.212992439800 	  3.818346393304 	  9.118615041709 	
H	 23.644448309800 	  3.818349203304 	 19.249171761709 	
H	 24.212961339800 	 10.001908153304 	  9.118612211709 	
H	 23.644417209800 	 10.001910963304 	 19.249168931709 	
H	  9.771375169261 	  5.367991085108 	  3.835343763478 	
H	  9.202831039261 	  5.367993895108 	 13.965900483478 	
H	  9.771344069261 	 11.551552845108 	  3.835340933478 	
H	  9.202799939261 	 11.551555655108 	 13.965897653478 	
H	 24.452202469261 	  5.368000315108 	  3.863473693478 	
H	 23.883658339261 	  5.368003125108 	 13.994030413478 	
H	 24.452171369261 	 11.551562075108 	  3.863470863478 	
H	 23.883627239261 	 11.551564885108 	 13.994027583478 	
H	  4.200114593191 	  2.304671205881 	  1.515886931988 	
H	  3.631570463191 	  2.304674015881 	 11.646443651988 	
H	  4.200083493191 	  8.488232965881 	  1.515884101988 	
H	  3.631539363191 	  8.488235775881 	 11.646440821988 	
H	 18.880941893191 	  2.304680435881 	  1.544016861988 	
H	 18.312397763191 	  2.304683245881 	 11.674573581988 	
H	 18.880910793191 	  8.488242195881 	  1.544014031988 	
H	 18.312366663191 	  8.488245005881 	 11.674570751988 	
C	  5.212792662615 	  1.449306692996 	  8.277774416894 	
C	  4.644248532615 	  1.449309502996 	 18.408331136894 	
C	  5.212761562615 	  7.632868452996 	  8.277771586894 	
C	  4.644217432615 	  7.632871262996 	 18.408328306894 	
C	 19.893619962615 	  1.449315922996 	  8.305904346894 	
C	 19.325075832615 	  1.449318732996 	 18.436461066894 	
C	 19.893588862615 	  7.632877682996 	  8.305901516894 	
C	 19.325044732615 	  7.632880492996 	 18.436458236894 	
C	  8.280133030414 	  4.512713264656 	  7.581315955832 	
C	  7.711588900414 	  4.512716074656 	 17.711872675832 	
C	  8.280101930414 	 10.696275024656 	  7.581313125832 	
C	  7.711557800414 	 10.696277834656 	 17.711869845832 	
C	 22.960960330414 	  4.512722494656 	  7.609445885832 	
C	 22.392416200414 	  4.512725304656 	 17.740002605832 	
C	 22.960929230414 	 10.696284254656 	  7.609443055832 	
C	 22.392385100414 	 10.696287064656 	 17.739999775832 	
C	  8.519487118012 	  4.673701438956 	  2.328596858448 	
C	  7.950942988012 	  4.673704248956 	 12.459153578448 	
C	  8.519456018012 	 10.857263198956 	  2.328594028448 	
C	  7.950911888012 	 10.857266008956 	 12.459150748448 	
C	 23.200314418012 	  4.673710668956 	  2.356726788448 	
C	 22.631770288012 	  4.673713478956 	 12.487283508448 	
C	 23.200283318012 	 10.857272428956 	  2.356723958448 	
C	 22.631739188012 	 10.857275238956 	 12.487280678448 	
C	  5.452147290397 	  1.610294998882 	  3.025055617397 	
C	  4.883603160397 	  1.610297808882 	 13.155612337397 	
C	  5.452116190397 	  7.793856758882 	  3.025052787397 	
C	  4.883572060397 	  7.793859568882 	 13.155609507397 	
C	 20.132974590397 	  1.610304228882 	  3.053185547397 	
C	 19.564430460397 	  1.610307038882 	 13.183742267397 	
C	 20.132943490397 	  7.793865988882 	  3.053182717397 	
C	 19.564399360397 	  7.793868798882 	 13.183739437397 	
H	  5.894985170678 	  0.528407678274 	  8.190654766710 	
H	  5.326441040678 	  0.528410488274 	 18.321211486710 	
H	  5.894954070678 	  6.711969438274 	  8.190651936710 	
H	  5.326409940678 	  6.711972248274 	 18.321208656710 	
H	 20.575812470678 	  0.528416908274 	  8.218784696710 	
H	 20.007268340678 	  0.528419718274 	 18.349341416710 	
H	 20.575781370678 	  6.711978668274 	  8.218781866710 	
H	 20.007237240678 	  6.711981478274 	 18.349338586710 	
H	  7.597684640187 	  3.590470113942 	  7.669770367877 	
H	  7.029140510187 	  3.590472923942 	 17.800327087877 	
H	  7.597653540187 	  9.774031873942 	  7.669767537877 	
H	  7.029109410187 	  9.774034683942 	 17.800324257877 	
H	 22.278511940187 	  3.590479343942 	  7.697900297877 	
H	 21.709967810187 	  3.590482153942 	 17.828457017877 	
H	 22.278480840187 	  9.774041103942 	  7.697897467877 	
H	 21.709936710187 	  9.774043913942 	 17.828454187877 	
H	  7.837294585466 	  5.594600449652 	  2.415716327250 	
H	  7.268750455466 	  5.594603259652 	 12.546273047250 	
H	  7.837263485466 	 11.778162209652 	  2.415713497250 	
H	  7.268719355466 	 11.778165019652 	 12.546270217250 	
H	 22.518121885466 	  5.594609679652 	  2.443846257250 	
H	 21.949577755466 	  5.594612489652 	 12.574402977250 	
H	 22.518090785466 	 11.778171439652 	  2.443843427250 	
H	 21.949546655466 	 11.778174249652 	 12.574400147250 	
H	  6.134595654451 	  2.532538144457 	  2.936601046245 	
H	  5.566051524451 	  2.532540954457 	 13.067157766245 	
H	  6.134564554451 	  8.716099904457 	  2.936598216245 	
H	  5.566020424451 	  8.716102714457 	 13.067154936245 	
H	 20.815422954451 	  2.532547374457 	  2.964730976245 	
H	 20.246878824451 	  2.532550184457 	 13.095287696245 	
H	 20.815391854451 	  8.716109134457 	  2.964728146245 	
H	 20.246847724451 	  8.716111944457 	 13.095284866245 	
C	  2.000469058204 	  2.754295741834 	  6.652983066033 	
C	  1.431924928204 	  2.754298551834 	 16.783539786033 	
C	  2.000437958204 	  8.937857501834 	  6.652980236033 	
C	  1.431893828204 	  8.937860311834 	 16.783536956033 	
C	 16.681296358204 	  2.754304971834 	  6.681112996033 	
C	 16.112752228204 	  2.754307781834 	 16.811669716033 	
C	 16.681265258204 	  8.937866731834 	  6.681110166033 	
C	 16.112721128204 	  8.937869541834 	 16.811666886033 	
C	 11.400644966371 	  5.727248833389 	  9.162178101015 	
C	 10.832100836371 	  5.727251643389 	 19.292734821015 	
C	 11.400613866371 	 11.910810593389 	  9.162175271015 	
C	 10.832069736371 	 11.910813403389 	 19.292731991015 	
C	 26.081472266371 	  5.727258063389 	  9.190308031015 	
C	 25.512928136371 	  5.727260873389 	 19.320864751015 	
C	 26.081441166371 	 11.910819823389 	  9.190305201015 	
C	 25.512897036371 	 11.910822633389 	 19.320861921015 	
C	 11.731811457382 	  3.368712906278 	  3.953389389935 	
C	 11.163267327382 	  3.368715716278 	 14.083946109935 	
C	 11.731780357382 	  9.552274666278 	  3.953386559935 	
C	 11.163236227382 	  9.552277476278 	 14.083943279935 	
C	 26.412638757382 	  3.368722136278 	  3.981519319935 	
C	 25.844094627382 	  3.368724946278 	 14.112076039935 	
C	 26.412607657382 	  9.552283896278 	  3.981516489935 	
C	 25.844063527382 	  9.552286706278 	 14.112073209935 	
C	  2.331634709369 	  0.395759390251 	  1.444194325159 	
C	  1.763090579369 	  0.395762200251 	 11.574751045159 	
C	  2.331603609369 	  6.579321150251 	  1.444191495159 	
C	  1.763059479369 	  6.579323960251 	 11.574748215159 	
C	 17.012462009369 	  0.395768620251 	  1.472324255159 	
C	 16.443917879369 	  0.395771430251 	 11.602880975159 	
C	 17.012430909369 	  6.579330380251 	  1.472321425159 	
C	 16.443886779369 	  6.579333190251 	 11.602878145159 	
C	  2.140052622373 	  2.617295979248 	  5.558674886390 	
C	  1.571508492373 	  2.617298789248 	 15.689231606390 	
C	  2.140021522373 	  8.800857739248 	  5.558672056390 	
C	  1.571477392373 	  8.800860549248 	 15.689228776390 	
C	 16.820879922373 	  2.617305209248 	  5.586804816390 	
C	 16.252335792373 	  2.617308019248 	 15.717361536390 	
C	 16.820848822373 	  8.800866969248 	  5.586801986390 	
C	 16.252304692373 	  8.800869779248 	 15.717358706390 	
C	 11.368529332875 	 -0.374950608217 	 10.189203560522 	
C	 10.799985202875 	 -0.374947798217 	 20.319760280522 	
C	 11.368498232875 	  5.808611151783 	 10.189200730522 	
C	 10.799954102875 	  5.808613961783 	 20.319757450522 	
C	 26.049356632875 	 -0.374941378217 	 10.217333490522 	
C	 25.480812502875 	 -0.374938568217 	 20.347890210522 	
C	 26.049325532875 	  5.808620381783 	 10.217330660522 	
C	 25.480781402875 	  5.808623191783 	 20.347887380522 	
C	 11.592225423272 	  3.505712156071 	  5.047697686127 	
C	 11.023681293272 	  3.505714966071 	 15.178254406127 	
C	 11.592194323272 	  9.689273916071 	  5.047694856127 	
C	 11.023650193272 	  9.689276726071 	 15.178251576127 	
C	 26.273052723272 	  3.505721386071 	  5.075827616127 	
C	 25.704508593272 	  3.505724196071 	 15.206384336127 	
C	 26.273021623272 	  9.689283146071 	  5.075824786127 	
C	 25.704477493272 	  9.689285956071 	 15.206381506127 	
C	  2.363750127212 	  6.497958978066 	  0.417168909208 	
C	  1.795205997212 	  6.497961788066 	 10.547725629208 	
C	  2.363719027212 	 12.681520738066 	  0.417166079208 	
C	  1.795174897212 	 12.681523548066 	 10.547722799208 	
C	 17.044577427212 	  6.497968208066 	  0.445298839208 	
C	 16.476033297212 	  6.497971018066 	 10.575855559208 	
C	 17.044546327212 	 12.681529968066 	  0.445296009208 	
C	 16.476002197212 	 12.681532778066 	 10.575852729208 	
H	  3.005140699111 	  3.102976315694 	  5.051459446040 	
H	  2.436596569111 	  3.102979125694 	 15.182016166040 	
H	  3.005109599111 	  9.286538075694 	  5.051456616040 	
H	  2.436565469111 	  9.286540885694 	 15.182013336040 	
H	 17.685967999111 	  3.102985545694 	  5.079589376040 	
H	 17.117423869111 	  3.102988355694 	 15.210146096040 	
H	 17.685936899111 	  9.286547305694 	  5.079586546040 	
H	 17.117392769111 	  9.286550115694 	 15.210143266040 	
H	 10.509129848915 	  0.032095031353 	 10.795254446668 	
H	  9.940585718915 	  0.032097841353 	 20.925811166668 	
H	 10.509098748915 	  6.215656791353 	 10.795251616668 	
H	  9.940554618915 	  6.215659601353 	 20.925808336668 	
H	 25.189957148915 	  0.032104261353 	 10.823384376668 	
H	 24.621413018915 	  0.032107071353 	 20.953941096668 	
H	 25.189926048915 	  6.215666021353 	 10.823381546668 	
H	 24.621381918915 	  6.215668831353 	 20.953938266668 	
H	 10.727138325033 	  3.020028409043 	  5.554911938227 	
H	 10.158594195033 	  3.020031219043 	 15.685468658227 	
H	 10.727107225033 	  9.203590169043 	  5.554909108227 	
H	 10.158563095033 	  9.203592979043 	 15.685465828227 	
H	 25.407965625033 	  3.020037639043 	  5.583041868227 	
H	 24.839421495033 	  3.020040449043 	 15.713598588227 	
H	 25.407934525033 	  9.203599399043 	  5.583039038227 	
H	 24.839390395033 	  9.203602209043 	 15.713595758227 	
H	  3.223149428398 	  6.090913572974 	 -0.188882338621 	
H	  2.654605298398 	  6.090916382974 	  9.941674381379 	
H	  3.223118328398 	 12.274475332974 	 -0.188885168621 	
H	  2.654574198398 	 12.274478142974 	  9.941671551379 	
H	 17.903976728398 	  6.090922802974 	 -0.160752408621 	
H	 17.335432598398 	  6.090925612974 	  9.969804311379 	
H	 17.903945628398 	 12.274484562974 	 -0.160755238621 	
H	 17.335401498398 	 12.274487372974 	  9.969801481379 	
H	  1.416773338668 	  2.706798202501 	  4.714139435280 	
H	  0.848229208668 	  2.706801012501 	 14.844696155280 	
H	  1.416742238668 	  8.890359962501 	  4.714136605280 	
H	  0.848198108668 	  8.890362772501 	 14.844693325280 	
H	 16.097600638668 	  2.706807432501 	  4.742269365280 	
H	 15.529056508668 	  2.706810242501 	 14.872826085280 	
H	 16.097569538668 	  8.890369192501 	  4.742266535280 	
H	 15.529025408668 	  8.890372002501 	 14.872823255280 	
H	 12.619117704437 	 -0.347910137532 	  0.723687686445 	
H	 12.050573574437 	 -0.347907327532 	 10.854244406445 	
H	 12.619086604437 	  5.835651622468 	  0.723684856445 	
H	 12.050542474437 	  5.835654432468 	 10.854241576445 	
H	 27.299945004437 	 -0.347900907532 	  0.751817616445 	
H	 26.731400874437 	 -0.347898097532 	 10.882374336445 	
H	 27.299913904437 	  5.835660852468 	  0.751814786445 	
H	 26.731369774437 	  5.835663662468 	 10.882371506445 	
H	 12.315505496169 	  3.416210013537 	  5.892232773487 	
H	 11.746961366169 	  3.416212823537 	 16.022789493487 	
H	 12.315474396169 	  9.599771773537 	  5.892229943487 	
H	 11.746930266169 	  9.599774583537 	 16.022786663487 	
H	 26.996332796169 	  3.416219243537 	  5.920362703487 	
H	 26.427788666169 	  3.416222053537 	 16.050919423487 	
H	 26.996301696169 	  9.599781003537 	  5.920359873487 	
H	 26.427757566169 	  9.599783813537 	 16.050916593487 	
H	  1.113161426629 	  6.470918677083 	  9.882685048976 	
H	  0.544617296629 	  6.470921487083 	 20.013241768976 	
H	  1.113130326629 	 12.654480437083 	  9.882682218976 	
H	  0.544586196629 	 12.654483247083 	 20.013238938976 	
H	 15.793988726629 	  6.470927907083 	  9.910814978976 	
H	 15.225444596629 	  6.470930717083 	 20.041371698976 	
H	 15.793957626629 	 12.654489667083 	  9.910812148976 	
H	 15.225413496629 	 12.654492477083 	 20.041368868976 	
H	  2.655369023866 	  1.712148003776 	  5.164785275330 	
H	  2.086824893866 	  1.712150813776 	 15.295341995330 	
H	  2.655337923866 	  7.895709763776 	  5.164782445330 	
H	  2.086793793866 	  7.895712573776 	 15.295339165330 	
H	 17.336196323866 	  1.712157233776 	  5.192915205330 	
H	 16.767652193866 	  1.712160043776 	 15.323471925330 	
H	 17.336165223866 	  7.895718993776 	  5.192912375330 	
H	 16.767621093866 	  7.895721803776 	 15.323469095330 	
H	 11.216537620365 	  4.685970134506 	  0.273394861774 	
H	 10.647993490365 	  4.685972944506 	 10.403951581774 	
H	 11.216506520365 	 10.869531894506 	  0.273392031774 	
H	 10.647962390365 	 10.869534704506 	 10.403948751774 	
H	 25.897364920365 	  4.685979364506 	  0.301524791774 	
H	 25.328820790365 	  4.685982174506 	 10.432081511774 	
H	 25.897333820365 	 10.869541124506 	  0.301521961774 	
H	 25.328789690365 	 10.869543934506 	 10.432078681774 	
H	 11.076908881152 	  4.410860557647 	  5.441586707392 	
H	 10.508364751152 	  4.410863367647 	 15.572143427392 	
H	 11.076877781152 	 10.594422317647 	  5.441583877392 	
H	 10.508333651152 	 10.594425127647 	 15.572140597392 	
H	 25.757736181152 	  4.410869787647 	  5.469716637392 	
H	 25.189192051152 	  4.410872597647 	 15.600273357392 	
H	 25.757705081152 	 10.594431547647 	  5.469713807392 	
H	 25.189160951152 	 10.594434357647 	 15.600270527392 	
H	  2.515741771426 	  1.437038441730 	 10.332977857480 	
H	  1.947197641426 	  1.437041251730 	 20.463534577480 	
H	  2.515710671426 	  7.620600201730 	 10.332975027480 	
H	  1.947166541426 	  7.620603011730 	 20.463531747480 	
H	 17.196569071426 	  1.437047671730 	 10.361107787480 	
H	 16.628024941426 	  1.437050481730 	 20.491664507480 	
H	 17.196537971426 	  7.620609431730 	 10.361104957480 	
H	 16.627993841426 	  7.620612241730 	 20.491661677480 	
C	  1.481153658614 	  3.740991872012 	  6.708818042903 	
C	  0.912609528614 	  3.740994682012 	 16.839374762903 	
C	  1.481122558614 	  9.924553632012 	  6.708815212903 	
C	  0.912578428614 	  9.924556442012 	 16.839371932903 	
C	 16.161980958614 	  3.741001102012 	  6.736947972903 	
C	 15.593436828614 	  3.741003912012 	 16.867504692903 	
C	 16.161949858614 	  9.924562862012 	  6.736945142903 	
C	 15.593405728614 	  9.924565672012 	 16.867501862903 	
C	 12.123282095328 	  0.805447310672 	  9.124511122589 	
C	 11.554737965328 	  0.805450120672 	 19.255067842589 	
C	 12.123250995328 	  6.989009070672 	  9.124508292589 	
C	 11.554706865328 	  6.989011880672 	 19.255065012589 	
C	 26.804109395328 	  0.805456540672 	  9.152641052589 	
C	 26.235565265328 	  0.805459350672 	 19.283197772589 	
C	 26.804078295328 	  6.989018300672 	  9.152638222589 	
C	 26.235534165328 	  6.989021110672 	 19.283194942589 	
C	 12.251126498112 	  2.382016301109 	  3.897552581023 	
C	 11.682582368112 	  2.382019111109 	 14.028109301023 	
C	 12.251095398112 	  8.565578061109 	  3.897549751023 	
C	 11.682551268112 	  8.565580871109 	 14.028106471023 	
C	 26.931953798112 	  2.382025531109 	  3.925682511023 	
C	 26.363409668112 	  2.382028341109 	 14.056239231023 	
C	 26.931922698112 	  8.565587291109 	  3.925679681023 	
C	 26.363378568112 	  8.565590101109 	 14.056236401023 	
C	  1.608997628291 	  5.317560858131 	  1.481861316977 	
C	  1.040453498291 	  5.317563668131 	 11.612418036977 	
C	  1.608966528291 	 11.501122618131 	  1.481858486977 	
C	  1.040422398291 	 11.501125428131 	 11.612415206977 	
C	 16.289824928291 	  5.317570088131 	  1.509991246977 	
C	 15.721280798291 	  5.317572898131 	 11.640547966977 	
C	 16.289793828291 	 11.501131848131 	  1.509988416977 	
C	 15.721249698291 	 11.501134658131 	 11.640545136977 	
H	  2.068885050355 	  4.684199687628 	  6.573773087744 	
H	  1.500340920355 	  4.684202497628 	 16.704329807744 	
H	  2.068853950355 	 10.867761447628 	  6.573770257744 	
H	  1.500309820355 	 10.867764257628 	 16.704326977744 	
H	 16.749712350355 	  4.684208917628 	  6.601903017744 	
H	 16.181168220355 	  4.684211727628 	 16.732459737744 	
H	 16.749681250355 	 10.867770677628 	  6.601900187744 	
H	 16.181137120355 	 10.867773487628 	 16.732456907744 	
H	 11.411118937447 	  1.641730092826 	  9.286270217181 	
H	 10.842574807447 	  1.641732902826 	 19.416826937181 	
H	 11.411087837447 	  7.825291852826 	  9.286267387181 	
H	 10.842543707447 	  7.825294662826 	 19.416824107181 	
H	 26.091946237447 	  1.641739322826 	  9.314400147181 	
H	 25.523402107447 	  1.641742132826 	 19.444956867181 	
H	 26.091915137447 	  7.825301082826 	  9.314397317181 	
H	 25.523371007447 	  7.825303892826 	 19.444954037181 	
H	 11.663395494425 	  1.438807962076 	  4.032597323844 	
H	 11.094851364425 	  1.438810772076 	 14.163154043844 	
H	 11.663364394425 	  7.622369722076 	  4.032594493844 	
H	 11.094820264425 	  7.622372532076 	 14.163151213844 	
H	 26.344222794425 	  1.438817192076 	  4.060727253844 	
H	 25.775678664425 	  1.438820002076 	 14.191283973844 	
H	 26.344191694425 	  7.622378952076 	  4.060724423844 	
H	 25.775647564425 	  7.622381762076 	 14.191281143844 	
H	  2.321160795213 	  4.481278170943 	  1.320101715687 	
H	  1.752616665213 	  4.481280980943 	 11.450658435687 	
H	  2.321129695213 	 10.664839930943 	  1.320098885687 	
H	  1.752585565213 	 10.664842740943 	 11.450655605687 	
H	 17.001988095213 	  4.481287400943 	  1.348231645687 	
H	 16.433443965213 	  4.481290210943 	 11.478788365687 	
H	 17.001956995213 	 10.664849160943 	  1.348228815687 	
H	 16.433412865213 	 10.664851970943 	 11.478785535687 	
H	  1.198968181961 	  4.145159869128 	  7.715513178403 	
H	  0.630424051961 	  4.145162679128 	 17.846069898403 	
H	  1.198937081961 	 10.328721629128 	  7.715510348403 	
H	  0.630392951961 	 10.328724439128 	 17.846067068403 	
H	 15.879795481961 	  4.145169099128 	  7.743643108403 	
H	 15.311251351961 	  4.145171909128 	 17.874199828403 	
H	 15.879764381961 	 10.328730859128 	  7.743640278403 	
H	 15.311220251961 	 10.328733669128 	 17.874196998403 	
H	 12.286683913839 	  7.164841433677 	  8.164539806556 	
H	 11.718139783839 	  7.164844243677 	 18.295096526556 	
H	 12.286652813839 	 13.348403193676 	  8.164536976556 	
H	 11.718108683839 	 13.348406003676 	 18.295093696556 	
H	 26.967511213839 	  7.164850663677 	  8.192669736556 	
H	 26.398967083839 	  7.164853473677 	 18.323226456556 	
H	 26.967480113839 	 13.348412423676 	  8.192666906556 	
H	 26.398935983839 	 13.348415233676 	 18.323223626556 	
H	 12.533313422593 	  1.977849701775 	  2.890857069609 	
H	 11.964769292593 	  1.977852511775 	 13.021413789609 	
H	 12.533282322593 	  8.161411461775 	  2.890854239609 	
H	 11.964738192593 	  8.161414271775 	 13.021410959609 	
H	 27.214140722593 	  1.977858931775 	  2.918986999609 	
H	 26.645596592593 	  1.977861741775 	 13.049543719609 	
H	 27.214109622593 	  8.161420691775 	  2.918984169609 	
H	 26.645565492593 	  8.161423501775 	 13.049540889609 	
H	  1.445596188473 	 -1.041833409482 	  2.441832739674 	
H	  0.877052058473 	 -1.041830599482 	 12.572389459674 	
H	  1.445565088473 	  5.141728350518 	  2.441829909674 	
H	  0.877020958473 	  5.141731160518 	 12.572386629674 	
H	 16.126423488473 	 -1.041824179482 	  2.469962669674 	
H	 15.557879358473 	 -1.041821369482 	 12.600519389674 	
H	 16.126392388473 	  5.141737580518 	  2.469959839674 	
H	 15.557848258473 	  5.141740390518 	 12.600516559674 	
H	  0.566382718001 	  3.969370153891 	  6.106839284358 	
H	 -0.002161411999 	  3.969372963891 	 16.237396004358 	
H	  0.566351618001 	 10.152931913891 	  6.106836454358 	
H	 -0.002192511999 	 10.152934723891 	 16.237393174358 	
H	 15.247210018001 	  3.969379383891 	  6.134969214358 	
H	 14.678665888001 	  3.969382193891 	 16.265525934358 	
H	 15.247178918001 	 10.152941143891 	  6.134966384358 	
H	 14.678634788001 	 10.152943953891 	 16.265523104358 	
H	 12.920684821150 	  7.022418707001 	  9.748495524559 	
H	 12.352140691150 	  7.022421517001 	 19.879052244559 	
H	 12.920653721150 	 13.205980467001 	  9.748492694559 	
H	 12.352109591150 	 13.205983277001 	 19.879049414559 	
H	 27.601512121150 	  7.022427937001 	  9.776625454559 	
H	 27.032967991150 	  7.022430747001 	 19.907182174559 	
H	 27.601481021150 	 13.205989697001 	  9.776622624559 	
H	 27.032936891150 	 13.205992507001 	 19.907179344559 	
H	 13.165897498746 	  2.153638279592 	  4.499531699719 	
H	 12.597353368746 	  2.153641089592 	 14.630088419719 	
H	 13.165866398746 	  8.337200039592 	  4.499528869719 	
H	 12.597322268746 	  8.337202849592 	 14.630085589719 	
H	 27.846724798746 	  2.153647509592 	  4.527661629719 	
H	 27.278180668746 	  2.153650319592 	 14.658218349719 	
H	 27.846693698746 	  8.337209269592 	  4.527658799719 	
H	 27.278149568746 	  8.337212079592 	 14.658215519719 	
H	  0.811594655150 	 -0.899410598843 	  0.857877241584 	
H	  0.243050525150 	 -0.899407788843 	 10.988433961584 	
H	  0.811563555150 	  5.284151161157 	  0.857874411584 	
H	  0.243019425150 	  5.284153971157 	 10.988431131584 	
H	 15.492421955150 	 -0.899401368843 	  0.886007171584 	
H	 14.923877825150 	 -0.899398558843 	 11.016563891584 	
H	 15.492390855150 	  5.284160391157 	  0.886004341584 	
H	 14.923846725150 	  5.284163201157 	 11.016561061584 	
C	  1.207499783728 	  2.011350240237 	  6.895536665642 	
C	  0.638955653728 	  2.011353050237 	 17.026093385642 	
C	  1.207468683728 	  8.194912000237 	  6.895533835642 	
C	  0.638924553728 	  8.194914810237 	 17.026090555642 	
C	 15.888327083728 	  2.011359470237 	  6.923666595642 	
C	 15.319782953728 	  2.011362280237 	 17.054223315642 	
C	 15.888295983728 	  8.194921230237 	  6.923663765642 	
C	 15.319751853728 	  8.194924040237 	 17.054220485642 	
C	 12.284946554249 	  5.079557084769 	  8.970175767689 	
C	 11.716402424249 	  5.079559894769 	 19.100732487689 	
C	 12.284915454249 	 11.263118844769 	  8.970172937689 	
C	 11.716371324249 	 11.263121654769 	 19.100729657689 	
C	 26.965773854249 	  5.079566314769 	  8.998305697689 	
C	 26.397229724249 	  5.079569124769 	 19.128862417689 	
C	 26.965742754249 	 11.263128074769 	  8.998302867689 	
C	 26.397198624249 	 11.263130884769 	 19.128859587689 	
C	 12.524779403403 	  4.111659967805 	  3.710834488225 	
C	 11.956235273403 	  4.111662777805 	 13.841391208225 	
C	 12.524748303403 	 10.295221727805 	  3.710831658225 	
C	 11.956204173403 	 10.295224537805 	 13.841388378225 	
C	 27.205606703403 	  4.111669197805 	  3.738964418225 	
C	 26.637062573403 	  4.111672007805 	 13.869521138225 	
C	 27.205575603403 	 10.295230957805 	  3.738961588225 	
C	 26.637031473403 	 10.295233767805 	 13.869518308225 	
C	  1.447333063830 	  1.043450926689 	  1.636197038898 	
C	  0.878788933830 	  1.043453736689 	 11.766753758898 	
C	  1.447301963830 	  7.227012686689 	  1.636194208898 	
C	  0.878757833830 	  7.227015496689 	 11.766750928898 	
C	 16.128160363830 	  1.043460156689 	  1.664326968898 	
C	 15.559616233830 	  1.043462966689 	 11.794883688898 	
C	 16.128129263830 	  7.227021916689 	  1.664324138898 	
C	 15.559585133830 	  7.227024726689 	 11.794880858898 	
H	  0.195246506985 	  1.895654741431 	  6.438788193534 	
H	 -0.373297623015 	  1.895657551431 	 16.569344913534 	
H	  0.195215406985 	  8.079216501431 	  6.438785363534 	
H	 -0.373328723015 	  8.079219311431 	 16.569342083534 	
H	 14.876073806985 	  1.895663971431 	  6.466918123534 	
H	 14.307529676985 	  1.895666781431 	 16.597474843534 	
H	 14.876042706985 	  8.079225731431 	  6.466915293534 	
H	 14.307498576985 	  8.079228541431 	 16.597472013534 	
H	 13.297085388584 	  4.957945527911 	  9.424650512434 	
H	 12.728541258584 	  4.957948337911 	 19.555207232434 	
H	 13.297054288584 	 11.141507287911 	  9.424647682434 	
H	 12.728510158584 	 11.141510097911 	 19.555204402434 	
H	 27.977912688584 	  4.957954757911 	  9.452780442434 	
H	 27.409368558584 	  4.957957567911 	 19.583337162434 	
H	 27.977881588584 	 11.141516517911 	  9.452777612434 	
H	 27.409337458584 	 11.141519327911 	 19.583334332434 	
H	 13.537032711155 	  4.227355232933 	  4.167583537075 	
H	 12.968488581155 	  4.227358042933 	 14.298140257075 	
H	 13.537001611155 	 10.410916992933 	  4.167580707075 	
H	 12.968457481155 	 10.410919802933 	 14.298137427075 	
H	 28.217860011155 	  4.227364462933 	  4.195713467075 	
H	 27.649315881155 	  4.227367272933 	 14.326270187075 	
H	 28.217828911155 	 10.410926222933 	  4.195710637075 	
H	 27.649284781155 	 10.410929032933 	 14.326267357075 	
H	  0.435194123029 	  1.165062405626 	  1.181722537506 	
H	 -0.133350006971 	  1.165065215626 	 11.312279257506 	
H	  0.435163023029 	  7.348624165626 	  1.181719707506 	
H	 -0.133381106971 	  7.348626975626 	 11.312276427506 	
H	 15.116021423029 	  1.165071635626 	  1.209852467506 	
H	 14.547477293029 	  1.165074445626 	 11.340409187506 	
H	 15.115990323029 	  7.348633395626 	  1.209849637506 	
H	 14.547446193029 	  7.348636205626 	 11.340406357506 	
H	  0.946973771941 	  1.880721910001 	  7.974697969779 	
H	  0.378429641941 	  1.880724720001 	 18.105254689779 	
H	  0.946942671941 	  8.064283670001 	  7.974695139779 	
H	  0.378398541941 	  8.064286480001 	 18.105251859779 	
H	 15.627801071941 	  1.880731140001 	  8.002827899779 	
H	 15.059256941941 	  1.880733950001 	 18.133384619779 	
H	 15.627769971941 	  8.064292900001 	  8.002825069779 	
H	 15.059225841941 	  8.064295710001 	 18.133381789779 	
H	 12.544592504584 	  4.943618247484 	  7.888263013914 	
H	 11.976048374584 	  4.943621057484 	 18.018819733914 	
H	 12.544561404584 	 11.127180007484 	  7.888260183914 	
H	 11.976017274584 	 11.127182817484 	 18.018816903914 	
H	 27.225419804584 	  4.943627477484 	  7.916392943914 	
H	 26.656875674584 	  4.943630287484 	 18.046949663914 	
H	 27.225388704584 	 11.127189237484 	  7.916390113914 	
H	 26.656844574584 	 11.127192047484 	 18.046946833914 	
H	 12.785305703012 	  4.242288318105 	  2.631673015204 	
H	 12.216761573012 	  4.242291128105 	 12.762229735204 	
H	 12.785274603012 	 10.425850078105 	  2.631670185204 	
H	 12.216730473012 	 10.425852888105 	 12.762226905204 	
H	 27.466133003012 	  4.242297548105 	  2.659802945204 	
H	 26.897588873012 	  4.242300358105 	 12.790359665204 	
H	 27.466101903012 	 10.425859308105 	  2.659800115204 	
H	 26.897557773012 	 10.425862118105 	 12.790356835204 	
H	  1.187687226646 	  1.179389565209 	  2.718109816187 	
H	  0.619143096646 	  1.179392375209 	 12.848666536187 	
H	  1.187656126646 	  7.362951325209 	  2.718106986187 	
H	  0.619111996646 	  7.362954135209 	 12.848663706187 	
H	 15.868514526646 	  1.179398795209 	  2.746239746187 	
H	 15.299970396646 	  1.179401605209 	 12.876796466187 	
H	 15.868483426646 	  7.362960555209 	  2.746236916187 	
H	 15.299939296646 	  7.362963365209 	 12.876793636187 	
H	  1.469612108735 	  0.927981392179 	  6.947502941149 	
H	  0.901067978735 	  0.927984202179 	 17.078059661149 	
H	  1.469581008735 	  7.111543152179 	  6.947500111149 	
H	  0.901036878735 	  7.111545962179 	 17.078056831149 	
H	 16.150439408735 	  0.927990622179 	  6.975632871149 	
H	 15.581895278735 	  0.927993432179 	 17.106189591149 	
H	 16.150408308735 	  7.111552382179 	  6.975630041149 	
H	 15.581864178735 	  7.111555192179 	 17.106186761149 	
H	 12.021958668060 	  3.993900498352 	  8.914398435298 	
H	 11.453414538060 	  3.993903308352 	 19.044955155298 	
H	 12.021927568060 	 10.177462258352 	  8.914395605298 	
H	 11.453383438060 	 10.177465068352 	 19.044952325298 	
H	 26.702785968060 	  3.993909728352 	  8.942528365298 	
H	 26.134241838060 	  3.993912538352 	 19.073085085298 	
H	 26.702754868060 	 10.177471488352 	  8.942525535298 	
H	 26.134210738060 	 10.177474298352 	 19.073082255298 	
H	 12.262665863782 	  5.195028876231 	  3.658870945017 	
H	 11.694121733782 	  5.195031686231 	 13.789427665017 	
H	 12.262634763782 	 11.378590636231 	  3.658868115017 	
H	 11.694090633782 	 11.378593446231 	 13.789424835017 	
H	 26.943493163782 	  5.195038106231 	  3.687000875017 	
H	 26.374949033782 	  5.195040916231 	 13.817557595017 	
H	 26.943462063782 	 11.378599866231 	  3.686998045017 	
H	 26.374917933782 	 11.378602676231 	 13.817554765017 	
H	  1.710320807137 	  2.129107520261 	  1.691974919601 	
H	  1.141776677137 	  2.129110330261 	 11.822531639601 	
H	  1.710289707137 	  8.312669280261 	  1.691972089601 	
H	  1.141745577137 	  8.312672090261 	 11.822528809601 	
H	 16.391148107137 	  2.129116750261 	  1.720104849601 	
H	 15.822603977137 	  2.129119560261 	 11.850661569601 	
H	 16.391117007137 	  8.312678510261 	  1.720102019601 	
H	 15.822572877137 	  8.312681320261 	 11.850658739601 	
768 
Energy: -9.7334800633260002e+01 
S	  8.388835526860 	  1.452793982006 	  0.119862366689 	
S	  7.820291396860 	  1.452796792006 	 10.250419086689 	
S	  8.388804426860 	  7.636355742006 	  0.119859536689 	
S	  7.820260296860 	  7.636358552006 	 10.250416256689 	
S	 23.069662826860 	  1.452803212006 	  0.147992296689 	
S	 22.501118696860 	  1.452806022006 	 10.278549016689 	
S	 23.069631726860 	  7.636364972006 	  0.147989466689 	
S	 22.501087596860 	  7.636367782006 	 10.278546186689 	
S	  5.518482414518 	  4.508335006533 	  5.270612541252 	
S	  4.949938284518 	  4.508337816533 	 15.401169261252 	
S	  5.518451314518 	 10.691896766533 	  5.270609711252 	
S	  4.949907184518 	 10.691899576533 	 15.401166431252 	
S	 20.199309714518 	  4.508344236533 	  5.298742471252 	
S	 19.630765584518 	  4.508347046533 	 15.429299191252 	
S	 20.199278614518 	 10.691905996533 	  5.298739641252 	
S	 19.630734484518 	 10.691908806533 	 15.429296361252 	
S	  5.287367997086 	  4.661275707616 	 10.552579104632 	
S	  4.718823867086 	  4.661278517616 	 20.683135824632 	
S	  5.287336897086 	 10.844837467616 	 10.552576274632 	
S	  4.718792767086 	 10.844840277615 	 20.683132994632 	
S	 19.968195297086 	  4.661284937616 	 10.580709034632 	
S	 19.399651167086 	  4.661287747615 	 20.711265754632 	
S	 19.968164197086 	 10.844846697616 	 10.580706204632 	
S	 19.399620067086 	 10.844849507615 	 20.711262924632 	
S	  8.157722341009 	  1.605734789591 	  5.401828619704 	
S	  7.589178211009 	  1.605737599591 	 15.532385339704 	
S	  8.157691241009 	  7.789296549591 	  5.401825789704 	
S	  7.589147111009 	  7.789299359591 	 15.532382509704 	
S	 22.838549641009 	  1.605744019591 	  5.429958549704 	
S	 22.270005511009 	  1.605746829591 	 15.560515269704 	
S	 22.838518541009 	  7.789305779591 	  5.429955719704 	
S	 22.269974411009 	  7.789308589591 	 15.560512439704 	
C	  6.568568054239 	  2.546076258612 	 10.242710745756 	
C	  6.000023924239 	  2.546079068612 	 20.373267465756 	
C	  6.568536954239 	  8.729638018612 	 10.242707915756 	
C	  5.999992824239 	  8.729640828612 	 20.373264635756 	
C	 21.249395354239 	  2.546085488612 	 10.270840675756 	
C	 20.680851224239 	  2.546088298612 	 20.401397395756 	
C	 21.249364254239 	  8.729647248612 	 10.270837845756 	
C	 20.680820124239 	  8.729650058612 	 20.401394565756 	
C	  6.879363393488 	  5.552068826913 	  5.751743008349 	
C	  6.310819263488 	  5.552071636913 	 15.882299728349 	
C	  6.879332293488 	 11.735630586913 	  5.751740178349 	
C	  6.310788163488 	 11.735633396913 	 15.882296898349 	
C	 21.560190693488 	  5.552078056913 	  5.779872938349 	
C	 20.991646563488 	  5.552080866913 	 15.910429658349 	
C	 21.560159593488 	 11.735639816913 	  5.779870108349 	
C	 20.991615463488 	 11.735642626913 	 15.910426828349 	
C	  7.107635481723 	  3.567993417680 	  0.429730577065 	
C	  6.539091351723 	  3.567996227680 	 10.560287297065 	
C	  7.107604381723 	  9.751555177680 	  0.429727747065 	
C	  6.539060251723 	  9.751557987680 	 10.560284467065 	
C	 21.788462781723 	  3.568002647680 	  0.457860507065 	
C	 21.219918651723 	  3.568005457680 	 10.588417227065 	
C	 21.788431681723 	  9.751564407680 	  0.457857677065 	
C	 21.219887551723 	  9.751567217680 	 10.588414397065 	
C	  6.796841202244 	  0.562001027108 	  4.920698005332 	
C	  6.228297072244 	  0.562003837108 	 15.051254725332 	
C	  6.796810102244 	  6.745562787108 	  4.920695175332 	
C	  6.228265972244 	  6.745565597108 	 15.051251895332 	
C	 21.477668502244 	  0.562010257108 	  4.948827935332 	
C	 20.909124372244 	  0.562013067108 	 15.079384655332 	
C	 21.477637402244 	  6.745572017108 	  4.948825105332 	
C	 20.909093272244 	  6.745574827108 	 15.079381825332 	
C	  5.546505639291 	  2.397505018258 	  9.267512770283 	
C	  4.977961509291 	  2.397507828258 	 19.398069490283 	
C	  5.546474539291 	  8.581066778258 	  9.267509940283 	
C	  4.977930409291 	  8.581069588258 	 19.398066660283 	
C	 20.227332939291 	  2.397514248258 	  9.295642700283 	
C	 19.658788809291 	  2.397517058258 	 19.426199420283 	
C	 20.227301839291 	  8.581076008258 	  9.295639870283 	
C	 19.658757709291 	  8.581078818258 	 19.426196590283 	
C	  7.889586687385 	  5.440827637037 	  6.686584421867 	
C	  7.321042557385 	  5.440830447037 	 16.817141141867 	
C	  7.889555587385 	 11.624389397037 	  6.686581591867 	
C	  7.321011457385 	 11.624392207037 	 16.817138311867 	
C	 22.570413987385 	  5.440836867037 	  6.714714351867 	
C	 22.001869857385 	  5.440839677037 	 16.845271071867 	
C	 22.570382887385 	 11.624398627037 	  6.714711521867 	
C	 22.001838757385 	 11.624401437037 	 16.845268241867 	
C	  8.129697831817 	  3.716564732158 	  1.404928497218 	
C	  7.561153701817 	  3.716567542158 	 11.535485217218 	
C	  8.129666731817 	  9.900126492158 	  1.404925667218 	
C	  7.561122601817 	  9.900129302158 	 11.535482387218 	
C	 22.810525131817 	  3.716573962158 	  1.433058427218 	
C	 22.241981001817 	  3.716576772158 	 11.563615147218 	
C	 22.810494031817 	  9.900135722158 	  1.433055597218 	
C	 22.241949901817 	  9.900138532158 	 11.563612317218 	
C	  5.786617715866 	  0.673242264428 	  3.985856796200 	
C	  5.218073585866 	  0.673245074428 	 14.116413516200 	
C	  5.786586615866 	  6.856804024428 	  3.985853966200 	
C	  5.218042485866 	  6.856806834428 	 14.116410686200 	
C	 20.467445015866 	  0.673251494428 	  4.013986726200 	
C	 19.898900885866 	  0.673254304428 	 14.144543446200 	
C	 20.467413915866 	  6.856813254428 	  4.013983896200 	
C	 19.898869785866 	  6.856816064428 	 14.144540616200 	
C	  4.706924045681 	  3.481252678535 	  9.284002736691 	
C	  4.138379915681 	  3.481255488535 	 19.414559456691 	
C	  4.706892945681 	  9.664814438535 	  9.283999906691 	
C	  4.138348815681 	  9.664817248535 	 19.414556626691 	
C	 19.387751345681 	  3.481261908535 	  9.312132666691 	
C	 18.819207215681 	  3.481264718535 	 19.442689386691 	
C	 19.387720245681 	  9.664823668535 	  9.312129836691 	
C	 18.819176115681 	  9.664826478535 	 19.442686556691 	
C	  8.741891318460 	  0.435858706569 	  6.671956071978 	
C	  8.173347188460 	  0.435861516569 	 16.802512791978 	
C	  8.741860218460 	  6.619420466569 	  6.671953241978 	
C	  8.173316088460 	  6.619423276569 	 16.802509961978 	
C	 23.422718618460 	  0.435867936569 	  6.700086001978 	
C	 22.854174488460 	  0.435870746569 	 16.830642721978 	
C	 23.422687518460 	  6.619429696569 	  6.700083171978 	
C	 22.854143388460 	  6.619432506569 	 16.830639891978 	
C	  8.969279410650 	  2.632817025951 	  1.388438554857 	
C	  8.400735280650 	  2.632819835951 	 11.518995274857 	
C	  8.969248310650 	  8.816378785951 	  1.388435724857 	
C	  8.400704180650 	  8.816381595951 	 11.518992444857 	
C	 23.650106710650 	  2.632826255951 	  1.416568484857 	
C	 23.081562580650 	  2.632829065951 	 11.547125204857 	
C	 23.650075610650 	  8.816388015951 	  1.416565654857 	
C	 23.081531480650 	  8.816390825951 	 11.547122374857 	
C	  4.934313140964 	  5.678211161863 	  4.000485340876 	
C	  4.365769010964 	  5.678213971863 	 14.131042060876 	
C	  4.934282040964 	 11.861772921863 	  4.000482510876 	
C	  4.365737910964 	 11.861775731863 	 14.131039230876 	
C	 19.615140440964 	  5.678220391863 	  4.028615270876 	
C	 19.046596310964 	  5.678223201863 	 14.159171990876 	
C	 19.615109340964 	 11.861782151863 	  4.028612440876 	
C	 19.046565210964 	 11.861784961863 	 14.159169160876 	
C	  3.672603945793 	  3.606489439506 	  8.507501027850 	
C	  3.104059815793 	  3.606492249506 	 18.638057747850 	
C	  3.672572845793 	  9.790051199506 	  8.507498197850 	
C	  3.104028715793 	  9.790054009506 	 18.638054917850 	
C	 18.353431245793 	  3.606498669506 	  8.535630957850 	
C	 17.784887115793 	  3.606501479506 	 18.666187677850 	
C	 18.353400145793 	  9.790060429506 	  8.535628127850 	
C	 17.784856015793 	  9.790063239506 	 18.666184847850 	
C	  9.762132413620 	  0.564997979315 	  7.433777458424 	
C	  9.193588283620 	  0.565000789315 	 17.564334178424 	
C	  9.762101313620 	  6.748559739315 	  7.433774628424 	
C	  9.193557183620 	  6.748562549315 	 17.564331348424 	
C	 24.442959713620 	  0.565007209315 	  7.461907388424 	
C	 23.874415583620 	  0.565010019315 	 17.592464108424 	
C	 24.442928613620 	  6.748568969315 	  7.461904558424 	
C	 23.874384483620 	  6.748571779315 	 17.592461278424 	
C	 10.003599539983 	  2.507580431090 	  2.164940489163 	
C	  9.435055409983 	  2.507583241090 	 12.295497209163 	
C	 10.003568439983 	  8.691142191090 	  2.164937659163 	
C	  9.435024309983 	  8.691145001090 	 12.295494379163 	
C	 24.684426839983 	  2.507589661090 	  2.193070419163 	
C	 24.115882709983 	  2.507592471090 	 12.323627139163 	
C	 24.684395739983 	  8.691151421090 	  2.193067589163 	
C	 24.115851609983 	  8.691154231090 	 12.323624309163 	
C	  3.914071652006 	  5.549071966920 	  3.238664363884 	
C	  3.345527522006 	  5.549074776920 	 13.369221083884 	
C	  3.914040552006 	 11.732633726920 	  3.238661533884 	
C	  3.345496422006 	 11.732636536920 	 13.369218253884 	
C	 18.594898952006 	  5.549081196920 	  3.266794293884 	
C	 18.026354822006 	  5.549084006920 	 13.397351013884 	
C	 18.594867852006 	 11.732642956920 	  3.266791463884 	
C	 18.026323722006 	 11.732645766920 	 13.397348183884 	
H	  3.022002401966 	  4.553515183790 	  8.581166811004 	
H	  2.453458271966 	  4.553517993790 	 18.711723531004 	
H	  3.021971301966 	 10.737076943790 	  8.581163981004 	
H	  2.453427171966 	 10.737079753790 	 18.711720701004 	
H	 17.702829701966 	  4.553524413790 	  8.609296741004 	
H	 17.134285571966 	  4.553527223790 	 18.739853461004 	
H	 17.702798601966 	 10.737086173790 	  8.609293911004 	
H	 17.134254471966 	 10.737088983790 	 18.739850631004 	
H	 10.421646955395 	  1.495200573551 	  7.375322343036 	
H	  9.853102825395 	  1.495203383551 	 17.505879063036 	
H	 10.421615855395 	  7.678762333551 	  7.375319513036 	
H	  9.853071725395 	  7.678765143551 	 17.505876233036 	
H	 25.102474255395 	  1.495209803551 	  7.403452273036 	
H	 24.533930125395 	  1.495212613551 	 17.534008993036 	
H	 25.102443155395 	  7.678771563551 	  7.403449443036 	
H	 24.533899025395 	  7.678774373551 	 17.534006163036 	
H	 10.654200976452 	  1.560554583096 	  2.091274868325 	
H	 10.085656846452 	  1.560557393096 	 12.221831588325 	
H	 10.654169876452 	  7.744116343096 	  2.091272038325 	
H	 10.085625746452 	  7.744119153096 	 12.221828758325 	
H	 25.335028276452 	  1.560563813096 	  2.119404798325 	
H	 24.766484146452 	  1.560566623096 	 12.249961518325 	
H	 25.334997176452 	  7.744125573096 	  2.119401968325 	
H	 24.766453046452 	  7.744128383096 	 12.249958688325 	
H	  3.254557227254 	  4.618869310661 	  3.297119653899 	
H	  2.686013097254 	  4.618872120661 	 13.427676373899 	
H	  3.254526127254 	 10.802431070661 	  3.297116823899 	
H	  2.685981997254 	 10.802433880661 	 13.427673543899 	
H	 17.935384527254 	  4.618878540661 	  3.325249583899 	
H	 17.366840397254 	  4.618881350661 	 13.455806303899 	
H	 17.935353427254 	 10.802440300661 	  3.325246753899 	
H	 17.366809297254 	 10.802443110661 	 13.455803473899 	
C	  3.347684142054 	  2.678409146364 	  7.627616294263 	
C	  2.779140012054 	  2.678411956364 	 17.758173014263 	
C	  3.347653042054 	  8.861970906364 	  7.627613464263 	
C	  2.779108912054 	  8.861973716364 	 17.758170184263 	
C	 18.028511442054 	  2.678418376364 	  7.655746224263 	
C	 17.459967312054 	  2.678421186364 	 17.786302944263 	
C	 18.028480342054 	  8.861980136364 	  7.655743394263 	
C	 17.459936212054 	  8.861982946364 	 17.786300114263 	
C	 10.103002397632 	  5.717510285576 	  8.340893050634 	
C	  9.534458267632 	  5.717513095576 	 18.471449770634 	
C	 10.102971297632 	 11.901072045576 	  8.340890220634 	
C	  9.534427167632 	 11.901074855576 	 18.471446940634 	
C	 24.783829697632 	  5.717519515576 	  8.369022980634 	
C	 24.215285567632 	  5.717522325576 	 18.499579700634 	
C	 24.783798597632 	 11.901081275576 	  8.369020150634 	
C	 24.215254467632 	 11.901084085576 	 18.499576870634 	
C	 10.328519194059 	  3.435660802547 	  3.044824938633 	
C	  9.759975064059 	  3.435663612547 	 13.175381658633 	
C	 10.328488094059 	  9.619222562547 	  3.044822108633 	
C	  9.759943964059 	  9.619225372547 	 13.175378828633 	
C	 25.009346494059 	  3.435670032547 	  3.072954868633 	
C	 24.440802364059 	  3.435672842547 	 13.203511588633 	
C	 25.009315394059 	  9.619231792547 	  3.072952038633 	
C	 24.440771264059 	  9.619234602547 	 13.203508758633 	
C	  3.573201315099 	  0.396559762162 	  2.331548976191 	
C	  3.004657185099 	  0.396562572162 	 12.462105696191 	
C	  3.573170215099 	  6.580121522162 	  2.331546146191 	
C	  3.004626085099 	  6.580124332162 	 12.462102866191 	
C	 18.254028615099 	  0.396568992162 	  2.359678906191 	
C	 17.685484485099 	  0.396571802162 	 12.490235626191 	
C	 18.253997515099 	  6.580130752162 	  2.359676076191 	
C	 17.685453385099 	  6.580133562162 	 12.490232796191 	
C	  4.182152566609 	  1.602875850957 	  7.576031686136 	
C	  3.613608436609 	  1.602878660957 	 17.706588406136 	
C	  4.182121466609 	  7.786437610957 	  7.576028856136 	
C	  3.613577336609 	  7.786440420957 	 17.706585576136 	
C	 18.862979866609 	  1.602885080957 	  7.604161616136 	
C	 18.294435736609 	  1.602887890957 	 17.734718336136 	
C	 18.862948766609 	  7.786446840957 	  7.604158786136 	
C	 18.294404636609 	  7.786449650957 	 17.734715506136 	
C	  9.262101328501 	  4.662097730061 	  8.377635139550 	
C	  8.693557198501 	  4.662100540061 	 18.508191859550 	
C	  9.262070228501 	 10.845659490061 	  8.377632309550 	
C	  8.693526098501 	 10.845662300061 	 18.508189029550 	
C	 23.942928628501 	  4.662106960061 	  8.405765069550 	
C	 23.374384498501 	  4.662109770061 	 18.536321789550 	
C	 23.942897528501 	 10.845668720061 	  8.405762239550 	
C	 23.374353398501 	 10.845671530061 	 18.536318959550 	
C	  9.494050848306 	  4.511194160670 	  3.096409429270 	
C	  8.925506718306 	  4.511196970670 	 13.226966149270 	
C	  9.494019748306 	 10.694755920670 	  3.096406599270 	
C	  8.925475618306 	 10.694758730670 	 13.226963319270 	
C	 24.174878148306 	  4.511203390670 	  3.124539359270 	
C	 23.606334018306 	  4.511206200670 	 13.255096079270 	
C	 24.174847048306 	 10.694765150670 	  3.124536529270 	
C	 23.606302918306 	 10.694767960670 	 13.255093249270 	
C	  4.414102320267 	  1.451972216476 	  2.294806588017 	
C	  3.845558190267 	  1.451975026476 	 12.425363308017 	
C	  4.414071220267 	  7.635533976476 	  2.294803758017 	
C	  3.845527090267 	  7.635536786476 	 12.425360478017 	
C	 19.094929620267 	  1.451981446476 	  2.322936518017 	
C	 18.526385490267 	  1.451984256476 	 12.453493238017 	
C	 19.094898520267 	  7.635543206476 	  2.322933688017 	
C	 18.526354390267 	  7.635546016476 	 12.453490408017 	
H	  3.946668671040 	  0.789423583119 	  6.799858480057 	
H	  3.378124541040 	  0.789426393119 	 16.930415200057 	
H	  3.946637571040 	  6.972985343119 	  6.799855650057 	
H	  3.378093441040 	  6.972988153119 	 16.930412370057 	
H	 18.627495971040 	  0.789432813119 	  6.827988410057 	
H	 18.058951841040 	  0.789435623119 	 16.958545130057 	
H	 18.627464871040 	  6.972994573119 	  6.827985580057 	
H	 18.058920741040 	  6.972997383119 	 16.958542300057 	
H	  9.497343716875 	  3.848252792194 	  9.155943941181 	
H	  8.928799586875 	  3.848255602194 	 19.286500661181 	
H	  9.497312616875 	 10.031814552194 	  9.155941111181 	
H	  8.928768486875 	 10.031817362194 	 19.286497831181 	
H	 24.178171016875 	  3.848262022194 	  9.184073871181 	
H	 23.609626886875 	  3.848264832194 	 19.314630591181 	
H	 24.178139916875 	 10.031823782194 	  9.184071041181 	
H	 23.609595786875 	 10.031826592194 	 19.314627761181 	
H	  9.729534866094 	  5.324646585341 	  3.872582445814 	
H	  9.160990736094 	  5.324649395341 	 14.003139165814 	
H	  9.729503766094 	 11.508208345341 	  3.872579615814 	
H	  9.160959636094 	 11.508211155341 	 14.003136335814 	
H	 24.410362166094 	  5.324655815341 	  3.900712375814 	
H	 23.841818036094 	  5.324658625341 	 14.031269095814 	
H	 24.410331066094 	 11.508217575341 	  3.900709545814 	
H	 23.841786936094 	 11.508220385341 	 14.031266265814 	
H	  4.178859610115 	  2.265817284611 	  1.516498007619 	
H	  3.610315480115 	  2.265820094611 	 11.647054727619 	
H	  4.178828510115 	  8.449379044611 	  1.516495177619 	
H	  3.610284380115 	  8.449381854611 	 11.647051897619 	
H	 18.859686910115 	  2.265826514611 	  1.544627937619 	
H	 18.291142780115 	  2.265829324611 	 11.675184657619 	
H	 18.859655810115 	  8.449388274611 	  1.544625107619 	
H	 18.291111680115 	  8.449391084611 	 11.675181827619 	
C	  5.193450614072 	  1.464315730879 	  8.322392306655 	
C	  4.624906484072 	  1.464318540879 	 18.452949026655 	
C	  5.193419514072 	  7.647877490879 	  8.322389476655 	
C	  4.624875384072 	  7.647880300879 	 18.452946196655 	
C	 19.874277914072 	  1.464324960879 	  8.350522236655 	
C	 19.305733784072 	  1.464327770879 	 18.481078956655 	
C	 19.874246814072 	  7.647886720879 	  8.350519406655 	
C	 19.305702684072 	  7.647889530879 	 18.481076126655 	
C	  8.249920504085 	  4.523322832066 	  7.630635321350 	
C	  7.681376374085 	  4.523325642066 	 17.761192041350 	
C	  8.249889404085 	 10.706884592066 	  7.630632491350 	
C	  7.681345274085 	 10.706887402066 	 17.761189211350 	
C	 22.930747804085 	  4.523332062066 	  7.658765251350 	
C	 22.362203674085 	  4.523334872066 	 17.789321971350 	
C	 22.930716704085 	 10.706893822066 	  7.658762421350 	
C	 22.362172574085 	 10.706896632066 	 17.789319141350 	
C	  8.482752836253 	  4.649754168848 	  2.350048772899 	
C	  7.914208706253 	  4.649756978848 	 12.480605492899 	
C	  8.482721736253 	 10.833315928848 	  2.350045942899 	
C	  7.914177606253 	 10.833318738848 	 12.480602662899 	
C	 23.163580136253 	  4.649763398848 	  2.378178702899 	
C	 22.595036006253 	  4.649766208848 	 12.508735422899 	
C	 23.163549036253 	 10.833325158848 	  2.378175872899 	
C	 22.595004906253 	 10.833327968848 	 12.508732592899 	
C	  5.426283490612 	  1.590747104331 	  3.041806067357 	
C	  4.857739360612 	  1.590749914331 	 13.172362787357 	
C	  5.426252390612 	  7.774308864331 	  3.041803237357 	
C	  4.857708260612 	  7.774311674331 	 13.172359957357 	
C	 20.107110790612 	  1.590756334331 	  3.069935997357 	
C	 19.538566660612 	  1.590759144331 	 13.200492717357 	
C	 20.107079690612 	  7.774318094331 	  3.069933167357 	
C	 19.538535560612 	  7.774320904331 	 13.200489887357 	
H	  5.868412253258 	  0.538069499648 	  8.236337265681 	
H	  5.299868123258 	  0.538072309648 	 18.366893985681 	
H	  5.868381153258 	  6.721631259648 	  8.236334435681 	
H	  5.299837023258 	  6.721634069648 	 18.366891155681 	
H	 20.549239553258 	  0.538078729648 	  8.264467195681 	
H	 19.980695423258 	  0.538081539648 	 18.395023915681 	
H	 20.549208453258 	  6.721640489648 	  8.264464365681 	
H	 19.980664323258 	  6.721643299648 	 18.395021085681 	
H	  7.574754542408 	  3.595699191717 	  7.718017568217 	
H	  7.006210412408 	  3.595702001717 	 17.848574288217 	
H	  7.574723442408 	  9.779260951717 	  7.718014738217 	
H	  7.006179312408 	  9.779263761717 	 17.848571458217 	
H	 22.255581842408 	  3.595708421717 	  7.746147498217 	
H	 21.687037712408 	  3.595711231717 	 17.876704218217 	
H	 22.255550742408 	  9.779270181717 	  7.746144668217 	
H	 21.687006612408 	  9.779272991717 	 17.876701388217 	
H	  7.807791185750 	  5.576000411272 	  2.436103594007 	
H	  7.239247055750 	  5.576003221272 	 12.566660314007 	
H	  7.807760085750 	 11.759562171272 	  2.436100764007 	
H	  7.239215955750 	 11.759564981272 	 12.566657484007 	
H	 22.488618485750 	  5.576009641272 	  2.464233524007 	
H	 21.920074355750 	  5.576012451272 	 12.594790244007 	
H	 22.488587385750 	 11.759571401272 	  2.464230694007 	
H	 21.920043255750 	 11.759574211272 	 12.594787414007 	
H	  6.101449432932 	  2.518370733045 	  2.954423642611 	
H	  5.532905302932 	  2.518373543045 	 13.084980362611 	
H	  6.101418332932 	  8.701932493045 	  2.954420812611 	
H	  5.532874202932 	  8.701935303045 	 13.084977532611 	
H	 20.782276732932 	  2.518379963045 	  2.982553572611 	
H	 20.213732602932 	  2.518382773045 	 13.113110292611 	
H	 20.782245632932 	  8.701941723045 	  2.982550742611 	
H	 20.213701502932 	  8.701944533045 	 13.113107462611 	
C	  1.972835624838 	  2.802060604089 	  6.654067165226 	
C	  1.404291494838 	  2.802063414089 	 16.784623885226 	
C	  1.972804524838 	  8.985622364089 	  6.654064335226 	
C	  1.404260394838 	  8.985625174089 	 16.784621055226 	
C	 16.653662924838 	  2.802069834089 	  6.682197095226 	
C	 16.085118794838 	  2.802072644089 	 16.812753815226 	
C	 16.653631824838 	  8.985631594089 	  6.682194265226 	
C	 16.085087694838 	  8.985634404089 	 16.812750985226 	
C	 11.394811616326 	  5.743023004416 	  9.273799008595 	
C	 10.826267486326 	  5.743025814416 	 19.404355728595 	
C	 11.394780516326 	 11.926584764416 	  9.273796178595 	
C	 10.826236386326 	 11.926587574416 	 19.404352898595 	
C	 26.075638916326 	  5.743032234416 	  9.301928938595 	
C	 25.507094786326 	  5.743035044416 	 19.432485658595 	
C	 26.075607816326 	 11.926593994416 	  9.301926108595 	
C	 25.507063686326 	 11.926596804416 	 19.432482828595 	
C	 11.703367855575 	  3.312009748614 	  4.018374488399 	
C	 11.134823725575 	  3.312012558614 	 14.148931208399 	
C	 11.703336755575 	  9.495571508614 	  4.018371658399 	
C	 11.134792625575 	  9.495574318614 	 14.148928378399 	
C	 26.384195155575 	  3.312018978614 	  4.046504418399 	
C	 25.815651025575 	  3.312021788614 	 14.177061138399 	
C	 26.384164055575 	  9.495580738614 	  4.046501588399 	
C	 25.815619925575 	  9.495583548614 	 14.177058308399 	
C	  2.281391599771 	  0.371046962220 	  1.398643428787 	
C	  1.712847469771 	  0.371049772220 	 11.529200148787 	
C	  2.281360499771 	  6.554608722220 	  1.398640598787 	
C	  1.712816369771 	  6.554611532220 	 11.529197318787 	
C	 16.962218899771 	  0.371056192220 	  1.426773358787 	
C	 16.393674769771 	  0.371059002220 	 11.557330078787 	
C	 16.962187799771 	  6.554617952220 	  1.426770528787 	
C	 16.393643669771 	  6.554620762220 	 11.557327248787 	
C	  2.167037959519 	  2.541772037160 	  5.564241144412 	
C	  1.598493829519 	  2.541774847160 	 15.694797864412 	
C	  2.167006859519 	  8.725333797160 	  5.564238314412 	
C	  1.598462729519 	  8.725336607160 	 15.694795034412 	
C	 16.847865259519 	  2.541781267160 	  5.592371074412 	
C	 16.279321129519 	  2.541784077160 	 15.722927794412 	
C	 16.847834159519 	  8.725343027160 	  5.592368244412 	
C	 16.279290029519 	  8.725345837160 	 15.722924964412 	
C	 11.279528353864 	 -0.379538225780 	 10.280324629500 	
C	 10.710984223864 	 -0.379535415780 	 20.410881349500 	
C	 11.279497253864 	  5.804023534220 	 10.280321799500 	
C	 10.710953123864 	  5.804026344220 	 20.410878519500 	
C	 25.960355653864 	 -0.379528995780 	 10.308454559500 	
C	 25.391811523864 	 -0.379526185780 	 20.439011279500 	
C	 25.960324553864 	  5.804032764220 	 10.308451729500 	
C	 25.391780423864 	  5.804035574220 	 20.439008449500 	
C	 11.509163999898 	  3.572297619415 	  5.108201024654 	
C	 10.940619869898 	  3.572300429415 	 15.238757744654 	
C	 11.509132899898 	  9.755859379415 	  5.108198194654 	
C	 10.940588769898 	  9.755862189415 	 15.238754914654 	
C	 26.189991299898 	  3.572306849415 	  5.136330954654 	
C	 25.621447169898 	  3.572309659415 	 15.266887674654 	
C	 26.189960199898 	  9.755868609415 	  5.136328124654 	
C	 25.621416069898 	  9.755871419415 	 15.266884844654 	
C	  2.396674605278 	  6.493608348946 	  0.392117812168 	
C	  1.828130475278 	  6.493611158946 	 10.522674532168 	
C	  2.396643505278 	 12.677170108946 	  0.392114982168 	
C	  1.828099375278 	 12.677172918946 	 10.522671702168 	
C	 17.077501905278 	  6.493617578946 	  0.420247742168 	
C	 16.508957775278 	  6.493620388946 	 10.550804462168 	
C	 17.077470805278 	 12.677179338946 	  0.420244912168 	
C	 16.508926675278 	 12.677182148946 	 10.550801632168 	
H	  3.052384290983 	  2.976135153618 	  5.022110182811 	
H	  2.483840160983 	  2.976137963618 	 15.152666902811 	
H	  3.052353190983 	  9.159696913618 	  5.022107352811 	
H	  2.483809060983 	  9.159699723618 	 15.152664072811 	
H	 17.733211590983 	  2.976144383618 	  5.050240112811 	
H	 17.164667460983 	  2.976147193618 	 15.180796832811 	
H	 17.733180490983 	  9.159706143618 	  5.050237282811 	
H	 17.164636360983 	  9.159708953618 	 15.180794002811 	
H	 10.403845781895 	 -0.101752833167 	 10.921914223254 	
H	  9.835301651895 	 -0.101750023167 	 21.052470943254 	
H	 10.403814681895 	  6.081808926833 	 10.921911393254 	
H	  9.835270551895 	  6.081811736833 	 21.052468113254 	
H	 25.084673081895 	 -0.101743603167 	 10.950044153254 	
H	 24.516128951895 	 -0.101740793167 	 21.080600873254 	
H	 25.084641981895 	  6.081818156833 	 10.950041323254 	
H	 24.516097851895 	  6.081820966833 	 21.080598043254 	
H	 10.623818364855 	  3.137931758489 	  5.650331362905 	
H	 10.055274234855 	  3.137934568489 	 15.780888082905 	
H	 10.623787264855 	  9.321493518489 	  5.650328532905 	
H	 10.055243134855 	  9.321496328489 	 15.780885252905 	
H	 25.304645664855 	  3.137940988489 	  5.678461292905 	
H	 24.736101534855 	  3.137943798489 	 15.809018012905 	
H	 25.304614564855 	  9.321502748489 	  5.678458462905 	
H	 24.736070434855 	  9.321505558489 	 15.809015182905 	
H	  3.272356949655 	  6.215823093001 	 -0.249472135783 	
H	  2.703812819655 	  6.215825903001 	  9.881084584217 	
H	  3.272325849655 	 12.399384853001 	 -0.249474965783 	
H	  2.703781719655 	 12.399387663001 	  9.881081754217 	
H	 17.953184249655 	  6.215832323001 	 -0.221342205783 	
H	 17.384640119655 	  6.215835133001 	  9.909214514217 	
H	 17.953153149655 	 12.399394083001 	 -0.221345035783 	
H	 17.384609019655 	 12.399396893001 	  9.909211684217 	
H	  1.415088428134 	  2.630506607104 	  4.731014106454 	
H	  0.846544298134 	  2.630509417104 	 14.861570826454 	
H	  1.415057328134 	  8.814068367104 	  4.731011276454 	
H	  0.846513198134 	  8.814071177104 	 14.861567996454 	
H	 16.095915728134 	  2.630515837104 	  4.759144036454 	
H	 15.527371598134 	  2.630518647104 	 14.889700756454 	
H	 16.095884628134 	  8.814077597104 	  4.759141206454 	
H	 15.527340498134 	  8.814080407104 	 14.889697926454 	
H	 12.566292687968 	 -0.422523720651 	  0.741766926971 	
H	 11.997748557968 	 -0.422520910651 	 10.872323646971 	
H	 12.566261587968 	  5.761038039349 	  0.741764096971 	
H	 11.997717457968 	  5.761040849349 	 10.872320816971 	
H	 27.247119987968 	 -0.422514490651 	  0.769896856971 	
H	 26.678575857968 	 -0.422511680651 	 10.900453576971 	
H	 27.247088887968 	  5.761047269349 	  0.769894026971 	
H	 26.678544757968 	  5.761050079349 	 10.900450746971 	
H	 12.261113939607 	  3.483563251685 	  5.941427933494 	
H	 11.692569809607 	  3.483566061685 	 16.071984653494 	
H	 12.261082839607 	  9.667125011685 	  5.941425103494 	
H	 11.692538709607 	  9.667127821685 	 16.071981823494 	
H	 26.941941239607 	  3.483572481685 	  5.969557863494 	
H	 26.373397109607 	  3.483575291685 	 16.100114583494 	
H	 26.941910139607 	  9.667134241685 	  5.969555033494 	
H	 26.373366009607 	  9.667137051685 	 16.100111753494 	
H	  1.109909879289 	  6.536593962772 	  9.930675879684 	
H	  0.541365749289 	  6.536596772772 	 20.061232599684 	
H	  1.109878779289 	 12.720155722772 	  9.930673049684 	
H	  0.541334649289 	 12.720158532772 	 20.061229769684 	
H	 15.790737179289 	  6.536603192772 	  9.958805809684 	
H	 15.222193049289 	  6.536606002772 	 20.089362529684 	
H	 15.790706079289 	 12.720164952772 	  9.958802979684 	
H	 15.222161949289 	 12.720167762772 	 20.089359699684 	
H	  2.561959091201 	  1.529811465024 	  5.272979020686 	
H	  1.993414961201 	  1.529814275024 	 15.403535740686 	
H	  2.561927991201 	  7.713373225024 	  5.272976190686 	
H	  1.993383861201 	  7.713376035024 	 15.403532910686 	
H	 17.242786391201 	  1.529820695024 	  5.301108950686 	
H	 16.674242261201 	  1.529823505024 	 15.431665670686 	
H	 17.242755291201 	  7.713382455024 	  5.301106120686 	
H	 16.674211161201 	  7.713385265024 	 15.431662840686 	
H	 11.256411278198 	  4.462449330226 	  0.178159049844 	
H	 10.687867148198 	  4.462452140226 	 10.308715769844 	
H	 11.256380178198 	 10.646011090226 	  0.178156219844 	
H	 10.687836048198 	 10.646013900226 	 10.308712939844 	
H	 25.937238578198 	  4.462458560226 	  0.206288979844 	
H	 25.368694448198 	  4.462461370226 	 10.336845699844 	
H	 25.937207478198 	 10.646020320226 	  0.206286149844 	
H	 25.368663348198 	 10.646023130226 	 10.336842869844 	
H	 11.114241805908 	  4.584257965024 	  5.399463413638 	
H	 10.545697675908 	  4.584260775024 	 15.530020133638 	
H	 11.114210705908 	 10.767819725024 	  5.399460583638 	
H	 10.545666575908 	 10.767822535024 	 15.530017303638 	
H	 25.795069105908 	  4.584267195024 	  5.427593343638 	
H	 25.226524975908 	  4.584270005024 	 15.558150063638 	
H	 25.795038005908 	 10.767828955024 	  5.427590513638 	
H	 25.226493875908 	 10.767831765024 	 15.558147233638 	
H	  2.419791603536 	  1.651620930204 	 10.494283674324 	
H	  1.851247473536 	  1.651623740204 	 20.624840394324 	
H	  2.419760503536 	  7.835182690204 	 10.494280844324 	
H	  1.851216373536 	  7.835185500204 	 20.624837564324 	
H	 17.100618903536 	  1.651630160204 	 10.522413604324 	
H	 16.532074773536 	  1.651632970204 	 20.652970324324 	
H	 17.100587803536 	  7.835191920204 	 10.522410774324 	
H	 16.532043673536 	  7.835194730204 	 20.652967494324 	
C	  1.556552297152 	  3.864399679631 	  6.664344449541 	
C	  0.988008167152 	  3.864402489631 	 16.794901169541 	
C	  1.556521197152 	 10.047961439631 	  6.664341619541 	
C	  0.987977067152 	 10.047964249631 	 16.794898339541 	
C	 16.237379597152 	  3.864408909631 	  6.692474379541 	
C	 15.668835467152 	  3.864411719631 	 16.823031099541 	
C	 16.237348497152 	 10.047970669631 	  6.692471549541 	
C	 15.668804367152 	 10.047973479631 	 16.823028269541 	
C	 11.983425227329 	  0.951321772150 	  9.276740193060 	
C	 11.414881097329 	  0.951324582150 	 19.407296913060 	
C	 11.983394127329 	  7.134883532150 	  9.276737363060 	
C	 11.414849997329 	  7.134886342150 	 19.407294083060 	
C	 26.664252527329 	  0.951331002150 	  9.304870123060 	
C	 26.095708397329 	  0.951333812150 	 19.435426843060 	
C	 26.664221427329 	  7.134892762150 	  9.304867293060 	
C	 26.095677297329 	  7.134895572150 	 19.435424013060 	
C	 12.119651727882 	  2.249670342100 	  4.008095954128 	
C	 11.551107597882 	  2.249673152100 	 14.138652674128 	
C	 12.119620627882 	  8.433232102100 	  4.008093124128 	
C	 11.551076497882 	  8.433234912100 	 14.138649844128 	
C	 26.800479027882 	  2.249679572100 	  4.036225884128 	
C	 26.231934897882 	  2.249682382100 	 14.166782604128 	
C	 26.800447927882 	  8.433241332100 	  4.036223054128 	
C	 26.231903797882 	  8.433244142100 	 14.166779774128 	
C	  1.692778048092 	  5.162748148017 	  1.395702237826 	
C	  1.124233918092 	  5.162750958017 	 11.526258957826 	
C	  1.692746948092 	 11.346309908017 	  1.395699407826 	
C	  1.124202818092 	 11.346312718017 	 11.526256127826 	
C	 16.373605348092 	  5.162757378017 	  1.423832167826 	
C	 15.805061218092 	  5.162760188017 	 11.554388887826 	
C	 16.373574248092 	 11.346319138017 	  1.423829337826 	
C	 15.805030118092 	 11.346321948017 	 11.554386057826 	
H	  2.217646937215 	  4.748613463425 	  6.423328023302 	
H	  1.649102807215 	  4.748616273425 	 16.553884743302 	
H	  2.217615837215 	 10.932175223425 	  6.423325193302 	
H	  1.649071707215 	 10.932178033425 	 16.553881913302 	
H	 16.898474237215 	  4.748622693425 	  6.451457953302 	
H	 16.329930107215 	  4.748625503425 	 16.582014673302 	
H	 16.898443137215 	 10.932184453425 	  6.451455123302 	
H	 16.329899007215 	 10.932187263425 	 16.582011843302 	
H	 11.213424428513 	  1.709010537448 	  9.534553556570 	
H	 10.644880298513 	  1.709013347448 	 19.665110276570 	
H	 11.213393328513 	  7.892572297448 	  9.534550726570 	
H	 10.644849198513 	  7.892575107448 	 19.665107446570 	
H	 25.894251728513 	  1.709019767448 	  9.562683486570 	
H	 25.325707598513 	  1.709022577448 	 19.693240206570 	
H	 25.894220628513 	  7.892581527448 	  9.562680656570 	
H	 25.325676498513 	  7.892584337448 	 19.693237376570 	
H	 11.458557566568 	  1.365455796795 	  4.249111678838 	
H	 10.890013436568 	  1.365458606795 	 14.379668398838 	
H	 11.458526466568 	  7.549017556795 	  4.249108848838 	
H	 10.889982336568 	  7.549020366795 	 14.379665568838 	
H	 26.139384866568 	  1.365465026795 	  4.277241608838 	
H	 25.570840736568 	  1.365467836795 	 14.407798328838 	
H	 26.139353766568 	  7.549026786795 	  4.277238778838 	
H	 25.570809636568 	  7.549029596795 	 14.407795498838 	
H	  2.462778807740 	  4.405059495110 	  1.137888380120 	
H	  1.894234677740 	  4.405062305110 	 11.268445100120 	
H	  2.462747707740 	 10.588621255110 	  1.137885550120 	
H	  1.894203577740 	 10.588624065110 	 11.268442270120 	
H	 17.143606107740 	  4.405068725110 	  1.166018310120 	
H	 16.575061977740 	  4.405071535110 	 11.296575030120 	
H	 17.143575007740 	 10.588630485110 	  1.166015480120 	
H	 16.575030877740 	 10.588633295110 	 11.296572200120 	
H	  1.268632067498 	  4.359108875155 	  7.640581096270 	
H	  0.700087937498 	  4.359111685155 	 17.771137816270 	
H	  1.268600967498 	 10.542670635155 	  7.640578266270 	
H	  0.700056837498 	 10.542673445155 	 17.771134986270 	
H	 15.949459367498 	  4.359118105155 	  7.668711026270 	
H	 15.380915237498 	  4.359120915155 	 17.799267746270 	
H	 15.949428267498 	 10.542679865155 	  7.668708196270 	
H	 15.380884137498 	 10.542682675155 	 17.799264916270 	
H	 12.171813308681 	  7.380569576469 	  8.326413573424 	
H	 11.603269178681 	  7.380572386469 	 18.456970293424 	
H	 12.171782208681 	 13.564131336469 	  8.326410743424 	
H	 11.603238078681 	 13.564134146469 	 18.456967463424 	
H	 26.852640608681 	  7.380578806469 	  8.354543503424 	
H	 26.284096478681 	  7.380581616469 	 18.485100223424 	
H	 26.852609508681 	 13.564140566469 	  8.354540673424 	
H	 26.284065378681 	 13.564143376469 	 18.485097393424 	
H	 12.407573310173 	  1.754962495533 	  3.031858848925 	
H	 11.839029180173 	  1.754965305533 	 13.162415568925 	
H	 12.407542210173 	  7.938524255533 	  3.031856018925 	
H	 11.838998080173 	  7.938527065533 	 13.162412738925 	
H	 27.088400610173 	  1.754971725533 	  3.059988778925 	
H	 26.519856480173 	  1.754974535533 	 13.190545498925 	
H	 27.088369510173 	  7.938533485533 	  3.059985948925 	
H	 26.519825380173 	  7.938536295533 	 13.190542668925 	
H	  1.504390429155 	 -1.266499852387 	  2.346029005384 	
H	  0.935846299155 	 -1.266497042387 	 12.476585725384 	
H	  1.504359329155 	  4.917061907613 	  2.346026175384 	
H	  0.935815199155 	  4.917064717613 	 12.476582895384 	
H	 16.185217729155 	 -1.266490622387 	  2.374158935384 	
H	 15.616673599155 	 -1.266487812387 	 12.504715655384 	
H	 16.185186629155 	  4.917071137613 	  2.374156105384 	
H	 15.616642499155 	  4.917073947613 	 12.504712825384 	
H	  0.656255321773 	  4.107097389555 	  6.031631996127 	
H	  0.087711191773 	  4.107100199555 	 16.162188716127 	
H	  0.656224221773 	 10.290659149555 	  6.031629166127 	
H	  0.087680091773 	 10.290661959555 	 16.162185886127 	
H	 15.337082621773 	  4.107106619555 	  6.059761926127 	
H	 14.768538491773 	  4.107109429555 	 16.190318646127 	
H	 15.337051521773 	 10.290668379555 	  6.059759096127 	
H	 14.768507391773 	 10.290671189555 	 16.190315816127 	
H	 12.777819409712 	  7.153509688536 	  9.915782842533 	
H	 12.209275279712 	  7.153512498536 	 20.046339562533 	
H	 12.777788309712 	 13.337071448536 	  9.915780012533 	
H	 12.209244179712 	 13.337074258536 	 20.046336732533 	
H	 27.458646709712 	  7.153518918536 	  9.943912772533 	
H	 26.890102579712 	  7.153521728536 	 20.074469492533 	
H	 27.458615609712 	 13.337080678536 	  9.943909942533 	
H	 26.890071479712 	 13.337083488536 	 20.074466662533 	
H	 13.019948710705 	  2.006972880690 	  4.640808682731 	
H	 12.451404580705 	  2.006975690690 	 14.771365402731 	
H	 13.019917610705 	  8.190534640690 	  4.640805852731 	
H	 12.451373480705 	  8.190537450690 	 14.771362572731 	
H	 27.700776010705 	  2.006982110690 	  4.668938612731 	
H	 27.132231880705 	  2.006984920690 	 14.799495332731 	
H	 27.700744910705 	  8.190543870690 	  4.668935782731 	
H	 27.132200780705 	  8.190546680690 	 14.799492502731 	
H	  0.898383569782 	 -1.039439836674 	  0.756659984448 	
H	  0.329839439782 	 -1.039437026674 	 10.887216704448 	
H	  0.898352469782 	  5.144121923326 	  0.756657154448 	
H	  0.329808339782 	  5.144124733326 	 10.887213874448 	
H	 15.579210869782 	 -1.039430606674 	  0.784789914448 	
H	 15.010666739782 	 -1.039427796674 	 10.915346634448 	
H	 15.579179769782 	  5.144131153326 	  0.784787084448 	
H	 15.010635639782 	  5.144133963326 	 10.915343804448 	
C	  1.154050329712 	  2.103949583676 	  7.028653276435 	
C	  0.585506199712 	  2.103952393676 	 17.159209996435 	
C	  1.154019229712 	  8.287511343676 	  7.028650446435 	
C	  0.585475099712 	  8.287514153676 	 17.159207166435 	
C	 15.834877629712 	  2.103958813676 	  7.056783206435 	
C	 15.266333499712 	  2.103961623676 	 17.187339926435 	
C	 15.834846529712 	  8.287520573676 	  7.056780376435 	
C	 15.266302399712 	  8.287523383676 	 17.187337096435 	
C	 12.291211898234 	  5.161900050237 	  8.927591751503 	
C	 11.722667768234 	  5.161902860237 	 19.058148471503 	
C	 12.291180798234 	 11.345461810237 	  8.927588921503 	
C	 11.722636668234 	 11.345464620237 	 19.058145641503 	
C	 26.972039198234 	  5.161909280237 	  8.955721681503 	
C	 26.403495068234 	  5.161912090237 	 19.086278401503 	
C	 26.972008098234 	 11.345471040237 	  8.955718851503 	
C	 26.403463968234 	 11.345473850237 	 19.086275571503 	
C	 12.522152486270 	  4.010122399078 	  3.643788067244 	
C	 11.953608356270 	  4.010125209078 	 13.774344787244 	
C	 12.522121386270 	 10.193684159078 	  3.643785237244 	
C	 11.953577256270 	 10.193686969078 	 13.774341957244 	
C	 27.202979786270 	  4.010131629078 	  3.671917997244 	
C	 26.634435656270 	  4.010134439078 	 13.802474717244 	
C	 27.202948686270 	 10.193693389078 	  3.671915167244 	
C	 26.634404556270 	 10.193696199078 	 13.802471887244 	
C	  1.384991300223 	  0.952169664143 	  1.744851081868 	
C	  0.816447170223 	  0.952172474143 	 11.875407801868 	
C	  1.384960200223 	  7.135731424143 	  1.744848251868 	
C	  0.816416070223 	  7.135734234143 	 11.875404971868 	
C	 16.065818600223 	  0.952178894143 	  1.772981011868 	
C	 15.497274470223 	  0.952181704143 	 11.903537731868 	
C	 16.065787500223 	  7.135740654143 	  1.772978181868 	
C	 15.497243370223 	  7.135743464143 	 11.903534901868 	
H	  0.132432754228 	  2.020354417124 	  6.560742294736 	
H	 -0.436111375772 	  2.020357227124 	 16.691299014736 	
H	  0.132401654228 	  8.203916177124 	  6.560739464736 	
H	 -0.436142475772 	  8.203918987124 	 16.691296184736 	
H	 14.813260054228 	  2.020363647124 	  6.588872224736 	
H	 14.244715924228 	  2.020366457124 	 16.719428944736 	
H	 14.813228954228 	  8.203925407124 	  6.588869394736 	
H	 14.244684824228 	  8.203928217124 	 16.719426114736 	
H	 13.310109314233 	  5.077672491902 	  9.396064583577 	
H	 12.741565184233 	  5.077675301902 	 19.526621303577 	
H	 13.310078214233 	 11.261234251902 	  9.396061753577 	
H	 12.741534084233 	 11.261237061902 	 19.526618473577 	
H	 27.990936614233 	  5.077681721902 	  9.424194513577 	
H	 27.422392484233 	  5.077684531902 	 19.554751233577 	
H	 27.990905514233 	 11.261243481902 	  9.424191683577 	
H	 27.422361384233 	 11.261246291902 	 19.554748403577 	
H	 13.543770094880 	  4.093717550945 	  4.111699355944 	
H	 12.975225964880 	  4.093720360945 	 14.242256075944 	
H	 13.543738994880 	 10.277279310945 	  4.111696525944 	
H	 12.975194864880 	 10.277282120945 	 14.242253245944 	
H	 28.224597394880 	  4.093726780945 	  4.139829285944 	
H	 27.656053264880 	  4.093729590945 	 14.270386005944 	
H	 28.224566294880 	 10.277288540945 	  4.139826455944 	
H	 27.656022164880 	 10.277291350945 	 14.270383175944 	
H	  0.366093757014 	  1.036397111951 	  1.276378515540 	
H	 -0.202450372986 	  1.036399921951 	 11.406935235540 	
H	  0.366062657014 	  7.219958871951 	  1.276375685540 	
H	 -0.202481472986 	  7.219961681951 	 11.406932405540 	
H	 15.046921057015 	  1.036406341951 	  1.304508445540 	
H	 14.478376927015 	  1.036409151951 	 11.435065165540 	
H	 15.046889957015 	  7.219968101951 	  1.304505615540 	
H	 14.478345827015 	  7.219970911951 	 11.435062335540 	
H	  0.866232076793 	  2.134394813316 	  8.120042679464 	
H	  0.297687946793 	  2.134397623316 	 18.250599399464 	
H	  0.866200976793 	  8.317956573316 	  8.120039849464 	
H	  0.297656846793 	  8.317959383316 	 18.250596569464 	
H	 15.547059376793 	  2.134404043316 	  8.148172609464 	
H	 14.978515246793 	  2.134406853316 	 18.278729329464 	
H	 15.547028276793 	  8.317965803316 	  8.148169779464 	
H	 14.978484146793 	  8.317968613316 	 18.278726499464 	
H	 12.576114722087 	  5.192326713757 	  7.835907137363 	
H	 12.007570592087 	  5.192329523757 	 17.966463857363 	
H	 12.576083622087 	 11.375888473757 	  7.835904307363 	
H	 12.007539492087 	 11.375891283757 	 17.966461027363 	
H	 27.256942022087 	  5.192335943757 	  7.864037067363 	
H	 26.688397892087 	  5.192338753757 	 17.994593787363 	
H	 27.256910922087 	 11.375897703757 	  7.864034237363 	
H	 26.688366792087 	 11.375900513757 	 17.994590957363 	
H	 12.809970916116 	  3.979678077950 	  2.552398449272 	
H	 12.241426786116 	  3.979680887950 	 12.682955169272 	
H	 12.809939816116 	 10.163239837950 	  2.552395619272 	
H	 12.241395686116 	 10.163242647950 	 12.682952339272 	
H	 27.490798216116 	  3.979687307950 	  2.580528379272 	
H	 26.922254086116 	  3.979690117950 	 12.711085099272 	
H	 27.490767116116 	 10.163249067950 	  2.580525549272 	
H	 26.922222986116 	 10.163251877950 	 12.711082269272 	
H	  1.100088625521 	  0.921742690591 	  2.836535699064 	
H	  0.531544495521 	  0.921745500591 	 12.967092419064 	
H	  1.100057525521 	  7.105304450591 	  2.836532869064 	
H	  0.531513395521 	  7.105307260591 	 12.967089589064 	
H	 15.780915925521 	  0.921751920591 	  2.864665629064 	
H	 15.212371795521 	  0.921754730591 	 12.995222349064 	
H	 15.780884825521 	  7.105313680591 	  2.864662799064 	
H	 15.212340695521 	  7.105316490591 	 12.995219519064 	
H	  1.363350354778 	  1.001911707771 	  7.136900606778 	
H	  0.794806224778 	  1.001914517771 	 17.267457326778 	
H	  1.363319254778 	  7.185473467771 	  7.136897776778 	
H	  0.794775124778 	  7.185476277771 	 17.267454496778 	
H	 16.044177654778 	  1.001920937771 	  7.165030536778 	
H	 15.475633524778 	  1.001923747771 	 17.295587256778 	
H	 16.044146554778 	  7.185482697771 	  7.165027706778 	
H	 15.475602424778 	  7.185485507771 	 17.295584426778 	
H	 12.078533710680 	  4.061417155012 	  8.818675118141 	
H	 11.509989580680 	  4.061419965012 	 18.949231838141 	
H	 12.078502610680 	 10.244978915012 	  8.818672288141 	
H	 11.509958480680 	 10.244981725012 	 18.949229008141 	
H	 26.759361010680 	  4.061426385012 	  8.846805048141 	
H	 26.190816880680 	  4.061429195012 	 18.977361768141 	
H	 26.759329910680 	 10.244988145012 	  8.846802218141 	
H	 26.190785780680 	 10.244990955012 	 18.977358938141 	
H	 12.312851466095 	  5.112160523789 	  3.535542857406 	
H	 11.744307336095 	  5.112163333789 	 13.666099577406 	
H	 12.312820366095 	 11.295722283789 	  3.535540027406 	
H	 11.744276236095 	 11.295725093789 	 13.666096747406 	
H	 26.993678766095 	  5.112169753789 	  3.563672787406 	
H	 26.425134636095 	  5.112172563789 	 13.694229507406 	
H	 26.993647666095 	 11.295731513789 	  3.563669957406 	
H	 26.425103536095 	 11.295734323789 	 13.694226677406 	
H	  1.597669342730 	  2.052652541798 	  1.853768250693 	
H	  1.029125212730 	  2.052655351798 	 11.984324970693 	
H	  1.597638242730 	  8.236214301798 	  1.853765420693 	
H	  1.029094112730 	  8.236217111798 	 11.984322140693 	
H	 16.278496642730 	  2.052661771798 	  1.881898180693 	
H	 15.709952512730 	  2.052664581798 	 12.012454900693 	
H	 16.278465542730 	  8.236223531798 	  1.881895350693 	
H	 15.709921412730 	  8.236226341798 	 12.012452070693 	
768 
Energy: -9.2793416305410005e+01 
S	  8.340718244752 	  1.437261109837 	  0.129528308029 	
S	  7.772174114752 	  1.437263919837 	 10.260085028029 	
S	  8.340687144752 	  7.620822869837 	  0.129525478029 	
S	  7.772143014752 	  7.620825679837 	 10.260082198029 	
S	 23.021545544752 	  1.437270339837 	  0.157658238029 	
S	 22.453001414752 	  1.437273149837 	 10.288214958029 	
S	 23.021514444752 	  7.620832099837 	  0.157655408029 	
S	 22.452970314752 	  7.620834909837 	 10.288212128029 	
S	  5.504017781129 	  4.488273617299 	  5.299107021243 	
S	  4.935473651129 	  4.488276427299 	 15.429663741243 	
S	  5.503986681129 	 10.671835377299 	  5.299104191243 	
S	  4.935442551129 	 10.671838187299 	 15.429660911243 	
S	 20.184845081129 	  4.488282847299 	  5.327236951243 	
S	 19.616300951129 	  4.488285657299 	 15.457793671243 	
S	 20.184813981129 	 10.671844607299 	  5.327234121243 	
S	 19.616269851129 	 10.671847417299 	 15.457790841243 	
S	  5.279583878220 	  4.667898203287 	 10.608776880644 	
S	  4.711039748220 	  4.667901013287 	 20.739333600644 	
S	  5.279552778220 	 10.851459963287 	 10.608774050644 	
S	  4.711008648220 	 10.851462773287 	 20.739330770644 	
S	 19.960411178220 	  4.667907433287 	 10.636906810644 	
S	 19.391867048220 	  4.667910243287 	 20.767463530644 	
S	 19.960380078220 	 10.851469193287 	 10.636903980644 	
S	 19.391835948220 	 10.851472003287 	 20.767460700644 	
S	  8.116285693618 	  1.616885721924 	  5.439197777022 	
S	  7.547741563618 	  1.616888531924 	 15.569754497022 	
S	  8.116254593618 	  7.800447481924 	  5.439194947022 	
S	  7.547710463618 	  7.800450291924 	 15.569751667022 	
S	 22.797112993618 	  1.616894951924 	  5.467327707022 	
S	 22.228568863618 	  1.616897761924 	 15.597884427022 	
S	 22.797081893618 	  7.800456711924 	  5.467324877022 	
S	 22.228537763618 	  7.800459521924 	 15.597881597022 	
C	  6.545932047437 	  2.543560297436 	 10.301487429210 	
C	  5.977387917437 	  2.543563107436 	 20.432044149210 	
C	  6.545900947437 	  8.727122057436 	 10.301484599210 	
C	  5.977356817437 	  8.727124867436 	 20.432041319210 	
C	 21.226759347437 	  2.543569527436 	 10.329617359210 	
C	 20.658215217437 	  2.543572337436 	 20.460174079210 	
C	 21.226728247437 	  8.727131287436 	 10.329614529210 	
C	 20.658184117437 	  8.727134097436 	 20.460171249210 	
C	  6.853626788278 	  5.541641794929 	  5.790032359784 	
C	  6.285082658278 	  5.541644604929 	 15.920589079784 	
C	  6.853595688278 	 11.725203554929 	  5.790029529784 	
C	  6.285051558278 	 11.725206364929 	 15.920586249784 	
C	 21.534454088278 	  5.541651024929 	  5.818162289784 	
C	 20.965909958278 	  5.541653834929 	 15.948719009784 	
C	 21.534422988278 	 11.725212784929 	  5.818159459784 	
C	 20.965878858278 	 11.725215594929 	 15.948716179784 	
C	  7.074370081246 	  3.561599008310 	  0.436817585194 	
C	  6.505825951246 	  3.561601818310 	 10.567374305194 	
C	  7.074338981246 	  9.745160768310 	  0.436814755194 	
C	  6.505794851246 	  9.745163578310 	 10.567371475194 	
C	 21.755197381246 	  3.561608238310 	  0.464947515194 	
C	 21.186653251246 	  3.561611048310 	 10.595504235194 	
C	 21.755166281246 	  9.745169998310 	  0.464944685194 	
C	 21.186622151246 	  9.745172808310 	 10.595501405194 	
C	  6.766676522831 	  0.563517594791 	  4.948272270505 	
C	  6.198132392831 	  0.563520404791 	 15.078828990505 	
C	  6.766645422831 	  6.747079354791 	  4.948269440505 	
C	  6.198101292831 	  6.747082164791 	 15.078826160505 	
C	 21.447503822831 	  0.563526824791 	  4.976402200505 	
C	 20.878959692831 	  0.563529634791 	 15.106958920505 	
C	 21.447472722831 	  6.747088584791 	  4.976399370505 	
C	 20.878928592831 	  6.747091394791 	 15.106956090505 	
C	  5.528309236918 	  2.405926980807 	  9.318587916981 	
C	  4.959765106918 	  2.405929790807 	 19.449144636981 	
C	  5.528278136918 	  8.589488740807 	  9.318585086981 	
C	  4.959734006918 	  8.589491550807 	 19.449141806981 	
C	 20.209136536918 	  2.405936210807 	  9.346717846981 	
C	 19.640592406918 	  2.405939020807 	 19.477274566981 	
C	 20.209105436918 	  8.589497970807 	  9.346715016981 	
C	 19.640561306918 	  8.589500780807 	 19.477271736981 	
C	  7.855158484783 	  5.441989602585 	  6.729162405514 	
C	  7.286614354783 	  5.441992412585 	 16.859719125514 	
C	  7.855127384783 	 11.625551362585 	  6.729159575514 	
C	  7.286583254783 	 11.625554172585 	 16.859716295514 	
C	 22.535985784783 	  5.441998832585 	  6.757292335514 	
C	 21.967441654783 	  5.442001642585 	 16.887849055514 	
C	 22.535954684783 	 11.625560592585 	  6.757289505514 	
C	 21.967410554783 	 11.625563402585 	 16.887846225514 	
C	  8.091992850144 	  3.699232407389 	  1.419717060358 	
C	  7.523448720144 	  3.699235217389 	 11.550273780358 	
C	  8.091961750144 	  9.882794167389 	  1.419714230358 	
C	  7.523417620144 	  9.882796977388 	 11.550270950358 	
C	 22.772820150144 	  3.699241637389 	  1.447846990358 	
C	 22.204276020144 	  3.699244447389 	 11.578403710358 	
C	 22.772789050144 	  9.882803397388 	  1.447844160358 	
C	 22.204244920144 	  9.882806207388 	 11.578400880358 	
C	  5.765144618442 	  0.663169847651 	  4.009142475199 	
C	  5.196600488442 	  0.663172657651 	 14.139699195199 	
C	  5.765113518442 	  6.846731607651 	  4.009139645199 	
C	  5.196569388442 	  6.846734417651 	 14.139696365199 	
C	 20.445971918442 	  0.663179077651 	  4.037272405199 	
C	 19.877427788442 	  0.663181887651 	 14.167829125199 	
C	 20.445940818442 	  6.846740837651 	  4.037269575199 	
C	 19.877396688442 	  6.846743647651 	 14.167826295199 	
C	  4.697758536103 	  3.496923764878 	  9.333357504754 	
C	  4.129214406103 	  3.496926574878 	 19.463914224754 	
C	  4.697727436103 	  9.680485524878 	  9.333354674754 	
C	  4.129183306103 	  9.680488334878 	 19.463911394754 	
C	 19.378585836103 	  3.496932994878 	  9.361487434754 	
C	 18.810041706103 	  3.496935804878 	 19.492044154754 	
C	 19.378554736103 	  9.680494754878 	  9.361484604754 	
C	 18.810010606103 	  9.680497564878 	 19.492041324754 	
C	  8.704768030831 	  0.458630053634 	  6.716151241738 	
C	  8.136223900831 	  0.458632863634 	 16.846707961738 	
C	  8.704736930831 	  6.642191813634 	  6.716148411738 	
C	  8.136192800831 	  6.642194623634 	 16.846705131738 	
C	 23.385595330831 	  0.458639283634 	  6.744281171738 	
C	 22.817051200831 	  0.458642093634 	 16.874837891738 	
C	 23.385564230831 	  6.642201043634 	  6.744278341738 	
C	 22.817020100831 	  6.642203853634 	 16.874835061738 	
C	  8.922543533975 	  2.608235554955 	  1.404947482575 	
C	  8.353999403975 	  2.608238364955 	 11.535504202575 	
C	  8.922512433975 	  8.791797314955 	  1.404944652575 	
C	  8.353968303975 	  8.791800124955 	 11.535501372575 	
C	 23.603370833975 	  2.608244784955 	  1.433077412575 	
C	 23.034826703975 	  2.608247594955 	 11.563634132575 	
C	 23.603339733975 	  8.791806544955 	  1.433074582575 	
C	 23.034795603975 	  8.791809354955 	 11.563631302575 	
C	  4.915535125269 	  5.646529363382 	  4.022153854765 	
C	  4.346990995269 	  5.646532173382 	 14.152710574765 	
C	  4.915504025269 	 11.830091123382 	  4.022151024765 	
C	  4.346959895269 	 11.830093933382 	 14.152707744765 	
C	 19.596362425269 	  5.646538593382 	  4.050283784765 	
C	 19.027818295269 	  5.646541403382 	 14.180840504765 	
C	 19.596331325269 	 11.830100353382 	  4.050280954765 	
C	 19.027787195269 	 11.830103163382 	 14.180837674765 	
C	  3.669934319011 	  3.635070290454 	  8.548640487961 	
C	  3.101390189011 	  3.635073100454 	 18.679197207961 	
C	  3.669903219011 	  9.818632050454 	  8.548637657961 	
C	  3.101359089011 	  9.818634860454 	 18.679194377961 	
C	 18.350761619011 	  3.635079520454 	  8.576770417961 	
C	 17.782217489011 	  3.635082330454 	 18.707327137961 	
C	 18.350730519011 	  9.818641280454 	  8.576767587961 	
C	 17.782186389011 	  9.818644090454 	 18.707324307961 	
C	  9.714744611693 	  0.598866018990 	  7.484224267485 	
C	  9.146200481693 	  0.598868828990 	 17.614780987485 	
C	  9.714713511693 	  6.782427778990 	  7.484221437485 	
C	  9.146169381693 	  6.782430588990 	 17.614778157485 	
C	 24.395571911693 	  0.598875248990 	  7.512354197485 	
C	 23.827027781693 	  0.598878058990 	 17.642910917485 	
C	 24.395540811693 	  6.782437008990 	  7.512351367485 	
C	 23.826996681693 	  6.782439818990 	 17.642908087485 	
C	  9.950367779583 	  2.470089209585 	  2.189664737414 	
C	  9.381823649583 	  2.470092019585 	 12.320221457414 	
C	  9.950336679583 	  8.653650969585 	  2.189661907414 	
C	  9.381792549583 	  8.653653779585 	 12.320218627414 	
C	 24.631195079583 	  2.470098439585 	  2.217794667414 	
C	 24.062650949583 	  2.470101249585 	 12.348351387414 	
C	 24.631163979583 	  8.653660199585 	  2.217791837414 	
C	 24.062619849583 	  8.653663009585 	 12.348348557414 	
C	  3.905558103998 	  5.506293493560 	  3.254081293646 	
C	  3.337013973998 	  5.506296303560 	 13.384638013646 	
C	  3.905527003998 	 11.689855253560 	  3.254078463646 	
C	  3.336982873998 	 11.689858063560 	 13.384635183646 	
C	 18.586385403998 	  5.506302723560 	  3.282211223646 	
C	 18.017841273998 	  5.506305533560 	 13.412767943646 	
C	 18.586354303998 	 11.689864483560 	  3.282208393646 	
C	 18.017810173998 	 11.689867293560 	 13.412765113646 	
H	  3.027672574666 	  4.587810980632 	  8.621603759579 	
H	  2.459128444666 	  4.587813790632 	 18.752160479579 	
H	  3.027641474666 	 10.771372740632 	  8.621600929579 	
H	  2.459097344666 	 10.771375550632 	 18.752157649579 	
H	 17.708499874666 	  4.587820210632 	  8.649733689579 	
H	 17.139955744666 	  4.587823020632 	 18.780290409579 	
H	 17.708468774666 	 10.771381970632 	  8.649730859579 	
H	 17.139924644666 	 10.771384780632 	 18.780287579579 	
H	 10.366297683042 	  1.533723734877 	  7.428651085391 	
H	  9.797753553042 	  1.533726544877 	 17.559207805391 	
H	 10.366266583042 	  7.717285494877 	  7.428648255391 	
H	  9.797722453042 	  7.717288304877 	 17.559204975391 	
H	 25.047124983042 	  1.533732964877 	  7.456781015391 	
H	 24.478580853042 	  1.533735774877 	 17.587337735391 	
H	 25.047093883042 	  7.717294724877 	  7.456778185391 	
H	 24.478549753042 	  7.717297534877 	 17.587334905391 	
H	 10.592629412814 	  1.517348410298 	  2.116701666643 	
H	 10.024085282814 	  1.517351220298 	 12.247258386643 	
H	 10.592598312814 	  7.700910170298 	  2.116698836643 	
H	 10.024054182814 	  7.700912980298 	 12.247255556643 	
H	 25.273456712814 	  1.517357640298 	  2.144831596643 	
H	 24.704912582814 	  1.517360450298 	 12.275388316643 	
H	 25.273425612814 	  7.700919400298 	  2.144828766643 	
H	 24.704881482814 	  7.700922210298 	 12.275385486643 	
H	  3.254005145301 	  4.571435721840 	  3.309654669392 	
H	  2.685461015301 	  4.571438531840 	 13.440211389392 	
H	  3.253974045301 	 10.754997481840 	  3.309651839392 	
H	  2.685429915301 	 10.755000291840 	 13.440208559392 	
H	 17.934832445301 	  4.571444951840 	  3.337784599392 	
H	 17.366288315301 	  4.571447761840 	 13.468341319392 	
H	 17.934801345301 	 10.755006711840 	  3.337781769392 	
H	 17.366257215301 	 10.755009521840 	 13.468338489392 	
C	  3.344790356722 	  2.714041986933 	  7.661061720305 	
C	  2.776246226722 	  2.714044796933 	 17.791618440305 	
C	  3.344759256722 	  8.897603746933 	  7.661058890305 	
C	  2.776215126722 	  8.897606556933 	 17.791615610305 	
C	 18.025617656722 	  2.714051216933 	  7.689191650305 	
C	 17.457073526722 	  2.714054026933 	 17.819748370305 	
C	 18.025586556722 	  8.897612976933 	  7.689188820305 	
C	 17.457042426722 	  8.897615786933 	 17.819745540305 	
C	 10.056396688034 	  5.748025771942 	  8.402353239492 	
C	  9.487852558034 	  5.748028581942 	 18.532909959492 	
C	 10.056365588034 	 11.931587531941 	  8.402350409492 	
C	  9.487821458034 	 11.931590341941 	 18.532907129492 	
C	 24.737223988034 	  5.748035001942 	  8.430483169492 	
C	 24.168679858034 	  5.748037811941 	 18.561039889492 	
C	 24.737192888034 	 11.931596761941 	  8.430480339492 	
C	 24.168648758034 	 11.931599571941 	 18.561037059492 	
C	 10.275511612036 	  3.391117611677 	  3.077243199708 	
C	  9.706967482036 	  3.391120421677 	 13.207799919708 	
C	 10.275480512036 	  9.574679371677 	  3.077240369708 	
C	  9.706936382036 	  9.574682181677 	 13.207797089708 	
C	 24.956338912036 	  3.391126841677 	  3.105373129708 	
C	 24.387794782036 	  3.391129651677 	 13.235929849708 	
C	 24.956307812036 	  9.574688601677 	  3.105370299708 	
C	 24.387763682036 	  9.574691411677 	 13.235927019708 	
C	  3.563905605750 	  0.357133861340 	  2.335952560864 	
C	  2.995361475750 	  0.357136671340 	 12.466509280864 	
C	  3.563874505750 	  6.540695621340 	  2.335949730864 	
C	  2.995330375750 	  6.540698431340 	 12.466506450864 	
C	 18.244732905750 	  0.357143091340 	  2.364082490864 	
C	 17.676188775750 	  0.357145901340 	 12.494639210864 	
C	 18.244701805750 	  6.540704851340 	  2.364079660864 	
C	 17.676157675750 	  6.540707661340 	 12.494636380864 	
C	  4.169099057107 	  1.630340192778 	  7.611353110090 	
C	  3.600554927107 	  1.630343002778 	 17.741909830090 	
C	  4.169067957107 	  7.813901952778 	  7.611350280090 	
C	  3.600523827107 	  7.813904762778 	 17.741907000090 	
C	 18.849926357107 	  1.630349422778 	  7.639483040090 	
C	 18.281382227107 	  1.630352232778 	 17.770039760090 	
C	 18.849895257107 	  7.813911182778 	  7.639480210090 	
C	 18.281351127107 	  7.813913992778 	 17.770036930090 	
C	  9.225717374775 	  4.685111380364 	  8.435993974134 	
C	  8.657173244775 	  4.685114190364 	 18.566550694134 	
C	  9.225686274775 	 10.868673140364 	  8.435991144134 	
C	  8.657142144775 	 10.868675950364 	 18.566547864134 	
C	 23.906544674775 	  4.685120610364 	  8.464123904134 	
C	 23.338000544775 	  4.685123420364 	 18.594680624134 	
C	 23.906513574775 	 10.868682370364 	  8.464121074134 	
C	 23.337969444775 	 10.868685180364 	 18.594677794134 	
C	  9.451202995013 	  4.474819487828 	  3.126951649306 	
C	  8.882658865013 	  4.474822297828 	 13.257508369306 	
C	  9.451171895013 	 10.658381247828 	  3.126948819306 	
C	  8.882627765013 	 10.658384057828 	 13.257505539306 	
C	 24.132030295013 	  4.474828717828 	  3.155081579306 	
C	 23.563486165013 	  4.474831527828 	 13.285638299306 	
C	 24.131999195013 	 10.658390477828 	  3.155078749306 	
C	 23.563455065013 	 10.658393287828 	 13.285635469306 	
C	  4.394584878681 	  1.420048147604 	  2.302311494281 	
C	  3.826040748681 	  1.420050957604 	 12.432868214281 	
C	  4.394553778681 	  7.603609907604 	  2.302308664281 	
C	  3.826009648681 	  7.603612717604 	 12.432865384281 	
C	 19.075412178681 	  1.420057377604 	  2.330441424281 	
C	 18.506868048681 	  1.420060187604 	 12.460998144281 	
C	 19.075381078681 	  7.603619137604 	  2.330438594281 	
C	 18.506836948681 	  7.603621947604 	 12.460995314281 	
H	  3.932416837485 	  0.823160367331 	  6.828622972179 	
H	  3.363872707485 	  0.823163177331 	 16.959179692179 	
H	  3.932385737485 	  7.006722127331 	  6.828620142179 	
H	  3.363841607485 	  7.006724937331 	 16.959176862179 	
H	 18.613244137485 	  0.823169597331 	  6.856752902179 	
H	 18.044700007485 	  0.823172407331 	 16.987309622179 	
H	 18.613213037485 	  7.006731357331 	  6.856750072179 	
H	 18.044668907485 	  7.006734167331 	 16.987306792179 	
H	  9.463021814387 	  3.877898117643 	  9.221386122609 	
H	  8.894477684387 	  3.877900927643 	 19.351942842609 	
H	  9.462990714387 	 10.061459877643 	  9.221383292609 	
H	  8.894446584387 	 10.061462687643 	 19.351940012609 	
H	 24.143849114387 	  3.877907347643 	  9.249516052609 	
H	 23.575304984387 	  3.877910157643 	 19.380072772609 	
H	 24.143818014387 	 10.061469107643 	  9.249513222609 	
H	 23.575273884387 	 10.061471917643 	 19.380069942609 	
H	  9.687885357098 	  5.281999498022 	  3.909681568994 	
H	  9.119341227098 	  5.282002308022 	 14.040238288994 	
H	  9.687854257098 	 11.465561258022 	  3.909678738994 	
H	  9.119310127098 	 11.465564068022 	 14.040235458994 	
H	 24.368712657098 	  5.282008728022 	  3.937811498994 	
H	 23.800168527098 	  5.282011538022 	 14.068368218994 	
H	 24.368681557098 	 11.465570488022 	  3.937808668994 	
H	 23.800137427098 	 11.465573298022 	 14.068365388994 	
H	  4.157280066998 	  2.227261555345 	  1.516919593178 	
H	  3.588735936998 	  2.227264365345 	 11.647476313178 	
H	  4.157248966998 	  8.410823315345 	  1.516916763178 	
H	  3.588704836998 	  8.410826125345 	 11.647473483178 	
H	 18.838107366998 	  2.227270785345 	  1.545049523178 	
H	 18.269563236999 	  2.227273595345 	 11.675606243178 	
H	 18.838076266998 	  8.410832545345 	  1.545046693178 	
H	 18.269532136998 	  8.410835355345 	 11.675603413178 	
C	  5.174419736922 	  1.479120181569 	  8.366982547825 	
C	  4.605875606922 	  1.479122991569 	 18.497539267825 	
C	  5.174388636922 	  7.662681941569 	  8.366979717825 	
C	  4.605844506922 	  7.662684751569 	 18.497536437825 	
C	 19.855247036922 	  1.479129411569 	  8.395112477825 	
C	 19.286702906922 	  1.479132221569 	 18.525669197825 	
C	 19.855215936922 	  7.662691171569 	  8.395109647825 	
C	 19.286671806922 	  7.662693981569 	 18.525666367825 	
C	  8.219603440686 	  4.533753610615 	  7.679668466975 	
C	  7.651059310686 	  4.533756420615 	 17.810225186975 	
C	  8.219572340686 	 10.717315370615 	  7.679665636975 	
C	  7.651028210686 	 10.717318180615 	 17.810222356975 	
C	 22.900430740686 	  4.533762840615 	  7.707798396975 	
C	 22.331886610686 	  4.533765650615 	 17.838355116975 	
C	 22.900399640686 	 10.717324600615 	  7.707795566975 	
C	 22.331855510686 	 10.717327410615 	 17.838352286975 	
C	  8.445882342772 	  4.626039373444 	  2.371322196585 	
C	  7.877338212772 	  4.626042183444 	 12.501878916585 	
C	  8.445851242772 	 10.809601133444 	  2.371319366585 	
C	  7.877307112772 	 10.809603943444 	 12.501876086585 	
C	 23.126709642772 	  4.626048603444 	  2.399452126585 	
C	 22.558165512772 	  4.626051413444 	 12.530008846585 	
C	 23.126678542772 	 10.809610363444 	  2.399449296585 	
C	 22.558134412772 	 10.809613173444 	 12.530006016585 	
C	  5.400699186975 	  1.571405886234 	  3.058636597088 	
C	  4.832155056975 	  1.571408696234 	 13.189193317088 	
C	  5.400668086975 	  7.754967646234 	  3.058633767088 	
C	  4.832123956975 	  7.754970456234 	 13.189190487088 	
C	 20.081526486975 	  1.571415116234 	  3.086766527088 	
C	 19.512982356975 	  1.571417926234 	 13.217323247088 	
C	 20.081495386975 	  7.754976876234 	  3.086763697088 	
C	 19.512951256975 	  7.754979686234 	 13.217320417088 	
H	  5.841953424676 	  0.547645794552 	  8.281891064129 	
H	  5.273409294676 	  0.547648604552 	 18.412447784129 	
H	  5.841922324676 	  6.731207554552 	  8.281888234129 	
H	  5.273378194676 	  6.731210364552 	 18.412444954129 	
H	 20.522780724676 	  0.547655024552 	  8.310020994129 	
H	 19.954236594676 	  0.547657834552 	 18.440577714129 	
H	 20.522749624676 	  6.731216784552 	  8.310018164129 	
H	 19.954205494676 	  6.731219594552 	 18.440574884129 	
H	  7.551857281283 	  3.600876747324 	  7.766095773790 	
H	  6.983313151283 	  3.600879557324 	 17.896652493790 	
H	  7.551826181283 	  9.784438507324 	  7.766092943790 	
H	  6.983282051283 	  9.784441317324 	 17.896649663790 	
H	 22.232684581283 	  3.600885977324 	  7.794225703790 	
H	 21.664140451283 	  3.600888787324 	 17.924782423790 	
H	 22.232653481283 	  9.784447737324 	  7.794222873790 	
H	 21.664109351283 	  9.784450547324 	 17.924779593790 	
H	  7.778348656928 	  5.557513786566 	  2.456413421855 	
H	  7.209804526928 	  5.557516596566 	 12.586970141855 	
H	  7.778317556928 	 11.741075546566 	  2.456410591855 	
H	  7.209773426928 	 11.741078356566 	 12.586967311855 	
H	 22.459175956928 	  5.557523016566 	  2.484543351855 	
H	 21.890631826928 	  5.557525826566 	 12.615100071855 	
H	 22.459144856928 	 11.741084776566 	  2.484540521855 	
H	 21.890600726928 	 11.741087586566 	 12.615097241855 	
H	  6.068445334192 	  2.504282731558 	  2.972209094238 	
H	  5.499901204192 	  2.504285541558 	 13.102765814238 	
H	  6.068414234192 	  8.687844491558 	  2.972206264238 	
H	  5.499870104192 	  8.687847301558 	 13.102762984238 	
H	 20.749272634192 	  2.504291961558 	  3.000339024238 	
H	 20.180728504192 	  2.504294771558 	 13.130895744238 	
H	 20.749241534192 	  8.687853721558 	  3.000336194238 	
H	 20.180697404192 	  8.687856531558 	 13.130892914238 	
C	  1.974001372204 	  2.850848037134 	  6.678154967544 	
C	  1.405457242204 	  2.850850847134 	 16.808711687544 	
C	  1.973970272204 	  9.034409797134 	  6.678152137544 	
C	  1.405426142204 	  9.034412607134 	 16.808708857544 	
C	 16.654828672204 	  2.850857267134 	  6.706284897544 	
C	 16.086284542204 	  2.850860077134 	 16.836841617544 	
C	 16.654797572204 	  9.034419027134 	  6.706282067544 	
C	 16.086253442204 	  9.034421837134 	 16.836838787544 	
C	 11.372059520818 	  5.784394816916 	  9.358158323049 	
C	 10.803515390818 	  5.784397626916 	 19.488715043049 	
C	 11.372028420818 	 11.967956576916 	  9.358155493049 	
C	 10.803484290818 	 11.967959386916 	 19.488712213049 	
C	 26.052886820818 	  5.784404046916 	  9.386288253049 	
C	 25.484342690818 	  5.784406856916 	 19.516844973049 	
C	 26.052855720818 	 11.967965806916 	  9.386285423049 	
C	 25.484311590818 	 11.967968616916 	 19.516842143049 	
C	 11.646300285002 	  3.254311950157 	  4.060150076543 	
C	 11.077756155002 	  3.254314760157 	 14.190706796543 	
C	 11.646269185002 	  9.437873710157 	  4.060147246543 	
C	 11.077725055002 	  9.437876520157 	 14.190703966543 	
C	 26.327127585002 	  3.254321180157 	  4.088280006543 	
C	 25.758583455002 	  3.254323990157 	 14.218836726543 	
C	 26.327096485002 	  9.437882940157 	  4.088277176543 	
C	 25.758552355002 	  9.437885750157 	 14.218833896543 	
C	  2.248242210190 	  0.320764731830 	  1.380148033537 	
C	  1.679698080190 	  0.320767541830 	 11.510704753537 	
C	  2.248211110190 	  6.504326491830 	  1.380145203537 	
C	  1.679666980190 	  6.504329301830 	 11.510701923537 	
C	 16.929069510190 	  0.320773961830 	  1.408277963537 	
C	 16.360525380190 	  0.320776771830 	 11.538834683537 	
C	 16.929038410190 	  6.504335721830 	  1.408275133537 	
C	 16.360494280190 	  6.504338531830 	 11.538831853537 	
C	  2.194986088569 	  2.455096342900 	  5.559211084861 	
C	  1.626441958569 	  2.455099152900 	 15.689767804861 	
C	  2.194954988569 	  8.638658102900 	  5.559208254861 	
C	  1.626410858569 	  8.638660912900 	 15.689764974861 	
C	 16.875813388569 	  2.455105572900 	  5.587341014861 	
C	 16.307269258569 	  2.455108382900 	 15.717897734861 	
C	 16.875782288569 	  8.638667332900 	  5.587338184861 	
C	 16.307238158569 	  8.638670142900 	 15.717894904861 	
C	 11.184356995666 	 -0.426082035293 	 10.387679966972 	
C	 10.615812865666 	 -0.426079225293 	 20.518236686972 	
C	 11.184325895666 	  5.757479724707 	 10.387677136972 	
C	 10.615781765666 	  5.757482534707 	 20.518233856972 	
C	 25.865184295666 	 -0.426072805293 	 10.415809896972 	
C	 25.296640165666 	 -0.426069995293 	 20.546366616972 	
C	 25.865153195666 	  5.757488954707 	 10.415807066972 	
C	 25.296609065666 	  5.757491764707 	 20.546363786972 	
C	 11.425314560522 	  3.650062715066 	  5.179094755421 	
C	 10.856770430522 	  3.650065525066 	 15.309651475421 	
C	 11.425283460522 	  9.833624475066 	  5.179091925421 	
C	 10.856739330522 	  9.833627285066 	 15.309648645421 	
C	 26.106141860522 	  3.650071945066 	  5.207224685421 	
C	 25.537597730522 	  3.650074755066 	 15.337781405421 	
C	 26.106110760522 	  9.833633705066 	  5.207221855421 	
C	 25.537566630522 	  9.833636515066 	 15.337778575421 	
C	  2.435944419387 	  6.531241805914 	  0.350626258179 	
C	  1.867400289387 	  6.531244615914 	 10.481182978179 	
C	  2.435913319387 	 12.714803565914 	  0.350623428179 	
C	  1.867369189387 	 12.714806375914 	 10.481180148179 	
C	 17.116771719387 	  6.531251035914 	  0.378756188179 	
C	 16.548227589387 	  6.531253845914 	 10.509312908179 	
C	 17.116740619387 	 12.714812795914 	  0.378753358179 	
C	 16.548196489387 	 12.714815605914 	 10.509310078179 	
H	  3.099216834166 	  2.833668857559 	  4.982138503390 	
H	  2.530672704166 	  2.833671667559 	 15.112695223390 	
H	  3.099185734166 	  9.017230617559 	  4.982135673390 	
H	  2.530641604166 	  9.017233427559 	 15.112692393390 	
H	 17.780044134166 	  2.833678087559 	  5.010268433390 	
H	 17.211500004166 	  2.833680897559 	 15.140825153390 	
H	 17.780013034166 	  9.017239847559 	  5.010265603390 	
H	 17.211468904166 	  9.017242657559 	 15.140822323390 	
H	 10.296845386232 	 -0.227515445893 	 11.059736425367 	
H	  9.728301256232 	 -0.227512635893 	 21.190293145367 	
H	 10.296814286232 	  5.956046314107 	 11.059733595367 	
H	  9.728270156232 	  5.956049124107 	 21.190290315367 	
H	 24.977672686232 	 -0.227506215893 	 11.087866355367 	
H	 24.409128556232 	 -0.227503405893 	 21.218423075367 	
H	 24.977641586232 	  5.956055544107 	 11.087863525367 	
H	 24.409097456232 	  5.956058354107 	 21.218420245367 	
H	 10.521084445572 	  3.271487769983 	  5.756166792911 	
H	  9.952540315572 	  3.271490579983 	 15.886723512911 	
H	 10.521053345572 	  9.455049529983 	  5.756163962911 	
H	  9.952509215572 	  9.455052339983 	 15.886720682911 	
H	 25.201911745572 	  3.271496999983 	  5.784296722911 	
H	 24.633367615572 	  3.271499809983 	 15.914853442911 	
H	 25.201880645572 	  9.455058759983 	  5.784293892911 	
H	 24.633336515572 	  9.455061569983 	 15.914850612911 	
H	  3.323455777286 	  6.332675272135 	 -0.321430513311 	
H	  2.754911647286 	  6.332678082135 	  9.809126206689 	
H	  3.323424677286 	 12.516237032135 	 -0.321433343311 	
H	  2.754880547286 	 12.516239842135 	  9.809123376689 	
H	 18.004283077286 	  6.332684502135 	 -0.293300583311 	
H	 17.435738947286 	  6.332687312135 	  9.837256136689 	
H	 18.004251977286 	 12.516246262135 	 -0.293303413311 	
H	 17.435707847286 	 12.516249072135 	  9.837253306689 	
H	  1.413504654759 	  2.553905702479 	  4.745941386230 	
H	  0.844960524759 	  2.553908512479 	 14.876498106230 	
H	  1.413473554759 	  8.737467462479 	  4.745938556230 	
H	  0.844929424759 	  8.737470272479 	 14.876495276230 	
H	 16.094331954759 	  2.553914932479 	  4.774071316230 	
H	 15.525787824759 	  2.553917742479 	 14.904628036230 	
H	 16.094300854759 	  8.737476692479 	  4.774068486230 	
H	 15.525756724759 	  8.737479502479 	 14.904625206230 	
H	 12.514012685754 	 -0.492934724437 	  0.761451467410 	
H	 11.945468555754 	 -0.492931914437 	 10.892008187410 	
H	 12.513981585754 	  5.690627035563 	  0.761448637410 	
H	 11.945437455754 	  5.690629845563 	 10.892005357410 	
H	 27.194839985754 	 -0.492925494437 	  0.789581397410 	
H	 26.626295855754 	 -0.492922684437 	 10.920138117410 	
H	 27.194808885754 	  5.690636265563 	  0.789578567410 	
H	 26.626264755754 	  5.690639075563 	 10.920135287410 	
H	 12.206796203248 	  3.551253686525 	  5.992364320422 	
H	 11.638252073248 	  3.551256496525 	 16.122921040422 	
H	 12.206765103248 	  9.734815446525 	  5.992361490422 	
H	 11.638220973248 	  9.734818256525 	 16.122918210422 	
H	 26.887623503248 	  3.551262916525 	  6.020494250422 	
H	 26.319079373248 	  3.551265726525 	 16.151050970422 	
H	 26.887592403248 	  9.734824676525 	  6.020491420422 	
H	 26.319048273248 	  9.734827486525 	 16.151048140422 	
H	  1.106288267483 	  6.598094559250 	  9.976855259278 	
H	  0.537744137483 	  6.598097369250 	 20.107411979278 	
H	  1.106257167483 	 12.781656319250 	  9.976852429278 	
H	  0.537713037483 	 12.781659129250 	 20.107409149278 	
H	 15.787115567483 	  6.598103789250 	 10.004985189278 	
H	 15.218571437483 	  6.598106599250 	 20.135541909278 	
H	 15.787084467483 	 12.781665549250 	 10.004982359278 	
H	 15.218540337483 	 12.781668359250 	 20.135539079278 	
H	  2.472496977143 	  1.368530635506 	  5.373177577106 	
H	  1.903952847143 	  1.368533445506 	 15.503734297106 	
H	  2.472465877143 	  7.552092395506 	  5.373174747106 	
H	  1.903921747143 	  7.552095205506 	 15.503731467106 	
H	 17.153324277143 	  1.368539865506 	  5.401307507106 	
H	 16.584780147143 	  1.368542675506 	 15.531864227106 	
H	 17.153293177143 	  7.552101625506 	  5.401304677106 	
H	 16.584749047143 	  7.552104435506 	 15.531861397106 	
H	 11.304195384900 	  4.261381181997 	  0.082545482174 	
H	 10.735651254900 	  4.261383991997 	 10.213102202174 	
H	 11.304164284900 	 10.444942941997 	  0.082542652174 	
H	 10.735620154900 	 10.444945751997 	 10.213099372174 	
H	 25.985022684900 	  4.261390411997 	  0.110675412174 	
H	 25.416478554900 	  4.261393221997 	 10.241232132174 	
H	 25.984991584900 	 10.444952171997 	  0.110672582174 	
H	 25.416447454900 	 10.444954981997 	 10.241229302174 	
H	 11.147801989857 	  4.736627927462 	  5.365128991324 	
H	 10.579257859857 	  4.736630737462 	 15.495685711324 	
H	 11.147770889857 	 10.920189687462 	  5.365126161324 	
H	 10.579226759857 	 10.920192497462 	 15.495682881324 	
H	 25.828629289857 	  4.736637157462 	  5.393258921324 	
H	 25.260085159857 	  4.736639967462 	 15.523815641324 	
H	 25.828598189857 	 10.920198917462 	  5.393256091324 	
H	 25.260054059857 	 10.920201727462 	 15.523812811324 	
H	  2.316105945983 	  1.843778653921 	 10.655761115946 	
H	  1.747561815983 	  1.843781463921 	 20.786317835946 	
H	  2.316074845983 	  8.027340413921 	 10.655758285946 	
H	  1.747530715983 	  8.027343223921 	 20.786315005946 	
H	 16.996933245983 	  1.843787883921 	 10.683891045946 	
H	 16.428389115983 	  1.843790693921 	 20.814447765946 	
H	 16.996902145983 	  8.027349643921 	 10.683888215946 	
H	 16.428358015983 	  8.027352453921 	 20.814444935946 	
C	  1.629996141700 	  4.006958063968 	  6.618433132097 	
C	  1.061452011700 	  4.006960873968 	 16.748989852097 	
C	  1.629965041700 	 10.190519823968 	  6.618430302097 	
C	  1.061420911700 	 10.190522633968 	 16.748987022097 	
C	 16.310823441700 	  4.006967293968 	  6.646563062097 	
C	 15.742279311700 	  4.006970103968 	 16.777119782097 	
C	 16.310792341700 	 10.190529053968 	  6.646560232097 	
C	 15.742248211700 	 10.190531863968 	 16.777116952097 	
C	 11.839402839035 	  1.088353924443 	  9.432885576280 	
C	 11.270858709035 	  1.088356734443 	 19.563442296280 	
C	 11.839371739035 	  7.271915684443 	  9.432882746280 	
C	 11.270827609035 	  7.271918494443 	 19.563439466280 	
C	 26.520230139035 	  1.088363154443 	  9.461015506280 	
C	 25.951686009035 	  1.088365964443 	 19.591572226280 	
C	 26.520199039035 	  7.271924914443 	  9.461012676280 	
C	 25.951654909035 	  7.271927724443 	 19.591569396280 	
C	 11.990306720014 	  2.098201594810 	  4.119870838651 	
C	 11.421762590014 	  2.098204404810 	 14.250427558651 	
C	 11.990275620014 	  8.281763354810 	  4.119868008651 	
C	 11.421731490014 	  8.281766164810 	 14.250424728651 	
C	 26.671134020014 	  2.098210824810 	  4.148000768651 	
C	 26.102589890014 	  2.098213634810 	 14.278557488651 	
C	 26.671102920014 	  8.281772584810 	  4.147997938651 	
C	 26.102558790014 	  8.281775394810 	 14.278554658651 	
C	  1.780898941064 	  5.016805603037 	  1.305420744064 	
C	  1.212354811064 	  5.016808413037 	 11.435977464064 	
C	  1.780867841064 	 11.200367363037 	  1.305417914064 	
C	  1.212323711064 	 11.200370173037 	 11.435974634064 	
C	 16.461726241064 	  5.016814833037 	  1.333550674064 	
C	 15.893182111064 	  5.016817643037 	 11.464107394064 	
C	 16.461695141064 	 11.200376593037 	  1.333547844064 	
C	 15.893151011064 	 11.200379403037 	 11.464104564064 	
H	  2.358463149902 	  4.812666767881 	  6.280120692401 	
H	  1.789919019902 	  4.812669577881 	 16.410677412401 	
H	  2.358432049902 	 10.996228527881 	  6.280117862401 	
H	  1.789887919902 	 10.996231337881 	 16.410674582401 	
H	 17.039290449902 	  4.812675997881 	  6.308250622401 	
H	 16.470746319902 	  4.812678807881 	 16.438807342401 	
H	 17.039259349902 	 10.996237757881 	  6.308247792401 	
H	 16.470715219902 	 10.996240567881 	 16.438804512401 	
H	 11.028085526432 	  1.770286063564 	  9.772204254784 	
H	 10.459541396432 	  1.770288873564 	 19.902760974784 	
H	 11.028054426432 	  7.953847823564 	  9.772201424784 	
H	 10.459510296432 	  7.953850633564 	 19.902758144784 	
H	 25.708912826432 	  1.770295293564 	  9.800334184784 	
H	 25.140368696432 	  1.770298103564 	 19.930890904784 	
H	 25.708881726432 	  7.953857053564 	  9.800331354784 	
H	 25.140337596432 	  7.953859863564 	 19.930888074784 	
H	 11.261840202872 	  1.292492028651 	  4.458182276096 	
H	 10.693296072872 	  1.292494838651 	 14.588738996096 	
H	 11.261809102872 	  7.476053788651 	  4.458179446096 	
H	 10.693264972872 	  7.476056598651 	 14.588736166096 	
H	 25.942667502872 	  1.292501258651 	  4.486312206096 	
H	 25.374123372872 	  1.292504068651 	 14.616868926096 	
H	 25.942636402872 	  7.476063018651 	  4.486309376096 	
H	 25.374092272872 	  7.476065828651 	 14.616866096096 	
H	  2.592216172464 	  4.334873609537 	  0.966101557649 	
H	  2.023672042464 	  4.334876419537 	 11.096658277649 	
H	  2.592185072464 	 10.518435369537 	  0.966098727649 	
H	  2.023640942464 	 10.518438179537 	 11.096655447649 	
H	 17.273043472464 	  4.334882839537 	  0.994231487649 	
H	 16.704499342464 	  4.334885649537 	 11.124788207649 	
H	 17.273012372464 	 10.518444599537 	  0.994228657649 	
H	 16.704468242464 	 10.518447409537 	 11.124785377649 	
H	  1.338272285083 	  4.576666650157 	  7.560199742109 	
H	  0.769728155083 	  4.576669460157 	 17.690756462109 	
H	  1.338241185083 	 10.760228410157 	  7.560196912109 	
H	  0.769697055083 	 10.760231220157 	 17.690753632109 	
H	 16.019099585083 	  4.576675880157 	  7.588329672109 	
H	 15.450555455083 	  4.576678690157 	 17.718886392109 	
H	 16.019068485083 	 10.760237640157 	  7.588326842109 	
H	 15.450524355083 	 10.760240450157 	 17.718883562109 	
H	 12.054069182418 	  7.601714976499 	  8.498291089829 	
H	 11.485525052418 	  7.601717786499 	 18.628847809829 	
H	 12.054038082418 	 13.785276736499 	  8.498288259829 	
H	 11.485493952418 	 13.785279546499 	 18.628844979829 	
H	 26.734896482418 	  7.601724206499 	  8.526421019829 	
H	 26.166352352418 	  7.601727016499 	 18.656977739829 	
H	 26.734865382418 	 13.785285966499 	  8.526418189829 	
H	 26.166321252418 	 13.785288776499 	 18.656974909829 	
H	 12.282031828085 	  1.528494500843 	  3.178103730804 	
H	 11.713487698085 	  1.528497310843 	 13.308660450804 	
H	 12.282000728085 	  7.712056260843 	  3.178100900804 	
H	 11.713456598085 	  7.712059070843 	 13.308657620804 	
H	 26.962859128085 	  1.528503730843 	  3.206233660804 	
H	 26.394314998085 	  1.528506540843 	 13.336790380804 	
H	 26.962828028085 	  7.712065490843 	  3.206230830804 	
H	 26.394283898085 	  7.712068300843 	 13.336787550804 	
H	  1.566233160057 	 -1.496555619013 	  2.240015327322 	
H	  0.997689030057 	 -1.496552809013 	 12.370572047322 	
H	  1.566202060057 	  4.687006140987 	  2.240012497322 	
H	  0.997657930057 	  4.687008950987 	 12.370569217322 	
H	 16.247060460057 	 -1.496546389013 	  2.268145257322 	
H	 15.678516330057 	 -1.496543579013 	 12.398701977322 	
H	 16.247029360057 	  4.687015370987 	  2.268142427322 	
H	 15.678485230057 	  4.687018180987 	 12.398699147322 	
H	  0.744637790711 	  4.245783947819 	  5.955590558015 	
H	  0.176093660711 	  4.245786757819 	 16.086147278015 	
H	  0.744606690711 	 10.429345707819 	  5.955587728015 	
H	  0.176062560711 	 10.429348517819 	 16.086144448015 	
H	 15.425465090711 	  4.245793177819 	  5.983720488015 	
H	 14.856920960711 	  4.245795987819 	 16.114277208015 	
H	 15.425433990711 	 10.429354937819 	  5.983717658015 	
H	 14.856889860711 	 10.429357747819 	 16.114274378015 	
H	 12.631860636019 	  7.285200098067 	 10.079295674606 	
H	 12.063316506019 	  7.285202908067 	 20.209852394606 	
H	 12.631829536019 	 13.468761858067 	 10.079292844606 	
H	 12.063285406019 	 13.468764668067 	 20.209849564606 	
H	 27.312687936019 	  7.285209328067 	 10.107425604606 	
H	 26.744143806019 	  7.285212138067 	 20.237982324606 	
H	 27.312656836019 	 13.468771088067 	 10.107422774606 	
H	 26.744112706019 	 13.468773898067 	 20.237979494606 	
H	 12.875664985006 	  1.859376060875 	  4.782713654921 	
H	 12.307120855006 	  1.859378870875 	 14.913270374921 	
H	 12.875633885006 	  8.042937820875 	  4.782710824921 	
H	 12.307089755006 	  8.042940630875 	 14.913267544921 	
H	 27.556492285006 	  1.859385290875 	  4.810843584921 	
H	 26.987948155006 	  1.859388100875 	 14.941400304921 	
H	 27.556461185006 	  8.042947050875 	  4.810840754921 	
H	 26.987917055006 	  8.042949860875 	 14.941397474921 	
H	  0.988440811769 	 -1.180040614082 	  0.659011074374 	
H	  0.419896681769 	 -1.180037804082 	 10.789567794374 	
H	  0.988409711769 	  5.003521145918 	  0.659008244374 	
H	  0.419865581769 	  5.003523955918 	 10.789564964374 	
H	 15.669268111769 	 -1.180031384082 	  0.687141004374 	
H	 15.100723981769 	 -1.180028574082 	 10.817697724374 	
H	 15.669237011769 	  5.003530375918 	  0.687138174374 	
H	 15.100692881769 	  5.003533185918 	 10.817694894374 	
C	  1.088074756662 	  2.189325892918 	  7.171380257846 	
C	  0.519530626662 	  2.189328702918 	 17.301936977846 	
C	  1.088043656662 	  8.372887652918 	  7.171377427846 	
C	  0.519499526662 	  8.372890462918 	 17.301934147846 	
C	 15.768902056662 	  2.189335122918 	  7.199510187846 	
C	 15.200357926662 	  2.189337932918 	 17.330066907846 	
C	 15.768870956662 	  8.372896882918 	  7.199507357846 	
C	 15.200326826662 	  8.372899692918 	 17.330064077846 	
C	 12.303237147094 	  5.243673634835 	  8.879128282434 	
C	 11.734693017094 	  5.243676444835 	 19.009685002434 	
C	 12.303206047094 	 11.427235394835 	  8.879125452434 	
C	 11.734661917094 	 11.427238204835 	 19.009682172434 	
C	 26.984064447094 	  5.243682864835 	  8.907258212434 	
C	 26.415520317094 	  5.243685674835 	 19.037814932434 	
C	 26.984033347094 	 11.427244624835 	  8.907255382434 	
C	 26.415489217094 	 11.427247434835 	 19.037812102434 	
C	 12.532226709900 	  3.915835932301 	  3.566924985044 	
C	 11.963682579900 	  3.915838742301 	 13.697481705044 	
C	 12.532195609900 	 10.099397692301 	  3.566922155044 	
C	 11.963651479900 	 10.099400502301 	 13.697478875044 	
C	 27.213054009900 	  3.915845162301 	  3.595054915044 	
C	 26.644509879900 	  3.915847972301 	 13.725611635044 	
C	 27.213022909900 	 10.099406922301 	  3.595052085044 	
C	 26.644478779900 	 10.099409732301 	 13.725608805044 	
C	  1.317064578609 	  0.861485670088 	  1.859178444301 	
C	  0.748520448609 	  0.861488480088 	 11.989735164301 	
C	  1.317033478609 	  7.045047430088 	  1.859175614301 	
C	  0.748489348609 	  7.045050240088 	 11.989732334301 	
C	 15.997891878609 	  0.861494900088 	  1.887308374301 	
C	 15.429347748609 	  0.861497710088 	 12.017865094301 	
C	 15.997860778609 	  7.045056660088 	  1.887305544301 	
C	 15.429316648609 	  7.045059470088 	 12.017862264301 	
H	  0.067258555975 	  2.144193855422 	  6.682915588384 	
H	 -0.501285574025 	  2.144196665422 	 16.813472308384 	
H	  0.067227455975 	  8.327755615422 	  6.682912758384 	
H	 -0.501316674025 	  8.327758425422 	 16.813469478384 	
H	 14.748085855975 	  2.144203085422 	  6.711045518384 	
H	 14.179541725975 	  2.144205895422 	 16.841602238384 	
H	 14.748054755975 	  8.327764845422 	  6.711042688384 	
H	 14.179510625975 	  8.327767655422 	 16.841599408384 	
H	 13.325124136345 	  5.196860560759 	  9.366470221251 	
H	 12.756580006345 	  5.196863370759 	 19.497026941251 	
H	 13.325093036345 	 11.380422320759 	  9.366467391251 	
H	 12.756548906345 	 11.380425130759 	 19.497024111251 	
H	 28.005951436345 	  5.196869790759 	  9.394600151251 	
H	 27.437407306345 	  5.196872600759 	 19.525156871251 	
H	 28.005920336345 	 11.380431550759 	  9.394597321251 	
H	 27.437376206345 	 11.380434360759 	 19.525154041251 	
H	 13.553042834665 	  3.960967985658 	  4.055389826893 	
H	 12.984498704665 	  3.960970795658 	 14.185946546893 	
H	 13.553011734665 	 10.144529745658 	  4.055386996893 	
H	 12.984467604665 	 10.144532555658 	 14.185943716893 	
H	 28.233870134665 	  3.960977215658 	  4.083519756893 	
H	 27.665326004665 	  3.960980025658 	 14.214076476893 	
H	 28.233839034665 	 10.144538975658 	  4.083516926893 	
H	 27.665294904665 	 10.144541785658 	 14.214073646893 	
H	  0.295177450226 	  0.908298602560 	  1.371836785243 	
H	 -0.273366679774 	  0.908301412560 	 11.502393505243 	
H	  0.295146350226 	  7.091860362560 	  1.371833955243 	
H	 -0.273397779774 	  7.091863172560 	 11.502390675243 	
H	 14.976004750226 	  0.908307832560 	  1.399966715243 	
H	 14.407460620226 	  0.908310642560 	 11.530523435243 	
H	 14.975973650226 	  7.091869592560 	  1.399963885243 	
H	 14.407429520226 	  7.091872402560 	 11.530520605243 	
H	  0.787768989230 	  2.376480288908 	  8.252708911881 	
H	  0.219224859230 	  2.376483098908 	 18.383265631881 	
H	  0.787737889230 	  8.560042048908 	  8.252706081881 	
H	  0.219193759230 	  8.560044858908 	 18.383262801881 	
H	 15.468596289230 	  2.376489518908 	  8.280838841881 	
H	 14.900052159230 	  2.376492328908 	 18.411395561881 	
H	 15.468565189230 	  8.560051278908 	  8.280836011881 	
H	 14.900021059230 	  8.560054088908 	 18.411392731881 	
H	 12.605106763973 	  5.429934054037 	  7.796958963947 	
H	 12.036562633973 	  5.429936864037 	 17.927515683947 	
H	 12.605075663973 	 11.613495814037 	  7.796956133947 	
H	 12.036531533973 	 11.613498624037 	 17.927512853947 	
H	 27.285934063973 	  5.429943284037 	  7.825088893947 	
H	 26.717389933973 	  5.429946094037 	 17.955645613947 	
H	 27.285902963973 	 11.613505044037 	  7.825086063947 	
H	 26.717358833973 	 11.613507854037 	 17.955642783947 	
H	 12.832532528678 	  3.728682961515 	  2.485596070937 	
H	 12.263988398678 	  3.728685771515 	 12.616152790937 	
H	 12.832501428678 	  9.912244721515 	  2.485593240937 	
H	 12.263957298678 	  9.912247531515 	 12.616149960937 	
H	 27.513359828678 	  3.728692191515 	  2.513726000937 	
H	 26.944815698678 	  3.728695001515 	 12.644282720937 	
H	 27.513328728678 	  9.912253951515 	  2.513723170937 	
H	 26.944784598678 	  9.912256761515 	 12.644279890937 	
H	  1.015195162590 	  0.675224846756 	  2.941347737652 	
H	  0.446651032590 	  0.675227656756 	 13.071904457652 	
H	  1.015164062590 	  6.858786606756 	  2.941344907652 	
H	  0.446619932590 	  6.858789416756 	 13.071901627652 	
H	 15.696022462590 	  0.675234076756 	  2.969477667652 	
H	 15.127478332590 	  0.675236886756 	 13.100034387652 	
H	 15.695991362590 	  6.858795836756 	  2.969474837652 	
H	 15.127447232590 	  6.858798646756 	 13.100031557652 	
H	  1.247954665930 	  1.074691592641 	  7.337388574527 	
H	  0.679410535930 	  1.074694402641 	 17.467945294527 	
H	  1.247923565930 	  7.258253352641 	  7.337385744527 	
H	  0.679379435930 	  7.258256162641 	 17.467942464527 	
H	 15.928781965930 	  1.074700822641 	  7.365518504527 	
H	 15.360237835930 	  1.074703632641 	 17.496075224527 	
H	 15.928750865930 	  7.258262582641 	  7.365515674527 	
H	 15.360206735930 	  7.258265392641 	 17.496072394527 	
H	 12.144629158557 	  4.129391077814 	  8.711927150369 	
H	 11.576085028557 	  4.129393887814 	 18.842483870369 	
H	 12.144598058557 	 10.312952837814 	  8.711924320369 	
H	 11.576053928557 	 10.312955647814 	 18.842481040369 	
H	 26.825456458557 	  4.129400307814 	  8.740057080369 	
H	 26.256912328557 	  4.129403117814 	 18.870613800369 	
H	 26.825425358557 	 10.312962067814 	  8.740054250369 	
H	 26.256881228557 	 10.312964877814 	 18.870610970369 	
H	 12.372345787449 	  5.030470409262 	  3.400918590000 	
H	 11.803801657449 	  5.030473219262 	 13.531475310000 	
H	 12.372314687449 	 11.214032169262 	  3.400915760000 	
H	 11.803770557449 	 11.214034979262 	 13.531472480000 	
H	 27.053173087449 	  5.030479639262 	  3.429048520000 	
H	 26.484628957449 	  5.030482449262 	 13.559605240000 	
H	 27.053141987449 	 11.214041399262 	  3.429045690000 	
H	 26.484597857449 	 11.214044209262 	 13.559602410000 	
H	  1.475672423705 	  1.975768179433 	  2.026380103955 	
H	  0.907128293705 	  1.975770989433 	 12.156936823955 	
H	  1.475641323705 	  8.159329939433 	  2.026377273955 	
H	  0.907097193705 	  8.159332749433 	 12.156933993955 	
H	 16.156499723705 	  1.975777409433 	  2.054510033955 	
H	 15.587955593705 	  1.975780219433 	 12.185066753955 	
H	 16.156468623705 	  8.159339169433 	  2.054507203955 	
H	 15.587924493705 	  8.159341979433 	 12.185063923955 	
768 
Energy: -8.6950841641690005e+01 
S	  8.296437121092 	  1.417841907298 	  0.137262619779 	
S	  7.727892991092 	  1.417844717298 	 10.267819339779 	
S	  8.296406021092 	  7.601403667298 	  0.137259789779 	
S	  7.727861891092 	  7.601406477298 	 10.267816509779 	
S	 22.977264421092 	  1.417851137298 	  0.165392549779 	
S	 22.408720291092 	  1.417853947298 	 10.295949269779 	
S	 22.977233321092 	  7.601412897298 	  0.165389719779 	
S	 22.408689191092 	  7.601415707298 	 10.295946439779 	
S	  5.488630189732 	  4.464627007163 	  5.327842725595 	
S	  4.920086059732 	  4.464629817163 	 15.458399445595 	
S	  5.488599089732 	 10.648188767163 	  5.327839895595 	
S	  4.920054959732 	 10.648191577163 	 15.458396615595 	
S	 20.169457489732 	  4.464636237163 	  5.355972655595 	
S	 19.600913359732 	  4.464639047163 	 15.486529375595 	
S	 20.169426389732 	 10.648197997163 	  5.355969825595 	
S	 19.600882259732 	 10.648200807163 	 15.486526545595 	
S	  5.270310029449 	  4.678781036987 	 10.664141692479 	
S	  4.701765899449 	  4.678783846987 	 20.794698412479 	
S	  5.270278929449 	 10.862342796987 	 10.664138862479 	
S	  4.701734799449 	 10.862345606987 	 20.794695582479 	
S	 19.951137329449 	  4.678790266987 	 10.692271622479 	
S	 19.382593199449 	  4.678793076987 	 20.822828342479 	
S	 19.951106229449 	 10.862352026987 	 10.692268792479 	
S	 19.382562099449 	 10.862354836987 	 20.822825512479 	
S	  8.078118428333 	  1.631995884246 	  5.473561120332 	
S	  7.509574298333 	  1.631998694246 	 15.604117840332 	
S	  8.078087328333 	  7.815557644246 	  5.473558290332 	
S	  7.509543198333 	  7.815560454246 	 15.604115010332 	
S	 22.758945728333 	  1.632005114246 	  5.501691050332 	
S	 22.190401598333 	  1.632007924246 	 15.632247770332 	
S	 22.758914628333 	  7.815566874246 	  5.501688220332 	
S	 22.190370498333 	  7.815569684246 	 15.632244940332 	
C	  6.530029550938 	  2.536960911421 	 10.360347914511 	
C	  5.961485420938 	  2.536963721421 	 20.490904634511 	
C	  6.529998450938 	  8.720522671421 	 10.360345084511 	
C	  5.961454320938 	  8.720525481421 	 20.490901804511 	
C	 21.210856850938 	  2.536970141421 	 10.388477844511 	
C	 20.642312720938 	  2.536972951421 	 20.519034564511 	
C	 21.210825750938 	  8.720531901421 	 10.388475014511 	
C	 20.642281620938 	  8.720534711421 	 20.519031734511 	
C	  6.821090573213 	  5.536199627004 	  5.811961709290 	
C	  6.252546443213 	  5.536202437004 	 15.942518429290 	
C	  6.821059473213 	 11.719761387004 	  5.811958879290 	
C	  6.252515343213 	 11.719764197004 	 15.942515599290 	
C	 21.501917873213 	  5.536208857004 	  5.840091639290 	
C	 20.933373743213 	  5.536211667004 	 15.970648359290 	
C	 21.501886773213 	 11.719770617004 	  5.840088809290 	
C	 20.933342643213 	 11.719773427004 	 15.970645529290 	
C	  7.036717601434 	  3.559662030649 	  0.441056199296 	
C	  6.468173471434 	  3.559664840649 	 10.571612919296 	
C	  7.036686501434 	  9.743223790649 	  0.441053369296 	
C	  6.468142371434 	  9.743226600649 	 10.571610089296 	
C	 21.717544901434 	  3.559671260649 	  0.469186129296 	
C	 21.149000771434 	  3.559674070649 	 10.599742849296 	
C	 21.717513801434 	  9.743233020649 	  0.469183299296 	
C	 21.148969671434 	  9.743235830649 	 10.599740019296 	
C	  6.745657882994 	  0.560423310854 	  4.989441946694 	
C	  6.177113752994 	  0.560426120854 	 15.119998666694 	
C	  6.745626782994 	  6.743985070854 	  4.989439116694 	
C	  6.177082652994 	  6.743987880854 	 15.119995836694 	
C	 21.426485182994 	  0.560432540854 	  5.017571876694 	
C	 20.857941052994 	  0.560435350854 	 15.148128596694 	
C	 21.426454082994 	  6.743994300854 	  5.017569046694 	
C	 20.857909952994 	  6.743997110854 	 15.148125766694 	
C	  5.513380379046 	  2.412016709893 	  9.368861579291 	
C	  4.944836249046 	  2.412019519893 	 19.499418299291 	
C	  5.513349279046 	  8.595578469893 	  9.368858749291 	
C	  4.944805149046 	  8.595581279893 	 19.499415469291 	
C	 20.194207679046 	  2.412025939893 	  9.396991509291 	
C	 19.625663549046 	  2.412028749893 	 19.527548229291 	
C	 20.194176579046 	  8.595587699893 	  9.396988679291 	
C	 19.625632449046 	  8.595590509893 	 19.527545399291 	
C	  7.828627867174 	  5.449369049705 	  6.768662949919 	
C	  7.260083737174 	  5.449371859705 	 16.899219669919 	
C	  7.828596767174 	 11.632930809705 	  6.768660119919 	
C	  7.260052637174 	 11.632933619705 	 16.899216839919 	
C	 22.509455167174 	  5.449378279705 	  6.796792879919 	
C	 21.940911037174 	  5.449381089705 	 16.927349599919 	
C	 22.509424067174 	 11.632940039705 	  6.796790049919 	
C	 21.940879937174 	 11.632942849705 	 16.927346769919 	
C	  8.053366754441 	  3.684606317740 	  1.432542516057 	
C	  7.484822624441 	  3.684609127740 	 11.563099236057 	
C	  8.053335654441 	  9.868168077740 	  1.432539686057 	
C	  7.484791524441 	  9.868170887740 	 11.563096406057 	
C	 22.734194054441 	  3.684615547740 	  1.460672446057 	
C	 22.165649924441 	  3.684618357740 	 11.591229166057 	
C	 22.734162954441 	  9.868177307740 	  1.460669616057 	
C	 22.165618824441 	  9.868180117740 	 11.591226336057 	
C	  5.738120357274 	  0.647253958244 	  4.032741001217 	
C	  5.169576227274 	  0.647256768244 	 14.163297721217 	
C	  5.738089257274 	  6.830815718244 	  4.032738171217 	
C	  5.169545127274 	  6.830818528244 	 14.163294891217 	
C	 20.418947657274 	  0.647263188244 	  4.060870931217 	
C	 19.850403527274 	  0.647265998244 	 14.191427651217 	
C	 20.418916557274 	  6.830824948244 	  4.060868101217 	
C	 19.850372427274 	  6.830827758244 	 14.191424821217 	
C	  4.692666342802 	  3.519215046339 	  9.388786634185 	
C	  4.124122212801 	  3.519217856339 	 19.519343354185 	
C	  4.692635242801 	  9.702776806339 	  9.388783804185 	
C	  4.124091112801 	  9.702779616339 	 19.519340524185 	
C	 19.373493642801 	  3.519224276339 	  9.416916564185 	
C	 18.804949512801 	  3.519227086339 	 19.547473284185 	
C	 19.373462542801 	  9.702786036339 	  9.416913734185 	
C	 18.804918412801 	  9.702788846339 	 19.547470454185 	
C	  8.656468330219 	  0.479848983519 	  6.749865002377 	
C	  8.087924200219 	  0.479851793519 	 16.880421722377 	
C	  8.656437230219 	  6.663410743519 	  6.749862172377 	
C	  8.087893100219 	  6.663413553519 	 16.880418892377 	
C	 23.337295630219 	  0.479858213519 	  6.777994932377 	
C	 22.768751500219 	  0.479861023519 	 16.908551652377 	
C	 23.337264530219 	  6.663419973519 	  6.777992102377 	
C	 22.768720400219 	  6.663422783519 	 16.908548822377 	
C	  8.874080773932 	  2.577407897384 	  1.412617459036 	
C	  8.305536643932 	  2.577410707384 	 11.543174179036 	
C	  8.874049673932 	  8.760969657384 	  1.412614629036 	
C	  8.305505543932 	  8.760972467384 	 11.543171349036 	
C	 23.554908073932 	  2.577417127384 	  1.440747389036 	
C	 22.986363943932 	  2.577419937384 	 11.571304109036 	
C	 23.554876973932 	  8.760978887384 	  1.440744559036 	
C	 22.986332843932 	  8.760981697384 	 11.571301279036 	
C	  4.910279957951 	  5.616773995774 	  4.051539176243 	
C	  4.341735827951 	  5.616776805774 	 14.182095896243 	
C	  4.910248857951 	 11.800335755774 	  4.051536346243 	
C	  4.341704727951 	 11.800338565774 	 14.182093066243 	
C	 19.591107257951 	  5.616783225774 	  4.079669106243 	
C	 19.022563127951 	  5.616786035774 	 14.210225826243 	
C	 19.591076157951 	 11.800344985774 	  4.079666276243 	
C	 19.022532027951 	 11.800347795774 	 14.210222996243 	
C	  3.661130686278 	  3.671707647359 	  8.588916723827 	
C	  3.092586556278 	  3.671710457359 	 18.719473443827 	
C	  3.661099586278 	  9.855269407359 	  8.588913893827 	
C	  3.092555456278 	  9.855272217359 	 18.719470613827 	
C	 18.341957986278 	  3.671716877359 	  8.617046653827 	
C	 17.773413856278 	  3.671719687359 	 18.747603373827 	
C	 18.341926886278 	  9.855278637359 	  8.617043823827 	
C	 17.773382756278 	  9.855281447359 	 18.747600543827 	
C	  9.680086681205 	  0.634321552875 	  7.541789263585 	
C	  9.111542551205 	  0.634324362875 	 17.672345983585 	
C	  9.680055581205 	  6.817883312875 	  7.541786433585 	
C	  9.111511451205 	  6.817886122875 	 17.672343153585 	
C	 24.360913981205 	  0.634330782875 	  7.569919193585 	
C	 23.792369851205 	  0.634333592875 	 17.700475913585 	
C	 24.360882881205 	  6.817892542875 	  7.569916363585 	
C	 23.792338751205 	  6.817895352875 	 17.700473083585 	
C	  9.905616453817 	  2.424915479118 	  2.212487614027 	
C	  9.337072323817 	  2.424918289118 	 12.343044334027 	
C	  9.905585353817 	  8.608477239118 	  2.212484784027 	
C	  9.337041223817 	  8.608480049118 	 12.343041504027 	
C	 24.586443753817 	  2.424924709118 	  2.240617544027 	
C	 24.017899623817 	  2.424927519118 	 12.371174264027 	
C	 24.586412653817 	  8.608486469118 	  2.240614714027 	
C	 24.017868523817 	  8.608489279118 	 12.371171434027 	
C	  3.886661106585 	  5.462301541054 	  3.259615444828 	
C	  3.318116976585 	  5.462304351054 	 13.390172164828 	
C	  3.886630006585 	 11.645863301054 	  3.259612614828 	
C	  3.318085876585 	 11.645866111054 	 13.390169334828 	
C	 18.567488406585 	  5.462310771054 	  3.287745374828 	
C	 17.998944276585 	  5.462313581054 	 13.418302094828 	
C	 18.567457306585 	 11.645872531054 	  3.287742544828 	
C	 17.998913176585 	 11.645875341054 	 13.418299264828 	
H	  3.031944300769 	  4.624573602496 	  8.662005470069 	
H	  2.463400170769 	  4.624576412496 	 18.792562190069 	
H	  3.031913200769 	 10.808135362496 	  8.662002640069 	
H	  2.463369070769 	 10.808138172496 	 18.792559360069 	
H	 17.712771600769 	  4.624582832496 	  8.690135400069 	
H	 17.144227470769 	  4.624585642496 	 18.820692120069 	
H	 17.712740500769 	 10.808144592496 	  8.690132570069 	
H	 17.144196370769 	 10.808147402496 	 18.820689290069 	
H	 10.314549018211 	  1.574516238402 	  7.477505453197 	
H	  9.746004888211 	  1.574519048402 	 17.608062173197 	
H	 10.314517918211 	  7.758077998402 	  7.477502623197 	
H	  9.745973788211 	  7.758080808402 	 17.608059343197 	
H	 24.995376318211 	  1.574525468402 	  7.505635383197 	
H	 24.426832188211 	  1.574528278402 	 17.636192103197 	
H	 24.995345218211 	  7.758087228402 	  7.505632553197 	
H	 24.426801088211 	  7.758090038402 	 17.636189273197 	
H	 10.534802723418 	  1.472049424003 	  2.139399116621 	
H	  9.966258593418 	  1.472052234003 	 12.269955836621 	
H	 10.534771623418 	  7.655611184003 	  2.139396286621 	
H	  9.966227493418 	  7.655613994003 	 12.269953006621 	
H	 25.215630023418 	  1.472058654003 	  2.167529046621 	
H	 24.647085893418 	  1.472061464003 	 12.298085766621 	
H	 25.215598923418 	  7.655620414003 	  2.167526216621 	
H	 24.647054793418 	  7.655623224003 	 12.298082936621 	
H	  3.252198885973 	  4.522106801198 	  3.323899469846 	
H	  2.683654755973 	  4.522109611198 	 13.454456189846 	
H	  3.252167785973 	 10.705668561198 	  3.323896639846 	
H	  2.683623655973 	 10.705671371198 	 13.454453359846 	
H	 17.933026185973 	  4.522116031198 	  3.352029399846 	
H	 17.364482055973 	  4.522118841198 	 13.482586119846 	
H	 17.932995085973 	 10.705677791198 	  3.352026569846 	
H	 17.364450955973 	 10.705680601198 	 13.482583289846 	
C	  3.335135050740 	  2.748435867372 	  7.686934285478 	
C	  2.766590920740 	  2.748438677372 	 17.817491005478 	
C	  3.335103950740 	  8.931997627372 	  7.686931455478 	
C	  2.766559820740 	  8.932000437372 	 17.817488175478 	
C	 18.015962350740 	  2.748445097372 	  7.715064215478 	
C	 17.447418220740 	  2.748447907372 	 17.845620935478 	
C	 18.015931250740 	  8.932006857372 	  7.715061385478 	
C	 17.447387120740 	  8.932009667372 	 17.845618105478 	
C	 10.014875471299 	  5.784662449022 	  8.457616966107 	
C	  9.446331341299 	  5.784665259022 	 18.588173686107 	
C	 10.014844371299 	 11.968224209022 	  8.457614136107 	
C	  9.446300241299 	 11.968227019022 	 18.588170856107 	
C	 24.695702771299 	  5.784671679022 	  8.485746896107 	
C	 24.127158641299 	  5.784674489022 	 18.616303616107 	
C	 24.695671671299 	 11.968233439022 	  8.485744066107 	
C	 24.127127541299 	 11.968236249022 	 18.616300786107 	
C	 10.231611964359 	  3.348187392917 	  3.114469721902 	
C	  9.663067834359 	  3.348190202917 	 13.245026441902 	
C	 10.231580864359 	  9.531749152917 	  3.114466891902 	
C	  9.663036734359 	  9.531751962917 	 13.245023611902 	
C	 24.912439264359 	  3.348196622917 	  3.142599651902 	
C	 24.343895134359 	  3.348199432917 	 13.273156371902 	
C	 24.912408164359 	  9.531758382917 	  3.142596821902 	
C	 24.343864034359 	  9.531761192917 	 13.273153541902 	
C	  3.551871834073 	  0.311960774668 	  2.343788019825 	
C	  2.983327704073 	  0.311963584668 	 12.474344739825 	
C	  3.551840734073 	  6.495522534668 	  2.343785189825 	
C	  2.983296604073 	  6.495525344668 	 12.474341909825 	
C	 18.232699134073 	  0.311970004668 	  2.371917949825 	
C	 17.664155004073 	  0.311972814668 	 12.502474669825 	
C	 18.232668034073 	  6.495531764668 	  2.371915119825 	
C	 17.664123904073 	  6.495534574668 	 12.502471839825 	
C	  4.153048214109 	  1.649854270288 	  7.637224129561 	
C	  3.584504084109 	  1.649857080288 	 17.767780849561 	
C	  4.153017114109 	  7.833416030288 	  7.637221299561 	
C	  3.584472984109 	  7.833418840288 	 17.767778019561 	
C	 18.833875514109 	  1.649863500288 	  7.665354059561 	
C	 18.265331384109 	  1.649866310288 	 17.795910779561 	
C	 18.833844414109 	  7.833425260288 	  7.665351229561 	
C	 18.265300284109 	  7.833428070288 	 17.795907949561 	
C	  9.194002495221 	  4.699931589147 	  8.500067822210 	
C	  8.625458365221 	  4.699934399147 	 18.630624542210 	
C	  9.193971395221 	 10.883493349147 	  8.500064992210 	
C	  8.625427265221 	 10.883496159147 	 18.630621712210 	
C	 23.874829795221 	  4.699940819147 	  8.528197752210 	
C	 23.306285665221 	  4.699943629147 	 18.658754472210 	
C	 23.874798695221 	 10.883502579147 	  8.528194922210 	
C	 23.306254565221 	 10.883505389147 	 18.658751642210 	
C	  9.413698905074 	  4.446769090846 	  3.164179684326 	
C	  8.845154775074 	  4.446771900846 	 13.294736404326 	
C	  9.413667805074 	 10.630330850846 	  3.164176854326 	
C	  8.845123675074 	 10.630333660846 	 13.294733574326 	
C	 24.094526205074 	  4.446778320846 	  3.192309614326 	
C	 23.525982075074 	  4.446781130846 	 13.322866334326 	
C	 24.094495105074 	 10.630340080846 	  3.192306784326 	
C	 23.525950975074 	 10.630342890846 	 13.322863504326 	
C	  4.372744790046 	  1.396691534293 	  2.301336793343 	
C	  3.804200660046 	  1.396694344293 	 12.431893513343 	
C	  4.372713690046 	  7.580253294293 	  2.301333963343 	
C	  3.804169560046 	  7.580256104293 	 12.431890683343 	
C	 19.053572090046 	  1.396700764293 	  2.329466723343 	
C	 18.485027960046 	  1.396703574293 	 12.460023443343 	
C	 19.053540990046 	  7.580262524293 	  2.329463893343 	
C	 18.484996860046 	  7.580265334293 	 12.460020613343 	
H	  3.918806700229 	  0.851685636666 	  6.853734433021 	
H	  3.350262570229 	  0.851688446666 	 16.984291153021 	
H	  3.918775600229 	  7.035247396666 	  6.853731603021 	
H	  3.350231470229 	  7.035250206666 	 16.984288323021 	
H	 18.599634000229 	  0.851694866666 	  6.881864363021 	
H	 18.031089870229 	  0.851697676666 	 17.012421083021 	
H	 18.599602900229 	  7.035256626666 	  6.881861533021 	
H	 18.031058770229 	  7.035259436666 	 17.012418253021 	
H	  9.429270284996 	  3.901776035346 	  9.285761143551 	
H	  8.860726154996 	  3.901778845346 	 19.416317863551 	
H	  9.429239184996 	 10.085337795346 	  9.285758313551 	
H	  8.860695054996 	 10.085340605346 	 19.416315033551 	
H	 24.110097584996 	  3.901785265346 	  9.313891073551 	
H	 23.541553454996 	  3.901788075346 	 19.444447793551 	
H	 24.110066484996 	 10.085347025346 	  9.313888243551 	
H	 23.541522354996 	 10.085349835346 	 19.444444963551 	
H	  9.647940582556 	  5.244937929866 	  3.947669130696 	
H	  9.079396452556 	  5.244940739866 	 14.078225850696 	
H	  9.647909482556 	 11.428499689866 	  3.947666300696 	
H	  9.079365352556 	 11.428502499866 	 14.078223020696 	
H	 24.328767882556 	  5.244947159866 	  3.975799060696 	
H	 23.760223752556 	  5.244949969866 	 14.106355780696 	
H	 24.328736782556 	 11.428508919866 	  3.975796230696 	
H	 23.760192652556 	 11.428511729866 	 14.106352950696 	
H	  4.137476584180 	  2.194847241909 	  1.515643748360 	
H	  3.568932454180 	  2.194850051909 	 11.646200468360 	
H	  4.137445484180 	  8.378409001909 	  1.515640918360 	
H	  3.568901354180 	  8.378411811909 	 11.646197638360 	
H	 18.818303884180 	  2.194856471909 	  1.543773678360 	
H	 18.249759754180 	  2.194859281909 	 11.674330398360 	
H	 18.818272784180 	  8.378418231909 	  1.543770848360 	
H	 18.249728654180 	  8.378421041909 	 11.674327568360 	
C	  5.163941871625 	  1.484462803016 	  8.410734112643 	
C	  4.595397741625 	  1.484465613016 	 18.541290832643 	
C	  5.163910771625 	  7.668024563016 	  8.410731282643 	
C	  4.595366641625 	  7.668027373016 	 18.541288002643 	
C	 19.844769171625 	  1.484472033016 	  8.438864042643 	
C	 19.276225041625 	  1.484474843016 	 18.569420762643 	
C	 19.844738071625 	  7.668033793016 	  8.438861212643 	
C	 19.276193941625 	  7.668036603016 	 18.569417932643 	
C	  8.182614252938 	  4.534558678142 	  7.726040597445 	
C	  7.614070122938 	  4.534561488142 	 17.856597317445 	
C	  8.182583152938 	 10.718120438142 	  7.726037767445 	
C	  7.614039022938 	 10.718123248142 	 17.856594487445 	
C	 22.863441552938 	  4.534567908142 	  7.754170527445 	
C	 22.294897422938 	  4.534570718142 	 17.884727247445 	
C	 22.863410452938 	 10.718129668142 	  7.754167697445 	
C	 22.294866322938 	 10.718132478142 	 17.884724417445 	
C	  8.402805267572 	  4.612160415136 	  2.390669704898 	
C	  7.834261137572 	  4.612163225136 	 12.521226424898 	
C	  8.402774167572 	 10.795722175136 	  2.390666874898 	
C	  7.834230037572 	 10.795724985136 	 12.521223594898 	
C	 23.083632567572 	  4.612169645136 	  2.418799634898 	
C	 22.515088437572 	  4.612172455136 	 12.549356354898 	
C	 23.083601467572 	 10.795731405136 	  2.418796804898 	
C	 22.515057337572 	 10.795734215136 	 12.549353524898 	
C	  5.384133435786 	  1.562064386930 	  3.075363548229 	
C	  4.815589305786 	  1.562067196930 	 13.205920268229 	
C	  5.384102335786 	  7.745626146930 	  3.075360718229 	
C	  4.815558205786 	  7.745628956930 	 13.205917438229 	
C	 20.064960735786 	  1.562073616930 	  3.103493478229 	
C	 19.496416605786 	  1.562076426930 	 13.234050198229 	
C	 20.064929635786 	  7.745635376930 	  3.103490648229 	
C	 19.496385505786 	  7.745638186930 	 13.234047368229 	
H	  5.819690746682 	  0.552607553248 	  8.325478497075 	
H	  5.251146616682 	  0.552610363248 	 18.456035217075 	
H	  5.819659646682 	  6.736169313248 	  8.325475667075 	
H	  5.251115516682 	  6.736172123248 	 18.456032387075 	
H	 20.500518046682 	  0.552616783248 	  8.353608427075 	
H	 19.931973916682 	  0.552619593248 	 18.484165147075 	
H	 20.500486946682 	  6.736178543248 	  8.353605597075 	
H	 19.931942816682 	  6.736181353248 	 18.484162317075 	
H	  7.526782558895 	  3.601515700714 	  7.812246468215 	
H	  6.958238428895 	  3.601518510714 	 17.942803188215 	
H	  7.526751458895 	  9.785077460714 	  7.812243638215 	
H	  6.958207328895 	  9.785080270714 	 17.942800358215 	
H	 22.207609858895 	  3.601524930714 	  7.840376398215 	
H	 21.639065728895 	  3.601527740714 	 17.970933118215 	
H	 22.207578758895 	  9.785086690714 	  7.840373568215 	
H	 21.639034628895 	  9.785089500714 	 17.970930288215 	
H	  7.747056405215 	  5.544015705770 	  2.475925024979 	
H	  7.178512275215 	  5.544018515770 	 12.606481744979 	
H	  7.747025305215 	 11.727577465770 	  2.475922194979 	
H	  7.178481175215 	 11.727580275770 	 12.606478914979 	
H	 22.427883705215 	  5.544024935770 	  2.504054954979 	
H	 21.859339575215 	  5.544027745770 	 12.634611674979 	
H	 22.427852605215 	 11.727586695770 	  2.504052124979 	
H	 21.859308475215 	 11.727589505770 	 12.634608844979 	
H	  6.039965125605 	  2.495107344055 	  2.989157465525 	
H	  5.471420995605 	  2.495110154055 	 13.119714185525 	
H	  6.039934025605 	  8.678669104055 	  2.989154635525 	
H	  5.471389895605 	  8.678671914055 	 13.119711355525 	
H	 20.720792425605 	  2.495116574055 	  3.017287395525 	
H	 20.152248295605 	  2.495119384055 	 13.147844115525 	
H	 20.720761325605 	  8.678678334055 	  3.017284565525 	
H	 20.152217195605 	  8.678681144055 	 13.147841285525 	
C	  2.010312442942 	  2.894000781966 	  6.725676021694 	
C	  1.441768312942 	  2.894003591966 	 16.856232741694 	
C	  2.010281342942 	  9.077562541966 	  6.725673191694 	
C	  1.441737212942 	  9.077565351966 	 16.856229911694 	
C	 16.691139742942 	  2.894010011966 	  6.753805951694 	
C	 16.122595612942 	  2.894012821966 	 16.884362671694 	
C	 16.691108642942 	  9.077571771966 	  6.753803121694 	
C	 16.122564512942 	  9.077574581966 	 16.884359841694 	
C	 11.324897433504 	  5.900298077619 	  9.397304707175 	
C	 10.756353303504 	  5.900300887619 	 19.527861427175 	
C	 11.324866333504 	 12.083859837619 	  9.397301877175 	
C	 10.756322203504 	 12.083862647619 	 19.527858597175 	
C	 26.005724733504 	  5.900307307619 	  9.425434637175 	
C	 25.437180603504 	  5.900310117619 	 19.555991357175 	
C	 26.005693633504 	 12.083869067619 	  9.425431807175 	
C	 25.437149503504 	 12.083871877619 	 19.555988527175 	
C	 11.556434268890 	  3.202622874746 	  4.075728139592 	
C	 10.987890138890 	  3.202625684746 	 14.206284859592 	
C	 11.556403168890 	  9.386184634746 	  4.075725309592 	
C	 10.987859038890 	  9.386187444746 	 14.206282029592 	
C	 26.237261568890 	  3.202632104746 	  4.103858069592 	
C	 25.668717438890 	  3.202634914746 	 14.234414789592 	
C	 26.237230468890 	  9.386193864746 	  4.103855239592 	
C	 25.668686338890 	  9.386196674746 	 14.234411959592 	
C	  2.241849274730 	  0.196325075944 	  1.404100902232 	
C	  1.673305144730 	  0.196327885944 	 11.534657622232 	
C	  2.241818174730 	  6.379886835944 	  1.404098072232 	
C	  1.673274044730 	  6.379889645944 	 11.534654792232 	
C	 16.922676574730 	  0.196334305944 	  1.432230832232 	
C	 16.354132444730 	  0.196337115944 	 11.562787552232 	
C	 16.922645474730 	  6.379896065944 	  1.432228002232 	
C	 16.354101344730 	  6.379898875944 	 11.562784722232 	
C	  2.227584151100 	  2.348333290440 	  5.524412361504 	
C	  1.659040021100 	  2.348336100440 	 15.654969081504 	
C	  2.227553051100 	  8.531895050440 	  5.524409531504 	
C	  1.659008921100 	  8.531897860440 	 15.654966251504 	
C	 16.908411451100 	  2.348342520440 	  5.552542291504 	
C	 16.339867321100 	  2.348345330440 	 15.683099011504 	
C	 16.908380351100 	  8.531904280440 	  5.552539461504 	
C	 16.339836221100 	  8.531907090440 	 15.683096181504 	
C	 11.087932665764 	 -0.542608842486 	 10.551751271805 	
C	 10.519388535764 	 -0.542606032486 	 20.682307991805 	
C	 11.087901565764 	  5.640952917514 	 10.551748441805 	
C	 10.519357435764 	  5.640955727514 	 20.682305161805 	
C	 25.768759965764 	 -0.542599612486 	 10.579881201805 	
C	 25.200215835764 	 -0.542596802486 	 20.710437921805 	
C	 25.768728865764 	  5.640962147514 	 10.579878371805 	
C	 25.200184735764 	  5.640964957514 	 20.710435091805 	
C	 11.339161516266 	  3.748289086181 	  5.276992489504 	
C	 10.770617386266 	  3.748291896181 	 15.407549209504 	
C	 11.339130416266 	  9.931850846181 	  5.276989659504 	
C	 10.770586286266 	  9.931853656181 	 15.407546379504 	
C	 26.019988816266 	  3.748298316181 	  5.305122419504 	
C	 25.451444686266 	  3.748301126181 	 15.435679139504 	
C	 26.019957716266 	  9.931860076181 	  5.305119589504 	
C	 25.451413586266 	  9.931862886181 	 15.435676309504 	
C	  2.478813599390 	  6.639232257372 	  0.249654191380 	
C	  1.910269469390 	  6.639235067372 	 10.380210911380 	
C	  2.478782499390 	 12.822794017372 	  0.249651361380 	
C	  1.910238369390 	 12.822796827372 	 10.380208081380 	
C	 17.159640899390 	  6.639241487372 	  0.277784121380 	
C	 16.591096769390 	  6.639244297372 	 10.408340841380 	
C	 17.159609799390 	 12.822803247372 	  0.277781291380 	
C	 16.591065669390 	 12.822806057372 	 10.408338011380 	
H	  3.136566840347 	  2.678921353454 	  4.941878494795 	
H	  2.568022710347 	  2.678924163454 	 15.072435214795 	
H	  3.136535740347 	  8.862483113454 	  4.941875664795 	
H	  2.567991610347 	  8.862485923454 	 15.072432384795 	
H	 17.817394140347 	  2.678930583454 	  4.970008424795 	
H	 17.248850010347 	  2.678933393454 	 15.100565144795 	
H	 17.817363040347 	  8.862492343454 	  4.970005594795 	
H	 17.248818910347 	  8.862495153454 	 15.100562314795 	
H	 10.198624339184 	 -0.369206186883 	 11.199742188962 	
H	  9.630080209184 	 -0.369203376883 	 21.330298908962 	
H	 10.198593239184 	  5.814355573117 	 11.199739358962 	
H	  9.630049109184 	  5.814358383117 	 21.330296078962 	
H	 24.879451639184 	 -0.369196956883 	 11.227872118962 	
H	 24.310907509184 	 -0.369194146883 	 21.358428838962 	
H	 24.879420539184 	  5.814364803117 	 11.227869288962 	
H	 24.310876409184 	  5.814367613117 	 21.358426008962 	
H	 10.430179406249 	  3.417698670688 	  5.859525862997 	
H	  9.861635276249 	  3.417701480688 	 15.990082582997 	
H	 10.430148306249 	  9.601260430688 	  5.859523032997 	
H	  9.861604176249 	  9.601263240688 	 15.990079752997 	
H	 25.111006706249 	  3.417707900688 	  5.887655792997 	
H	 24.542462576249 	  3.417710710688 	 16.018212512997 	
H	 25.110975606249 	  9.601269660688 	  5.887652962997 	
H	 24.542431476249 	  9.601272470688 	 16.018209682997 	
H	  3.368121677899 	  6.465829616360 	 -0.398337036108 	
H	  2.799577547899 	  6.465832426360 	  9.732219683892 	
H	  3.368090577899 	 12.649391376360 	 -0.398339866108 	
H	  2.799546447899 	 12.649394186360 	  9.732216853892 	
H	 18.048948977899 	  6.465838846360 	 -0.370207106108 	
H	 17.480404847899 	  6.465841656360 	  9.760349613892 	
H	 18.048917877899 	 12.649400606360 	 -0.370209936108 	
H	 17.480373747899 	 12.649403416360 	  9.760346783892 	
H	  1.412205380052 	  2.479685758057 	  4.759735932082 	
H	  0.843661250052 	  2.479688568057 	 14.890292652082 	
H	  1.412174280052 	  8.663247518057 	  4.759733102082 	
H	  0.843630150052 	  8.663250328057 	 14.890289822082 	
H	 16.093032680052 	  2.479694988057 	  4.787865862082 	
H	 15.524488550052 	  2.479697798057 	 14.918422582082 	
H	 16.093001580052 	  8.663256748057 	  4.787863032082 	
H	 15.524457450052 	  8.663259558057 	 14.918419752082 	
H	 12.453942735488 	 -0.561257771076 	  0.771896067308 	
H	 11.885398605488 	 -0.561254961076 	 10.902452787308 	
H	 12.453911635488 	  5.622303988924 	  0.771893237308 	
H	 11.885367505488 	  5.622306798924 	 10.902449957308 	
H	 27.134770035488 	 -0.561248541076 	  0.800025997308 	
H	 26.566225905488 	 -0.561245731076 	 10.930582717308 	
H	 27.134738935488 	  5.622313218924 	  0.800023167308 	
H	 26.566194805488 	  5.622316028924 	 10.930579887308 	
H	 12.154540422521 	  3.616937165321 	  6.041668847192 	
H	 11.585996292521 	  3.616939975321 	 16.172225567192 	
H	 12.154509322521 	  9.800498925321 	  6.041666017192 	
H	 11.585965192521 	  9.800501735321 	 16.172222737192 	
H	 26.835367722521 	  3.616946395321 	  6.069798777192 	
H	 26.266823592521 	  3.616949205321 	 16.200355497192 	
H	 26.835336622521 	  9.800508155321 	  6.069795947192 	
H	 26.266792492521 	  9.800510965321 	 16.200352667192 	
H	  1.112803066269 	  6.657881212405 	 10.029509983344 	
H	  0.544258936269 	  6.657884022405 	 20.160066703344 	
H	  1.112771966269 	 12.841442972405 	 10.029507153344 	
H	  0.544227836269 	 12.841445782405 	 20.160063873344 	
H	 15.793630366269 	  6.657890442405 	 10.057639913344 	
H	 15.225086236269 	  6.657893252405 	 20.188196633344 	
H	 15.793599266269 	 12.841452202405 	 10.057637083344 	
H	 15.225055136269 	 12.841455012405 	 20.188193803344 	
H	  2.393485591940 	  1.234351763433 	  5.457866552712 	
H	  1.824941461940 	  1.234354573433 	 15.588423272712 	
H	  2.393454491940 	  7.417913523433 	  5.457863722712 	
H	  1.824910361940 	  7.417916333433 	 15.588420442712 	
H	 17.074312891940 	  1.234360993433 	  5.485996482712 	
H	 16.505768761940 	  1.234363803433 	 15.616553202712 	
H	 17.074281791940 	  7.417922753433 	  5.485993652712 	
H	 16.505737661940 	  7.417925563433 	 15.616550372712 	
H	 11.353732064864 	  4.120573848788 	  0.005346991215 	
H	 10.785187934864 	  4.120576658788 	 10.135903711215 	
H	 11.353700964864 	 10.304135608788 	  0.005344161215 	
H	 10.785156834864 	 10.304138418788 	 10.135900881215 	
H	 26.034559364864 	  4.120583078788 	  0.033476921215 	
H	 25.466015234864 	  4.120585888788 	 10.164033641215 	
H	 26.034528264864 	 10.304144838788 	  0.033474091215 	
H	 25.465984134864 	 10.304147648788 	 10.164030811215 	
H	 11.173258070585 	  4.862270232715 	  5.343539321209 	
H	 10.604713940585 	  4.862273042715 	 15.474096041209 	
H	 11.173226970585 	 11.045831992715 	  5.343536491209 	
H	 10.604682840585 	 11.045834802715 	 15.474093211209 	
H	 25.854085370585 	  4.862279462715 	  5.371669251209 	
H	 25.285541240585 	  4.862282272715 	 15.502225971209 	
H	 25.854054270585 	 11.045841222715 	  5.371666421209 	
H	 25.285510140585 	 11.045844032715 	 15.502223141209 	
H	  2.213014146216 	  1.976049544904 	 10.796058863683 	
H	  1.644470016216 	  1.976052354904 	 20.926615583683 	
H	  2.212983046216 	  8.159611304904 	 10.796056033683 	
H	  1.644438916216 	  8.159614114904 	 20.926612753683 	
H	 16.893841446216 	  1.976058774904 	 10.824188793683 	
H	 16.325297316216 	  1.976061584904 	 20.954745513683 	
H	 16.893810346216 	  8.159620534904 	 10.824185963683 	
H	 16.325266216216 	  8.159623344904 	 20.954742683683 	
C	  1.697229458556 	  4.185828686739 	  6.566193138737 	
C	  1.128685328556 	  4.185831496739 	 16.696749858737 	
C	  1.697198358556 	 10.369390446739 	  6.566190308737 	
C	  1.128654228556 	 10.369393256739 	 16.696747028737 	
C	 16.378056758556 	  4.185837916739 	  6.594323068737 	
C	 15.809512628556 	  4.185840726739 	 16.724879788737 	
C	 16.378025658556 	 10.369399676739 	  6.594320238737 	
C	 15.809481528556 	 10.369402486739 	 16.724876958737 	
C	 11.694596717567 	  1.216724788876 	  9.565826454839 	
C	 11.126052587567 	  1.216727598876 	 19.696383174839 	
C	 11.694565617567 	  7.400286548876 	  9.565823624839 	
C	 11.126021487567 	  7.400289358876 	 19.696380344839 	
C	 26.375424017567 	  1.216734018876 	  9.593956384839 	
C	 25.806879887567 	  1.216736828876 	 19.724513104839 	
C	 26.375392917567 	  7.400295778876 	  9.593953554839 	
C	 25.806848787567 	  7.400298588876 	 19.724510274839 	
C	 11.869518644724 	  1.910794821453 	  4.235209740840 	
C	 11.300974514724 	  1.910797631453 	 14.365766460840 	
C	 11.869487544724 	  8.094356581453 	  4.235206910840 	
C	 11.300943414724 	  8.094359391453 	 14.365763630840 	
C	 26.550345944724 	  1.910804051453 	  4.263339670840 	
C	 25.981801814724 	  1.910806861453 	 14.393896390840 	
C	 26.550314844724 	  8.094365811453 	  4.263336840840 	
C	 25.981770714724 	  8.094368621453 	 14.393893560840 	
C	  1.872150022965 	  4.879898359638 	  1.235579141638 	
C	  1.303605892965 	  4.879901169638 	 11.366135861638 	
C	  1.872118922965 	 11.063460119638 	  1.235576311638 	
C	  1.303574792965 	 11.063462929638 	 11.366133031638 	
C	 16.552977322965 	  4.879907589638 	  1.263709071638 	
C	 15.984433192965 	  4.879910399638 	 11.394265791638 	
C	 16.552946222965 	 11.063469349638 	  1.263706241638 	
C	 15.984402092965 	 11.063472159638 	 11.394262961638 	
H	  2.486117777835 	  4.875297983262 	  6.149720362625 	
H	  1.917573647835 	  4.875300793262 	 16.280277082625 	
H	  2.486086677835 	 11.058859743262 	  6.149717532625 	
H	  1.917542547835 	 11.058862553262 	 16.280274252625 	
H	 17.166945077835 	  4.875307213262 	  6.177850292625 	
H	 16.598400947835 	  4.875310023262 	 16.308407012625 	
H	 17.166913977835 	 11.058868973262 	  6.177847462625 	
H	 16.598369847835 	 11.058871783262 	 16.308404182625 	
H	 10.861734570302 	  1.827277983776 	  9.988366051754 	
H	 10.293190440302 	  1.827280793776 	 20.118922771754 	
H	 10.861703470302 	  8.010839743776 	  9.988363221754 	
H	 10.293159340302 	  8.010842553776 	 20.118919941754 	
H	 25.542561870302 	  1.827287213776 	 10.016495981754 	
H	 24.974017740302 	  1.827290023776 	 20.147052701754 	
H	 25.542530770302 	  8.010848973776 	 10.016493151754 	
H	 24.973986640302 	  8.010851783776 	 20.147049871754 	
H	 11.080630757080 	  1.221324398069 	  4.651681398443 	
H	 10.512086627080 	  1.221327208069 	 14.782238118443 	
H	 11.080599657080 	  7.404886158069 	  4.651678568443 	
H	 10.512055527080 	  7.404888968069 	 14.782235288443 	
H	 25.761458057080 	  1.221333628069 	  4.679811328443 	
H	 25.192913927080 	  1.221336438069 	 14.810368048443 	
H	 25.761426957080 	  7.404895388069 	  4.679808498443 	
H	 25.192882827080 	  7.404898198069 	 14.810365218443 	
H	  2.705012039904 	  4.269345328541 	  0.813039032952 	
H	  2.136467909904 	  4.269348138541 	 10.943595752952 	
H	  2.704980939904 	 10.452907088541 	  0.813036202952 	
H	  2.136436809904 	 10.452909898541 	 10.943592922952 	
H	 17.385839339904 	  4.269354558541 	  0.841168962952 	
H	 16.817295209904 	  4.269357368541 	 10.971725682952 	
H	 17.385808239904 	 10.452916318541 	  0.841166132952 	
H	 16.817264109904 	 10.452919128541 	 10.971722852952 	
H	  1.406602695588 	  4.786505295654 	  7.476485580681 	
H	  0.838058565588 	  4.786508105654 	 17.607042300681 	
H	  1.406571595588 	 10.970067055654 	  7.476482750681 	
H	  0.838027465588 	 10.970069865654 	 17.607039470681 	
H	 16.087429995588 	  4.786514525654 	  7.504615510681 	
H	 15.518885865588 	  4.786517335654 	 17.635172230681 	
H	 16.087398895588 	 10.970076285654 	  7.504612680681 	
H	 15.518854765588 	 10.970079095654 	 17.635169400681 	
H	 11.932910769575 	  7.802171623832 	  8.689683654188 	
H	 11.364366639575 	  7.802174433832 	 18.820240374188 	
H	 11.932879669575 	 13.985733383832 	  8.689680824188 	
H	 11.364335539575 	 13.985736193832 	 18.820237544188 	
H	 26.613738069575 	  7.802180853832 	  8.717813584188 	
H	 26.045193939575 	  7.802183663832 	 18.848370304188 	
H	 26.613706969575 	 13.985742613832 	  8.717810754188 	
H	 26.045162839575 	 13.985745423832 	 18.848367474188 	
H	 12.160146617063 	  1.310119692828 	  3.324916741891 	
H	 11.591602487063 	  1.310122502828 	 13.455473461891 	
H	 12.160115517063 	  7.493681452828 	  3.324913911891 	
H	 11.591571387063 	  7.493684262828 	 13.455470631891 	
H	 26.840973917063 	  1.310128922828 	  3.353046671891 	
H	 26.272429787063 	  1.310131732828 	 13.483603391891 	
H	 26.840942817063 	  7.493690682828 	  3.353043841891 	
H	 26.272398687063 	  7.493693492828 	 13.483600561891 	
H	  1.633836581876 	 -1.705548612212 	  2.111722022177 	
H	  1.065292451876 	 -1.705545802212 	 12.242278742177 	
H	  1.633805481876 	  4.478013147788 	  2.111719192177 	
H	  1.065261351876 	  4.478015957788 	 12.242275912177 	
H	 16.314663881876 	 -1.705539382212 	  2.139851952177 	
H	 15.746119751876 	 -1.705536572212 	 12.270408672177 	
H	 16.314632781876 	  4.478022377788 	  2.139849122177 	
H	 15.746088651876 	  4.478025187788 	 12.270405842177 	
H	  0.826857364476 	  4.380202047105 	  5.880317692292 	
H	  0.258313234476 	  4.380204857105 	 16.010874412292 	
H	  0.826826264476 	 10.563763807105 	  5.880314862292 	
H	  0.258282134476 	 10.563766617105 	 16.010871582292 	
H	 15.507684664476 	  4.380211277105 	  5.908447622292 	
H	 14.939140534476 	  4.380214087105 	 16.039004342292 	
H	 15.507653564476 	 10.563773037105 	  5.908444792292 	
H	 14.939109434476 	 10.563775847105 	 16.039001512292 	
H	 12.493482333397 	  7.415210692278 	 10.236911966825 	
H	 11.924938203397 	  7.415213502278 	 20.367468686825 	
H	 12.493451233397 	 13.598772452278 	 10.236909136825 	
H	 11.924907103397 	 13.598775262278 	 20.367465856825 	
H	 27.174309633397 	  7.415219922278 	 10.265041896825 	
H	 26.605765503397 	  7.415222732278 	 20.395598616825 	
H	 27.174278533397 	 13.598781682278 	 10.265039066825 	
H	 26.605734403397 	 13.598784492278 	 20.395595786825 	
H	 12.739890566728 	  1.716421717041 	  4.921085457551 	
H	 12.171346436728 	  1.716424527041 	 15.051642177551 	
H	 12.739859466728 	  7.899983477041 	  4.921082627551 	
H	 12.171315336728 	  7.899986287041 	 15.051639347551 	
H	 27.420717866728 	  1.716430947041 	  4.949215387551 	
H	 26.852173736728 	  1.716433757041 	 15.079772107551 	
H	 27.420686766728 	  7.899992707041 	  4.949212557551 	
H	 26.852142636728 	  7.899995517041 	 15.079769277551 	
H	  1.073264015582 	 -1.318587569930 	  0.564494099584 	
H	  0.504719885582 	 -1.318584759930 	 10.695050819584 	
H	  1.073232915582 	  4.864974190070 	  0.564491269584 	
H	  0.504688785582 	  4.864977000070 	 10.695047989584 	
H	 15.754091315582 	 -1.318578339930 	  0.592624029584 	
H	 15.185547185582 	 -1.318575529930 	 10.723180749584 	
H	 15.754060215582 	  4.864983420070 	  0.592621199584 	
H	 15.185516085582 	  4.864986230070 	 10.723177919584 	
C	  0.995219096457 	  2.255969536753 	  7.332347903602 	
C	  0.426674966457 	  2.255972346753 	 17.462904623602 	
C	  0.995187996457 	  8.439531296753 	  7.332345073602 	
C	  0.426643866457 	  8.439534106753 	 17.462901793602 	
C	 15.676046396457 	  2.255978766753 	  7.360477833602 	
C	 15.107502266457 	  2.255981576753 	 17.491034553602 	
C	 15.676015296457 	  8.439540526753 	  7.360475003602 	
C	 15.107471166457 	  8.439543336753 	 17.491031723602 	
C	 12.349088275504 	  5.306217168617 	  8.806994752436 	
C	 11.780544145504 	  5.306219978617 	 18.937551472436 	
C	 12.349057175504 	 11.489778928617 	  8.806991922436 	
C	 11.780513045504 	 11.489781738617 	 18.937548642436 	
C	 27.029915575504 	  5.306226398617 	  8.835124682436 	
C	 26.461371445504 	  5.306229208617 	 18.965681402436 	
C	 27.029884475504 	 11.489788158617 	  8.835121852436 	
C	 26.461340345504 	 11.489790968617 	 18.965678572436 	
C	 12.571527254257 	  3.840656116256 	  3.469056719749 	
C	 12.002983124257 	  3.840658926256 	 13.599613439749 	
C	 12.571496154257 	 10.024217876256 	  3.469053889749 	
C	 12.002952024257 	 10.024220686256 	 13.599610609749 	
C	 27.252354554257 	  3.840665346256 	  3.497186649749 	
C	 26.683810424257 	  3.840668156256 	 13.627743369749 	
C	 27.252323454257 	 10.024227106256 	  3.497183819749 	
C	 26.683779324257 	 10.024229916256 	 13.627740539749 	
C	  1.217658409900 	  0.790405711084 	  1.994411287847 	
C	  0.649114279900 	  0.790408521084 	 12.124968007847 	
C	  1.217627309900 	  6.973967471084 	  1.994408457847 	
C	  0.649083179900 	  6.973970281084 	 12.124965177847 	
C	 15.898485709900 	  0.790414941084 	  2.022541217847 	
C	 15.329941579900 	  0.790417751084 	 12.153097937847 	
C	 15.898454609900 	  6.973976701084 	  2.022538387847 	
C	 15.329910479900 	  6.973979511084 	 12.153095107847 	
H	  0.003464637832 	  2.263158275350 	  6.800081910585 	
H	 -0.565079492168 	  2.263161085350 	 16.930638630585 	
H	  0.003433537832 	  8.446720035350 	  6.800079080585 	
H	 -0.565110592168 	  8.446722845350 	 16.930635800585 	
H	 14.684291937832 	  2.263167505350 	  6.828211840585 	
H	 14.115747807832 	  2.263170315350 	 16.958768560585 	
H	 14.684260837832 	  8.446729265350 	  6.828209010585 	
H	 14.115716707832 	  8.446732075350 	 16.958765730585 	
H	 13.342117338081 	  5.311902163286 	  9.338250577441 	
H	 12.773573208081 	  5.311904973286 	 19.468807297441 	
H	 13.342086238081 	 11.495463923286 	  9.338247747441 	
H	 12.773542108081 	 11.495466733286 	 19.468804467441 	
H	 28.022944638081 	  5.311911393286 	  9.366380507441 	
H	 27.454400508081 	  5.311914203286 	 19.496937227441 	
H	 28.022913538081 	 11.495473153286 	  9.366377677441 	
H	 27.454369408081 	 11.495475963286 	 19.496934397441 	
H	 13.563281708401 	  3.833467430402 	  4.001322678058 	
H	 12.994737578401 	  3.833470240402 	 14.131879398058 	
H	 13.563250608401 	 10.017029190402 	  4.001319848058 	
H	 12.994706478401 	 10.017032000402 	 14.131876568058 	
H	 28.244109008401 	  3.833476660402 	  4.029452608058 	
H	 27.675564878401 	  3.833479470402 	 14.160009328058 	
H	 28.244077908401 	 10.017038420402 	  4.029449778058 	
H	 27.675533778401 	 10.017041230402 	 14.160006498058 	
H	  0.224629203167 	  0.784720571491 	  1.463155737712 	
H	 -0.343914926833 	  0.784723381491 	 11.593712457712 	
H	  0.224598103167 	  6.968282331491 	  1.463152907712 	
H	 -0.343946026833 	  6.968285141491 	 11.593709627712 	
H	 14.905456503167 	  0.784729801491 	  1.491285667712 	
H	 14.336912373167 	  0.784732611491 	 11.621842387712 	
H	 14.905425403167 	  6.968291561491 	  1.491282837712 	
H	 14.336881273167 	  6.968294371491 	 11.621839557712 	
H	  0.714359815989 	  2.594987064557 	  8.370143187470 	
H	  0.145815685989 	  2.594989874557 	 18.500699907470 	
H	  0.714328715989 	  8.778548824557 	  8.370140357470 	
H	  0.145784585989 	  8.778551634557 	 18.500697077470 	
H	 15.395187115989 	  2.594996294557 	  8.398273117470 	
H	 14.826642985989 	  2.594999104557 	 18.528829837470 	
H	 15.395156015989 	  8.778558054557 	  8.398270287470 	
H	 14.826611885989 	  8.778560864557 	 18.528827007470 	
H	 12.631403880683 	  5.644343991324 	  7.768595988243 	
H	 12.062859750683 	  5.644346801324 	 17.899152708243 	
H	 12.631372780683 	 11.827905751324 	  7.768593158243 	
H	 12.062828650683 	 11.827908561324 	 17.899149878243 	
H	 27.312231180683 	  5.644353221324 	  7.796725918243 	
H	 26.743687050683 	  5.644356031324 	 17.927282638243 	
H	 27.312200080683 	 11.827914981324 	  7.796723088243 	
H	 26.743655950683 	 11.827917791324 	 17.927279808243 	
H	 12.852386666932 	  3.501640291573 	  2.431260938024 	
H	 12.283842536932 	  3.501643101573 	 12.561817658024 	
H	 12.852355566932 	  9.685202051573 	  2.431258108024 	
H	 12.283811436932 	  9.685204861573 	 12.561814828024 	
H	 27.533213966932 	  3.501649521573 	  2.459390868024 	
H	 26.964669836932 	  3.501652331573 	 12.589947588024 	
H	 27.533182866932 	  9.685211281573 	  2.459388038024 	
H	 26.964638736932 	  9.685214091573 	 12.589944758024 	
H	  0.935343053480 	  0.452278449082 	  3.032809970057 	
H	  0.366798923480 	  0.452281259082 	 13.163366690057 	
H	  0.935311953480 	  6.635840209082 	  3.032807140057 	
H	  0.366767823480 	  6.635843019082 	 13.163363860057 	
H	 15.616170353480 	  0.452287679082 	  3.060939900057 	
H	 15.047626223480 	  0.452290489082 	 13.191496620057 	
H	 15.616139253480 	  6.635849439082 	  3.060937070057 	
H	 15.047595123480 	  6.635852249082 	 13.191493790057 	
H	  1.128659750697 	  1.153456995389 	  7.538404880551 	
H	  0.560115620697 	  1.153459805389 	 17.668961600551 	
H	  1.128628650697 	  7.337018755389 	  7.538402050551 	
H	  0.560084520697 	  7.337021565389 	 17.668958770551 	
H	 15.809487050697 	  1.153466225389 	  7.566534810551 	
H	 15.240942920697 	  1.153469035389 	 17.697091530551 	
H	 15.809455950697 	  7.337027985389 	  7.566531980551 	
H	 15.240911820697 	  7.337030795389 	 17.697088700551 	
H	 12.216989678105 	  4.203182642015 	  8.600266462065 	
H	 11.648445548105 	  4.203185452015 	 18.730823182065 	
H	 12.216958578105 	 10.386744402015 	  8.600263632065 	
H	 11.648414448105 	 10.386747212015 	 18.730820352065 	
H	 26.897816978105 	  4.203191872015 	  8.628396392065 	
H	 26.329272848105 	  4.203194682015 	 18.758953112065 	
H	 26.897785878105 	 10.386753632015 	  8.628393562065 	
H	 26.329241748105 	 10.386756442015 	 18.758950282065 	
H	 12.438085616001 	  4.943168856282 	  3.263001584615 	
H	 11.869541486001 	  4.943171666282 	 13.393558304615 	
H	 12.438054516001 	 11.126730616282 	  3.262998754615 	
H	 11.869510386001 	 11.126733426282 	 13.393555474615 	
H	 27.118912916001 	  4.943178086282 	  3.291131514615 	
H	 26.550368786001 	  4.943180896282 	 13.421688234615 	
H	 27.118881816001 	 11.126739846282 	  3.291128684615 	
H	 26.550337686001 	 11.126742656282 	 13.421685404615 	
H	  1.349756864946 	  1.893440164171 	  2.201140081299 	
H	  0.781212734946 	  1.893442974171 	 12.331696801299 	
H	  1.349725764946 	  8.077001924171 	  2.201137251299 	
H	  0.781181634946 	  8.077004734171 	 12.331693971299 	
H	 16.030584164946 	  1.893449394171 	  2.229270011299 	
H	 15.462040034946 	  1.893452204171 	 12.359826731299 	
H	 16.030553064946 	  8.077011154171 	  2.229267181299 	
H	 15.462008934946 	  8.077013964171 	 12.359823901299 	
768 
Energy: -7.3846297469649997e+01 
S	  8.274226964800 	  1.377175302200 	  0.134797036600 	
S	  7.705682834800 	  1.377178112200 	 10.265353756600 	
S	  8.274195864800 	  7.560737062200 	  0.134794206600 	
S	  7.705651734800 	  7.560739872200 	 10.265350926600 	
S	 22.955054264800 	  1.377184532200 	  0.162926966600 	
S	 22.386510134800 	  1.377187342200 	 10.293483686600 	
S	 22.955023164800 	  7.560746292200 	  0.162924136600 	
S	 22.386479034800 	  7.560749102200 	 10.293480856600 	
S	  5.468105551400 	  4.422280389300 	  5.357839294400 	
S	  4.899561421400 	  4.422283199300 	 15.488396014400 	
S	  5.468074451400 	 10.605842149300 	  5.357836464400 	
S	  4.899530321400 	 10.605844959300 	 15.488393184400 	
S	 20.148932851400 	  4.422289619300 	  5.385969224400 	
S	 19.580388721400 	  4.422292429300 	 15.516525944400 	
S	 20.148901751400 	 10.605851379300 	  5.385966394400 	
S	 19.580357621400 	 10.605854189300 	 15.516523114400 	
S	  5.252181867800 	  4.713017932400 	 10.714134363300 	
S	  4.683637737800 	  4.713020742400 	 20.844691083300 	
S	  5.252150767800 	 10.896579692400 	 10.714131533300 	
S	  4.683606637800 	 10.896582502400 	 20.844688253300 	
S	 19.933009167800 	  4.713027162400 	 10.742264293300 	
S	 19.364465037800 	  4.713029972400 	 20.872821013300 	
S	 19.932978067800 	 10.896588922400 	 10.742261463300 	
S	 19.364433937800 	 10.896591732400 	 20.872818183300 	
S	  8.058304838100 	  1.667912723500 	  5.491091585000 	
S	  7.489760708100 	  1.667915533500 	 15.621648305000 	
S	  8.058273738100 	  7.851474483500 	  5.491088755000 	
S	  7.489729608100 	  7.851477293500 	 15.621645475000 	
S	 22.739132138100 	  1.667921953500 	  5.519221515000 	
S	 22.170588008100 	  1.667924763500 	 15.649778235000 	
S	 22.739101038100 	  7.851483713500 	  5.519218685000 	
S	 22.170556908100 	  7.851486523500 	 15.649775405000 	
C	  6.549448319000 	  2.468400911100 	 10.397561804200 	
C	  5.980904189000 	  2.468403721100 	 20.528118524200 	
C	  6.549417219000 	  8.651962671100 	 10.397558974200 	
C	  5.980873089000 	  8.651965481100 	 20.528115694200 	
C	 21.230275619000 	  2.468410141100 	 10.425691734200 	
C	 20.661731489000 	  2.468412951100 	 20.556248454200 	
C	 21.230244519000 	  8.651971901100 	 10.425688904200 	
C	 20.661700389000 	  8.651974711100 	 20.556245624200 	
C	  6.761044788800 	  5.513514746100 	  5.807719306500 	
C	  6.192500658800 	  5.513517556100 	 15.938276026500 	
C	  6.761013688800 	 11.697076506100 	  5.807716476500 	
C	  6.192469558800 	 11.697079316100 	 15.938273196500 	
C	 21.441872088800 	  5.513523976100 	  5.835849236500 	
C	 20.873327958800 	  5.513526786100 	 15.966405956500 	
C	 21.441840988800 	 11.697085736100 	  5.835846406500 	
C	 20.873296858800 	 11.697088546100 	 15.966403126500 	
C	  6.976960522100 	  3.621792323500 	  0.451369381500 	
C	  6.408416392100 	  3.621795133500 	 10.581926101500 	
C	  6.976929422100 	  9.805354083500 	  0.451366551500 	
C	  6.408385292100 	  9.805356893500 	 10.581923271500 	
C	 21.657787822100 	  3.621801553500 	  0.479499311500 	
C	 21.089243692100 	  3.621804363500 	 10.610056031500 	
C	 21.657756722100 	  9.805363313500 	  0.479496481500 	
C	 21.089212592100 	  9.805366123500 	 10.610053201500 	
C	  6.765365469800 	  0.576678427600 	  5.041211357200 	
C	  6.196821339800 	  0.576681237600 	 15.171768077200 	
C	  6.765334369800 	  6.760240187600 	  5.041208527200 	
C	  6.196790239800 	  6.760242997600 	 15.171765247200 	
C	 21.446192769800 	  0.576687657600 	  5.069341287200 	
C	 20.877648639800 	  0.576690467600 	 15.199898007200 	
C	 21.446161669800 	  6.760249417600 	  5.069338457200 	
C	 20.877617539800 	  6.760252227600 	 15.199895177200 	
C	  5.514830661500 	  2.406236873400 	  9.413614614800 	
C	  4.946286531500 	  2.406239683400 	 19.544171334800 	
C	  5.514799561500 	  8.589798633400 	  9.413611784800 	
C	  4.946255431500 	  8.589801443400 	 19.544168504800 	
C	 20.195657961500 	  2.406246103400 	  9.441744544800 	
C	 19.627113831500 	  2.406248913400 	 19.572301264800 	
C	 20.195626861500 	  8.589807863400 	  9.441741714800 	
C	 19.627082731500 	  8.589810673400 	 19.572298434800 	
C	  7.795666071200 	  5.451341527800 	  6.791658665300 	
C	  7.227121941200 	  5.451344337800 	 16.922215385300 	
C	  7.795634971200 	 11.634903287800 	  6.791655835300 	
C	  7.227090841200 	 11.634906097800 	 16.922212555300 	
C	 22.476493371200 	  5.451350757800 	  6.819788595300 	
C	 21.907949241200 	  5.451353567800 	 16.950345315300 	
C	 22.476462271200 	 11.634912517800 	  6.819785765300 	
C	 21.907918141200 	 11.634915327800 	 16.950342485300 	
C	  8.011578179700 	  3.683956422100 	  1.435316571000 	
C	  7.443034049700 	  3.683959232100 	 11.565873291000 	
C	  8.011547079700 	  9.867518182100 	  1.435313741000 	
C	  7.443002949700 	  9.867520992100 	 11.565870461000 	
C	 22.692405479700 	  3.683965652100 	  1.463446501000 	
C	 22.123861349700 	  3.683968462100 	 11.594003221000 	
C	 22.692374379700 	  9.867527412100 	  1.463443671000 	
C	 22.123830249700 	  9.867530222100 	 11.594000391000 	
C	  5.730743895300 	  0.638851706800 	  4.057272317100 	
C	  5.162199765300 	  0.638854516800 	 14.187829037100 	
C	  5.730712795300 	  6.822413466800 	  4.057269487100 	
C	  5.162168665300 	  6.822416276800 	 14.187826207100 	
C	 20.411571195300 	  0.638860936800 	  4.085402247100 	
C	 19.843027065300 	  0.638863746800 	 14.215958967100 	
C	 20.411540095300 	  6.822422696800 	  4.085399417100 	
C	 19.842995965300 	  6.822425506800 	 14.215956137100 	
C	  4.708186547100 	  3.575057243500 	  9.473887592500 	
C	  4.139642417100 	  3.575060053500 	 19.604444312500 	
C	  4.708155447100 	  9.758619003500 	  9.473884762500 	
C	  4.139611317100 	  9.758621813500 	 19.604441482500 	
C	 19.389013847100 	  3.575066473500 	  9.502017522500 	
C	 18.820469717100 	  3.575069283500 	 19.632574242500 	
C	 19.388982747100 	  9.758628233500 	  9.502014692500 	
C	 18.820438617100 	  9.758631043500 	 19.632571412500 	
C	  8.602283030900 	  0.529944629900 	  6.731329322300 	
C	  8.033738900900 	  0.529947439900 	 16.861886042300 	
C	  8.602251930900 	  6.713506389900 	  6.731326492300 	
C	  8.033707800900 	  6.713509199900 	 16.861883212300 	
C	 23.283110330900 	  0.529953859900 	  6.759459252300 	
C	 22.714566200900 	  0.529956669900 	 16.890015972300 	
C	 23.283079230900 	  6.713515619900 	  6.759456422300 	
C	 22.714535100900 	  6.713518429900 	 16.890013142300 	
C	  8.818222294000 	  2.515135991100 	  1.375043593200 	
C	  8.249678164000 	  2.515138801100 	 11.505600313200 	
C	  8.818191194000 	  8.698697751100 	  1.375040763200 	
C	  8.249647064000 	  8.698700561100 	 11.505597483200 	
C	 23.499049594000 	  2.515145221100 	  1.403173523200 	
C	 22.930505464000 	  2.515148031100 	 11.533730243200 	
C	 23.499018494000 	  8.698706981100 	  1.403170693200 	
C	 22.930474364000 	  8.698709791100 	 11.533727413200 	
C	  4.924127066500 	  5.560248604700 	  4.117601875700 	
C	  4.355582936500 	  5.560251414700 	 14.248158595700 	
C	  4.924095966500 	 11.743810364700 	  4.117599045700 	
C	  4.355551836500 	 11.743813174700 	 14.248155765700 	
C	 19.604954366500 	  5.560257834700 	  4.145731805700 	
C	 19.036410236500 	  5.560260644700 	 14.276288525700 	
C	 19.604923266500 	 11.743819594700 	  4.145728975700 	
C	 19.036379136500 	 11.743822404700 	 14.276285695700 	
C	  3.616380389000 	  3.755832070100 	  8.624223372800 	
C	  3.047836259000 	  3.755834880100 	 18.754780092800 	
C	  3.616349289000 	  9.939393830100 	  8.624220542800 	
C	  3.047805159000 	  9.939396640100 	 18.754777262800 	
C	 18.297207689000 	  3.755841300100 	  8.652353302800 	
C	 17.728663559000 	  3.755844110100 	 18.782910022800 	
C	 18.297176589000 	  9.939403060100 	  8.652350472800 	
C	 17.728632459000 	  9.939405870100 	 18.782907192800 	
C	  9.694110263800 	  0.710702205100 	  7.580976645800 	
C	  9.125566133800 	  0.710705015100 	 17.711533365800 	
C	  9.694079163800 	  6.894263965100 	  7.580973815800 	
C	  9.125535033800 	  6.894266775100 	 17.711530535800 	
C	 24.374937563800 	  0.710711435100 	  7.609106575800 	
C	 23.806393433800 	  0.710714245100 	 17.739663295800 	
C	 24.374906463800 	  6.894273195100 	  7.609103745800 	
C	 23.806362333800 	  6.894276005100 	 17.739660465800 	
C	  9.910028443500 	  2.334361286300 	  2.224708027200 	
C	  9.341484313500 	  2.334364096300 	 12.355264747200 	
C	  9.909997343500 	  8.517923046300 	  2.224705197200 	
C	  9.341453213500 	  8.517925856300 	 12.355261917200 	
C	 24.590855743500 	  2.334370516300 	  2.252837957200 	
C	 24.022311613500 	  2.334373326300 	 12.383394677200 	
C	 24.590824643500 	  8.517932276300 	  2.252835127200 	
C	 24.022280513500 	  8.517935086300 	 12.383391847200 	
C	  3.832299249400 	  5.379491151300 	  3.267955189500 	
C	  3.263755119400 	  5.379493961300 	 13.398511909500 	
C	  3.832268149400 	 11.563052911300 	  3.267952359500 	
C	  3.263724019400 	 11.563055721300 	 13.398509079500 	
C	 18.513126549400 	  5.379500381300 	  3.296085119500 	
C	 17.944582419400 	  5.379503191300 	 13.426641839500 	
C	 18.513095449400 	 11.563062141300 	  3.296082289500 	
C	 17.944551319400 	 11.563064951300 	 13.426639009500 	
H	  3.030192363400 	  4.667840350300 	  8.698825072800 	
H	  2.461648233400 	  4.667843160300 	 18.829381792800 	
H	  3.030161263400 	 10.851402110300 	  8.698822242800 	
H	  2.461617133400 	 10.851404920300 	 18.829378962800 	
H	 17.711019663400 	  4.667849580300 	  8.726955002800 	
H	 17.142475533400 	  4.667852390300 	 18.857511722800 	
H	 17.710988563400 	 10.851411340300 	  8.726952172800 	
H	 17.142444433400 	 10.851414150300 	 18.857508892800 	
H	 10.280332020700 	  1.622693456600 	  7.506360722100 	
H	  9.711787890700 	  1.622696266600 	 17.636917442100 	
H	 10.280300920700 	  7.806255216600 	  7.506357892100 	
H	  9.711756790700 	  7.806258026600 	 17.636914612100 	
H	 24.961159320700 	  1.622702686600 	  7.534490652100 	
H	 24.392615190700 	  1.622705496600 	 17.665047372100 	
H	 24.961128220700 	  7.806264446600 	  7.534487822100 	
H	 24.392584090700 	  7.806267256600 	 17.665044542100 	
H	 10.496216316600 	  1.422353006100 	  2.150106647200 	
H	  9.927672186600 	  1.422355816100 	 12.280663367200 	
H	 10.496185216600 	  7.605914766100 	  2.150103817200 	
H	  9.927641086600 	  7.605917576100 	 12.280660537200 	
H	 25.177043616600 	  1.422362236100 	  2.178236577200 	
H	 24.608499486600 	  1.422365046100 	 12.308793297200 	
H	 25.177012516600 	  7.605923996100 	  2.178233747200 	
H	 24.608468386600 	  7.605926806100 	 12.308790467200 	
H	  3.246077623500 	  4.467499838900 	  3.342571328800 	
H	  2.677533493500 	  4.467502648900 	 13.473128048800 	
H	  3.246046523500 	 10.651061598900 	  3.342568498800 	
H	  2.677502393500 	 10.651064408900 	 13.473125218800 	
H	 17.926904923500 	  4.467509068900 	  3.370701258800 	
H	 17.358360793500 	  4.467511878900 	 13.501257978800 	
H	 17.926873823500 	 10.651070828900 	  3.370698428800 	
H	 17.358329693500 	 10.651073638900 	 13.501255148800 	
C	  3.297673659000 	  2.774949442900 	  7.678024848600 	
C	  2.729129529000 	  2.774952252900 	 17.808581568600 	
C	  3.297642559000 	  8.958511202900 	  7.678022018600 	
C	  2.729098429000 	  8.958514012900 	 17.808578738600 	
C	 17.978500959000 	  2.774958672900 	  7.706154778600 	
C	 17.409956829000 	  2.774961482900 	 17.836711498600 	
C	 17.978469859000 	  8.958520432900 	  7.706151948600 	
C	 17.409925729000 	  8.958523242900 	 17.836708668600 	
C	 10.012846383800 	  5.820031992100 	  8.527231920200 	
C	  9.444302253800 	  5.820034802100 	 18.657788640200 	
C	 10.012815283800 	 12.003593752100 	  8.527229090200 	
C	  9.444271153800 	 12.003596562100 	 18.657785810200 	
C	 24.693673683800 	  5.820041222100 	  8.555361850200 	
C	 24.125129553800 	  5.820044032100 	 18.685918570200 	
C	 24.693642583800 	 12.003602982100 	  8.555359020200 	
C	 24.125098453800 	 12.003605792100 	 18.685915740200 	
C	 10.228735046900 	  3.315244157100 	  3.170906228600 	
C	  9.660190916900 	  3.315246967100 	 13.301462948600 	
C	 10.228703946900 	  9.498805917100 	  3.170903398600 	
C	  9.660159816900 	  9.498808727100 	 13.301460118600 	
C	 24.909562346900 	  3.315253387100 	  3.199036158600 	
C	 24.341018216900 	  3.315256197100 	 13.329592878600 	
C	 24.909531246900 	  9.498815147100 	  3.199033328600 	
C	 24.340987116900 	  9.498817957100 	 13.329590048600 	
C	  3.513562558100 	  0.270161486100 	  2.321700231000 	
C	  2.945018428100 	  0.270164296100 	 12.452256951000 	
C	  3.513531458100 	  6.453723246100 	  2.321697401000 	
C	  2.944987328100 	  6.453726056100 	 12.452254121000 	
C	 18.194389858100 	  0.270170716100 	  2.349830161000 	
C	 17.625845728100 	  0.270173526100 	 12.480386881000 	
C	 18.194358758100 	  6.453732476100 	  2.349827331000 	
C	 17.625814628100 	  6.453735286100 	 12.480384051000 	
C	  4.115613367000 	  1.624442344200 	  7.606279463600 	
C	  3.547069237000 	  1.624445154200 	 17.736836183600 	
C	  4.115582267000 	  7.808004104200 	  7.606276633600 	
C	  3.547038137000 	  7.808006914200 	 17.736833353600 	
C	 18.796440667000 	  1.624451574200 	  7.634409393600 	
C	 18.227896537000 	  1.624454384200 	 17.764966113600 	
C	 18.796409567000 	  7.808013334200 	  7.634406563600 	
C	 18.227865437000 	  7.808016144200 	 17.764963283600 	
C	  9.194872439700 	  4.669544365100 	  8.598991286000 	
C	  8.626328309700 	  4.669547175100 	 18.729548006000 	
C	  9.194841339700 	 10.853106125100 	  8.598988456000 	
C	  8.626297209700 	 10.853108935100 	 18.729545176000 	
C	 23.875699739700 	  4.669553595100 	  8.627121216000 	
C	 23.307155609700 	  4.669556405100 	 18.757677936000 	
C	 23.875668639700 	 10.853115355100 	  8.627118386000 	
C	 23.307124509700 	 10.853118165100 	 18.757675106000 	
C	  9.410795487100 	  4.465751377700 	  3.242651400700 	
C	  8.842251357100 	  4.465754187700 	 13.373208120700 	
C	  9.410764387100 	 10.649313137700 	  3.242648570700 	
C	  8.842220257100 	 10.649315947700 	 13.373205290700 	
C	 24.091622787100 	  4.465760607700 	  3.270781330700 	
C	 23.523078657100 	  4.465763417700 	 13.401338050700 	
C	 24.091591687100 	 10.649322367700 	  3.270778500700 	
C	 23.523047557100 	 10.649325177700 	 13.401335220700 	
C	  4.331536519400 	  1.420649052200 	  2.249940436700 	
C	  3.762992389400 	  1.420651862200 	 12.380497156700 	
C	  4.331505419400 	  7.604210812200 	  2.249937606700 	
C	  3.762961289400 	  7.604213622200 	 12.380494326700 	
C	 19.012363819400 	  1.420658282200 	  2.278070366700 	
C	 18.443819689400 	  1.420661092200 	 12.408627086700 	
C	 19.012332719400 	  7.604220042200 	  2.278067536700 	
C	 18.443788589400 	  7.604222852200 	 12.408624256700 	
H	  3.910307630800 	  0.858337997200 	  6.862660610300 	
H	  3.341763500800 	  0.858340807200 	 16.993217330300 	
H	  3.910276530800 	  7.041899757200 	  6.862657780300 	
H	  3.341732400800 	  7.041902567200 	 16.993214500300 	
H	 18.591134930800 	  0.858347227200 	  6.890790540300 	
H	 18.022590800800 	  0.858350037200 	 17.021347260300 	
H	 18.591103830800 	  7.041908987200 	  6.890787710300 	
H	 18.022559700800 	  7.041911797200 	 17.021344430300 	
H	  9.400179503700 	  3.903433024400 	  9.342599275100 	
H	  8.831635373700 	  3.903435834400 	 19.473155995100 	
H	  9.400148403700 	 10.086994784400 	  9.342596445100 	
H	  8.831604273700 	 10.086997594400 	 19.473153165100 	
H	 24.081006803700 	  3.903442254400 	  9.370729205100 	
H	 23.512462673700 	  3.903445064400 	 19.501285925100 	
H	 24.080975703700 	 10.087004014400 	  9.370726375100 	
H	 23.512431573700 	 10.087006824400 	 19.501283095100 	
H	  9.616101375900 	  5.231855907300 	  3.986269934100 	
H	  9.047557245900 	  5.231858717300 	 14.116826654100 	
H	  9.616070275900 	 11.415417667300 	  3.986267104100 	
H	  9.047526145900 	 11.415420477300 	 14.116823824100 	
H	 24.296928675900 	  5.231865137300 	  4.014399864100 	
H	 23.728384545900 	  5.231867947300 	 14.144956584100 	
H	 24.296897575900 	 11.415426897300 	  4.014397034100 	
H	 23.728353445900 	 11.415429707300 	 14.144953754100 	
H	  4.126229023800 	  2.186760514700 	  1.506332765000 	
H	  3.557684893800 	  2.186763324700 	 11.636889485000 	
H	  4.126197923800 	  8.370322274700 	  1.506329935000 	
H	  3.557653793800 	  8.370325084700 	 11.636886655000 	
H	 18.807056323800 	  2.186769744700 	  1.534462695000 	
H	 18.238512193800 	  2.186772554700 	 11.665019415000 	
H	 18.807025223800 	  8.370331504700 	  1.534459865000 	
H	 18.238481093800 	  8.370334314700 	 11.665016585000 	
C	  5.203863858000 	  1.434679543400 	  8.448323302000 	
C	  4.635319728000 	  1.434682353400 	 18.578880022000 	
C	  5.203832758000 	  7.618241303400 	  8.448320472000 	
C	  4.635288628000 	  7.618244113400 	 18.578877192000 	
C	 19.884691158000 	  1.434688773400 	  8.476453232000 	
C	 19.316147028000 	  1.434691583400 	 18.607009952000 	
C	 19.884660058000 	  7.618250533400 	  8.476450402000 	
C	 19.316115928000 	  7.618253343400 	 18.607007122000 	
C	  8.106607985800 	  4.479790023800 	  7.756956459800 	
C	  7.538063855800 	  4.479792833800 	 17.887513179800 	
C	  8.106576885800 	 10.663351783800 	  7.756953629800 	
C	  7.538032755800 	 10.663354593800 	 17.887510349800 	
C	 22.787435285800 	  4.479799253800 	  7.785086389800 	
C	 22.218891155800 	  4.479802063800 	 17.915643109800 	
C	 22.787404185800 	 10.663361013800 	  7.785083559800 	
C	 22.218860055800 	 10.663363823800 	 17.915640279800 	
C	  8.322544996100 	  4.655513995700 	  2.400607562400 	
C	  7.754000866100 	  4.655516805700 	 12.531164282400 	
C	  8.322513896100 	 10.839075755700 	  2.400604732400 	
C	  7.753969766100 	 10.839078565700 	 12.531161452400 	
C	 23.003372296100 	  4.655523225700 	  2.428737492400 	
C	 22.434828166100 	  4.655526035700 	 12.559294212400 	
C	 23.003341196100 	 10.839084985700 	  2.428734662400 	
C	 22.434797066100 	 10.839087795700 	 12.559291382400 	
C	  5.419801413700 	  1.610403271700 	  3.091974731400 	
C	  4.851257283700 	  1.610406081700 	 13.222531451400 	
C	  5.419770313700 	  7.793965031700 	  3.091971901400 	
C	  4.851226183700 	  7.793967841700 	 13.222528621400 	
C	 20.100628713700 	  1.610412501700 	  3.120104661400 	
C	 19.532084583700 	  1.610415311700 	 13.250661381400 	
C	 20.100597613700 	  7.793974261700 	  3.120101831400 	
C	 19.532053483700 	  7.793977071700 	 13.250658551400 	
H	  5.815280580100 	  0.539366990000 	  8.358446190600 	
H	  5.246736450100 	  0.539369800000 	 18.489002910600 	
H	  5.815249480100 	  6.722928750000 	  8.358443360600 	
H	  5.246705350100 	  6.722931560000 	 18.489000080600 	
H	 20.496107880100 	  0.539376220000 	  8.386576120600 	
H	 19.927563750100 	  0.539379030000 	 18.517132840600 	
H	 20.496076780100 	  6.722937980000 	  8.386573290600 	
H	 19.927532650100 	  6.722940790000 	 18.517130010600 	
H	  7.495164244800 	  3.584488939300 	  7.846838885500 	
H	  6.926620114800 	  3.584491749300 	 17.977395605500 	
H	  7.495133144800 	  9.768050699300 	  7.846836055500 	
H	  6.926589014800 	  9.768053509300 	 17.977392775500 	
H	 22.175991544800 	  3.584498169300 	  7.874968815500 	
H	 21.607447414800 	  3.584500979300 	 18.005525535500 	
H	 22.175960444800 	  9.768059929300 	  7.874965985500 	
H	 21.607416314800 	  9.768062739300 	 18.005522705500 	
H	  7.711128287000 	  5.550826610000 	  2.490484352400 	
H	  7.142584157000 	  5.550829420000 	 12.621041072400 	
H	  7.711097187000 	 11.734388370000 	  2.490481522400 	
H	  7.142553057000 	 11.734391180000 	 12.621038242400 	
H	 22.391955587000 	  5.550835840000 	  2.518614282400 	
H	 21.823411457000 	  5.550838650000 	 12.649171002400 	
H	 22.391924487000 	 11.734397600000 	  2.518611452400 	
H	 21.823380357000 	 11.734400410000 	 12.649168172400 	
H	  6.031245163400 	  2.505704356200 	  3.002092091400 	
H	  5.462701033400 	  2.505707166200 	 13.132648811400 	
H	  6.031214063400 	  8.689266116200 	  3.002089261400 	
H	  5.462669933400 	  8.689268926200 	 13.132645981400 	
H	 20.712072463400 	  2.505713586200 	  3.030222021400 	
H	 20.143528333400 	  2.505716396200 	 13.160778741400 	
H	 20.712041363400 	  8.689275346200 	  3.030219191400 	
H	 20.143497233400 	  8.689278156200 	 13.160775911400 	
C	  2.060699965000 	  2.923971898300 	  6.778256047500 	
C	  1.492155835000 	  2.923974708300 	 16.908812767500 	
C	  2.060668865000 	  9.107533658300 	  6.778253217500 	
C	  1.492124735000 	  9.107536468300 	 16.908809937500 	
C	 16.741527265000 	  2.923981128300 	  6.806385977500 	
C	 16.172983135000 	  2.923983938300 	 16.936942697500 	
C	 16.741496165000 	  9.107542888300 	  6.806383147500 	
C	 16.172952035000 	  9.107545698300 	 16.936939867500 	
C	 11.249821980800 	  5.969055390200 	  9.426999575200 	
C	 10.681277850800 	  5.969058200200 	 19.557556295200 	
C	 11.249790880800 	 12.152617150200 	  9.426996745200 	
C	 10.681246750800 	 12.152619960200 	 19.557553465200 	
C	 25.930649280800 	  5.969064620200 	  9.455129505200 	
C	 25.362105150800 	  5.969067430200 	 19.585686225200 	
C	 25.930618180800 	 12.152626380200 	  9.455126675200 	
C	 25.362074050800 	 12.152629190200 	 19.585683395200 	
C	 11.465708592700 	  3.166222067100 	  4.070675242600 	
C	 10.897164462700 	  3.166224877100 	 14.201231962600 	
C	 11.465677492700 	  9.349783827100 	  4.070672412600 	
C	 10.897133362700 	  9.349786637100 	 14.201229132600 	
C	 26.146535892700 	  3.166231297100 	  4.098805172600 	
C	 25.577991762700 	  3.166234107100 	 14.229361892600 	
C	 26.146504792700 	  9.349793057100 	  4.098802342600 	
C	 25.577960662700 	  9.349795867100 	 14.229359062600 	
C	  2.276586376900 	  0.121138088000 	  1.421933213400 	
C	  1.708042246900 	  0.121140898000 	 11.552489933400 	
C	  2.276555276900 	  6.304699848000 	  1.421930383400 	
C	  1.708011146900 	  6.304702658000 	 11.552487103400 	
C	 16.957413676900 	  0.121147318000 	  1.450063143400 	
C	 16.388869546900 	  0.121150128000 	 11.580619863400 	
C	 16.957382576900 	  6.304709078000 	  1.450060313400 	
C	 16.388838446900 	  6.304711888000 	 11.580617033400 	
C	  2.262347017200 	  2.221751156100 	  5.422902565400 	
C	  1.693802887200 	  2.221753966100 	 15.553459285400 	
C	  2.262315917200 	  8.405312916100 	  5.422899735400 	
C	  1.693771787200 	  8.405315726100 	 15.553456455400 	
C	 16.943174317200 	  2.221760386100 	  5.451032495400 	
C	 16.374630187200 	  2.221763196100 	 15.581589215400 	
C	 16.943143217200 	  8.405322146100 	  5.451029665400 	
C	 16.374599087200 	  8.405324956100 	 15.581586385400 	
C	 11.048108919500 	 -0.823375339700 	 10.782308126400 	
C	 10.479564789500 	 -0.823372529700 	 20.912864846400 	
C	 11.048077819500 	  5.360186420300 	 10.782305296400 	
C	 10.479533689500 	  5.360189230300 	 20.912862016400 	
C	 25.728936219500 	 -0.823366109700 	 10.810438056400 	
C	 25.160392089500 	 -0.823363299700 	 20.940994776400 	
C	 25.728905119500 	  5.360195650300 	 10.810435226400 	
C	 25.160360989500 	  5.360198460300 	 20.940991946400 	
C	 11.264060258300 	  3.868441104100 	  5.426029355200 	
C	 10.695516128300 	  3.868443914100 	 15.556586075200 	
C	 11.264029158300 	 10.052002864100 	  5.426026525200 	
C	 10.695485028300 	 10.052005674100 	 15.556583245200 	
C	 25.944887558300 	  3.868450334100 	  5.454159285200 	
C	 25.376343428300 	  3.868453144100 	 15.584716005200 	
C	 25.944856458300 	 10.052012094100 	  5.454156455200 	
C	 25.376312328300 	 10.052014904100 	 15.584713175200 	
C	  2.478298879800 	  6.913569000600 	  0.066624656700 	
C	  1.909754749800 	  6.913571810600 	 10.197181376700 	
C	  2.478267779800 	 13.097130760600 	  0.066621826700 	
C	  1.909723649800 	 13.097133570600 	 10.197178546700 	
C	 17.159126179800 	  6.913578230600 	  0.094754586700 	
C	 16.590582049800 	  6.913581040600 	 10.225311306700 	
C	 17.159095079800 	 13.097139990600 	  0.094751756700 	
C	 16.590550949800 	 13.097142800600 	 10.225308476700 	
H	  3.170768161300 	  2.565029211100 	  4.913710526400 	
H	  2.602224031300 	  2.565032021100 	 15.044267246400 	
H	  3.170737061300 	  8.748590971100 	  4.913707696400 	
H	  2.602192931300 	  8.748593781100 	 15.044264416400 	
H	 17.851595461300 	  2.565038441100 	  4.941840456400 	
H	 17.283051331300 	  2.565041251100 	 15.072397176400 	
H	 17.851564361300 	  8.748600201100 	  4.941837626400 	
H	 17.283020231300 	  8.748603011100 	 15.072394346400 	
H	 10.139696801000 	 -0.480096932800 	 11.291488826700 	
H	  9.571152671000 	 -0.480094122800 	 21.422045546700 	
H	 10.139665701000 	  5.703464827200 	 11.291485996700 	
H	  9.571121571000 	  5.703467637200 	 21.422042716700 	
H	 24.820524101000 	 -0.480087702800 	 11.319618756700 	
H	 24.251979971000 	 -0.480084892800 	 21.450175476700 	
H	 24.820493001000 	  5.703474057200 	 11.319615926700 	
H	 24.251948871000 	  5.703476867200 	 21.450172646700 	
H	 10.355639694200 	  3.525160856600 	  5.935220864000 	
H	  9.787095564200 	  3.525163666600 	 16.065777584000 	
H	 10.355608594200 	  9.708722616600 	  5.935218034000 	
H	  9.787064464200 	  9.708725426600 	 16.065774754000 	
H	 25.036466994200 	  3.525170086600 	  5.963350794000 	
H	 24.467922864200 	  3.525172896600 	 16.093907514000 	
H	 25.036435894200 	  9.708731846600 	  5.963347964000 	
H	 24.467891764200 	  9.708734656600 	 16.093904684000 	
H	  3.386710736400 	  6.570290654600 	 -0.442556474800 	
H	  2.818166606400 	  6.570293464600 	  9.688000245200 	
H	  3.386679636400 	 12.753852414600 	 -0.442559304800 	
H	  2.818135506400 	 12.753855224600 	  9.687997415200 	
H	 18.067538036400 	  6.570299884600 	 -0.414426544800 	
H	 17.498993906400 	  6.570302694600 	  9.716130175200 	
H	 18.067506936400 	 12.753861644600 	 -0.414429374800 	
H	 17.498962806400 	 12.753864454600 	  9.716127345200 	
H	  1.404496117300 	  2.427035558900 	  4.770053794800 	
H	  0.835951987300 	  2.427038368900 	 14.900610514800 	
H	  1.404465017300 	  8.610597318900 	  4.770050964800 	
H	  0.835920887300 	  8.610600128900 	 14.900607684800 	
H	 16.085323417300 	  2.427044788900 	  4.798183724800 	
H	 15.516779287300 	  2.427047598900 	 14.928740444800 	
H	 16.085292317300 	  8.610606548900 	  4.798180894800 	
H	 15.516748187300 	  8.610609358900 	 14.928737614800 	
H	 12.337828175700 	 -0.618075910000 	  0.722500627700 	
H	 11.769284045700 	 -0.618073100000 	 10.853057347700 	
H	 12.337797075700 	  5.565485850000 	  0.722497797700 	
H	 11.769252945700 	  5.565488660000 	 10.853054517700 	
H	 27.018655475700 	 -0.618066680000 	  0.750630557700 	
H	 26.450111345700 	 -0.618063870000 	 10.881187277700 	
H	 27.018624375700 	  5.565495080000 	  0.750627727700 	
H	 26.450080245700 	  5.565497890000 	 10.881184447700 	
H	 12.121911302100 	  3.663157614800 	  6.078878020100 	
H	 11.553367172100 	  3.663160424800 	 16.209434740100 	
H	 12.121880202100 	  9.846719374800 	  6.078875190100 	
H	 11.553336072100 	  9.846722184800 	 16.209431910100 	
H	 26.802738602100 	  3.663166844800 	  6.107007950100 	
H	 26.234194472100 	  3.663169654800 	 16.237564670100 	
H	 26.802707502100 	  9.846728604800 	  6.107005120100 	
H	 26.234163372100 	  9.846731414800 	 16.237561840100 	
H	  1.188579187600 	  6.708269631800 	 10.126432579800 	
H	  0.620035057600 	  6.708272441800 	 20.256989299800 	
H	  1.188548087600 	 12.891831391800 	 10.126429749800 	
H	  0.620003957600 	 12.891834201800 	 20.256986469800 	
H	 15.869406487600 	  6.708278861800 	 10.154562509800 	
H	 15.300862357600 	  6.708281671800 	 20.285119229800 	
H	 15.869375387600 	 12.891840621800 	 10.154559679800 	
H	 15.300831257600 	 12.891843431800 	 20.285116399800 	
H	  2.333338513100 	  1.133106211500 	  5.520678957300 	
H	  1.764794383100 	  1.133109021500 	 15.651235677300 	
H	  2.333307413100 	  7.316667971500 	  5.520676127300 	
H	  1.764763283100 	  7.316670781500 	 15.651232847300 	
H	 17.014165813100 	  1.133115441500 	  5.548808887300 	
H	 16.445621683100 	  1.133118251500 	 15.679365607300 	
H	 17.014134713100 	  7.316677201500 	  5.548806057300 	
H	 16.445590583100 	  7.316680011500 	 15.679362777300 	
H	 11.409028324500 	  4.178196056400 	 -0.028085263100 	
H	 10.840484194500 	  4.178198866400 	 10.102471456900 	
H	 11.408997224500 	 10.361757816400 	 -0.028088093100 	
H	 10.840453094500 	 10.361760626400 	 10.102468626900 	
H	 26.089855624500 	  4.178205286400 	  0.000044666900 	
H	 25.521311494500 	  4.178208096400 	 10.130601386900 	
H	 26.089824524500 	 10.361767046400 	  0.000041836900 	
H	 25.521280394500 	 10.361769856400 	 10.130598556900 	
H	 11.193066621200 	  4.957086048700 	  5.328254121300 	
H	 10.624522491200 	  4.957088858700 	 15.458810841300 	
H	 11.193035521200 	 11.140647808700 	  5.328251291300 	
H	 10.624491391200 	 11.140650618700 	 15.458808011300 	
H	 25.873893921200 	  4.957095278700 	  5.356384051300 	
H	 25.305349791200 	  4.957098088700 	 15.486940771300 	
H	 25.873862821200 	 11.140657038700 	  5.356381221300 	
H	 25.305318691200 	 11.140659848700 	 15.486937941300 	
H	  2.117379466200 	  1.911997604500 	 10.877018260400 	
H	  1.548835336200 	  1.912000414500 	 21.007574980400 	
H	  2.117348366200 	  8.095559364500 	 10.877015430400 	
H	  1.548804236200 	  8.095562174500 	 21.007572150400 	
H	 16.798206766200 	  1.912006834500 	 10.905148190400 	
H	 16.229662636200 	  1.912009644500 	 21.035704910400 	
H	 16.798175666200 	  8.095568594500 	 10.905145360400 	
H	 16.229631536200 	  8.095571404500 	 21.035702080400 	
C	  1.734559952200 	  4.404219912900 	  6.506123107300 	
C	  1.166015822200 	  4.404222722900 	 16.636679827300 	
C	  1.734528852200 	 10.587781672900 	  6.506120277300 	
C	  1.165984722200 	 10.587784482900 	 16.636676997300 	
C	 16.415387252200 	  4.404229142900 	  6.534253037300 	
C	 15.846843122200 	  4.404231952900 	 16.664809757300 	
C	 16.415356152200 	 10.587790902900 	  6.534250207300 	
C	 15.846812022200 	 10.587793712900 	 16.664806927300 	
C	 11.575904795300 	  1.359102403300 	  9.699089153700 	
C	 11.007360665300 	  1.359105213300 	 19.829645873700 	
C	 11.575873695300 	  7.542664163300 	  9.699086323700 	
C	 11.007329565300 	  7.542666973300 	 19.829643043700 	
C	 26.256732095300 	  1.359111633300 	  9.727219083700 	
C	 25.688187965300 	  1.359114443300 	 19.857775803700 	
C	 26.256700995300 	  7.542673393300 	  9.727216253700 	
C	 25.688156865300 	  7.542676203300 	 19.857772973700 	
C	 11.791850066100 	  1.685974113500 	  4.342806589600 	
C	 11.223305936100 	  1.685976923500 	 14.473363309600 	
C	 11.791818966100 	  7.869535873500 	  4.342803759600 	
C	 11.223274836100 	  7.869538683500 	 14.473360479600 	
C	 26.472677366100 	  1.685983343500 	  4.370936519600 	
C	 25.904133236100 	  1.685986153500 	 14.501493239600 	
C	 26.472646266100 	  7.869545103500 	  4.370933689600 	
C	 25.904102136100 	  7.869547913500 	 14.501490409600 	
C	  1.950503562300 	  4.731091074900 	  1.149843634900 	
C	  1.381959432300 	  4.731093884900 	 11.280400354900 	
C	  1.950472462300 	 10.914652834900 	  1.149840804900 	
C	  1.381928332300 	 10.914655644900 	 11.280397524900 	
C	 16.631330862300 	  4.731100304900 	  1.177973564900 	
C	 16.062786732300 	  4.731103114900 	 11.308530284900 	
C	 16.631299762300 	 10.914662064900 	  1.177970734900 	
C	 16.062755632300 	 10.914664874900 	 11.308527454900 	
H	  2.589703828300 	  4.918653371200 	  6.050687656000 	
H	  2.021159698300 	  4.918656181200 	 16.181244376000 	
H	  2.589672728300 	 11.102215131200 	  6.050684826000 	
H	  2.021128598300 	 11.102217941200 	 16.181241546000 	
H	 17.270531128300 	  4.918662601200 	  6.078817586000 	
H	 16.701986998300 	  4.918665411200 	 16.209374306000 	
H	 17.270500028300 	 11.102224361200 	  6.078814756000 	
H	 16.701955898300 	 11.102227171200 	 16.209371476000 	
H	 10.720753036400 	  1.873537183300 	 10.154505291000 	
H	 10.152208906400 	  1.873539993300 	 20.285062011000 	
H	 10.720721936400 	  8.057098943300 	 10.154502461000 	
H	 10.152177806400 	  8.057101753300 	 20.285059181000 	
H	 25.401580336400 	  1.873546413300 	 10.182635221000 	
H	 24.833036206400 	  1.873549223300 	 20.313191941000 	
H	 25.401549236400 	  8.057108173300 	 10.182632391000 	
H	 24.833005106400 	  8.057110983300 	 20.313189111000 	
H	 10.936706512400 	  1.171539254400 	  4.798240972300 	
H	 10.368162382400 	  1.171542064400 	 14.928797692300 	
H	 10.936675412400 	  7.355101014400 	  4.798238142300 	
H	 10.368131282400 	  7.355103824400 	 14.928794862300 	
H	 25.617533812400 	  1.171548484400 	  4.826370902300 	
H	 25.048989682400 	  1.171551294400 	 14.956927622300 	
H	 25.617502712400 	  7.355110244400 	  4.826368072300 	
H	 25.048958582400 	  7.355113054400 	 14.956924792300 	
H	  2.805655203200 	  4.216656416700 	  0.694426960500 	
H	  2.237111073200 	  4.216659226700 	 10.824983680500 	
H	  2.805624103200 	 10.400218176700 	  0.694424130500 	
H	  2.237079973200 	 10.400220986700 	 10.824980850500 	
H	 17.486482503200 	  4.216665646700 	  0.722556890500 	
H	 16.917938373200 	  4.216668456700 	 10.853113610500 	
H	 17.486451403200 	 10.400227406700 	  0.722554060500 	
H	 16.917907273200 	 10.400230216700 	 10.853110780500 	
H	  1.454454417400 	  4.942542076000 	  7.419312257100 	
H	  0.885910287400 	  4.942544886000 	 17.549868977100 	
H	  1.454423317400 	 11.126103836000 	  7.419309427100 	
H	  0.885879187400 	 11.126106646000 	 17.549866147100 	
H	 16.135281717400 	  4.942551306000 	  7.447442187100 	
H	 15.566737587400 	  4.942554116000 	 17.577998907100 	
H	 16.135250617400 	 11.126113066000 	  7.447439357100 	
H	 15.566706487400 	 11.126115876000 	 17.577996077100 	
H	 11.856081281800 	  7.987633929300 	  8.785941752800 	
H	 11.287537151800 	  7.987636739300 	 18.916498472800 	
H	 11.856050181800 	 14.171195689300 	  8.785938922800 	
H	 11.287506051800 	 14.171198499300 	 18.916495642800 	
H	 26.536908581800 	  7.987643159300 	  8.814071682800 	
H	 25.968364451800 	  7.987645969300 	 18.944628402800 	
H	 26.536877481800 	 14.171204919300 	  8.814068852800 	
H	 25.968333351800 	 14.171207729300 	 18.944625572800 	
H	 12.071956739200 	  1.147653411900 	  3.429616915000 	
H	 11.503412609200 	  1.147656221900 	 13.560173635000 	
H	 12.071925639200 	  7.331215171900 	  3.429614085000 	
H	 11.503381509200 	  7.331217981900 	 13.560170805000 	
H	 26.752784039200 	  1.147662641900 	  3.457746845000 	
H	 26.184239909200 	  1.147665451900 	 13.588303565000 	
H	 26.752752939200 	  7.331224401900 	  3.457744015000 	
H	 26.184208809200 	  7.331227211900 	 13.588300735000 	
H	  1.670327769500 	 -1.897440633900 	  2.062991149700 	
H	  1.101783639500 	 -1.897437823900 	 12.193547869700 	
H	  1.670296669500 	  4.286121126100 	  2.062988319700 	
H	  1.101752539500 	  4.286123936100 	 12.193545039700 	
H	 16.351155069500 	 -1.897431403900 	  2.091121079700 	
H	 15.782610939500 	 -1.897428593900 	 12.221677799700 	
H	 16.351123969500 	  4.286130356100 	  2.091118249700 	
H	 15.782579839500 	  4.286133166100 	 12.221674969700 	
H	  0.882064840800 	  4.479102131000 	  5.817989803200 	
H	  0.313520710800 	  4.479104941000 	 15.948546523200 	
H	  0.882033740800 	 10.662663891000 	  5.817986973200 	
H	  0.313489610800 	 10.662666701000 	 15.948543693200 	
H	 15.562892140800 	  4.479111361000 	  5.846119733200 	
H	 14.994348010800 	  4.479114171000 	 15.976676453200 	
H	 15.562861040800 	 10.662673121000 	  5.846116903200 	
H	 14.994316910800 	 10.662675931000 	 15.976673623200 	
H	 12.428454998600 	  7.524205360700 	 10.387278883200 	
H	 11.859910868600 	  7.524208170700 	 20.517835603200 	
H	 12.428423898600 	 13.707767120700 	 10.387276053200 	
H	 11.859879768600 	 13.707769930700 	 20.517832773200 	
H	 27.109282298600 	  7.524214590700 	 10.415408813200 	
H	 26.540738168600 	  7.524217400700 	 20.545965533200 	
H	 27.109251198600 	 13.707776350700 	 10.415405983200 	
H	 26.540707068600 	 13.707779160700 	 20.545962703200 	
H	 12.644344881100 	  1.611092017100 	  5.030940319400 	
H	 12.075800751100 	  1.611094827100 	 15.161497039400 	
H	 12.644313781100 	  7.794653777100 	  5.030937489400 	
H	 12.075769651100 	  7.794656587100 	 15.161494209400 	
H	 27.325172181100 	  1.611101247100 	  5.059070249400 	
H	 26.756628051100 	  1.611104057100 	 15.189626969400 	
H	 27.325141081100 	  7.794663007100 	  5.059067419400 	
H	 26.756596951100 	  7.794665817100 	 15.189624139400 	
H	  1.097952918700 	 -1.434011943400 	  0.461654436900 	
H	  0.529408788700 	 -1.434009133400 	 10.592211156900 	
H	  1.097921818700 	  4.749549816600 	  0.461651606900 	
H	  0.529377688700 	  4.749552626600 	 10.592208326900 	
H	 15.778780218700 	 -1.434002713400 	  0.489784366900 	
H	 15.210236088700 	 -1.433999903400 	 10.620341086900 	
H	 15.778749118700 	  4.749559046600 	  0.489781536900 	
H	 15.210204988700 	  4.749561856600 	 10.620338256900 	
C	  0.859009870300 	  2.275087521200 	  7.498940079800 	
C	  0.290465740300 	  2.275090331200 	 17.629496799800 	
C	  0.858978770300 	  8.458649281200 	  7.498937249800 	
C	  0.290434640300 	  8.458652091200 	 17.629493969800 	
C	 15.539837170300 	  2.275096751200 	  7.527070009800 	
C	 14.971293040300 	  2.275099561200 	 17.657626729800 	
C	 15.539806070300 	  8.458658511200 	  7.527067179800 	
C	 14.971261940300 	  8.458661321200 	 17.657623899800 	
C	 12.451513155200 	  5.320185271700 	  8.706323091700 	
C	 11.882969025200 	  5.320188081700 	 18.836879811700 	
C	 12.451482055200 	 11.503747031700 	  8.706320261700 	
C	 11.882937925200 	 11.503749841700 	 18.836876981700 	
C	 27.132340455200 	  5.320194501700 	  8.734453021700 	
C	 26.563796325200 	  5.320197311700 	 18.865009741700 	
C	 27.132309355200 	 11.503756261700 	  8.734450191700 	
C	 26.563765225200 	 11.503759071700 	 18.865006911700 	
C	 12.667397959200 	  3.815108697600 	  3.349991953400 	
C	 12.098853829200 	  3.815111507600 	 13.480548673400 	
C	 12.667366859200 	  9.998670457600 	  3.349989123400 	
C	 12.098822729200 	  9.998673267600 	 13.480545843400 	
C	 27.348225259200 	  3.815117927600 	  3.378121883400 	
C	 26.779681129200 	  3.815120737600 	 13.508678603400 	
C	 27.348194159200 	  9.998679687600 	  3.378119053400 	
C	 26.779650029200 	  9.998682497600 	 13.508675773400 	
C	  1.074895180800 	  0.770007780200 	  2.142610232500 	
C	  0.506351050800 	  0.770010590200 	 12.273166952500 	
C	  1.074864080800 	  6.953569540200 	  2.142607402500 	
C	  0.506319950800 	  6.953572350200 	 12.273164122500 	
C	 15.755722480800 	  0.770017010200 	  2.170740162500 	
C	 15.187178350800 	  0.770019820200 	 12.301296882500 	
C	 15.755691380800 	  6.953578770200 	  2.170737332500 	
C	 15.187147250800 	  6.953581580200 	 12.301294052500 	
H	 -0.047227588500 	  2.355973740600 	  6.881775666400 	
H	 -0.615771718500 	  2.355976550600 	 17.012332386400 	
H	 -0.047258688500 	  8.539535500600 	  6.881772836400 	
H	 -0.615802818500 	  8.539538310600 	 17.012329556400 	
H	 14.633599711500 	  2.355982970600 	  6.909905596400 	
H	 14.065055581500 	  2.355985780600 	 17.040462316400 	
H	 14.633568611500 	  8.539544730600 	  6.909902766400 	
H	 14.065024481500 	  8.539547540600 	 17.040459486400 	
H	 13.357742057700 	  5.401060799500 	  9.323509597600 	
H	 12.789197927700 	  5.401063609500 	 19.454066317600 	
H	 13.357710957700 	 11.584622559500 	  9.323506767600 	
H	 12.789166827700 	 11.584625369500 	 19.454063487600 	
H	 28.038569357700 	  5.401070029500 	  9.351639527600 	
H	 27.470025227700 	  5.401072839500 	 19.482196247600 	
H	 28.038538257700 	 11.584631789500 	  9.351636697600 	
H	 27.469994127700 	 11.584634599500 	 19.482193417600 	
H	 13.573635570700 	  3.734222417300 	  3.967156046800 	
H	 13.005091440700 	  3.734225227300 	 14.097712766800 	
H	 13.573604470700 	  9.917784177300 	  3.967153216800 	
H	 13.005060340700 	  9.917786987300 	 14.097709936800 	
H	 28.254462870700 	  3.734231647300 	  3.995285976800 	
H	 27.685918740700 	  3.734234457300 	 14.125842696800 	
H	 28.254431770700 	  9.917793407300 	  3.995283146800 	
H	 27.685887640700 	  9.917796217300 	 14.125839866800 	
H	  0.168666130200 	  0.689132191500 	  1.525423939400 	
H	 -0.399877999800 	  0.689135001500 	 11.655980659400 	
H	  0.168635030200 	  6.872693951500 	  1.525421109400 	
H	 -0.399909099800 	  6.872696761500 	 11.655977829400 	
H	 14.849493430200 	  0.689141421500 	  1.553553869400 	
H	 14.280949300200 	  0.689144231500 	 11.684110589400 	
H	 14.849462330200 	  6.872703181500 	  1.553551039400 	
H	 14.280918200200 	  6.872705991500 	 11.684107759400 	
H	  0.663727609200 	  2.763729103700 	  8.461941528400 	
H	  0.095183479200 	  2.763731913700 	 18.592498248400 	
H	  0.663696509200 	  8.947290863700 	  8.461938698400 	
H	  0.095152379200 	  8.947293673700 	 18.592495418400 	
H	 15.344554909200 	  2.763738333700 	  8.490071458400 	
H	 14.776010779200 	  2.763741143700 	 18.620628178400 	
H	 15.344523809200 	  8.947300093700 	  8.490068628400 	
H	 14.775979679200 	  8.947302903700 	 18.620625348400 	
H	 12.646828893000 	  5.808844884300 	  7.743333331200 	
H	 12.078284763000 	  5.808847694300 	 17.873890051200 	
H	 12.646797793000 	 11.992406644300 	  7.743330501200 	
H	 12.078253663000 	 11.992409454300 	 17.873887221200 	
H	 27.327656193000 	  5.808854114300 	  7.771463261200 	
H	 26.759112063000 	  5.808856924300 	 17.902019981200 	
H	 27.327625093000 	 11.992415874300 	  7.771460431200 	
H	 26.759080963000 	 11.992418684300 	 17.902017151200 	
H	 12.862680534200 	  3.326468820300 	  2.386989650500 	
H	 12.294136404200 	  3.326471630300 	 12.517546370500 	
H	 12.862649434200 	  9.510030580300 	  2.386986820500 	
H	 12.294105304200 	  9.510033390300 	 12.517543540500 	
H	 27.543507834200 	  3.326478050300 	  2.415119580500 	
H	 26.974963704200 	  3.326480860300 	 12.545676300500 	
H	 27.543476734200 	  9.510039810300 	  2.415116750500 	
H	 26.974932604200 	  9.510042620300 	 12.545673470500 	
H	  0.879579730900 	  0.281347802200 	  3.105599781400 	
H	  0.311035600900 	  0.281350612200 	 13.236156501400 	
H	  0.879548630900 	  6.464909562200 	  3.105596951400 	
H	  0.311004500900 	  6.464912372200 	 13.236153671400 	
H	 15.560407030900 	  0.281357032200 	  3.133729711400 	
H	 14.991862900900 	  0.281359842200 	 13.264286431400 	
H	 15.560375930900 	  6.464918792200 	  3.133726881400 	
H	 14.991831800900 	  6.464921602200 	 13.264283601400 	
H	  1.045204185900 	  1.211387289900 	  7.689215422100 	
H	  0.476660055900 	  1.211390099900 	 17.819772142100 	
H	  1.045173085900 	  7.394949049900 	  7.689212592100 	
H	  0.476628955900 	  7.394951859900 	 17.819769312100 	
H	 15.726031485900 	  1.211396519900 	  7.717345352100 	
H	 15.157487355900 	  1.211399329900 	 17.847902072100 	
H	 15.726000385900 	  7.394958279900 	  7.717342522100 	
H	 15.157456255900 	  7.394961089900 	 17.847899242100 	
H	 12.265311577400 	  4.256482564700 	  8.516029920700 	
H	 11.696767447400 	  4.256485374700 	 18.646586640700 	
H	 12.265280477400 	 10.440044324700 	  8.516027090700 	
H	 11.696736347400 	 10.440047134700 	 18.646583810700 	
H	 26.946138877400 	  4.256491794700 	  8.544159850700 	
H	 26.377594747400 	  4.256494604700 	 18.674716570700 	
H	 26.946107777400 	 10.440053554700 	  8.544157020700 	
H	 26.377563647400 	 10.440056364700 	 18.674713740700 	
H	 12.481202737100 	  4.878809050700 	  3.159718317000 	
H	 11.912658607100 	  4.878811860700 	 13.290275037000 	
H	 12.481171637100 	 11.062370810700 	  3.159715487000 	
H	 11.912627507100 	 11.062373620700 	 13.290272207000 	
H	 27.162030037100 	  4.878818280700 	  3.187848247000 	
H	 26.593485907100 	  4.878821090700 	 13.318404967000 	
H	 27.161998937100 	 11.062380040700 	  3.187845417000 	
H	 26.593454807100 	 11.062382850700 	 13.318402137000 	
H	  1.261096601800 	  1.833710487200 	  2.332903830600 	
H	  0.692552471800 	  1.833713297200 	 12.463460550600 	
H	  1.261065501800 	  8.017272247200 	  2.332901000600 	
H	  0.692521371800 	  8.017275057200 	 12.463457720600 	
H	 15.941923901800 	  1.833719717200 	  2.361033760600 	
H	 15.373379771800 	  1.833722527200 	 12.491590480600 	
H	 15.941892801800 	  8.017281477200 	  2.361030930600 	
H	 15.373348671800 	  8.017284287200 	 12.491587650600 	
