  Invoking FHI-aims ...
  | Number of atoms                   :  96
  ...scf iterations...
  | Total energy corrected        :   -8.866090405294E+01 eV
  ...
  Total atomic forces (unitary forces cleaned)
     1  -3.1872751049E-01  6.0100535578E-01  1.9476324302E-01
     2  2.6032879068E-01  5.8961621639E-01  -1.8218327804E-01
     3  3.1872738063E-01  -6.0100525143E-01  -1.9476323727E-01
     4  -2.6032874290E-01  -5.8961626619E-01  1.8218340269E-01
     5  -8.1024433688E-01  1.4664861982E+00  1.0581325465E-01
     6  1.0126784224E+00  -2.2266453796E+00  2.7357905417E+00
     7  8.1024545928E-01  -1.4664859590E+00  -1.0581230829E-01
     8  -1.0126780418E+00  2.2266451663E+00  -2.7357902585E+00
     9  -4.5364888896E-01  2.5071169264E-01  -1.8843394209E-01
    10  -1.3106398799E-01  -6.1128083144E-01  1.7693337014E-01
    11  4.5364797151E-01  -2.5071251578E-01  1.8843312744E-01
    12  1.3106261963E-01  6.1128052751E-01  -1.7693389304E-01
    13  -5.4942102644E-01  -1.1165889900E+00  -1.0529298751E+00
    14  1.0457490171E+00  -3.5095981152E-01  1.0889182367E+00
    15  5.4942006202E-01  1.1165893883E+00  1.0529295190E+00
    16  -1.0457482844E+00  3.5096059685E-01  -1.0889183792E+00
    17  4.9942523059E-01  -6.0592986829E-01  -2.0734077717E-02
    18  -1.1482537519E+00  7.3681503762E-01  -1.2502219188E+00
    19  -4.9942465082E-01  6.0593028157E-01  2.0734712770E-02
    20  1.1482537626E+00  -7.3681528310E-01  1.2502219014E+00
    21  6.7742006143E-01  -1.1453409755E+00  -1.3724864991E-01
    22  -6.2460192886E-01  -1.2428321997E+00  2.4716970653E-01
    23  -6.7742011762E-01  1.1453409930E+00  1.3724873401E-01
    24  6.2460201645E-01  1.2428324802E+00  -2.4716987369E-01
    25  1.0610882107E+00  1.3818959849E-01  7.3195986003E-01
    26  -5.0795686500E-01  -1.2992015832E+00  5.4661794469E-01
    27  -1.0610881663E+00  -1.3819042849E-01  -7.3196022247E-01
    28  5.0795730376E-01  1.2992023834E+00  -5.4661821845E-01
    29  5.0284339867E-01  4.0608527358E-01  6.4016220946E-01
    30  -4.5371571545E-01  5.1067643403E-01  -6.9050778377E-01
    31  -5.0284330751E-01  -4.0608530514E-01  -6.4016279231E-01
    32  4.5371466826E-01  -5.1067693736E-01  6.9050756194E-01
    33  1.3841080684E-01  1.0758593068E+00  8.5881910649E-01
    34  -1.4994900426E-01  1.1184908006E+00  -8.7174977561E-01
    35  -1.3841061423E-01  -1.0758589586E+00  -8.5881892625E-01
    36  1.4994893679E-01  -1.1184908916E+00  8.7174974441E-01
    37  -8.1211579092E-01  4.8252866337E-01  -2.0697097570E-01
    38  8.5471405251E-01  5.6874048957E-01  1.5277079066E-01
    39  8.1211595886E-01  -4.8252888572E-01  2.0697135297E-01
    40  -8.5471369897E-01  -5.6874123968E-01  -1.5277019637E-01
    41  -9.2895848984E-01  1.1172839651E+00  8.3585205124E-02
    42  9.4750254807E-01  1.1435998965E+00  -8.4481764383E-02
    43  9.2895835183E-01  -1.1172834941E+00  -8.3585223801E-02
    44  -9.4750221600E-01  -1.1435996646E+00  8.4481771418E-02
    45  -1.3595263106E+00  2.2342663805E-02  -8.8556828407E-01
    46  1.7434826742E+00  -6.3939947247E-01  6.4060541872E-01
    47  1.3595238802E+00  -2.2343398863E-02  8.8556632474E-01
    48  -1.7434828447E+00  6.3939896480E-01  -6.4060610193E-01
    49  2.1894418314E-01  -5.1292377120E-01  1.2179719149E+00
    50  3.1048699986E-01  -2.7884778828E-01  -4.7823155077E+00
    51  -2.1894196058E-01  5.1292350883E-01  -1.2179720017E+00
    52  -3.1048737851E-01  2.7884689970E-01  4.7823172156E+00
    53  -5.7596461098E-01  -1.4983403391E+00  -3.1453232040E-01
    54  1.3271328917E-01  -2.1642026448E+00  6.0772751885E-01
    55  5.7596333166E-01  1.4983377428E+00  3.1453190264E-01
    56  -1.3271346922E-01  2.1642032665E+00  -6.0772718859E-01
    57  8.3083860614E-01  -5.6263901917E-02  5.6255847811E-01
    58  1.4317614602E+00  2.8154074717E-01  1.1364518736E+00
    59  -8.3083799027E-01  5.6263260298E-02  -5.6255787856E-01
    60  -1.4317618225E+00  -2.8154102001E-01  -1.1364526167E+00
    61  -1.2550270239E+00  8.6092083407E-01  8.3146017199E-01
    62  -8.9405799641E-01  9.7065507352E-01  5.0321234732E-01
    63  1.2550249907E+00  -8.6091992111E-01  -8.3145780292E-01
    64  8.9405849581E-01  -9.7065510267E-01  -5.0321260206E-01
    65  1.2570474777E+00  -5.0286356799E-01  -3.6506591091E-01
    66  -8.9295331917E-01  -7.0752455187E-03  2.0595365423E+00
    67  -1.2570467577E+00  5.0286455642E-01  3.6506684809E-01
    68  8.9295300931E-01  7.0754368175E-03  -2.0595355081E+00
    69  -2.7075084765E-01  -1.5366320752E+00  -1.9304550263E-01
    70  8.1660831145E-01  -2.2133274930E+00  -4.6121265527E-02
    71  2.7075072302E-01  1.5366293404E+00  1.9304463687E-01
    72  -8.1660880592E-01  2.2133274830E+00  4.6121613205E-02
    73  2.7634746460E-01  6.5643018951E-01  -1.3918734697E+00
    74  -3.6662455133E-01  1.0722530348E+00  1.1151903127E+00
    75  -2.7634728292E-01  -6.5642924970E-01  1.3918714245E+00
    76  3.6662496786E-01  -1.0722524561E+00  -1.1151914801E+00
    77  8.2054120185E-01  6.3015906576E-03  5.5374430060E-01
    78  -2.1338251752E+00  -2.8155717711E-01  -1.2606180167E+00
    79  -8.2054024906E-01  -6.3016503784E-03  -5.5374429330E-01
    80  2.1338255821E+00  2.8155743091E-01  1.2606182356E+00
    81  8.6708696216E-01  1.0179425474E+00  4.7133071468E-01
    82  -9.1311286169E-01  1.3708445328E+00  -4.5731045760E-01
    83  -8.6708504841E-01  -1.0179432890E+00  -4.7133001792E-01
    84  9.1311354369E-01  -1.3708441887E+00  4.5731053856E-01
    85  9.5528047530E-01  -4.6748208457E-02  5.2157975631E-01
    86  -1.0153928811E+00  7.8594002455E-02  -5.0018390536E-01
    87  -9.5527936323E-01  4.6748365152E-02  -5.2157915133E-01
    88  1.0153924776E+00  -7.8593928512E-02  5.0018379561E-01
    89  1.8121370337E-01  7.5837625553E-01  -1.4315648304E+00
    90  -1.8614256918E-01  9.0599429312E-01  1.4940732007E+00
    91  -1.8121341294E-01  -7.5837366897E-01  1.4315627202E+00
    92  1.8614286710E-01  -9.0599401928E-01  -1.4940735960E+00
    93  -9.8867225212E-01  8.2027385651E-01  1.0252748300E+00
    94  1.0242460064E+00  9.7907292172E-01  -1.0359362877E+00
    95  9.8867008598E-01  -8.2027188709E-01  -1.0252724447E+00
    96  -1.0242458784E+00  -9.7907335897E-01  1.0359360795E+00
  Stress tensor (eV/A^3):
  9.3078223771E-02  -1.6524366674E-03  1.9796151161E-02
  -1.6524366674E-03  9.9525097380E-02  5.2543128403E-03
  1.9796151161E-02  5.2543128403E-03  7.4919105053E-02
