  Invoking FHI-aims ...
  | Number of atoms                   :  96
  ...scf iterations...
  | Total energy corrected        :   -9.757599529269E+01 eV
  ...
  Total atomic forces (unitary forces cleaned)
     1  -2.9593919213E-01  6.0786879426E-01  1.8494656360E-01
     2  2.2016573853E-01  5.7474095402E-01  -1.8539732340E-01
     3  2.9593919323E-01  -6.0786869178E-01  -1.8494652719E-01
     4  -2.2016558774E-01  -5.7474085522E-01  1.8539739569E-01
     5  -8.3237161521E-01  1.6464909491E+00  3.0752194620E-01
     6  8.7664416738E-01  1.0528346672E-01  5.6740139428E-01
     7  8.3237220074E-01  -1.6464907900E+00  -3.0752137315E-01
     8  -8.7664416642E-01  -1.0528362064E-01  -5.6740107976E-01
     9  -4.0207363864E-01  2.4924552304E-01  -1.8665730507E-01
    10  9.8367778575E-01  5.3376174787E-01  1.5225008597E-01
    11  4.0207305168E-01  -2.4924564973E-01  1.8665679078E-01
    12  -9.8367800370E-01  -5.3376159759E-01  -1.5225010781E-01
    13  -5.4071944323E-01  -1.0525384344E+00  -1.0872885834E+00
    14  -5.6219256442E-02  -1.3882434912E+00  1.1592062176E+00
    15  5.4071873215E-01  1.0525386680E+00  1.0872882753E+00
    16  5.6219002424E-02  1.3882435943E+00  -1.1592058239E+00
    17  3.8122123459E-01  -5.0280395885E-01  -3.0657427729E-02
    18  -3.2138919711E-01  -4.4353717339E-01  3.2565343943E-01
    19  -3.8122051243E-01  5.0280398472E-01  3.0657939383E-02
    20  3.2138914265E-01  4.4353682803E-01  -3.2565360514E-01
    21  6.9940192789E-01  -1.2858493194E+00  -2.3817651940E-01
    22  -6.8908602805E-01  -1.3930076466E+00  3.1955276116E-01
    23  -6.9940235622E-01  1.2858495450E+00  2.3817624057E-01
    24  6.8908612590E-01  1.3930078711E+00  -3.1955288985E-01
    25  9.1256905353E-01  7.4191553371E-02  7.2084431352E-01
    26  -8.6988650739E-01  1.2828024161E-02  -9.4065037615E-01
    27  -9.1257185218E-01  -7.4191863354E-02  -7.2084627280E-01
    28  8.6988752211E-01  -1.2827393880E-02  9.4065012456E-01
    29  4.8174703757E-01  2.9732836295E-01  5.6685861571E-01
    30  -4.4809665284E-01  3.6246886304E-01  -5.9311799226E-01
    31  -4.8174682344E-01  -2.9732841827E-01  -5.6685884797E-01
    32  4.4809590876E-01  -3.6246914066E-01  5.9311765420E-01
    33  2.3354283801E-01  1.1486194142E+00  1.0147088379E+00
    34  -2.1731358650E-01  1.1904852181E+00  -1.0043661449E+00
    35  -2.3354241574E-01  -1.1486195352E+00  -1.0147084426E+00
    36  2.1731386036E-01  -1.1904854921E+00  1.0043660249E+00
    37  -6.8933293654E-01  4.1187463499E-01  -2.3580747172E-01
    38  7.1349340658E-01  4.6424337625E-01  2.0586551608E-01
    39  6.8933303037E-01  -4.1187491511E-01  2.3580759591E-01
    40  -7.1349325095E-01  -4.6424384826E-01  -2.0586497715E-01
    41  -9.6909023961E-01  1.2488133193E+00  9.1185934829E-02
    42  9.7643019337E-01  1.2626784923E+00  -8.8859569985E-02
    43  9.6909012049E-01  -1.2488130222E+00  -9.1185764532E-02
    44  -9.7642985060E-01  -1.2626781528E+00  8.8859697781E-02
    45  1.0847643339E+00  2.5212791368E-01  1.3242084904E+00
    46  -4.7047790141E+00  -1.8982040922E+00  -3.8446791640E+00
    47  -1.0846950682E+00  -2.5211758949E-01  -1.3241510756E+00
    48  4.7047549526E+00  1.8981785219E+00  3.8447849725E+00
    49  -4.7670515088E+00  -2.0440802656E-01  8.8303956057E-01
    50  6.2319511353E+00  1.9705458362E+00  -3.8695505292E+00
    51  4.7668972617E+00  2.0440780785E-01  -8.8300657526E-01
    52  -6.2317130488E+00  -1.9704260604E+00  3.8692916380E+00
    53  1.2751144559E+00  8.8896735715E-02  -1.1312556522E+00
    54  -2.3215886745E-02  -1.1755583974E+00  5.1888994018E-01
    55  -1.2750341830E+00  -8.8853304131E-02  1.1312024198E+00
    56  2.3202785602E-02  1.1755832751E+00  -5.1888318242E-01
    57  1.7152863286E+00  -2.7215730736E-01  1.6147013464E+00
    58  6.5645813551E-01  2.9988187079E-01  1.3722818367E+00
    59  -1.7152707133E+00  2.7215394731E-01  -1.6146880018E+00
    60  -6.5645908423E-01  -2.9988132472E-01  -1.3722834067E+00
    61  8.2873031043E-01  3.7119662880E-01  -7.3420658188E-01
    62  -5.9421759593E+00  -2.0833174120E+00  4.4013488775E+00
    63  -8.2866924063E-01  -3.7123135881E-01  7.3415429058E-01
    64  5.9419598397E+00  2.0831823604E+00  -4.4011950194E+00
    65  -8.6665426586E-01  -8.8700614194E-01  -8.2722627824E-01
    66  4.8223793741E+00  1.3207017953E+00  -3.5668075967E-02
    67  8.6662077277E-01  8.8700472490E-01  8.2720722849E-01
    68  -4.8223661851E+00  -1.3206860591E+00  3.5670002866E-02
    69  -3.8673586971E-01  -4.1866836730E-01  5.5625034667E-01
    70  4.0173952159E-01  -1.9980593472E-01  -8.3486633647E-01
    71  3.8674564410E-01  4.1869525113E-01  -5.5624415542E-01
    72  -4.0173805553E-01  1.9980314538E-01  8.3486546507E-01
    73  5.4063613225E-01  3.3307751473E-01  -1.1504205100E+00
    74  -8.1513484091E-01  4.9904514266E-01  1.3961544091E+00
    75  -5.4063977847E-01  -3.3307079012E-01  1.1504407035E+00
    76  8.1513540540E-01  -4.9904230723E-01  -1.3961604890E+00
    77  1.3731457093E+00  -3.5522845094E-01  7.2617319843E-01
    78  -1.5182745034E+00  -4.5676038350E-01  -8.7860234105E-01
    79  -1.3731467151E+00  3.5522785291E-01  -7.2617500400E-01
    80  1.5182748298E+00  4.5676029854E-01  8.7860185966E-01
    81  -1.9228584483E+00  2.7047634274E+00  -1.0299060814E+00
    82  1.9490479016E+00  3.0405830890E+00  1.2902408627E+00
    83  1.9227869869E+00  -2.7047079629E+00  1.0298949748E+00
    84  -1.9490471037E+00  -3.0405876940E+00  -1.2902467064E+00
    85  1.7343532769E+00  1.7119343870E-01  8.6788308716E-01
    86  -1.7490993135E+00  2.3832724682E-01  -7.7842887108E-01
    87  -1.7343491562E+00  -1.7119378561E-01  -8.6788108962E-01
    88  1.7490988767E+00  -2.3832724712E-01  7.7842863031E-01
    89  2.8890839233E-01  -4.5514433895E-01  -8.4108261095E-01
    90  -3.1885967685E-01  -3.6838771913E-01  9.2642893758E-01
    91  -2.8890601004E-01  4.5513020532E-01  8.4108574522E-01
    92  3.1885911414E-01  3.6839068086E-01  -9.2642538216E-01
    93  1.3829741506E-01  -1.3523308052E+00  4.8715020242E-01
    94  -1.7244575825E-01  -1.2010648297E+00  -4.3666927685E-01
    95  -1.3827340357E-01  1.3522425129E+00  -4.8714673885E-01
    96  1.7244573837E-01  1.2010662921E+00  4.3667116996E-01
  Stress tensor (eV/A^3):
  6.3164525633E-02  -1.1728565292E-02  4.4029036274E-02
  -1.1728565292E-02  5.6355784972E-02  8.4232024099E-03
  4.4029036274E-02  8.4232024099E-03  4.7100673862E-02
