  Invoking FHI-aims ...
  | Number of atoms                   :  96
  ...scf iterations...
  | Total energy corrected        :   -9.733480063326E+01 eV
  ...
  Total atomic forces (unitary forces cleaned)
     1  -3.2204230540E-01  6.2812119013E-01  2.0361505444E-01
     2  2.3794157084E-01  5.9597223498E-01  -1.8877141019E-01
     3  3.2204235543E-01  -6.2812107711E-01  -2.0361498620E-01
     4  -2.3794142498E-01  -5.9597200475E-01  1.8877144928E-01
     5  -7.1597056127E-01  3.8990376326E-02  -7.2267296879E-01
     6  1.2138787696E+00  -2.2386270561E+00  3.3525576247E+00
     7  7.1597087464E-01  -3.8990229052E-02  7.2267333732E-01
     8  -1.2138791524E+00  2.2386269534E+00  -3.3525573471E+00
     9  -4.7341534475E-01  3.6817925885E-01  -2.0416199426E-01
    10  -1.7071414137E+00  -1.9125852972E+00  1.9874716950E-01
    11  4.7341493447E-01  -3.6817891161E-01  2.0416167028E-01
    12  1.7071430462E+00  1.9125868978E+00  -1.9874741077E-01
    13  -5.7502184797E-01  -1.0885483414E+00  -1.1959015244E+00
    14  2.6921556179E+00  1.0527101779E+00  1.2827549950E+00
    15  5.7502121765E-01  1.0885485036E+00  1.1959012066E+00
    16  -2.6921579113E+00  -1.0527116483E+00  -1.2827537040E+00
    17  5.3551816813E-01  -7.3299756061E-01  -5.4270802522E-02
    18  -1.6181722770E+00  8.4601075073E-01  -2.0871666073E+00
    19  -5.3551725976E-01  7.3299762420E-01  5.4271413135E-02
    20  1.6181736715E+00  -8.4601168847E-01  2.0871668999E+00
    21  6.3377390778E-01  -1.1984151589E+00  -2.4074512604E-01
    22  -5.3381423901E-01  -1.1960163154E+00  3.8353484696E-01
    23  -6.3377439848E-01  1.1984155925E+00  2.4074456961E-01
    24  5.3381391516E-01  1.1960163168E+00  -3.8353503757E-01
    25  1.1154107644E+00  5.8411327358E-02  9.6201078043E-01
    26  -1.2196517704E-01  -1.7955286335E+00  1.2484553787E+00
    27  -1.1154114743E+00  -5.8411917991E-02  -9.6201166087E-01
    28  1.2196517582E-01  1.7955300532E+00  -1.2484564716E+00
    29  5.6306759296E-01  4.2038628524E-01  7.4517761248E-01
    30  -4.4237172719E-01  5.7264472558E-01  -7.8260648160E-01
    31  -5.6306748687E-01  -4.2038622919E-01  -7.4517752945E-01
    32  4.4237131006E-01  -5.7264496461E-01  7.8260611872E-01
    33  1.9490224649E-01  1.0219813949E+00  9.1513356705E-01
    34  -1.0594563034E-01  1.1626863899E+00  -8.3914285790E-01
    35  -1.9490229445E-01  -1.0219817829E+00  -9.1513340280E-01
    36  1.0594588600E-01  -1.1626868352E+00  8.3914265262E-01
    37  -8.3937638394E-01  5.8119267613E-01  -2.9901968356E-01
    38  8.5594066707E-01  7.1576205750E-01  1.9124782226E-01
    39  8.3937637374E-01  -5.8119285917E-01  2.9901965132E-01
    40  -8.5594068404E-01  -7.1576225955E-01  -1.9124737700E-01
    41  -8.5223033440E-01  1.1486749413E+00  6.3025870262E-02
    42  8.8854039712E-01  1.1972075360E+00  -7.1719377395E-02
    43  8.5223028633E-01  -1.1486748935E+00  -6.3025583188E-02
    44  -8.8854017365E-01  -1.1972072828E+00  7.1719601454E-02
    45  -8.0294155973E-01  1.4776082832E-01  -4.0994076918E-01
    46  -2.3972624725E+00  -2.8233186651E+00  -1.8238847239E+00
    47  8.0296141900E-01  -1.4775792577E-01  4.0995573449E-01
    48  2.3972622166E+00  2.8233199946E+00  1.8238810429E+00
    49  -4.4628090537E-01  3.3455171545E-01  1.0685427869E+00
    50  6.5877615172E-01  4.4876800887E+00  -3.6439961074E+00
    51  4.4627501930E-01  -3.3454812318E-01  -1.0685490329E+00
    52  -6.5877555687E-01  -4.4876815719E+00  3.6439951425E+00
    53  -1.1794339914E+00  -1.0190225154E+00  4.3553457300E-01
    54  1.3414621707E+00  -2.1913683614E+00  -9.8138256513E-01
    55  1.1794388688E+00  1.0190238051E+00  -4.3553782128E-01
    56  -1.3414608604E+00  2.1913675539E+00  9.8138355227E-01
    57  9.8277688361E-01  -1.7221078861E-01  8.6885160897E-01
    58  1.9217852695E+00  -2.7860210556E-01  2.3935840523E+00
    59  -9.8278076737E-01  1.7220999138E-01  -8.6885594156E-01
    60  -1.9217859802E+00  2.7860172263E-01  -2.3935812542E+00
    61  -2.5669308173E-01  1.5515368135E+00  7.9648943459E-02
    62  -3.1859236293E+00  -2.1724148048E+00  1.7630493015E+00
    63  2.5670100167E-01  -1.5515425607E+00  -7.9654494839E-02
    64  3.1859229352E+00  2.1724154126E+00  -1.7630480258E+00
    65  3.6411634455E-01  -8.8248587324E-01  1.0994508382E-01
    66  3.8413977217E+00  3.4337146751E+00  -1.5696241331E+00
    67  -3.6412288791E-01  8.8249086182E-01  -1.0994628925E-01
    68  -3.8413966555E+00  -3.4337157941E+00  1.5696252914E+00
    69  -1.1837427214E+00  -1.0172523134E+00  6.9419782644E-01
    70  8.2521168027E-01  -3.5821613915E-01  -5.9459696894E-01
    71  1.1837453692E+00  1.0172578000E+00  -6.9419686167E-01
    72  -8.2521161007E-01  3.5821652746E-01  5.9459707964E-01
    73  7.0065273939E-01  -3.9832905405E-01  -1.6003442973E+00
    74  -1.0094525382E+00  -1.7100336181E+00  3.0496968217E+00
    75  -7.0065377304E-01  3.9832963686E-01  1.6003487221E+00
    76  1.0094504834E+00  1.7100345966E+00  -3.0496971398E+00
    77  9.9898620390E-01  -2.8328281667E-01  6.6257300257E-01
    78  -1.4447063856E+00  -5.9348267523E-01  -1.0293899130E+00
    79  -9.9898907881E-01  2.8328267945E-01  -6.6257603307E-01
    80  1.4447069662E+00  5.9348294345E-01  1.0293891309E+00
    81  6.6892159239E-01  7.5748349102E-01  -3.6432052802E-01
    82  -4.8898637095E-01  8.8768076894E-01  4.8448466194E-01
    83  -6.6893000249E-01  -7.5748553612E-01  3.6431734605E-01
    84  4.8898716662E-01  -8.8768070563E-01  -4.8448634612E-01
    85  1.1224001061E+00  1.0589141871E-02  5.7426779877E-01
    86  -1.0895064341E+00  2.5162729656E-02  -3.9457821981E-01
    87  -1.1224055247E+00  -1.0589537035E-02  -5.7427017743E-01
    88  1.0895062389E+00  -2.5162855138E-02  3.9457826492E-01
    89  3.5405316154E-01  -4.9950765448E-01  -1.5795887719E+00
    90  -3.9235306533E-01  -4.3621308485E-01  1.6607713766E+00
    91  -3.5405486674E-01  4.9950387575E-01  1.5795961514E+00
    92  3.9235238360E-01  4.3621413770E-01  -1.6607701860E+00
    93  -4.9977359373E-01  1.3888201872E+00  1.3712459100E-01
    94  4.2877491585E-01  1.5329605994E+00  -5.3628861186E-02
    95  4.9977507407E-01  -1.3888264925E+00  -1.3712328475E-01
    96  -4.2877501737E-01  -1.5329613235E+00  5.3628912445E-02
  Stress tensor (eV/A^3):
  7.8679196795E-02  -1.2571506752E-02  2.2966269008E-02
  -1.2571506752E-02  7.6543771907E-02  9.6068530488E-03
  2.2966269008E-02  9.6068530488E-03  7.3970831354E-02
