  Invoking FHI-aims ...
  | Number of atoms                   :  96
  ...scf iterations...
  | Total energy corrected        :   -8.919996702157E+01 eV
  ...
  Total atomic forces (unitary forces cleaned)
     1  -2.7247733896E-01  5.9356865158E-01  1.8086251081E-01
     2  2.1866727730E-01  5.6900641390E-01  -1.8268380990E-01
     3  2.7247729499E-01  -5.9356855916E-01  -1.8086249766E-01
     4  -2.1866717715E-01  -5.6900639149E-01  1.8268390823E-01
     5  -8.5735880866E-01  1.5363861629E+00  2.6035189032E-01
     6  8.7341822406E-01  1.5795038377E+00  -5.0067443774E-01
     7  8.5735952304E-01  -1.5363859903E+00  -2.6035124092E-01
     8  -8.7341808245E-01  -1.5795040090E+00  5.0067470094E-01
     9  -3.3931455807E-01  1.9080346353E-01  -1.6018963075E-01
    10  7.4139914660E-01  4.9499401269E-01  1.3246134508E-01
    11  3.3931389681E-01  -1.9080380726E-01  1.6018910952E-01
    12  -7.4139943536E-01  -4.9499380735E-01  -1.3246156139E-01
    13  -4.9649960479E-01  -1.0222460255E+00  -1.0022647644E+00
    14  1.0899881241E-01  -1.3438552907E+00  1.0565805525E+00
    15  4.9649889551E-01  1.0222462925E+00  1.0022644829E+00
    16  -1.0899899134E-01  1.3438553812E+00  -1.0565803767E+00
    17  4.9125786900E-01  -6.5072399107E-01  -4.1258950256E-02
    18  -3.8366910127E-01  -8.7921071797E-01  4.0506808686E-01
    19  -4.9125733215E-01  6.5072421270E-01  4.1259429608E-02
    20  3.8366911329E-01  8.7921057049E-01  -4.0506840767E-01
    21  5.3586441934E-01  -1.0624451274E+00  -1.9026192941E-01
    22  -5.3957949961E-01  -1.1136215761E+00  2.2937150275E-01
    23  -5.3586455798E-01  1.0624451882E+00  1.9026182763E-01
    24  5.3957967516E-01  1.1136217534E+00  -2.2937156212E-01
    25  8.6198554164E-01  7.6972144658E-02  6.1965189889E-01
    26  -9.7371444908E-01  3.1025921378E-01  -9.8394355472E-01
    27  -8.6198573233E-01  -7.6972702869E-02  -6.1965224833E-01
    28  9.7371489621E-01  -3.1025870112E-01  9.8394342772E-01
    29  4.7127094640E-01  4.7465141697E-01  6.6020232054E-01
    30  -4.5946801085E-01  5.0095039716E-01  -6.7141242547E-01
    31  -4.7127075172E-01  -4.7465141835E-01  -6.6020267016E-01
    32  4.5946719272E-01  -5.0095074563E-01  6.7141214704E-01
    33  1.2203235605E-01  9.6880210838E-01  7.9603547471E-01
    34  -1.1454952275E-01  9.8073512818E-01  -8.0009881164E-01
    35  -1.2203213766E-01  -9.6880200406E-01  -7.9603524609E-01
    36  1.1454959463E-01  -9.8073524675E-01  8.0009875926E-01
    37  -7.8373883202E-01  5.8484352469E-01  -1.5390517118E-01
    38  7.8986922575E-01  6.0786676348E-01  1.3955577300E-01
    39  7.8373886692E-01  -5.8484372399E-01  1.5390538161E-01
    40  -7.8986887168E-01  -6.0786720919E-01  -1.3955524237E-01
    41  -8.1272916374E-01  1.0227478908E+00  6.7410630089E-02
    42  8.1581717991E-01  1.0242284977E+00  -7.0977477117E-02
    43  8.1272910754E-01  -1.0227476267E+00  -6.7410579977E-02
    44  -8.1581692299E-01  -1.0242282883E+00  7.0977530329E-02
    45  -1.9321760863E+00  1.0657564978E-01  -1.3312741968E+00
    46  1.5311263841E+00  -6.1685982573E-01  1.3532001967E+00
    47  1.9321782225E+00  -1.0657405089E-01  1.3312747558E+00
    48  -1.5311285581E+00  6.1685821309E-01  -1.3531997831E+00
    49  -3.9260711325E+00  -1.5334322744E+00  3.4376329487E+00
    50  5.2933717610E+00  -1.6938404441E-01  -7.6393134929E+00
    51  3.9260076029E+00  1.5334210721E+00  -3.4376041900E+00
    52  -5.2933726530E+00  1.6938677683E-01  7.6393165259E+00
    53  7.9479843220E-01  8.7299169567E-01  -4.4252012525E-01
    54  -1.0828338228E+00  9.0249273472E-01  6.1460498043E-01
    55  -7.9477304455E-01  -8.7295766260E-01  4.4251292736E-01
    56  1.0828362523E+00  -9.0249629516E-01  -6.1460591928E-01
    57  1.2722067020E+00  -1.8600147296E-01  1.0778943975E+00
    58  9.0805913134E-01  1.8407137515E-01  9.5697363651E-01
    59  -1.2722014834E+00  1.8599979013E-01  -1.0778896497E+00
    60  -9.0806136259E-01  -1.8407193332E-01  -9.5697544936E-01
    61  6.9234597842E-01  -2.5108380243E-01  -5.8469579606E-01
    62  -3.9095071994E+00  -1.8757368280E+00  2.6519087818E+00
    63  -6.9231457915E-01  2.5106152698E-01  5.8467146652E-01
    64  3.9095079663E+00  1.8757373893E+00  -2.6519080446E+00
    65  1.2125029000E+00  -2.3659933773E+00  -1.6125241091E+00
    66  -7.8138578782E-01  -1.9776708801E+00  2.5913586915E+00
    67  -1.2125104212E+00  2.3659729020E+00  1.6125047406E+00
    68  7.8138382705E-01  1.9776769624E+00  -2.5913515754E+00
    69  -1.1665730461E-01  -4.1716240705E-01  2.8253102384E-01
    70  2.2529306545E-01  -5.0587183741E-01  -3.8554653686E-01
    71  1.1666326328E-01  4.1718239167E-01  -2.8252718133E-01
    72  -2.2529209629E-01  5.0586773388E-01  3.8554666856E-01
    73  2.6416426480E-01  3.8482995119E-01  -8.3268433897E-01
    74  -9.8930059718E-02  5.1500079478E-01  -1.3779396307E-02
    75  -2.6416731645E-01  -3.8483025083E-01  8.3269662403E-01
    76  9.8932142131E-02  -5.1500055086E-01  1.3771731624E-02
    77  1.1773986726E+00  -1.6643359634E-01  6.3680417728E-01
    78  -1.4926497094E+00  -2.4367997103E-01  -8.2140676025E-01
    79  -1.1773941510E+00  1.6643271577E-01  -6.3680276237E-01
    80  1.4926497671E+00  2.4367985137E-01  8.2140658988E-01
    81  -2.6152970042E-01  4.4734059449E+00  -1.9448015482E-01
    82  2.2945097047E-01  4.6047740878E+00  2.2586266168E-01
    83  2.6150407701E-01  -4.4733558157E+00  1.9447284345E-01
    84  -2.2945074044E-01  -4.6047782844E+00  -2.2586689682E-01
    85  1.4098951530E+00  1.1699740707E-01  7.5733164567E-01
    86  -1.4376775853E+00  1.5630479725E-01  -7.4448401133E-01
    87  -1.4098894724E+00  -1.1699666812E-01  -7.5732877326E-01
    88  1.4376772238E+00  -1.5630472637E-01  7.4448392992E-01
    89  8.8344375702E-02  -1.6479435074E-01  -3.2923722274E-01
    90  -9.1712145875E-02  -1.3419842018E-01  3.4794913132E-01
    91  -8.8346981613E-02  1.6478199938E-01  3.2925631847E-01
    92  9.1711651894E-02  1.3420076275E-01  -3.4794553752E-01
    93  4.4340568291E-01  -8.7907635838E-01  -1.2908689676E-01
    94  -4.4330779340E-01  -8.2959398937E-01  1.3659117392E-01
    95  -4.4338351237E-01  8.7903888448E-01  1.2907144777E-01
    96  4.4330905694E-01  8.2959619735E-01  -1.3659131019E-01
  Stress tensor (eV/A^3):
  7.4688754254E-02  -4.0160348354E-03  3.3256486415E-02
  -4.0160348354E-03  7.1592458617E-02  8.3725644331E-04
  3.3256486415E-02  8.3725644331E-04  6.3483419799E-02
