  Invoking FHI-aims ...
  | Number of atoms                   :  96
  ...scf iterations...
  | Total energy corrected        :   -8.088386551596E+01 eV
  ...
  Total atomic forces (unitary forces cleaned)
     1  -2.4926420304E-01  6.0859229305E-01  1.8671852555E-01
     2  2.0383069058E-01  5.7099228577E-01  -1.9474687101E-01
     3  2.4926435712E-01  -6.0859220106E-01  -1.8671843236E-01
     4  -2.0383057486E-01  -5.7099199953E-01  1.9474691448E-01
     5  -7.8331336086E-01  1.5406834226E+00  2.4446640832E-01
     6  7.8974645274E-01  1.6253918888E+00  -4.8446812314E-01
     7  7.8331336838E-01  -1.5406832840E+00  -2.4446629580E-01
     8  -7.8974693578E-01  -1.6253919956E+00  4.8446841054E-01
     9  -2.9654237114E-01  2.1840129758E-01  -1.6733170879E-01
    10  6.4115665120E-01  5.3765037486E-01  1.5263985263E-01
    11  2.9654219077E-01  -2.1840065381E-01  1.6733157555E-01
    12  -6.4115711249E-01  -5.3765096154E-01  -1.5263934887E-01
    13  -4.6942109522E-01  -9.3453332224E-01  -1.0279289644E+00
    14  1.2906116802E-01  -1.2682223442E+00  1.0598423752E+00
    15  4.6942058457E-01  9.3453331082E-01  1.0279286589E+00
    16  -1.2906126818E-01  1.2682229517E+00  -1.0598415453E+00
    17  5.5629077566E-01  -7.9584997343E-01  -7.3249984288E-02
    18  -4.4648278076E-01  -9.8039724457E-01  4.0880911671E-01
    19  -5.5628999053E-01  7.9585021540E-01  7.3250536536E-02
    20  4.4648238705E-01  9.8039730132E-01  -4.0880962833E-01
    21  4.4523319516E-01  -9.0734520676E-01  -2.0963462056E-01
    22  -4.5609423012E-01  -9.4849626969E-01  2.2558180755E-01
    23  -4.4523318716E-01  9.0734558722E-01  2.0963414204E-01
    24  4.5609392153E-01  9.4849643881E-01  -2.2558204630E-01
    25  7.2561808918E-01  -1.1489981195E-02  6.5994783227E-01
    26  -8.3462242877E-01  1.8901625425E-01  -1.0016588958E+00
    27  -7.2561792331E-01  1.1489509629E-02  -6.5994798810E-01
    28  8.3462364527E-01  -1.8901629632E-01  1.0016585512E+00
    29  4.8189691428E-01  5.2761438390E-01  7.6620061219E-01
    30  -4.7536135774E-01  5.4312413021E-01  -7.7402383824E-01
    31  -4.8189700209E-01  -5.2761440721E-01  -7.6620049249E-01
    32  4.7536131253E-01  -5.4312421577E-01  7.7402357893E-01
    33  8.7940372184E-02  8.0539957468E-01  6.7116710277E-01
    34  -6.5669484837E-02  8.3061970511E-01  -6.4100446335E-01
    35  -8.7940405534E-02  -8.0540000557E-01  -6.7116673937E-01
    36  6.5669825582E-02  -8.3061996836E-01  6.4100431838E-01
    37  -7.8981379500E-01  7.6968159223E-01  -1.5661017337E-01
    38  7.9688164177E-01  7.8619873364E-01  1.4847621519E-01
    39  7.8981385580E-01  -7.6968179966E-01  1.5661020401E-01
    40  -7.9688169658E-01  -7.8619865874E-01  -1.4847592489E-01
    41  -6.5176332582E-01  9.1725910174E-01  4.6992144646E-02
    42  6.5453091508E-01  9.1850438909E-01  -4.9419062901E-02
    43  6.5176332338E-01  -9.1725919282E-01  -4.6991848266E-02
    44  -6.5453080802E-01  -9.1850423944E-01  4.9419259321E-02
    45  -1.0292851172E+00  1.0457583033E-01  -6.9960464525E-01
    46  1.2174592783E+00  5.7567044641E-01  6.3182186123E-01
    47  1.0292817547E+00  -1.0457527741E-01  6.9960334959E-01
    48  -1.2174595838E+00  -5.7567079718E-01  -6.3182169704E-01
    49  -6.4637759863E-02  6.0976520504E-01  1.6810909932E+00
    50  -7.2442102159E-01  5.2854139864E+00  -3.4475851475E+00
    51  6.4639000233E-02  -6.0976242356E-01  -1.6810899455E+00
    52  7.2442307530E-01  -5.2854133666E+00  3.4475833076E+00
    53  -8.6008066127E-01  -4.4827712897E-01  3.4535833543E-01
    54  5.7850987627E-01  -4.0041804317E-01  -1.9556882764E-01
    55  8.6007948843E-01  4.4827851279E-01  -3.4535719738E-01
    56  -5.7850908808E-01  4.0041773448E-01  1.9556893528E-01
    57  5.4598912181E-01  -1.3870205877E-01  3.7908655927E-01
    58  1.5005514393E+00  1.9493205408E-01  1.3773889466E+00
    59  -5.4598948896E-01  1.3870126839E-01  -3.7908631194E-01
    60  -1.5005530638E+00  -1.9493241430E-01  -1.3773884589E+00
    61  -4.4272790616E-02  9.8125658636E-01  -3.7037248034E-02
    62  -9.7182614142E-01  -4.0305958040E+00  2.9640421189E-02
    63  4.4274611534E-02  -9.8125666402E-01  3.7035802526E-02
    64  9.7182616875E-01  4.0305955977E+00  -2.9639241871E-02
    65  6.3917433327E-01  -1.6469412699E+00  4.1713045109E-01
    66  2.2014119362E-02  -1.1039064886E+00  -1.2957962069E+00
    67  -6.3917571827E-01  1.6469399869E+00  -4.1712877739E-01
    68  -2.2013524890E-02  1.1039059309E+00  1.2957966593E+00
    69  -7.9207927576E-01  -3.8929178105E-01  4.1591938921E-01
    70  9.1242776950E-01  -4.7171911705E-01  -4.5788782590E-01
    71  7.9207815302E-01  3.8929251638E-01  -4.1591832392E-01
    72  -9.1242753540E-01  4.7171889005E-01  4.5788844760E-01
    73  3.7170281739E-01  -3.3369593997E-01  -8.2831822349E-01
    74  -7.3738707671E-01  -1.2282595882E+00  2.0770508517E+00
    75  -3.7170319045E-01  3.3369355339E-01  8.2831801202E-01
    76  7.3738560576E-01  1.2282601141E+00  -2.0770512348E+00
    77  4.9279712431E-01  -5.7172840671E-02  3.7190371900E-01
    78  -1.0577288777E+00  -2.0080339254E-01  -8.0640148161E-01
    79  -4.9279624235E-01  5.7172413766E-02  -3.7190364832E-01
    80  1.0577291925E+00  2.0080342626E-01  8.0640073922E-01
    81  1.5001371914E+00  7.8918367486E-01  -5.9713092499E-01
    82  -1.5106110437E+00  8.0806042468E-01  6.1213574891E-01
    83  -1.5001347414E+00  -7.8918470306E-01  5.9712915145E-01
    84  1.5106110083E+00  -8.0805940270E-01  -6.1213628397E-01
    85  4.8042132362E-01  -6.1177980002E-02  3.4744004604E-01
    86  -4.8520981432E-01  -6.2935270110E-02  -3.3709966959E-01
    87  -4.8042089789E-01  6.1178316766E-02  -3.4743974327E-01
    88  4.8520952485E-01  6.2935136672E-02  3.3709972651E-01
    89  1.1066243779E-01  -4.5896760858E-01  -8.7059830418E-01
    90  -1.1175695283E-01  -4.5272222494E-01  8.7987776684E-01
    91  -1.1066257854E-01  4.5896623385E-01  8.7059809529E-01
    92  1.1175652845E-01  4.5272262372E-01  -8.7987741592E-01
    93  -2.9093858077E-01  9.0699337218E-01  -6.5578614864E-02
    94  2.8970468661E-01  9.1692082848E-01  6.8333338772E-02
    95  2.9093937268E-01  -9.0699241720E-01  6.5577033072E-02
    96  -2.8970453598E-01  -9.1692118331E-01  -6.8333434986E-02
  Stress tensor (eV/A^3):
  7.1737308616E-02  -1.1564092528E-03  2.0608809444E-02
  -1.1564092528E-03  7.6831264902E-02  -2.7970013191E-03
  2.0608809444E-02  -2.7970013191E-03  7.2756779089E-02
