  Invoking FHI-aims ...
  | Number of atoms                   :  96
  ...scf iterations...
  | Total energy corrected        :   -9.456440978294E+01 eV
  ...
  Total atomic forces (unitary forces cleaned)
     1  -3.3241719377E-01  5.9941549092E-01  1.9919505124E-01
     2  2.5510092330E-01  5.9644091176E-01  -1.8327146744E-01
     3  3.3241708495E-01  -5.9941536631E-01  -1.9919504169E-01
     4  -2.5510084219E-01  -5.9644093017E-01  1.8327158114E-01
     5  -7.8436569420E-01  1.0775859523E+00  -1.1710791911E-01
     6  1.1830671108E+00  -3.1178070911E+00  3.9724325206E+00
     7  7.8436677818E-01  -1.0775857261E+00  1.1710885403E-01
     8  -1.1830667653E+00  3.1178068834E+00  -3.9724321787E+00
     9  -4.8820491555E-01  2.8588510100E-01  -2.0009437991E-01
    10  -1.5097620463E+00  -1.6509001961E+00  2.0893140720E-01
    11  4.8820401254E-01  -2.8588584324E-01  2.0009352486E-01
    12  1.5097610243E+00  1.6509003367E+00  -2.0893202700E-01
    13  -5.7399452313E-01  -1.1381479776E+00  -1.1007623140E+00
    14  2.4822039939E+00  6.7407821519E-01  1.1442730251E+00
    15  5.7399356228E-01  1.1381483650E+00  1.1007619473E+00
    16  -2.4822036314E+00  -6.7407787967E-01  -1.1442728998E+00
    17  4.5780453647E-01  -5.7414631121E-01  -1.9964370525E-02
    18  -1.7138521885E+00  1.5119270831E+00  -2.4888966054E+00
    19  -4.5780390771E-01  5.7414665652E-01  1.9964999963E-02
    20  1.7138521834E+00  -1.5119272442E+00  2.4888964193E+00
    21  7.2138103078E-01  -1.2429293679E+00  -1.6830549078E-01
    22  -6.3238271994E-01  -1.3146873581E+00  3.1684306485E-01
    23  -7.2138113626E-01  1.2429294337E+00  1.6830548145E-01
    24  6.3238287158E-01  1.3146875783E+00  -3.1684316767E-01
    25  1.1583063189E+00  1.3532277560E-01  8.3118622459E-01
    26  -5.4067708679E-02  -2.1432930547E+00  1.7035999108E+00
    27  -1.1583062943E+00  -1.3532358291E-01  -8.3118660669E-01
    28  5.4068334876E-02  2.1432938140E+00  -1.7036001104E+00
    29  5.2054913533E-01  3.5853414066E-01  6.2275504585E-01
    30  -4.3037621053E-01  5.1816977655E-01  -6.7908712123E-01
    31  -5.2054903518E-01  -3.5853421513E-01  -6.2275558985E-01
    32  4.3037522734E-01  -5.1817028893E-01  6.7908691790E-01
    33  1.7197850932E-01  1.1437916558E+00  9.4480811829E-01
    34  -1.6485137735E-01  1.2127126296E+00  -9.5826468845E-01
    35  -1.7197831540E-01  -1.1437913353E+00  -9.4480786175E-01
    36  1.6485135312E-01  -1.2127127776E+00  9.5826464284E-01
    37  -7.8649803772E-01  4.2846427030E-01  -2.4360659471E-01
    38  8.2769368408E-01  5.5287711280E-01  1.5237113879E-01
    39  7.8649823311E-01  -4.2846451584E-01  2.4360694756E-01
    40  -8.2769344207E-01  -5.5287787801E-01  -1.5237053607E-01
    41  -9.8568378521E-01  1.2027487086E+00  8.7266917596E-02
    42  1.0090355689E+00  1.2365926926E+00  -9.1681598554E-02
    43  9.8568361186E-01  -1.2027482157E+00  -8.7266882667E-02
    44  -1.0090351960E+00  -1.2365924083E+00  9.1681642031E-02
    45  -1.8304792916E+00  1.0444164259E-01  -1.2396847078E+00
    46  -3.5216934868E-01  -2.4152284385E+00  -1.6723454059E+00
    47  1.8304811678E+00  -1.0443963227E-01  1.2396855642E+00
    48  3.5216872644E-01  2.4152273830E+00  1.6723435590E+00
    49  1.2478701253E-01  -4.8493945086E-01  1.3126469392E+00
    50  -8.2230024757E-02  -6.2833049315E-02  -2.2243382898E+00
    51  -1.2478885312E-01  4.8493853870E-01  -1.3126480655E+00
    52  8.2229127959E-02  6.2833514641E-02  2.2243412097E+00
    53  -8.5744435833E-01  -1.8717072217E+00  -1.7736469425E-01
    54  1.0347467908E-01  -2.8882517981E+00  6.2818762817E-01
    55  8.5744425809E-01  1.8717077308E+00  1.7736430234E-01
    56  -1.0347467894E-01  2.8882520867E+00  -6.2818692175E-01
    57  1.1041113073E+00  -1.5568387385E-01  9.2782259132E-01
    58  2.0900021102E+00  4.1996019254E-01  1.7731747784E+00
    59  -1.1041104047E+00  1.5568287520E-01  -9.2782154268E-01
    60  -2.0900020104E+00  -4.1996045832E-01  -1.7731750650E+00
    61  -1.4874318928E+00  1.1797500261E+00  1.0436928746E+00
    62  -1.6345607118E+00  1.5814492684E+00  8.3604760678E-01
    63  1.4874325059E+00  -1.1797499791E+00  -1.0436923153E+00
    64  1.6345605818E+00  -1.5814493940E+00  -8.3604755725E-01
    65  1.2123302321E+00  -5.9368794351E-01  -2.3931011481E-01
    66  2.5558190624E+00  8.2973295475E-01  6.6203085587E-02
    67  -1.2123321829E+00  5.9368926440E-01  2.3931138123E-01
    68  -2.5558192412E+00  -8.2973310253E-01  -6.6201732236E-02
    69  -4.3843743844E-01  -1.9938863135E+00  -1.5123232906E-01
    70  1.1554484989E+00  -2.4531469277E+00  -4.3208501269E-01
    71  4.3843742543E-01  1.9938847569E+00  1.5123212964E-01
    72  -1.1554488488E+00  2.4531461167E+00  4.3208523487E-01
    73  5.0890744437E-01  6.5599550902E-01  -1.9561260319E+00
    74  -8.0669337964E-01  1.1865334810E+00  2.0749239618E+00
    75  -5.0890738080E-01  -6.5599492901E-01  1.9561240979E+00
    76  8.0669379086E-01  -1.1865319846E+00  -2.0749263686E+00
    77  1.1888239297E+00  -1.1117526356E-01  6.6163700678E-01
    78  -2.4793795912E+00  -6.0740786373E-01  -1.4161582137E+00
    79  -1.1888224514E+00  1.1117485869E-01  -6.6163727020E-01
    80  2.4793802529E+00  6.0740810251E-01  1.4161584014E+00
    81  8.8420859565E-01  9.7565452280E-01  4.4092734364E-01
    82  -9.5045858843E-01  1.5072960220E+00  -3.5273407374E-01
    83  -8.8421162689E-01  -9.7565648652E-01  -4.4092603299E-01
    84  9.5045923531E-01  -1.5072963812E+00  3.5273406510E-01
    85  1.3029791174E+00  9.1008511093E-02  7.2089222727E-01
    86  -1.4324226302E+00  2.8323046872E-01  -6.8419508107E-01
    87  -1.3029779813E+00  -9.1008074127E-02  -7.2089170348E-01
    88  1.4324222425E+00  -2.8323037576E-01  6.8419498900E-01
    89  2.9978962392E-01  9.2224086554E-01  -1.8910163081E+00
    90  -3.1503661679E-01  1.1469338125E+00  2.0060601562E+00
    91  -2.9978924535E-01  -9.2223930660E-01  1.8910147831E+00
    92  3.1503689532E-01  -1.1469332143E+00  -2.0060604434E+00
    93  -1.1481186298E+00  1.2813609002E+00  1.1566288568E+00
    94  1.1906934523E+00  1.5385280786E+00  -1.1513325645E+00
    95  1.1481191463E+00  -1.2813617032E+00  -1.1566290089E+00
    96  -1.1906931371E+00  -1.5385283388E+00  1.1513321497E+00
  Stress tensor (eV/A^3):
  9.0060219250E-02  -5.5632626771E-03  2.4583795914E-02
  -5.5632626771E-03  1.0808382699E-01  8.2936173256E-03
  2.4583795914E-02  8.2936173256E-03  6.8965378017E-02
