  Invoking FHI-aims ...
  | Number of atoms                   :  96
  ...scf iterations...
  | Total energy corrected        :   -7.377548133970E+01 eV
  ...
  Total atomic forces (unitary forces cleaned)
     1  -2.5453236095E-01  5.8396963139E-01  1.9175004647E-01
     2  2.4076071176E-01  5.7865032045E-01  -1.9206601729E-01
     3  2.5453229307E-01  -5.8396958133E-01  -1.9175004963E-01
     4  -2.4076062307E-01  -5.7865034569E-01  1.9206613931E-01
     5  -8.8896960579E-01  1.1384015168E+00  7.5039321853E-02
     6  8.8423615513E-01  1.1090405748E+00  -4.0669724155E-02
     7  8.8897030107E-01  -1.1384013364E+00  -7.5038722880E-02
     8  -8.8423596184E-01  -1.1090407630E+00  4.0669870342E-02
     9  -1.9863438953E-01  1.3338150268E-01  -8.3788314101E-02
    10  1.6342606909E-01  1.0068203576E-01  8.7608886028E-02
    11  1.9863378401E-01  -1.3338189265E-01  8.3787997511E-02
    12  -1.6342624875E-01  -1.0068167486E-01  -8.7609172854E-02
    13  -3.7288939793E-01  -9.2567263442E-01  -8.1127125401E-01
    14  4.0870495525E-01  -8.9248919741E-01  8.0740052938E-01
    15  3.7288885823E-01  9.2567290869E-01  8.1127107576E-01
    16  -4.0870516680E-01  8.9248911384E-01  -8.0740053445E-01
    17  2.2243609412E+00  -2.9534728873E+00  -2.7288197184E-01
    18  -2.2373805708E+00  -2.9227124965E+00  2.3657200167E-01
    19  -2.2243606775E+00  2.9534731739E+00  2.7288247132E-01
    20  2.2373818992E+00  2.9227147151E+00  -2.3657252315E-01
    21  -1.2892843109E+00  1.4001191974E+00  8.8037475580E-02
    22  1.2904623775E+00  1.4049841523E+00  -9.0858564627E-02
    23  1.2892842478E+00  -1.4001192662E+00  -8.8037608275E-02
    24  -1.2904635532E+00  -1.4049862481E+00  9.0858643479E-02
    25  5.4618918853E-01  7.0277514712E-02  3.4106223847E-01
    26  -5.3446093513E-01  3.6781130839E-02  -3.0439359091E-01
    27  -5.4618950014E-01  -7.0277935672E-02  -3.4106254001E-01
    28  5.3446098945E-01  -3.6780753660E-02  3.0439349429E-01
    29  8.4352131076E-01  2.6518359441E+00  2.3776745771E+00
    30  -8.4377373060E-01  2.6505060914E+00  -2.3767435901E+00
    31  -8.4352046515E-01  -2.6518329896E+00  -2.3776727353E+00
    32  8.4377322449E-01  -2.6505065939E+00  2.3767435426E+00
    33  -4.5936631805E-01  -1.2968638593E+00  -1.1548616165E+00
    34  4.5937128403E-01  -1.2968659197E+00  1.1548614519E+00
    35  4.5936579350E-01  1.2968611447E+00  1.1548594022E+00
    36  -4.5937145889E-01  1.2968660616E+00  -1.1548615354E+00
    37  -2.4228075709E+00  2.8154860691E+00  2.2698138783E-01
    38  2.4223990665E+00  2.8145927389E+00  -2.2639007668E-01
    39  2.4228056609E+00  -2.8154832557E+00  -2.2698101823E-01
    40  -2.4223966746E+00  -2.8145906356E+00  2.2639016086E-01
    41  1.0338251859E+00  -1.3278422698E+00  -1.9364108632E-01
    42  -1.0343635007E+00  -1.3283188385E+00  1.9397155993E-01
    43  -1.0338232259E+00  1.3278394559E+00  1.9364086649E-01
    44  1.0343615982E+00  1.3283164789E+00  -1.9397131415E-01
    45  -6.0076795567E-01  1.8551956605E-02  -3.9117328334E-01
    46  5.8079718328E-01  9.1292804851E-04  3.7646645586E-01
    47  6.0076661679E-01  -1.8552354704E-02  3.9117220617E-01
    48  -5.8079689472E-01  -9.1296673610E-04  -3.7646667644E-01
    49  -5.1205986087E+00  -3.4460809189E+00  4.5674488052E+00
    50  4.2479460582E+00  -3.9200236830E+00  -4.0227377031E+00
    51  5.1205765235E+00  3.4460692107E+00  -4.5674400403E+00
    52  -4.2479535521E+00  3.9200258399E+00  4.0227339283E+00
    53  1.8702345743E+00  4.9303556251E+00  5.9300444789E-01
    54  -1.8308080088E+00  4.9005980913E+00  -5.9447029462E-01
    55  -1.8702261986E+00  -4.9303359607E+00  -5.9299949158E-01
    56  1.8308091327E+00  -4.9006012074E+00  5.9446963341E-01
    57  -9.4125705290E-01  8.8782536162E-02  -7.7735432645E-01
    58  9.8761203010E-01  9.4861220132E-02  8.1817053714E-01
    59  9.4125611138E-01  -8.8782231315E-02  7.7735399415E-01
    60  -9.8760593335E-01  -9.4860972827E-02  -8.1816624053E-01
    61  3.6520208175E+00  -2.4602180374E+00  -2.6743538600E+00
    62  -2.8615361496E+00  -1.9531135653E+00  2.1241546965E+00
    63  -3.6520064414E+00  2.4602081199E+00  2.6743420511E+00
    64  2.8615362140E+00  1.9531138951E+00  -2.1241541777E+00
    65  2.4587348033E+00  -3.8972203618E+00  -4.9749203759E+00
    66  -2.3076794711E+00  -3.9887945053E+00  4.5395406517E+00
    67  -2.4587360550E+00  3.8972090904E+00  4.9749037441E+00
    68  2.3076751386E+00  3.9888039471E+00  -4.5395322627E+00
    69  1.1240208476E+00  4.2676811724E+00  8.1005962352E-01
    70  -1.1329153989E+00  4.2750253669E+00  -8.0328004900E-01
    71  -1.1240168473E+00  -4.2676648936E+00  -8.1005637358E-01
    72  1.1329170881E+00  -4.2750299386E+00  8.0327966643E-01
    73  -9.0019661527E-01  -1.4451283803E+00  3.8204092450E+00
    74  8.0922813764E-01  -1.3237297633E+00  -3.3944828075E+00
    75  9.0019547891E-01  1.4451228900E+00  -3.8203972003E+00
    76  -8.0922640708E-01  1.3237253920E+00  3.3944748764E+00
    77  -1.0276880115E+00  -1.4918235400E-02  -6.1356871356E-01
    78  1.0042360555E+00  -3.7477820622E-02  5.9765374253E-01
    79  1.0276875628E+00  1.4918298472E-02  6.1356870616E-01
    80  -1.0042355165E+00  3.7477699793E-02  -5.9765333603E-01
    81  -8.4443151882E-01  7.3553562746E+00  -1.7496066352E-01
    82  8.4475599928E-01  7.3524240855E+00  1.7453022933E-01
    83  8.4441469154E-01  -7.3553316281E+00  1.7496890852E-01
    84  -8.4475873608E-01  -7.3524264703E+00  -1.7453395959E-01
    85  -9.7985576060E-01  -2.1674553257E-02  -5.2578397394E-01
    86  9.8094544692E-01  -2.3771142422E-02  5.2525165552E-01
    87  9.7985645707E-01  2.1674372202E-02  5.2578466500E-01
    88  -9.8094314583E-01  2.3771135972E-02  -5.2525039728E-01
    89  -5.6932435732E-01  -2.5155507421E+00  3.9648194023E+00
    90  5.6949403760E-01  -2.5173854337E+00  -3.9655523118E+00
    91  5.6932348070E-01  2.5155434519E+00  -3.9648108821E+00
    92  -5.6949464237E-01  2.5173856719E+00  3.9655543311E+00
    93  3.2421559429E+00  -2.8318611888E+00  -2.8267762916E+00
    94  -3.2424955813E+00  -2.8341216087E+00  2.8266239784E+00
    95  -3.2421382598E+00  2.8318462585E+00  2.8267598737E+00
    96  3.2424970418E+00  2.8341239360E+00  -2.8266239424E+00
  Stress tensor (eV/A^3):
  1.3798996019E-02  7.0473582093E-04  3.1446903204E-02
  7.0473582093E-04  -2.1778335094E-02  -2.0763705886E-04
  3.1446903204E-02  -2.0763705886E-04  -8.6596030642E-03
