  Invoking FHI-aims ...
  | Number of atoms                   :  96
  ...scf iterations...
  | Total energy corrected        :   -9.102818647366E+01 eV
  ...
  Total atomic forces (unitary forces cleaned)
     1  -2.8386834163E-01  5.9038223790E-01  1.8923895981E-01
     2  2.1938088581E-01  5.6927638451E-01  -1.8280622172E-01
     3  2.8386829107E-01  -5.9038214119E-01  -1.8923894618E-01
     4  -2.1938078762E-01  -5.6927636379E-01  1.8280631891E-01
     5  -8.4812990304E-01  1.6073406588E+00  2.8151825509E-01
     6  8.6469320725E-01  1.3817327197E+00  -4.1596453303E-01
     7  8.4813065215E-01  -1.6073404822E+00  -2.8151757671E-01
     8  -8.6469305386E-01  -1.3817328924E+00  4.1596480531E-01
     9  -3.6313536939E-01  2.0511060834E-01  -1.6859266384E-01
    10  9.0191373773E-01  5.8178739525E-01  1.3618833200E-01
    11  3.6313468322E-01  -2.0511098346E-01  1.6859210428E-01
    12  -9.0191404561E-01  -5.8178720183E-01  -1.3618855416E-01
    13  -5.1556736164E-01  -1.0429807575E+00  -1.0147264966E+00
    14  -1.7479629926E-02  -1.4426254085E+00  1.0877945690E+00
    15  5.1556662096E-01  1.0429810396E+00  1.0147262007E+00
    16  1.7479456765E-02  1.4426255290E+00  -1.0877944089E+00
    17  4.4378174529E-01  -5.8127172491E-01  -3.2394997717E-02
    18  -3.0520065529E-01  -8.0857224698E-01  4.7492191183E-01
    19  -4.4378116530E-01  5.8127192923E-01  3.2395501238E-02
    20  3.0520066256E-01  8.0857201409E-01  -4.7492218509E-01
    21  6.0880058306E-01  -1.1450973151E+00  -2.0139350037E-01
    22  -6.1360472420E-01  -1.2294592899E+00  2.5019135332E-01
    23  -6.0880074256E-01  1.1450974097E+00  2.0139339958E-01
    24  6.1360491409E-01  1.2294595101E+00  -2.5019141938E-01
    25  9.1449102750E-01  8.2970971981E-02  6.6047043840E-01
    26  -1.0431924016E+00  3.2436952311E-01  -1.0974067906E+00
    27  -9.1449124157E-01  -8.2971558515E-02  -6.6047082815E-01
    28  1.0431928799E+00  -3.2436894270E-01  1.0974066319E+00
    29  4.7092608246E-01  4.0310442131E-01  6.1073715024E-01
    30  -4.5736940834E-01  4.3918755881E-01  -6.2930883251E-01
    31  -4.7092589690E-01  -4.0310446175E-01  -6.1073754093E-01
    32  4.5736855263E-01  -4.3918791455E-01  6.2930854728E-01
    33  1.4256669663E-01  1.0449960774E+00  8.7726481572E-01
    34  -1.4234153331E-01  1.0635393586E+00  -8.6536334970E-01
    35  -1.4256646732E-01  -1.0449959320E+00  -8.7726454551E-01
    36  1.4234161260E-01  -1.0635394976E+00  8.6536329761E-01
    37  -7.4444068283E-01  5.0645890716E-01  -1.7835154131E-01
    38  7.5627529079E-01  5.3755088145E-01  1.6042577034E-01
    39  7.4444075595E-01  -5.0645915408E-01  1.7835175676E-01
    40  -7.5627497694E-01  -5.3755140184E-01  -1.6042521840E-01
    41  -8.8523091200E-01  1.1047317928E+00  8.3617365966E-02
    42  8.8771926478E-01  1.1141875462E+00  -7.9853621169E-02
    43  8.8523081850E-01  -1.1047314621E+00  -8.3617306341E-02
    44  -8.8771895802E-01  -1.1141872836E+00  7.9853677325E-02
    45  -1.8355123372E+00  1.1884494427E-01  -1.2791488231E+00
    46  7.8099541064E-01  -1.3407092126E+00  1.0898124612E+00
    47  1.8355180707E+00  -1.1884237641E-01  1.2791527558E+00
    48  -7.8099852660E-01  1.3407066446E+00  -1.0898119870E+00
    49  -2.8292424714E+00  -1.1982426637E+00  2.7526700982E+00
    50  4.6767830067E+00  6.5163185566E-01  -7.0657273874E+00
    51  2.8291969177E+00  1.1982345730E+00  -2.7526535878E+00
    52  -4.6767840188E+00  -6.5162953919E-01  7.0657307374E+00
    53  2.6600740494E-01  1.6059921944E-02  -3.5226312869E-01
    54  -5.0401521528E-01  -2.7494960281E-01  5.4349084173E-01
    55  -2.6598912515E-01  -1.6036383531E-02  3.5225718762E-01
    56  5.0401728740E-01  2.7494670849E-01  -5.4349145301E-01
    57  1.3169609618E+00  -1.9908877524E-01  1.1423406457E+00
    58  9.7742238906E-01  2.1529885062E-01  1.0428233955E+00
    59  -1.3169565217E+00  1.9908715083E-01  -1.1423364880E+00
    60  -9.7742435930E-01  -2.1529937806E-01  -1.0428250115E+00
    61  6.5781245212E-02  2.9355245472E-01  -1.1477968183E-01
    62  -3.9994944286E+00  -1.4376345970E+00  2.6686954463E+00
    63  -6.5759227011E-02  -2.9356626071E-01  1.1476291357E-01
    64  3.9994951893E+00  1.4376350937E+00  -2.6686947849E+00
    65  1.0902209193E+00  -1.8314054873E+00  -1.1624102558E+00
    66  2.3444756869E-01  -8.7797017911E-01  1.6361669389E+00
    67  -1.0902288044E+00  1.8313915313E+00  1.1623956918E+00
    68  -2.3444767151E-01  8.7797554622E-01  -1.6361622559E+00
    69  -2.7705162532E-01  -9.3331971926E-01  2.1905838092E-01
    70  4.4258601777E-01  -1.0520671241E+00  -3.7657630080E-01
    71  2.7705592843E-01  9.3333481259E-01  -2.1905503187E-01
    72  -4.4258539743E-01  1.0520638623E+00  3.7657647981E-01
    73  3.8537503471E-01  4.3234795349E-01  -1.2650117906E+00
    74  -3.1608282134E-01  6.0946630549E-01  6.7706356833E-01
    75  -3.8537750854E-01  -4.3234795299E-01  1.2650211695E+00
    76  3.1608437506E-01  -6.0946556585E-01  -6.7706977119E-01
    77  1.2759777301E+00  -1.8566468815E-01  6.8212432619E-01
    78  -1.7046565242E+00  -3.1630013498E-01  -9.3108920899E-01
    79  -1.2759737737E+00  1.8566380341E-01  -6.8212333965E-01
    80  1.7046568052E+00  3.1630007592E-01  9.3108913363E-01
    81  -2.0886037772E-02  3.4228118921E+00  -7.2483034967E-02
    82  -1.6958761582E-02  3.6049000170E+00  1.1652162418E-01
    83  2.0864483585E-02  -3.4227785126E+00  7.2477133506E-02
    84  1.6959164699E-02  -3.6049031633E+00  -1.1652473171E-01
    85  1.4871656531E+00  1.3832174987E-01  7.9651102878E-01
    86  -1.5283262804E+00  1.9516165842E-01  -7.7866188619E-01
    87  -1.4871610092E+00  -1.3832102494E-01  -7.9650873176E-01
    88  1.5283258145E+00  -1.9516156676E-01  7.7866173976E-01
    89  1.8347214569E-01  1.0710753589E-01  -8.6715839469E-01
    90  -1.9015735911E-01  1.5560095008E-01  9.0258497582E-01
    91  -1.8347368805E-01  -1.0711693258E-01  8.6717156291E-01
    92  1.9015706002E-01  -1.5559894369E-01  -9.0258243715E-01
    93  -3.0165354525E-02  -1.8889827494E-01  2.3674180334E-01
    94  3.1665413595E-02  -1.1543788466E-01  -2.2685876578E-01
    95  3.0181161871E-02  1.8887057458E-01  -2.3675248128E-01
    96  -3.1664474533E-02  1.1543941920E-01  2.2685862689E-01
  Stress tensor (eV/A^3):
  7.9646012761E-02  -5.5406791515E-03  3.2430013426E-02
  -5.5406791515E-03  8.3319424865E-02  1.5561182615E-03
  3.2430013426E-02  1.5561182615E-03  6.9065146832E-02
