  Invoking FHI-aims ...
  | Number of atoms                   :  96
  ...scf iterations...
  | Total energy corrected        :   -7.691703962869E+01 eV
  ...
  Total atomic forces (unitary forces cleaned)
     1  -2.2873160706E-01  5.8767424957E-01  1.8675401704E-01
     2  2.1424281351E-01  5.7466005840E-01  -1.9294005341E-01
     3  2.2873169515E-01  -5.8767416420E-01  -1.8675395777E-01
     4  -2.1424268195E-01  -5.7465988393E-01  1.9294012548E-01
     5  -8.4249730679E-01  1.2401635126E+00  1.1397633668E-01
     6  8.4162285919E-01  1.2501047867E+00  -1.0433566318E-01
     7  8.4249755736E-01  -1.2401633817E+00  -1.1397603538E-01
     8  -8.4162305521E-01  -1.2501049132E+00  1.0433596411E-01
     9  -2.4569159405E-01  1.6808750089E-01  -1.3404903967E-01
    10  2.3967388577E-01  1.6238751394E-01  1.3293364675E-01
    11  2.4569125011E-01  -1.6808726591E-01  1.3404876172E-01
    12  -2.3967427572E-01  -1.6238771193E-01  -1.3293355302E-01
    13  -4.3599913152E-01  -9.2250995635E-01  -9.4748435007E-01
    14  4.5168636031E-01  -9.1678153286E-01  9.5704906371E-01
    15  4.3599861012E-01  9.2251003528E-01  9.4748409644E-01
    16  -4.5168645078E-01  9.1678184231E-01  -9.5704844511E-01
    17  8.3421445734E-01  -1.1989935790E+00  -1.1522490379E-01
    18  -8.6202510022E-01  -1.2084546654E+00  9.9560467481E-02
    19  -8.3421415237E-01  1.1989941963E+00  1.1522522731E-01
    20  8.6202500052E-01  1.2084547441E+00  -9.9560997171E-02
    21  1.0199606149E-01  -4.6892357465E-01  -1.7545304235E-01
    22  -8.9884020658E-02  -4.4822830956E-01  1.7263103558E-01
    23  -1.0199616921E-01  4.6892322650E-01  1.7545269868E-01
    24  8.9883931893E-02  4.4822829706E-01  -1.7263110886E-01
    25  6.0315473955E-01  1.6404754012E-02  5.0476164321E-01
    26  -5.9948017767E-01  2.8862929097E-05  -4.9275720390E-01
    27  -6.0315499093E-01  -1.6405064992E-02  -5.0476190223E-01
    28  5.9948083725E-01  -2.8661265844E-05  4.9275704201E-01
    29  5.3236503577E-01  9.3777784050E-01  1.0767980508E+00
    30  -5.2841832175E-01  9.4283539114E-01  -1.0766614203E+00
    31  -5.3236500310E-01  -9.3777800339E-01  -1.0767980848E+00
    32  5.2841815054E-01  -9.4283574966E-01  1.0766611864E+00
    33  2.4844433871E-02  4.2117050405E-01  3.1944699440E-01
    34  -2.4517582863E-02  4.2008113981E-01  -3.1820382691E-01
    35  -2.4844312569E-02  -4.2117061039E-01  -3.1944683041E-01
    36  2.4517666689E-02  -4.2008113978E-01  3.1820363508E-01
    37  -1.0746645414E+00  1.1655516716E+00  -5.5651627792E-02
    38  1.0724256221E+00  1.1695173202E+00  5.1410186986E-02
    39  1.0746644613E+00  -1.1655516930E+00  5.5651823677E-02
    40  -1.0724252691E+00  -1.1695172037E+00  -5.1409740897E-02
    41  -3.4335801056E-01  4.4876515304E-01  5.7066175872E-03
    42  3.4226773627E-01  4.4770301534E-01  -5.8940877227E-03
    43  3.4335809572E-01  -4.4876527003E-01  -5.7065365704E-03
    44  -3.4226773789E-01  -4.4770306097E-01  5.8941709298E-03
    45  -1.9890144689E+00  1.4646900859E-01  -1.3135301747E+00
    46  1.9727169369E+00  1.0373175217E-01  1.3069293809E+00
    47  1.9890091755E+00  -1.4646876265E-01  1.3135271072E+00
    48  -1.9727176647E+00  -1.0373146544E-01  -1.3069291251E+00
    49  -1.7921049818E+01  4.6746109350E+00  1.1084019088E+01
    50  1.8100691500E+01  1.4604094290E+01  -1.2991756220E+01
    51  1.7920937676E+01  -4.6745648836E+00  -1.1083949594E+01
    52  -1.8100688988E+01  -1.4604083034E+01  1.2991755185E+01
    53  1.0398809640E+01  7.4747551959E+00  -4.7920241617E+00
    54  -7.3903956083E+00  5.4619109901E+00  3.4647896452E+00
    55  -1.0398720920E+01  -7.4747264182E+00  4.7919800299E+00
    56  7.3903995023E+00  -5.4619145336E+00  -3.4647950540E+00
    57  9.3398965573E-01  -1.6950110705E-01  8.0031909807E-01
    58  -5.3953282803E-02  -2.3187883453E-02  2.4158304433E-02
    59  -9.3398922179E-01  1.6950012184E-01  -8.0031787350E-01
    60  5.3952014023E-02  2.3187248240E-02  -2.4159135542E-02
    61  5.5086096946E+00  -1.1435203353E+01  -3.2700063279E+00
    62  -9.5850411064E+00  -1.9475929229E+01  5.7057732434E+00
    63  -5.5085879215E+00  1.1435133532E+01  3.2699878495E+00
    64  9.5850372041E+00  1.9475921378E+01  -5.7057657009E+00
    65  -2.3494743677E+00  -1.1087775932E+01  -4.8581164960E+00
    66  2.8469550928E+00  -1.0556713214E+01  3.4646231245E+00
    67  2.3494171030E+00  1.1087647949E+01  4.8580373583E+00
    68  -2.8469612218E+00  1.0556707118E+01  -3.4646002421E+00
    69  4.4721929337E+00  6.1424993152E+00  -1.0360796349E+00
    70  -4.5437204439E+00  6.1193426068E+00  1.0340306050E+00
    71  -4.4721215125E+00  -6.1424109110E+00  1.0360548884E+00
    72  4.5437197243E+00  -6.1193406553E+00  -1.0340336501E+00
    73  -1.1427063375E+00  1.5442844467E+00  5.0362214716E+00
    74  7.6540524860E-01  1.0733572582E+00  -3.6383116350E+00
    75  1.1426845023E+00  -1.5442517286E+00  -5.0361216385E+00
    76  -7.6539849467E-01  -1.0733530578E+00  3.6382930062E+00
    77  7.6939669614E-01  -2.1631750946E-01  4.6687126516E-01
    78  -7.9705622111E-01  -2.2665038117E-01  -4.8735033526E-01
    79  -7.6938884566E-01  2.1631553489E-01  -4.6686671519E-01
    80  7.9705545403E-01  2.2665016381E-01  4.8734941657E-01
    81  -7.5396077541E-01  1.5125944966E+01  -1.1211272848E+01
    82  7.5457324528E-01  1.5123735568E+01  1.1218772142E+01
    83  7.5396273543E-01  -1.5125832135E+01  1.1211108688E+01
    84  -7.5456867163E-01  -1.5123735238E+01  -1.1218803601E+01
    85  1.0143890866E+00  5.2975847024E-03  5.3969684159E-01
    86  -1.0127941165E+00  3.9532540556E-03  -5.3833509988E-01
    87  -1.0143852207E+00  -5.2971594533E-03  -5.3969488055E-01
    88  1.0127938847E+00  -3.9533675766E-03  5.3833509590E-01
    89  -2.0017835525E+00  -2.7050885999E-01  1.0048365659E+01
    90  2.0030311476E+00  -2.6637027997E-01  -1.0058599381E+01
    91  2.0017550298E+00  2.7051323388E-01  -1.0048221735E+01
    92  -2.0030349895E+00  2.6636767771E-01  1.0058624290E+01
    93  4.2419680953E+00  -1.2007385044E+01  -6.3635956563E-01
    94  -4.2476536185E+00  -1.2014733228E+01  6.3833039115E-01
    95  -4.2419385413E+00  1.2007271679E+01  6.3637210276E-01
    96  4.2476531858E+00  1.2014736344E+01  -6.3832483160E-01
  Stress tensor (eV/A^3):
  7.2163207230E-03  -1.0857527191E-02  6.5298411982E-02
  -1.0857527191E-02  -7.9840112510E-02  4.7418458012E-03
  6.5298411982E-02  4.7418458012E-03  -1.1956772846E-02
