  Invoking FHI-aims ...
  | Number of atoms                   :  96
  ...scf iterations...
  | Total energy corrected        :   -6.895963594256E+01 eV
  ...
  Total atomic forces (unitary forces cleaned)
     1  -2.3507026019E-01  5.8512986492E-01  1.8846276027E-01
     2  2.3179904457E-01  5.7965466610E-01  -1.9215306643E-01
     3  2.3507023980E-01  -5.8512979583E-01  -1.8846274646E-01
     4  -2.3179894245E-01  -5.7965463385E-01  1.9215317182E-01
     5  -8.7889700003E-01  1.0994420686E+00  5.5647964235E-02
     6  8.6352981071E-01  1.0070454568E+00  5.6871437332E-02
     7  8.7889753606E-01  -1.0994419150E+00  -5.5647467040E-02
     8  -8.6352973086E-01  -1.0070456224E+00  -5.6871227106E-02
     9  -1.9419341126E-01  1.4261893045E-01  -8.5580142647E-02
    10  7.0581050747E-02  2.3071283976E-02  9.8086576135E-02
    11  1.9419290126E-01  -1.4261911677E-01  8.5579835490E-02
    12  -7.0581317616E-02  -2.3071094401E-02  -9.8086768252E-02
    13  -3.7653229511E-01  -9.0861196617E-01  -8.4109843509E-01
    14  5.0118002729E-01  -7.8655619916E-01  8.2708272132E-01
    15  3.7653176805E-01  9.0861216429E-01  8.4109823063E-01
    16  -5.0118014947E-01  7.8655622873E-01  -8.2708250580E-01
    17  2.1941318621E+00  -3.0092768550E+00  -2.7932199743E-01
    18  -2.2402349560E+00  -2.9026386783E+00  1.4917645759E-01
    19  -2.1941324423E+00  3.0092784151E+00  2.7932238713E-01
    20  2.2402359001E+00  2.9026405193E+00  -1.4917709908E-01
    21  -1.2957080542E+00  1.4266560466E+00  3.4724597295E-02
    22  1.2993092090E+00  1.4438944096E+00  -4.4599614389E-02
    23  1.2957088823E+00  -1.4266574158E+00  -3.4724807958E-02
    24  -1.2993099616E+00  -1.4438961692E+00  4.4599860040E-02
    25  4.9005056473E-01  5.1277204712E-02  3.4031423760E-01
    26  -4.5025477151E-01  -6.5856735470E-02  -2.0956512655E-01
    27  -4.9005099399E-01  -5.1277527330E-02  -3.4031457586E-01
    28  4.5025498611E-01  6.5857057884E-02  2.0956500686E-01
    29  8.6277229656E-01  2.6418322186E+00  2.4293244188E+00
    30  -8.6370621105E-01  2.6373481507E+00  -2.4265914862E+00
    31  -8.6277177078E-01  -2.6418304440E+00  -2.4293230774E+00
    32  8.6370607912E-01  -2.6373490082E+00  2.4265915343E+00
    33  -4.4563112860E-01  -1.2853191292E+00  -1.1542182577E+00
    34  4.4535766555E-01  -1.2862404694E+00  1.1538811776E+00
    35  4.4563092846E-01  1.2853174423E+00  1.1542167424E+00
    36  -4.4535802729E-01  1.2862409821E+00  -1.1538814395E+00
    37  -2.3978066400E+00  2.8707704983E+00  2.1085113518E-01
    38  2.3957485556E+00  2.8666868890E+00  -2.0892313432E-01
    39  2.3978050938E+00  -2.8707682370E+00  -2.1085067624E-01
    40  -2.3957463704E+00  -2.8666848427E+00  2.0892338635E-01
    41  1.0253581217E+00  -1.3567257229E+00  -1.9245355268E-01
    42  -1.0266182902E+00  -1.3574225653E+00  1.9355787006E-01
    43  -1.0253565578E+00  1.3567234236E+00  1.9245327803E-01
    44  1.0266165936E+00  1.3574203825E+00  -1.9355770864E-01
    45  -1.4544755417E+00  6.2591196269E-02  -9.0757987495E-01
    46  1.3286283919E+00  -3.9643919384E-02  8.4145152136E-01
    47  1.4544701307E+00  -6.2591487449E-02  9.0757642962E-01
    48  -1.3286281268E+00  3.9644499772E-02  -8.4145188776E-01
    49  -1.6802107772E+01  -5.1677602805E+00  1.0619169955E+01
    50  1.6061900784E+01  -4.1962303594E+00  -9.5436906901E+00
    51  1.6801945556E+01  5.1677259589E+00  -1.0619111167E+01
    52  -1.6061911256E+01  4.1962432165E+00  9.5436864810E+00
    53  8.0822059120E+00  1.3511689507E+01  -7.7196399186E-02
    54  -7.2031224190E+00  1.2540477013E+01  -2.6420801152E-02
    55  -8.0821262759E+00  -1.3511572842E+01  7.7199011465E-02
    56  7.2031290060E+00  -1.2540489838E+01  2.6417100373E-02
    57  -1.8178500511E+00  1.7955776124E-01  -1.4329902812E+00
    58  1.0149759149E+00  1.1812438864E-01  8.4205209081E-01
    59  1.8178511437E+00  -1.7955726097E-01  1.4329915391E+00
    60  -1.0149699622E+00  -1.1812391034E-01  -8.4204727843E-01
    61  9.6484011044E+00  -9.3959144339E+00  -6.2585653747E+00
    62  -9.0143445945E+00  -9.3130581554E+00  6.0447631293E+00
    63  -9.6483213500E+00  9.3958293264E+00  6.2585092004E+00
    64  9.0143425812E+00  9.3130569789E+00  -6.0447596021E+00
    65  1.9274610742E+00  -1.0720562348E+01  -1.0585060628E+01
    66  -1.4838678519E+00  -1.0185002616E+01  9.8952312746E+00
    67  -1.9274730356E+00  1.0720510404E+01  1.0585015575E+01
    68  1.4838572820E+00  1.0185015467E+01  -9.8952150563E+00
    69  4.3049242913E+00  1.0359555616E+01  8.6120919701E-01
    70  -4.3597540892E+00  1.0407811666E+01  -7.9143233952E-01
    71  -4.3049008179E+00  -1.0359502835E+01  -8.6120576837E-01
    72  4.3597581515E+00  -1.0407818881E+01  7.9142884912E-01
    73  -2.2012768302E+00  -1.7629737884E+00  9.8020095238E+00
    74  2.0881942193E+00  -2.0988900157E+00  -9.1773892502E+00
    75  2.2012734112E+00  1.7629683136E+00  -9.8019683683E+00
    76  -2.0881898786E+00  2.0988845996E+00  9.1773758661E+00
    77  -1.8087631812E+00  -2.9545283200E-02  -1.2743181226E+00
    78  1.6840002908E+00  -1.5028310577E-01  1.1856549011E+00
    79  1.8087589749E+00  2.9545184711E-02  1.2743156456E+00
    80  -1.6839991831E+00  1.5028285587E-01  -1.1856537333E+00
    81  -3.7956506517E+00  1.7742895271E+01  -3.6697835285E+00
    82  3.7998702465E+00  1.7723359059E+01  3.6658157014E+00
    83  3.7955781517E+00  -1.7742767277E+01  3.6697919864E+00
    84  -3.7998734709E+00  -1.7723366528E+01  -3.6658282551E+00
    85  -1.8561772991E+00  6.3085710944E-02  -1.0467802173E+00
    86  1.8631869258E+00  5.1733122198E-02  1.0419051858E+00
    87  1.8561772602E+00  -6.3085655785E-02  1.0467805836E+00
    88  -1.8631848620E+00  -5.1733270209E-02  -1.0419037925E+00
    89  -1.5162871558E+00  -4.4254476735E+00  1.1090195899E+01
    90  1.5168025317E+00  -4.4321472085E+00  -1.1095854146E+01
    91  1.5162819495E+00  4.4254281400E+00  -1.1090148224E+01
    92  -1.5168039007E+00  4.4321477554E+00  1.1095862677E+01
    93  8.6664026986E+00  -1.0427453683E+01  -6.2669669480E+00
    94  -8.6656018289E+00  -1.0438561647E+01  6.2629666787E+00
    95  -8.6663213317E+00  1.0427352198E+01  6.2669105429E+00
    96  8.6656048984E+00  1.0438568932E+01  -6.2629646850E+00
  Stress tensor (eV/A^3):
  -4.1194963531E-02  -7.4553193772E-04  5.3045358741E-02
  -7.4553193772E-04  -1.1592638735E-01  5.5347522987E-05
  5.3045358741E-02  5.5347522987E-05  -7.2143130714E-02
