  Invoking FHI-aims ...
  | Number of atoms                   :  96
  ...scf iterations...
  | Total energy corrected        :   -9.116628724920E+01 eV
  ...
  Total atomic forces (unitary forces cleaned)
     1  -3.2499152457E-01  6.0104133989E-01  2.0098708736E-01
     2  2.7461717575E-01  6.0393301054E-01  -1.8430930275E-01
     3  3.2499138542E-01  -6.0104122406E-01  -2.0098707793E-01
     4  -2.7461712523E-01  -6.0393306524E-01  1.8430943373E-01
     5  -7.7956484684E-01  9.3135505155E-01  -2.1191638108E-01
     6  1.1686485855E+00  -2.4096881483E+00  3.2428958311E+00
     7  7.7956605815E-01  -9.3135479855E-01  2.1191739533E-01
     8  -1.1686481351E+00  2.4096879142E+00  -3.2428954974E+00
     9  -4.7952626614E-01  2.8413599383E-01  -1.8674199257E-01
    10  -1.7421166883E+00  -1.7521449987E+00  1.9291380308E-01
    11  4.7952529980E-01  -2.8413690674E-01  1.8674108774E-01
    12  1.7421155216E+00  1.7521451816E+00  -1.9291449459E-01
    13  -5.5975365460E-01  -1.1378529868E+00  -1.0732936152E+00
    14  2.6861791303E+00  7.5708924598E-01  1.1283447345E+00
    15  5.5975261897E-01  1.1378534137E+00  1.0732932319E+00
    16  -2.6861786569E+00  -7.5708889142E-01  -1.1283447929E+00
    17  6.6845753232E-01  -8.2109261894E-01  -3.8730910029E-02
    18  -1.9922669062E+00  1.0508802365E+00  -2.3325898347E+00
    19  -6.6845690398E-01  8.2109304644E-01  3.8731604061E-02
    20  1.9922667323E+00  -1.0508799344E+00  2.3325894761E+00
    21  5.4478133384E-01  -9.5729887827E-01  -1.0807869836E-01
    22  -3.7459659955E-01  -9.4763537954E-01  2.5488379863E-01
    23  -5.4478138605E-01  9.5729889838E-01  1.0807876250E-01
    24  3.7459657450E-01  9.4763541517E-01  -2.5488392309E-01
    25  1.1144434076E+00  1.5366724751E-01  7.7702991726E-01
    26  -1.2729175128E-01  -2.0276091546E+00  1.5726453682E+00
    27  -1.1144433213E+00  -1.5366813491E-01  -7.7703029748E-01
    28  1.2729252569E-01  2.0276097349E+00  -1.5726453603E+00
    29  5.7151237089E-01  5.9679200881E-01  8.1353833107E-01
    30  -4.6024880481E-01  7.5725951144E-01  -8.7242800218E-01
    31  -5.7151225227E-01  -5.9679181080E-01  -8.1353875295E-01
    32  4.6024771970E-01  -7.5726007947E-01  8.7242778986E-01
    33  9.9147278409E-02  8.9643792812E-01  7.1233981223E-01
    34  -1.0419395980E-01  9.7787926979E-01  -7.4033410594E-01
    35  -9.9147143713E-02  -8.9643779564E-01  -7.1233979838E-01
    36  1.0419388251E-01  -9.7787937033E-01  7.4033408049E-01
    37  -9.9391193048E-01  6.6937994898E-01  -2.0727422372E-01
    38  1.0228186186E+00  7.9503957483E-01  1.0291669263E-01
    39  9.9391199382E-01  -6.6937992540E-01  2.0727464922E-01
    40  -1.0228181080E+00  -7.9504019145E-01  -1.0291608359E-01
    41  -7.8198751841E-01  9.3150235308E-01  5.9454578251E-02
    42  8.1971442195E-01  9.8711764130E-01  -7.0443000597E-02
    43  7.8198750595E-01  -9.3150208336E-01  -5.9454601988E-02
    44  -8.1971424574E-01  -9.8711759460E-01  7.0443026730E-02
    45  -1.3861850303E+00  2.1649013734E-02  -9.0052877204E-01
    46  1.7866212381E+00  -1.2573536784E+00  -5.3791358873E-01
    47  1.3861828452E+00  -2.1649798111E-02  9.0052691523E-01
    48  -1.7866211386E+00  1.2573527384E+00  5.3791213170E-01
    49  -2.5073996904E-01  -8.0207283169E-01  1.5463468665E+00
    50  3.1210880106E-01  -9.4407409858E-01  -3.6692644665E+00
    51  2.5074090612E-01  8.0207195515E-01  -1.5463467134E+00
    52  -3.1211050109E-01  9.4407366229E-01  3.6692662033E+00
    53  -4.1122989255E-01  -1.0620745044E+00  -3.0447372069E-01
    54  -3.6076535187E-01  -1.9468646324E+00  8.1535877636E-01
    55  4.1122905034E-01  1.0620727058E+00  3.0447339872E-01
    56  3.6076528183E-01  1.9468652274E+00  -8.1535844503E-01
    57  7.8354940072E-01  -4.3152070172E-02  5.0691528108E-01
    58  1.6428127352E+00  2.9258181877E-01  1.2015425734E+00
    59  -7.8354856916E-01  4.3151441417E-02  -5.0691452945E-01
    60  -1.6428119181E+00  -2.9258197201E-01  -1.2015424904E+00
    61  -9.3953906671E-01  6.9090418874E-01  5.7213282996E-01
    62  -8.7533354675E-01  1.5736150943E+00  3.9552138311E-01
    63  9.3953762352E-01  -6.9090349725E-01  -5.7213108144E-01
    64  8.7533379098E-01  -1.5736152197E+00  -3.9552161570E-01
    65  1.4121526185E+00  -7.9857009380E-01  -8.2371747814E-01
    66  -3.5361643635E-01  -4.3613135005E-01  2.3360028589E+00
    67  -1.4121521991E+00  7.9857049848E-01  8.2371726271E-01
    68  3.5361561910E-01  4.3613187151E-01  -2.3360008082E+00
    69  -2.1888175704E-01  -1.1259390522E+00  -1.1793628573E-01
    70  1.0563795325E+00  -1.9590744370E+00  -3.7145196266E-01
    71  2.1888169385E-01  1.1259370637E+00  1.1793573242E-01
    72  -1.0563798805E+00  1.9590737205E+00  3.7145223581E-01
    73  1.6453643570E-01  5.4658942973E-01  -1.0263192767E+00
    74  -4.9930731267E-01  1.4555541921E+00  1.3147047360E+00
    75  -1.6453633102E-01  -5.4658871561E-01  1.0263179325E+00
    76  4.9930800470E-01  -1.4555532611E+00  -1.3147068835E+00
    77  7.3721540185E-01  1.7354588565E-02  5.2231282684E-01
    78  -2.4979749587E+00  -4.2158221093E-01  -1.4931877928E+00
    79  -7.3721428346E-01  -1.7354621233E-02  -5.2231266294E-01
    80  2.4979754017E+00  4.2158249262E-01  1.4931880102E+00
    81  7.3240255982E-01  1.6037890267E+00  4.4797276323E-01
    82  -8.1238525822E-01  2.1366501437E+00  -4.4094095503E-01
    83  -7.3240185074E-01  -1.6037883807E+00  -4.4797163602E-01
    84  8.1238557632E-01  -2.1366499919E+00  4.4094060882E-01
    85  8.8843523314E-01  -7.1536057835E-02  4.8723170435E-01
    86  -9.8922224681E-01  1.0949955863E-01  -4.6123873024E-01
    87  -8.8843377412E-01  7.1536176803E-02  -4.8723091274E-01
    88  9.8922220850E-01  -1.0949950312E-01  4.6123881780E-01
    89  1.2177313954E-01  4.8534851351E-01  -1.1210715041E+00
    90  -1.2926461457E-01  7.2164114426E-01  1.2280338475E+00
    91  -1.2177283994E-01  -4.8534629079E-01  1.1210695471E+00
    92  1.2926487390E-01  -7.2164083143E-01  -1.2280340897E+00
    93  -7.4577347544E-01  5.2058967624E-01  7.8348572879E-01
    94  8.0721409688E-01  7.5802392580E-01  -8.0920141166E-01
    95  7.4577206155E-01  -5.2058858214E-01  -7.8348411827E-01
    96  -8.0721387201E-01  -7.5802418136E-01  8.0920121552E-01
  Stress tensor (eV/A^3):
  8.8492787203E-02  -2.4115979132E-03  2.2122571958E-02
  -2.4115979132E-03  9.1502597309E-02  6.2377901425E-03
  2.2122571958E-02  6.2377901425E-03  6.7184308568E-02
