  Invoking FHI-aims ...
  | Number of atoms                   :  96
  ...scf iterations...
  | Total energy corrected        :   -5.034424438634E+01 eV
  ...
  Total atomic forces (unitary forces cleaned)
     1  -2.2380753888E-01  5.8928394134E-01  1.9270102979E-01
     2  2.2193156911E-01  5.8440023531E-01  -1.9489841090E-01
     3  2.2380760288E-01  -5.8928386089E-01  -1.9270098384E-01
     4  -2.2193145547E-01  -5.8440010511E-01  1.9489849106E-01
     5  -8.5320304480E-01  1.1242465992E+00  4.9198625668E-02
     6  8.3975130453E-01  1.0132186139E+00  6.9569550268E-02
     7  8.5320334037E-01  -1.1242464708E+00  -4.9198297077E-02
     8  -8.3975142737E-01  -1.0132187476E+00  -6.9569274217E-02
     9  -1.7757746735E-01  1.5738098881E-01  -8.0312972613E-02
    10  5.5246336022E-02  2.9874120117E-02  9.2261228908E-02
    11  1.7757711539E-01  -1.5738084887E-01  8.0312719514E-02
    12  -5.5246684812E-02  -2.9874174362E-02  -9.2261265239E-02
    13  -3.6971129333E-01  -8.7788400348E-01  -8.5209740413E-01
    14  4.9294764305E-01  -7.4817297253E-01  8.3859903134E-01
    15  3.6971078165E-01  8.7788408040E-01  8.5209715529E-01
    16  -4.9294773054E-01  7.4817316569E-01  -8.3859852789E-01
    17  2.5460275556E+00  -3.6550655198E+00  -3.4074526756E-01
    18  -2.5867455088E+00  -3.5489679303E+00  2.1094257814E-01
    19  -2.5460301390E+00  3.6550703633E+00  3.4074553195E-01
    20  2.5867461858E+00  3.5489697092E+00  -2.1094350018E-01
    21  -1.6616898377E+00  2.0587027803E+00  5.6972456059E-02
    22  1.6585483194E+00  2.0694813761E+00  -6.6911417149E-02
    23  1.6616926786E+00  -2.0587074743E+00  -5.6972678062E-02
    24  -1.6585490327E+00  -2.0694831289E+00  6.6911890670E-02
    25  4.1440607766E-01  2.5340896145E-02  3.4150803755E-01
    26  -3.7511948594E-01  -8.6165603780E-02  -2.1085218863E-01
    27  -4.1440650056E-01  -2.5341090210E-02  -3.4150832633E-01
    28  3.7511990117E-01  8.6165817401E-02  2.1085207325E-01
    29  9.9843467561E-01  3.0945590993E+00  2.9442255434E+00
    30  -9.9960875097E-01  3.0895776462E+00  -2.9412178457E+00
    31  -9.9843479906E-01  -3.0945592703E+00  -2.9442250957E+00
    32  9.9960957760E-01  -3.0895796703E+00  2.9412185697E+00
    33  -5.3355082233E-01  -1.7595961811E+00  -1.6491909853E+00
    34  5.3232566291E-01  -1.7606163176E+00  1.6483295528E+00
    35  5.3355111703E-01  1.7595961807E+00  1.6491905540E+00
    36  -5.3232661512E-01  1.7606180185E+00  -1.6483305968E+00
    37  -2.7268838315E+00  3.4779188979E+00  2.5604696779E-01
    38  2.7247660704E+00  3.4729663462E+00  -2.5377606878E-01
    39  2.7268822680E+00  -3.4779166937E+00  -2.5604619937E-01
    40  -2.7247636749E+00  -3.4729636182E+00  2.5377649871E-01
    41  1.4081761602E+00  -1.9370490530E+00  -2.4948404472E-01
    42  -1.4089584316E+00  -1.9371545685E+00  2.5046902422E-01
    43  -1.4081745946E+00  1.9370467325E+00  2.4948350993E-01
    44  1.4089564363E+00  1.9371518700E+00  -2.5046897835E-01
    45  -1.7675103823E+00  1.2688126311E-01  -1.0955090983E+00
    46  1.6467915618E+00  1.9412268511E-02  1.1054458396E+00
    47  1.7675018315E+00  -1.2688102665E-01  1.0955042810E+00
    48  -1.6467917844E+00  -1.9411314731E-02  -1.1054457794E+00
    49  -3.7867007190E+01  5.6932933418E+00  2.0143662255E+01
    50  2.9488458293E+01  -1.0189041120E+01  -1.5556858216E+01
    51  3.7866964944E+01  -5.6932248198E+00  -2.0143618174E+01
    52  -2.9488461034E+01  1.0189035004E+01  1.5556861557E+01
    53  2.3559219633E+01  2.2816351839E+01  -6.7917907573E+00
    54  -2.3593568887E+01  2.2954782791E+01  6.8128103820E+00
    55  -2.3559160545E+01  -2.2816367102E+01  6.7917731615E+00
    56  2.3593563416E+01  -2.2954781430E+01  -6.8128219263E+00
    57  -2.3852595668E+00  3.2688098009E-01  -1.8333538726E+00
    58  2.0410916672E+00  2.9622108549E-01  1.6091063095E+00
    59  2.3852413244E+00  -3.2687712860E-01  1.8333394605E+00
    60  -2.0410844227E+00  -2.9622028614E-01  -1.6090995688E+00
    61  1.5643797737E+01  -2.8719884450E+01  -7.9578737804E+00
    62  -6.9043545938E+00  -1.3004848334E+01  3.6232198135E+00
    63  -1.5643798314E+01  2.8719829581E+01  7.9578722237E+00
    64  6.9043563941E+00  1.3004851501E+01  -3.6232180243E+00
    65  -6.4706915744E+00  -2.8170588474E+01  -2.1238849837E+01
    66  6.1784198256E+00  -2.6817080015E+01  2.2523975233E+01
    67  6.4706370290E+00  2.8170469755E+01  2.1238761816E+01
    68  -6.1784363084E+00  2.6817081007E+01  -2.2523952940E+01
    69  1.6314763125E+01  2.2524490531E+01  -3.7626050285E+00
    70  -1.6387248413E+01  2.2594140445E+01  3.8074229427E+00
    71  -1.6314688612E+01  -2.2524414747E+01  3.7625769593E+00
    72  1.6387248633E+01  -2.2594137312E+01  -3.8074352366E+00
    73  -6.2625902104E+00  2.4610163447E+00  2.5673918931E+01
    74  6.6454126167E+00  1.3816312661E+00  -2.7096571575E+01
    75  6.2625822053E+00  -2.4609834288E+00  -2.5673797266E+01
    76  -6.6453995224E+00  -1.3816356578E+00  2.7096559426E+01
    77  -1.6771048475E+00  -6.3349507417E-02  -1.3308185874E+00
    78  1.7726396731E+00  -1.8457355787E-01  1.3986232045E+00
    79  1.6770957902E+00  6.3349184160E-02  1.3308120873E+00
    80  -1.7726376899E+00  1.8457329756E-01  -1.3986207664E+00
    81  -5.2861383608E+00  3.2469433408E+01  -2.4896618313E+01
    82  5.2968096296E+00  3.2438478808E+01  2.4884824296E+01
    83  5.2861615532E+00  -3.2469383197E+01  2.4896469118E+01
    84  -5.2968097689E+00  -3.2438477084E+01  -2.4884850790E+01
    85  -2.0183547342E+00  1.2325606923E-01  -1.2596822533E+00
    86  2.0267689435E+00  1.1642024559E-01  1.2520126388E+00
    87  2.0183409288E+00  -1.2325553307E-01  1.2596736625E+00
    88  -2.0267680913E+00  -1.1642053758E-01  -1.2520114780E+00
    89  -4.9780977604E+00  -1.5809934417E+00  3.1419170842E+01
    90  4.9908664789E+00  -1.5897124838E+00  -3.1425662493E+01
    91  4.9780849036E+00  1.5810031201E+00  -3.1419042632E+01
    92  -4.9908657285E+00  1.5897040576E+00  3.1425674813E+01
    93  1.4513639738E+01  -2.8071309787E+01  -6.1600821993E+00
    94  -1.4510885249E+01  -2.8085076188E+01  6.1519710138E+00
    95  -1.4513628073E+01  2.8071256938E+01  6.1601069416E+00
    96  1.4510884077E+01  2.8085083656E+01  -6.1519589074E+00
  Stress tensor (eV/A^3):
  -1.4227566196E-01  1.5812445973E-02  1.0325038819E-01
  1.5812445973E-02  -2.8455476813E-01  -8.9994313994E-03
  1.0325038819E-01  -8.9994313994E-03  -2.2242060561E-01
