  Invoking FHI-aims ...
  | Number of atoms                   :  96
  ...scf iterations...
  | Total energy corrected        :   -9.856665427951E+01 eV
  ...
  Total atomic forces (unitary forces cleaned)
     1  -3.4326017056E-01  6.0110129119E-01  2.0484832271E-01
     2  2.7360217223E-01  6.1690910248E-01  -1.9012150099E-01
     3  3.4326004849E-01  -6.0110115047E-01  -2.0484830873E-01
     4  -2.7360209018E-01  -6.1690912681E-01  1.9012162144E-01
     5  -7.4343098198E-01  -4.9204126778E-02  -7.2022020585E-01
     6  1.4259284394E+00  -2.5139525937E+00  3.9347718440E+00
     7  7.4343219236E-01  4.9204368455E-02  7.2022123891E-01
     8  -1.4259280225E+00  2.5139523679E+00  -3.9347714476E+00
     9  -5.2174514546E-01  3.2845922049E-01  -1.9772516850E-01
    10  -3.0002222692E+00  -2.3523304390E+00  1.4592182789E-01
    11  5.2174416145E-01  -3.2846007719E-01  1.9772418214E-01
    12  3.0002217930E+00  2.3523312295E+00  -1.4592269395E-01
    13  -5.8888409367E-01  -1.1719640240E+00  -1.1330872144E+00
    14  3.9843490100E+00  1.3305068134E+00  1.2707466664E+00
    15  5.8888306684E-01  1.1719644457E+00  1.1330868276E+00
    16  -3.9843493367E+00  -1.3305070492E+00  -1.2707464403E+00
    17  5.8367763984E-01  -7.3931145323E-01  -2.8679578379E-02
    18  -2.4284603276E+00  1.2868046152E+00  -3.1930186510E+00
    19  -5.8367700940E-01  7.3931184496E-01  2.8680237786E-02
    20  2.4284603173E+00  -1.2868044668E+00  3.1930182239E+00
    21  6.3474773529E-01  -1.1080934951E+00  -1.3544298006E-01
    22  -4.1959010431E-01  -1.0763026127E+00  3.5591152500E-01
    23  -6.3474780347E-01  1.1080935182E+00  1.3544294706E-01
    24  4.1959015944E-01  1.0763026111E+00  -3.5591157118E-01
    25  1.2395213317E+00  1.5516119863E-01  8.9926101193E-01
    26  2.2083797436E-01  -2.3375691403E+00  2.3347966709E+00
    27  -1.2395213309E+00  -1.5516206214E-01  -8.9926145954E-01
    28  -2.2083710603E-01  2.3375698844E+00  -2.3347966786E+00
    29  5.7178898508E-01  5.0171207125E-01  7.5441411091E-01
    30  -3.8204794273E-01  7.4275667658E-01  -8.1679800472E-01
    31  -5.7178888602E-01  -5.0171200925E-01  -7.5441455651E-01
    32  3.8204698093E-01  -7.4275726803E-01  8.1679785102E-01
    33  1.5076051199E-01  1.0228167467E+00  8.4868781248E-01
    34  -1.3849696498E-01  1.1347583911E+00  -8.8414863901E-01
    35  -1.5076035154E-01  -1.0228165454E+00  -8.4868765990E-01
    36  1.3849692488E-01  -1.1347585507E+00  8.8414860201E-01
    37  -9.2524501603E-01  5.6366008643E-01  -2.5118769100E-01
    38  9.3490346731E-01  7.6064847204E-01  7.6365174539E-02
    39  9.2524516347E-01  -5.6366015625E-01  2.5118810158E-01
    40  -9.3490317093E-01  -7.6064917915E-01  -7.6364574031E-02
    41  -8.7804977566E-01  1.0681836560E+00  6.5415404522E-02
    42  9.3415401344E-01  1.1466614707E+00  -8.7374279630E-02
    43  8.7804967193E-01  -1.0681832725E+00  -6.5415371422E-02
    44  -9.3415374663E-01  -1.1466613253E+00  8.7374339078E-02
    45  -1.7283358244E+00  1.1385384719E-01  -1.1889521200E+00
    46  -9.0806283011E-01  -1.5947818392E+00  -2.5844561419E+00
    47  1.7283392650E+00  -1.1385147820E-01  1.1889544715E+00
    48  9.0806268563E-01  1.5947811263E+00  2.5844542613E+00
    49  -3.1107750022E-01  -6.6694829287E-01  1.6091845324E+00
    50  -4.9949895505E-01  -1.7624199119E+00  -1.3883319512E+00
    51  3.1107684633E-01  6.6694819853E-01  -1.6091867915E+00
    52  4.9949811234E-01  1.7624195963E+00  1.3883341433E+00
    53  -6.8239108190E-01  -1.5422396068E+00  -2.1944975821E-01
    54  2.0345480719E-02  -1.5841177846E+00  3.6221929063E-01
    55  6.8239105918E-01  1.5422397861E+00  2.1944926741E-01
    56  -2.0346470245E-02  1.5841169677E+00  -3.6221822452E-01
    57  1.0501375049E+00  -1.3970781416E-01  8.5556483754E-01
    58  2.5596194298E+00  4.3575872861E-01  1.9387615530E+00
    59  -1.0501372358E+00  1.3970696766E-01  -8.5556447782E-01
    60  -2.5596185895E+00  -4.3575895563E-01  -1.9387614392E+00
    61  -1.2158640916E+00  1.0184270178E+00  8.1122030239E-01
    62  -1.5594840991E+00  1.2251959841E+00  8.4244938707E-01
    63  1.2158646135E+00  -1.0184267468E+00  -8.1121984602E-01
    64  1.5594841422E+00  -1.2251944361E+00  -8.4244959401E-01
    65  1.2839676180E+00  -8.7927406282E-01  -6.7200512123E-01
    66  3.3477110247E+00  -2.4097302164E-01  4.0101045144E-01
    67  -1.2839701008E+00  8.7927589668E-01  6.7200638939E-01
    68  -3.3477117237E+00  2.4097249110E-01  -4.0100857694E-01
    69  -3.8476293755E-01  -1.6120669560E+00  -7.8447216333E-02
    70  1.3748464266E+00  -1.9510098419E+00  -7.5421598285E-01
    71  3.8476293760E-01  1.6120657121E+00  7.8447262902E-02
    72  -1.3748470029E+00  1.9510094077E+00  7.5421644666E-01
    73  3.9434562015E-01  6.0534412891E-01  -1.5885428363E+00
    74  -1.0042821177E+00  1.4351406609E+00  2.3794854495E+00
    75  -3.9434563906E-01  -6.0534355577E-01  1.5885416949E+00
    76  1.0042827140E+00  -1.4351392240E+00  -2.3794883079E+00
    77  1.1074193280E+00  -9.5574815096E-02  6.3350816478E-01
    78  -2.8229599637E+00  -8.3314052119E-01  -1.7005821651E+00
    79  -1.1074184190E+00  9.5574508814E-02  -6.3350864071E-01
    80  2.8229606821E+00  8.3314077311E-01  1.7005823354E+00
    81  7.7194548299E-01  1.4827397820E+00  3.1880949450E-01
    82  -8.2371322092E-01  2.1455884271E+00  -1.7986382524E-01
    83  -7.7194818969E-01  -1.4827429877E+00  -3.1880885365E-01
    84  8.2371366184E-01  -2.1455888072E+00  1.7986351467E-01
    85  1.2250354656E+00  5.8704809450E-02  6.8307218042E-01
    86  -1.4195980517E+00  3.6532357382E-01  -6.1934969311E-01
    87  -1.2250352158E+00  -5.8704589132E-02  -6.8307208135E-01
    88  1.4195979039E+00  -3.6532349754E-01  6.1934975496E-01
    89  2.4332690429E-01  6.5634102124E-01  -1.5925958408E+00
    90  -2.6956989564E-01  1.0328095017E+00  1.7855025054E+00
    91  -2.4332663787E-01  -6.5634012012E-01  1.5925949353E+00
    92  2.6957017630E-01  -1.0328089417E+00  -1.7855027862E+00
    93  -9.7280360508E-01  9.7973602970E-01  9.9877477605E-01
    94  1.0389778388E+00  1.4198262282E+00  -9.9352966725E-01
    95  9.7280390580E-01  -9.7973685869E-01  -9.9877470082E-01
    96  -1.0389775457E+00  -1.4198264644E+00  9.9352936904E-01
  Stress tensor (eV/A^3):
  8.7009949265E-02  -5.7635978409E-03  2.6216366316E-02
  -5.7635978409E-03  1.0104532266E-01  9.4848865946E-03
  2.6216366316E-02  9.4848865946E-03  6.5206473173E-02
