64 
Energy: 2.7651860691454835e+00 
Mg	  0.000000000000 	  0.000000000000 	  0.000000000000 	
Mg	  1.000000000000 	  0.000000000000 	  2.980000000000 	
Mg	  0.000000000000 	  3.980000000000 	  0.000000000000 	
Mg	  1.000000000000 	  3.980000000000 	  2.980000000000 	
Mg	  3.980000000000 	  0.000000000000 	  0.000000000000 	
Mg	  4.980000000000 	  0.000000000000 	  2.980000000000 	
Mg	  3.980000000000 	  3.980000000000 	  0.000000000000 	
Mg	  4.980000000000 	  3.980000000000 	  2.980000000000 	
Mg	  1.710103991081 	  1.803402660721 	  0.000000000000 	
Mg	  2.710103991081 	  1.803402660721 	  2.980000000000 	
Mg	  1.710103991081 	  5.783402660721 	  0.000000000000 	
Mg	  2.710103991081 	  5.783402660721 	  2.980000000000 	
Mg	  5.690103991081 	  1.803402660721 	  0.000000000000 	
Mg	  6.690103991081 	  1.803402660721 	  2.980000000000 	
Mg	  5.690103991081 	  5.783402660721 	  0.000000000000 	
Mg	  6.690103991081 	  5.783402660721 	  2.980000000000 	
Mg	  2.456493348199 	  0.000000000000 	  1.523506651801 	
Mg	  3.456493348199 	  0.000000000000 	  4.503506651801 	
Mg	  2.456493348199 	  3.980000000000 	  1.523506651801 	
Mg	  3.456493348199 	  3.980000000000 	  4.503506651801 	
Mg	  6.436493348199 	  0.000000000000 	  1.523506651801 	
Mg	  7.436493348199 	  0.000000000000 	  4.503506651801 	
Mg	  6.436493348199 	  3.980000000000 	  1.523506651801 	
Mg	  7.436493348199 	  3.980000000000 	  4.503506651801 	
Mg	  0.466493348199 	  1.990000000000 	  1.523506651801 	
Mg	  1.466493348199 	  1.990000000000 	  4.503506651801 	
Mg	  0.466493348199 	  5.970000000000 	  1.523506651801 	
Mg	  1.466493348199 	  5.970000000000 	  4.503506651801 	
Mg	  4.446493348199 	  1.990000000000 	  1.523506651801 	
Mg	  5.446493348199 	  1.990000000000 	  4.503506651801 	
Mg	  4.446493348199 	  5.970000000000 	  1.523506651801 	
Mg	  5.446493348199 	  5.970000000000 	  4.503506651801 	
O	  1.990000000000 	  0.000000000000 	  0.000000000000 	
O	  2.990000000000 	  0.000000000000 	  2.980000000000 	
O	  1.990000000000 	  3.980000000000 	  0.000000000000 	
O	  2.990000000000 	  3.980000000000 	  2.980000000000 	
O	  5.970000000000 	  0.000000000000 	  0.000000000000 	
O	  6.970000000000 	  0.000000000000 	  2.980000000000 	
O	  5.970000000000 	  3.980000000000 	  0.000000000000 	
O	  6.970000000000 	  3.980000000000 	  2.980000000000 	
O	  0.000000000000 	  1.990000000000 	  0.000000000000 	
O	  1.000000000000 	  1.990000000000 	  2.980000000000 	
O	  0.000000000000 	  5.970000000000 	  0.000000000000 	
O	  1.000000000000 	  5.970000000000 	  2.980000000000 	
O	  3.980000000000 	  1.990000000000 	  0.000000000000 	
O	  4.980000000000 	  1.990000000000 	  2.980000000000 	
O	  3.980000000000 	  5.970000000000 	  0.000000000000 	
O	  4.980000000000 	  5.970000000000 	  2.980000000000 	
O	  0.466493348199 	  0.000000000000 	  1.523506651801 	
O	  1.466493348199 	  0.000000000000 	  4.503506651801 	
O	  0.466493348199 	  3.980000000000 	  1.523506651801 	
O	  1.466493348199 	  3.980000000000 	  4.503506651801 	
O	  4.446493348199 	  0.000000000000 	  1.523506651801 	
O	  5.446493348199 	  0.000000000000 	  4.503506651801 	
O	  4.446493348199 	  3.980000000000 	  1.523506651801 	
O	  5.446493348199 	  3.980000000000 	  4.503506651801 	
O	  2.829688026758 	  1.377027740467 	  1.523506651801 	
O	  3.829688026758 	  1.377027740467 	  4.503506651801 	
O	  2.829688026758 	  5.357027740467 	  1.523506651801 	
O	  3.829688026758 	  5.357027740467 	  4.503506651801 	
O	  6.809688026758 	  1.377027740467 	  1.523506651801 	
O	  7.809688026758 	  1.377027740467 	  4.503506651801 	
O	  6.809688026758 	  5.357027740467 	  1.523506651801 	
O	  7.809688026758 	  5.357027740467 	  4.503506651801 	
64 
Energy: 2.7769628870043115e+00 
Mg	  0.000000000000 	  0.000000000000 	  0.000000000000 	
Mg	  1.000000000000 	  0.000000000000 	  2.980000000000 	
Mg	  0.000000000000 	  3.980000000000 	  0.000000000000 	
Mg	  1.000000000000 	  3.980000000000 	  2.980000000000 	
Mg	  3.980000000000 	  0.000000000000 	  0.000000000000 	
Mg	  4.980000000000 	  0.000000000000 	  2.980000000000 	
Mg	  3.980000000000 	  3.980000000000 	  0.000000000000 	
Mg	  4.980000000000 	  3.980000000000 	  2.980000000000 	
Mg	  1.735801146042 	  1.823371007922 	  0.000000000000 	
Mg	  2.735801146042 	  1.823371007922 	  2.980000000000 	
Mg	  1.735801146042 	  5.803371007922 	  0.000000000000 	
Mg	  2.735801146042 	  5.803371007922 	  2.980000000000 	
Mg	  5.715801146042 	  1.823371007922 	  0.000000000000 	
Mg	  6.715801146042 	  1.823371007922 	  2.980000000000 	
Mg	  5.715801146042 	  5.803371007922 	  0.000000000000 	
Mg	  6.715801146042 	  5.803371007922 	  2.980000000000 	
Mg	  2.436360041077 	  0.000000000000 	  1.560661422284 	
Mg	  3.436360041077 	  0.000000000000 	  4.540661422284 	
Mg	  2.436360041077 	  3.980000000000 	  1.560661422284 	
Mg	  3.436360041077 	  3.980000000000 	  4.540661422284 	
Mg	  6.416360041077 	  0.000000000000 	  1.560661422284 	
Mg	  7.416360041077 	  0.000000000000 	  4.540661422284 	
Mg	  6.416360041077 	  3.980000000000 	  1.560661422284 	
Mg	  7.416360041077 	  3.980000000000 	  4.540661422284 	
Mg	  0.437849309397 	  1.998510731680 	  1.560661422284 	
Mg	  1.437849309397 	  1.998510731680 	  4.540661422284 	
Mg	  0.437849309397 	  5.978510731680 	  1.560661422284 	
Mg	  1.437849309397 	  5.978510731680 	  4.540661422284 	
Mg	  4.417849309397 	  1.998510731680 	  1.560661422284 	
Mg	  5.417849309397 	  1.998510731680 	  4.540661422284 	
Mg	  4.417849309397 	  5.978510731680 	  1.560661422284 	
Mg	  5.417849309397 	  5.978510731680 	  4.540661422284 	
O	  1.998510731680 	  0.000000000000 	  0.000000000000 	
O	  2.998510731680 	  0.000000000000 	  2.980000000000 	
O	  1.998510731680 	  3.980000000000 	  0.000000000000 	
O	  2.998510731680 	  3.980000000000 	  2.980000000000 	
O	  5.978510731680 	  0.000000000000 	  0.000000000000 	
O	  6.978510731680 	  0.000000000000 	  2.980000000000 	
O	  5.978510731680 	  3.980000000000 	  0.000000000000 	
O	  6.978510731680 	  3.980000000000 	  2.980000000000 	
O	  0.000000000000 	  1.998510731680 	  0.000000000000 	
O	  1.000000000000 	  1.998510731680 	  2.980000000000 	
O	  0.000000000000 	  5.978510731680 	  0.000000000000 	
O	  1.000000000000 	  5.978510731680 	  2.980000000000 	
O	  3.980000000000 	  1.998510731680 	  0.000000000000 	
O	  4.980000000000 	  1.998510731680 	  2.980000000000 	
O	  3.980000000000 	  5.978510731680 	  0.000000000000 	
O	  4.980000000000 	  5.978510731680 	  2.980000000000 	
O	  0.437849309397 	  0.000000000000 	  1.560661422284 	
O	  1.437849309397 	  0.000000000000 	  4.540661422284 	
O	  0.437849309397 	  3.980000000000 	  1.560661422284 	
O	  1.437849309397 	  3.980000000000 	  4.540661422284 	
O	  4.417849309397 	  0.000000000000 	  1.560661422284 	
O	  5.417849309397 	  0.000000000000 	  4.540661422284 	
O	  4.417849309397 	  3.980000000000 	  1.560661422284 	
O	  5.417849309397 	  3.980000000000 	  4.540661422284 	
O	  2.786639488594 	  1.423176739133 	  1.560661422284 	
O	  3.786639488594 	  1.423176739133 	  4.540661422284 	
O	  2.786639488594 	  5.403176739133 	  1.560661422284 	
O	  3.786639488594 	  5.403176739133 	  4.540661422284 	
O	  6.766639488594 	  1.423176739133 	  1.560661422284 	
O	  7.766639488594 	  1.423176739133 	  4.540661422284 	
O	  6.766639488594 	  5.403176739133 	  1.560661422284 	
O	  7.766639488594 	  5.403176739133 	  4.540661422284 	
64 
Energy: 3.2054384590500469e+00 
Mg	  0.000000000000 	  0.000000000000 	  0.000000000000 	
Mg	  1.000000000000 	  0.000000000000 	  2.980000000000 	
Mg	  0.000000000000 	  3.980000000000 	  0.000000000000 	
Mg	  1.000000000000 	  3.980000000000 	  2.980000000000 	
Mg	  3.980000000000 	  0.000000000000 	  0.000000000000 	
Mg	  4.980000000000 	  0.000000000000 	  2.980000000000 	
Mg	  3.980000000000 	  3.980000000000 	  0.000000000000 	
Mg	  4.980000000000 	  3.980000000000 	  2.980000000000 	
Mg	  1.761690687738 	  1.843430915928 	  0.000000000000 	
Mg	  2.761690687738 	  1.843430915928 	  2.980000000000 	
Mg	  1.761690687738 	  5.823430915928 	  0.000000000000 	
Mg	  2.761690687738 	  5.823430915928 	  2.980000000000 	
Mg	  5.741690687738 	  1.843430915928 	  0.000000000000 	
Mg	  6.741690687738 	  1.843430915928 	  2.980000000000 	
Mg	  5.741690687738 	  5.823430915928 	  0.000000000000 	
Mg	  6.741690687738 	  5.823430915928 	  2.980000000000 	
Mg	  2.415612513258 	  0.000000000000 	  1.598210231358 	
Mg	  3.415612513258 	  0.000000000000 	  4.578210231358 	
Mg	  2.415612513258 	  3.980000000000 	  1.598210231358 	
Mg	  3.415612513258 	  3.980000000000 	  4.578210231358 	
Mg	  6.395612513258 	  0.000000000000 	  1.598210231358 	
Mg	  7.395612513258 	  0.000000000000 	  4.578210231358 	
Mg	  6.395612513258 	  3.980000000000 	  1.598210231358 	
Mg	  7.395612513258 	  3.980000000000 	  4.578210231358 	
Mg	  0.408701140950 	  2.006911372308 	  1.598210231358 	
Mg	  1.408701140950 	  2.006911372308 	  4.578210231358 	
Mg	  0.408701140950 	  5.986911372308 	  1.598210231358 	
Mg	  1.408701140950 	  5.986911372308 	  4.578210231358 	
Mg	  4.388701140950 	  2.006911372308 	  1.598210231358 	
Mg	  5.388701140950 	  2.006911372308 	  4.578210231358 	
Mg	  4.388701140950 	  5.986911372308 	  1.598210231358 	
Mg	  5.388701140950 	  5.986911372308 	  4.578210231358 	
O	  2.006911372308 	  0.000000000000 	  0.000000000000 	
O	  3.006911372308 	  0.000000000000 	  2.980000000000 	
O	  2.006911372308 	  3.980000000000 	  0.000000000000 	
O	  3.006911372308 	  3.980000000000 	  2.980000000000 	
O	  5.986911372308 	  0.000000000000 	  0.000000000000 	
O	  6.986911372308 	  0.000000000000 	  2.980000000000 	
O	  5.986911372308 	  3.980000000000 	  0.000000000000 	
O	  6.986911372308 	  3.980000000000 	  2.980000000000 	
O	  0.000000000000 	  2.006911372308 	  0.000000000000 	
O	  1.000000000000 	  2.006911372308 	  2.980000000000 	
O	  0.000000000000 	  5.986911372308 	  0.000000000000 	
O	  1.000000000000 	  5.986911372308 	  2.980000000000 	
O	  3.980000000000 	  2.006911372308 	  0.000000000000 	
O	  4.980000000000 	  2.006911372308 	  2.980000000000 	
O	  3.980000000000 	  5.986911372308 	  0.000000000000 	
O	  4.980000000000 	  5.986911372308 	  2.980000000000 	
O	  0.408701140950 	  0.000000000000 	  1.598210231358 	
O	  1.408701140950 	  0.000000000000 	  4.578210231358 	
O	  0.408701140950 	  3.980000000000 	  1.598210231358 	
O	  1.408701140950 	  3.980000000000 	  4.578210231358 	
O	  4.388701140950 	  0.000000000000 	  1.598210231358 	
O	  5.388701140950 	  0.000000000000 	  4.578210231358 	
O	  4.388701140950 	  3.980000000000 	  1.598210231358 	
O	  5.388701140950 	  3.980000000000 	  4.578210231358 	
O	  2.742573426018 	  1.469878073100 	  1.598210231358 	
O	  3.742573426018 	  1.469878073100 	  4.578210231358 	
O	  2.742573426018 	  5.449878073100 	  1.598210231358 	
O	  3.742573426018 	  5.449878073100 	  4.578210231358 	
O	  6.722573426018 	  1.469878073100 	  1.598210231358 	
O	  7.722573426018 	  1.469878073100 	  4.578210231358 	
O	  6.722573426018 	  5.449878073100 	  1.598210231358 	
O	  7.722573426018 	  5.449878073100 	  4.578210231358 	
64 
Energy: 3.8368271479116958e+00 
Mg	  0.000000000000 	  0.000000000000 	  0.000000000000 	
Mg	  1.000000000000 	  0.000000000000 	  2.980000000000 	
Mg	  0.000000000000 	  3.980000000000 	  0.000000000000 	
Mg	  1.000000000000 	  3.980000000000 	  2.980000000000 	
Mg	  3.980000000000 	  0.000000000000 	  0.000000000000 	
Mg	  4.980000000000 	  0.000000000000 	  2.980000000000 	
Mg	  3.980000000000 	  3.980000000000 	  0.000000000000 	
Mg	  4.980000000000 	  3.980000000000 	  2.980000000000 	
Mg	  1.787610443832 	  1.863517982785 	  0.000000000000 	
Mg	  2.787610443832 	  1.863517982785 	  2.980000000000 	
Mg	  1.787610443832 	  5.843517982785 	  0.000000000000 	
Mg	  2.787610443832 	  5.843517982785 	  2.980000000000 	
Mg	  5.767610443832 	  1.863517982785 	  0.000000000000 	
Mg	  6.767610443832 	  1.863517982785 	  2.980000000000 	
Mg	  5.767610443832 	  5.843517982785 	  0.000000000000 	
Mg	  6.767610443832 	  5.843517982785 	  2.980000000000 	
Mg	  2.394870755454 	  0.000000000000 	  1.635795365927 	
Mg	  3.394870755454 	  0.000000000000 	  4.615795365927 	
Mg	  2.394870755454 	  3.980000000000 	  1.635795365927 	
Mg	  3.394870755454 	  3.980000000000 	  4.615795365927 	
Mg	  6.374870755454 	  0.000000000000 	  1.635795365927 	
Mg	  7.374870755454 	  0.000000000000 	  4.615795365927 	
Mg	  6.374870755454 	  3.980000000000 	  1.635795365927 	
Mg	  7.374870755454 	  3.980000000000 	  4.615795365927 	
Mg	  0.379537694763 	  2.015333060690 	  1.635795365927 	
Mg	  1.379537694763 	  2.015333060690 	  4.615795365927 	
Mg	  0.379537694763 	  5.995333060690 	  1.635795365927 	
Mg	  1.379537694763 	  5.995333060690 	  4.615795365927 	
Mg	  4.359537694763 	  2.015333060690 	  1.635795365927 	
Mg	  5.359537694763 	  2.015333060690 	  4.615795365927 	
Mg	  4.359537694763 	  5.995333060690 	  1.635795365927 	
Mg	  5.359537694763 	  5.995333060690 	  4.615795365927 	
O	  2.015333060690 	  0.000000000000 	  0.000000000000 	
O	  3.015333060690 	  0.000000000000 	  2.980000000000 	
O	  2.015333060690 	  3.980000000000 	  0.000000000000 	
O	  3.015333060690 	  3.980000000000 	  2.980000000000 	
O	  5.995333060690 	  0.000000000000 	  0.000000000000 	
O	  6.995333060690 	  0.000000000000 	  2.980000000000 	
O	  5.995333060690 	  3.980000000000 	  0.000000000000 	
O	  6.995333060690 	  3.980000000000 	  2.980000000000 	
O	  0.000000000000 	  2.015333060690 	  0.000000000000 	
O	  1.000000000000 	  2.015333060690 	  2.980000000000 	
O	  0.000000000000 	  5.995333060690 	  0.000000000000 	
O	  1.000000000000 	  5.995333060690 	  2.980000000000 	
O	  3.980000000000 	  2.015333060690 	  0.000000000000 	
O	  4.980000000000 	  2.015333060690 	  2.980000000000 	
O	  3.980000000000 	  5.995333060690 	  0.000000000000 	
O	  4.980000000000 	  5.995333060690 	  2.980000000000 	
O	  0.379537694763 	  0.000000000000 	  1.635795365927 	
O	  1.379537694763 	  0.000000000000 	  4.615795365927 	
O	  0.379537694763 	  3.980000000000 	  1.635795365927 	
O	  1.379537694763 	  3.980000000000 	  4.615795365927 	
O	  4.359537694763 	  0.000000000000 	  1.635795365927 	
O	  5.359537694763 	  0.000000000000 	  4.615795365927 	
O	  4.359537694763 	  3.980000000000 	  1.635795365927 	
O	  5.359537694763 	  3.980000000000 	  4.615795365927 	
O	  2.698500911264 	  1.516620529771 	  1.635795365927 	
O	  3.698500911264 	  1.516620529771 	  4.615795365927 	
O	  2.698500911264 	  5.496620529771 	  1.635795365927 	
O	  3.698500911264 	  5.496620529771 	  4.615795365927 	
O	  6.678500911264 	  1.516620529771 	  1.635795365927 	
O	  7.678500911264 	  1.516620529771 	  4.615795365927 	
O	  6.678500911264 	  5.496620529771 	  1.635795365927 	
O	  7.678500911264 	  5.496620529771 	  4.615795365927 	
64 
Energy: 4.5060915182085548e+00 
Mg	  0.000000000000 	  0.000000000000 	  0.000000000000 	
Mg	  1.000000000000 	  0.000000000000 	  2.980000000000 	
Mg	  0.000000000000 	  3.980000000000 	  0.000000000000 	
Mg	  1.000000000000 	  3.980000000000 	  2.980000000000 	
Mg	  3.980000000000 	  0.000000000000 	  0.000000000000 	
Mg	  4.980000000000 	  0.000000000000 	  2.980000000000 	
Mg	  3.980000000000 	  3.980000000000 	  0.000000000000 	
Mg	  4.980000000000 	  3.980000000000 	  2.980000000000 	
Mg	  1.813562045784 	  1.883629817907 	  0.000000000000 	
Mg	  2.813562045784 	  1.883629817907 	  2.980000000000 	
Mg	  1.813562045784 	  5.863629817907 	  0.000000000000 	
Mg	  2.813562045784 	  5.863629817907 	  2.980000000000 	
Mg	  5.793562045784 	  1.883629817907 	  0.000000000000 	
Mg	  6.793562045784 	  1.883629817907 	  2.980000000000 	
Mg	  5.793562045784 	  5.863629817907 	  0.000000000000 	
Mg	  6.793562045784 	  5.863629817907 	  2.980000000000 	
Mg	  2.374104222766 	  0.000000000000 	  1.673426501539 	
Mg	  3.374104222766 	  0.000000000000 	  4.653426501539 	
Mg	  2.374104222766 	  3.980000000000 	  1.673426501539 	
Mg	  3.374104222766 	  3.980000000000 	  4.653426501539 	
Mg	  6.354104222766 	  0.000000000000 	  1.673426501539 	
Mg	  7.354104222766 	  0.000000000000 	  4.653426501539 	
Mg	  6.354104222766 	  3.980000000000 	  1.673426501539 	
Mg	  7.354104222766 	  3.980000000000 	  4.653426501539 	
Mg	  0.350338860614 	  2.023765362152 	  1.673426501539 	
Mg	  1.350338860614 	  2.023765362152 	  4.653426501539 	
Mg	  0.350338860614 	  6.003765362152 	  1.673426501539 	
Mg	  1.350338860614 	  6.003765362152 	  4.653426501539 	
Mg	  4.330338860614 	  2.023765362152 	  1.673426501539 	
Mg	  5.330338860614 	  2.023765362152 	  4.653426501539 	
Mg	  4.330338860614 	  6.003765362152 	  1.673426501539 	
Mg	  5.330338860614 	  6.003765362152 	  4.653426501539 	
O	  2.023765362152 	  0.000000000000 	  0.000000000000 	
O	  3.023765362152 	  0.000000000000 	  2.980000000000 	
O	  2.023765362152 	  3.980000000000 	  0.000000000000 	
O	  3.023765362152 	  3.980000000000 	  2.980000000000 	
O	  6.003765362152 	  0.000000000000 	  0.000000000000 	
O	  7.003765362152 	  0.000000000000 	  2.980000000000 	
O	  6.003765362152 	  3.980000000000 	  0.000000000000 	
O	  7.003765362152 	  3.980000000000 	  2.980000000000 	
O	  0.000000000000 	  2.023765362152 	  0.000000000000 	
O	  1.000000000000 	  2.023765362152 	  2.980000000000 	
O	  0.000000000000 	  6.003765362152 	  0.000000000000 	
O	  1.000000000000 	  6.003765362152 	  2.980000000000 	
O	  3.980000000000 	  2.023765362152 	  0.000000000000 	
O	  4.980000000000 	  2.023765362152 	  2.980000000000 	
O	  3.980000000000 	  6.003765362152 	  0.000000000000 	
O	  4.980000000000 	  6.003765362152 	  2.980000000000 	
O	  0.350338860614 	  0.000000000000 	  1.673426501539 	
O	  1.350338860614 	  0.000000000000 	  4.653426501539 	
O	  0.350338860614 	  3.980000000000 	  1.673426501539 	
O	  1.350338860614 	  3.980000000000 	  4.653426501539 	
O	  4.330338860614 	  0.000000000000 	  1.673426501539 	
O	  5.330338860614 	  0.000000000000 	  4.653426501539 	
O	  4.330338860614 	  3.980000000000 	  1.673426501539 	
O	  5.330338860614 	  3.980000000000 	  4.653426501539 	
O	  2.654375311257 	  1.563420099306 	  1.673426501539 	
O	  3.654375311257 	  1.563420099306 	  4.653426501539 	
O	  2.654375311257 	  5.543420099306 	  1.673426501539 	
O	  3.654375311257 	  5.543420099306 	  4.653426501539 	
O	  6.634375311257 	  1.563420099306 	  1.673426501539 	
O	  7.634375311257 	  1.563420099306 	  4.653426501539 	
O	  6.634375311257 	  5.543420099306 	  1.673426501539 	
O	  7.634375311257 	  5.543420099306 	  4.653426501539 	
64 
Energy: 5.0963347764567466e+00 
Mg	  0.000000000000 	  0.000000000000 	  0.000000000000 	
Mg	  1.000000000000 	  0.000000000000 	  2.980000000000 	
Mg	  0.000000000000 	  3.980000000000 	  0.000000000000 	
Mg	  1.000000000000 	  3.980000000000 	  2.980000000000 	
Mg	  3.980000000000 	  0.000000000000 	  0.000000000000 	
Mg	  4.980000000000 	  0.000000000000 	  2.980000000000 	
Mg	  3.980000000000 	  3.980000000000 	  0.000000000000 	
Mg	  4.980000000000 	  3.980000000000 	  2.980000000000 	
Mg	  1.839533488299 	  1.903758059680 	  0.000000000000 	
Mg	  2.839533488299 	  1.903758059680 	  2.980000000000 	
Mg	  1.839533488299 	  5.883758059680 	  0.000000000000 	
Mg	  2.839533488299 	  5.883758059680 	  2.980000000000 	
Mg	  5.819533488299 	  1.903758059680 	  0.000000000000 	
Mg	  6.819533488299 	  1.903758059680 	  2.980000000000 	
Mg	  5.819533488299 	  5.883758059680 	  0.000000000000 	
Mg	  6.819533488299 	  5.883758059680 	  2.980000000000 	
Mg	  2.353330059343 	  0.000000000000 	  1.711084345538 	
Mg	  3.353330059343 	  0.000000000000 	  4.691084345538 	
Mg	  2.353330059343 	  3.980000000000 	  1.711084345538 	
Mg	  3.353330059343 	  3.980000000000 	  4.691084345538 	
Mg	  6.333330059343 	  0.000000000000 	  1.711084345538 	
Mg	  7.333330059343 	  0.000000000000 	  4.691084345538 	
Mg	  6.333330059343 	  3.980000000000 	  1.711084345538 	
Mg	  7.333330059343 	  3.980000000000 	  4.691084345538 	
Mg	  0.321122856902 	  2.032207202441 	  1.711084345538 	
Mg	  1.321122856902 	  2.032207202441 	  4.691084345538 	
Mg	  0.321122856902 	  6.012207202441 	  1.711084345538 	
Mg	  1.321122856902 	  6.012207202441 	  4.691084345538 	
Mg	  4.301122856902 	  2.032207202441 	  1.711084345538 	
Mg	  5.301122856902 	  2.032207202441 	  4.691084345538 	
Mg	  4.301122856902 	  6.012207202441 	  1.711084345538 	
Mg	  5.301122856902 	  6.012207202441 	  4.691084345538 	
O	  2.032207202441 	  0.000000000000 	  0.000000000000 	
O	  3.032207202441 	  0.000000000000 	  2.980000000000 	
O	  2.032207202441 	  3.980000000000 	  0.000000000000 	
O	  3.032207202441 	  3.980000000000 	  2.980000000000 	
O	  6.012207202441 	  0.000000000000 	  0.000000000000 	
O	  7.012207202441 	  0.000000000000 	  2.980000000000 	
O	  6.012207202441 	  3.980000000000 	  0.000000000000 	
O	  7.012207202441 	  3.980000000000 	  2.980000000000 	
O	  0.000000000000 	  2.032207202441 	  0.000000000000 	
O	  1.000000000000 	  2.032207202441 	  2.980000000000 	
O	  0.000000000000 	  6.012207202441 	  0.000000000000 	
O	  1.000000000000 	  6.012207202441 	  2.980000000000 	
O	  3.980000000000 	  2.032207202441 	  0.000000000000 	
O	  4.980000000000 	  2.032207202441 	  2.980000000000 	
O	  3.980000000000 	  6.012207202441 	  0.000000000000 	
O	  4.980000000000 	  6.012207202441 	  2.980000000000 	
O	  0.321122856902 	  0.000000000000 	  1.711084345538 	
O	  1.321122856902 	  0.000000000000 	  4.691084345538 	
O	  0.321122856902 	  3.980000000000 	  1.711084345538 	
O	  1.321122856902 	  3.980000000000 	  4.691084345538 	
O	  4.301122856902 	  0.000000000000 	  1.711084345538 	
O	  5.301122856902 	  0.000000000000 	  4.691084345538 	
O	  4.301122856902 	  3.980000000000 	  1.711084345538 	
O	  5.301122856902 	  3.980000000000 	  4.691084345538 	
O	  2.610228344865 	  1.610251768471 	  1.711084345538 	
O	  3.610228344865 	  1.610251768471 	  4.691084345538 	
O	  2.610228344865 	  5.590251768471 	  1.711084345538 	
O	  3.610228344865 	  5.590251768471 	  4.691084345538 	
O	  6.590228344865 	  1.610251768471 	  1.711084345538 	
O	  7.590228344865 	  1.610251768471 	  4.691084345538 	
O	  6.590228344865 	  5.590251768471 	  1.711084345538 	
O	  7.590228344865 	  5.590251768471 	  4.691084345538 	
64 
Energy: 5.5241596450369421e+00 
Mg	  0.000000000000 	  0.000000000000 	  0.000000000000 	
Mg	  1.000000000000 	  0.000000000000 	  2.980000000000 	
Mg	  0.000000000000 	  3.980000000000 	  0.000000000000 	
Mg	  1.000000000000 	  3.980000000000 	  2.980000000000 	
Mg	  3.980000000000 	  0.000000000000 	  0.000000000000 	
Mg	  4.980000000000 	  0.000000000000 	  2.980000000000 	
Mg	  3.980000000000 	  3.980000000000 	  0.000000000000 	
Mg	  4.980000000000 	  3.980000000000 	  2.980000000000 	
Mg	  1.865519248090 	  1.923897784916 	  0.000000000000 	
Mg	  2.865519248090 	  1.923897784916 	  2.980000000000 	
Mg	  1.865519248090 	  5.903897784916 	  0.000000000000 	
Mg	  2.865519248090 	  5.903897784916 	  2.980000000000 	
Mg	  5.845519248090 	  1.923897784916 	  0.000000000000 	
Mg	  6.845519248090 	  1.923897784916 	  2.980000000000 	
Mg	  5.845519248090 	  5.903897784916 	  0.000000000000 	
Mg	  6.845519248090 	  5.903897784916 	  2.980000000000 	
Mg	  2.332547542700 	  0.000000000000 	  1.748762174437 	
Mg	  3.332547542700 	  0.000000000000 	  4.728762174437 	
Mg	  2.332547542700 	  3.980000000000 	  1.748762174437 	
Mg	  3.332547542700 	  3.980000000000 	  4.728762174437 	
Mg	  6.312547542699 	  0.000000000000 	  1.748762174437 	
Mg	  7.312547542699 	  0.000000000000 	  4.728762174437 	
Mg	  6.312547542699 	  3.980000000000 	  1.748762174437 	
Mg	  7.312547542699 	  3.980000000000 	  4.728762174437 	
Mg	  0.291892684131 	  2.040654858568 	  1.748762174437 	
Mg	  1.291892684131 	  2.040654858568 	  4.728762174437 	
Mg	  0.291892684131 	  6.020654858568 	  1.748762174437 	
Mg	  1.291892684131 	  6.020654858568 	  4.728762174437 	
Mg	  4.271892684131 	  2.040654858568 	  1.748762174437 	
Mg	  5.271892684131 	  2.040654858568 	  4.728762174437 	
Mg	  4.271892684131 	  6.020654858568 	  1.748762174437 	
Mg	  5.271892684131 	  6.020654858568 	  4.728762174437 	
O	  2.040654858568 	  0.000000000000 	  0.000000000000 	
O	  3.040654858568 	  0.000000000000 	  2.980000000000 	
O	  2.040654858568 	  3.980000000000 	  0.000000000000 	
O	  3.040654858568 	  3.980000000000 	  2.980000000000 	
O	  6.020654858568 	  0.000000000000 	  0.000000000000 	
O	  7.020654858568 	  0.000000000000 	  2.980000000000 	
O	  6.020654858568 	  3.980000000000 	  0.000000000000 	
O	  7.020654858568 	  3.980000000000 	  2.980000000000 	
O	  0.000000000000 	  2.040654858568 	  0.000000000000 	
O	  1.000000000000 	  2.040654858568 	  2.980000000000 	
O	  0.000000000000 	  6.020654858568 	  0.000000000000 	
O	  1.000000000000 	  6.020654858568 	  2.980000000000 	
O	  3.980000000000 	  2.040654858568 	  0.000000000000 	
O	  4.980000000000 	  2.040654858568 	  2.980000000000 	
O	  3.980000000000 	  6.020654858568 	  0.000000000000 	
O	  4.980000000000 	  6.020654858568 	  2.980000000000 	
O	  0.291892684131 	  0.000000000000 	  1.748762174437 	
O	  1.291892684131 	  0.000000000000 	  4.728762174437 	
O	  0.291892684131 	  3.980000000000 	  1.748762174437 	
O	  1.291892684131 	  3.980000000000 	  4.728762174437 	
O	  4.271892684131 	  0.000000000000 	  1.748762174437 	
O	  5.271892684131 	  0.000000000000 	  4.728762174437 	
O	  4.271892684131 	  3.980000000000 	  1.748762174437 	
O	  5.271892684131 	  3.980000000000 	  4.728762174437 	
O	  2.566061690004 	  1.657107871620 	  1.748762174437 	
O	  3.566061690004 	  1.657107871620 	  4.728762174437 	
O	  2.566061690004 	  5.637107871620 	  1.748762174437 	
O	  3.566061690004 	  5.637107871620 	  4.728762174437 	
O	  6.546061690004 	  1.657107871620 	  1.748762174437 	
O	  7.546061690004 	  1.657107871620 	  4.728762174437 	
O	  6.546061690004 	  5.637107871620 	  1.748762174437 	
O	  7.546061690004 	  5.637107871620 	  4.728762174437 	
64 
Energy: 5.7339347497632147e+00 
Mg	  0.000000000000 	  0.000000000000 	  0.000000000000 	
Mg	  1.000000000000 	  0.000000000000 	  2.980000000000 	
Mg	  0.000000000000 	  3.980000000000 	  0.000000000000 	
Mg	  1.000000000000 	  3.980000000000 	  2.980000000000 	
Mg	  3.980000000000 	  0.000000000000 	  0.000000000000 	
Mg	  4.980000000000 	  0.000000000000 	  2.980000000000 	
Mg	  3.980000000000 	  3.980000000000 	  0.000000000000 	
Mg	  4.980000000000 	  3.980000000000 	  2.980000000000 	
Mg	  1.891512326925 	  1.944043521471 	  0.000000000000 	
Mg	  2.891512326925 	  1.944043521471 	  2.980000000000 	
Mg	  1.891512326925 	  5.924043521471 	  0.000000000000 	
Mg	  2.891512326925 	  5.924043521471 	  2.980000000000 	
Mg	  5.871512326925 	  1.944043521471 	  0.000000000000 	
Mg	  6.871512326925 	  1.944043521471 	  2.980000000000 	
Mg	  5.871512326925 	  5.924043521471 	  0.000000000000 	
Mg	  6.871512326925 	  5.924043521471 	  2.980000000000 	
Mg	  2.311761883288 	  0.000000000000 	  1.786449937835 	
Mg	  3.311761883288 	  0.000000000000 	  4.766449937835 	
Mg	  2.311761883288 	  3.980000000000 	  1.786449937835 	
Mg	  3.311761883288 	  3.980000000000 	  4.766449937835 	
Mg	  6.291761883288 	  0.000000000000 	  1.786449937835 	
Mg	  7.291761883288 	  0.000000000000 	  4.766449937835 	
Mg	  6.291761883288 	  3.980000000000 	  1.786449937835 	
Mg	  7.291761883288 	  3.980000000000 	  4.766449937835 	
Mg	  0.262655972727 	  2.049105910561 	  1.786449937835 	
Mg	  1.262655972727 	  2.049105910561 	  4.766449937835 	
Mg	  0.262655972727 	  6.029105910561 	  1.786449937835 	
Mg	  1.262655972727 	  6.029105910561 	  4.766449937835 	
Mg	  4.242655972727 	  2.049105910561 	  1.786449937835 	
Mg	  5.242655972727 	  2.049105910561 	  4.766449937835 	
Mg	  4.242655972727 	  6.029105910561 	  1.786449937835 	
Mg	  5.242655972727 	  6.029105910561 	  4.766449937835 	
O	  2.049105910561 	  0.000000000000 	  0.000000000000 	
O	  3.049105910561 	  0.000000000000 	  2.980000000000 	
O	  2.049105910561 	  3.980000000000 	  0.000000000000 	
O	  3.049105910561 	  3.980000000000 	  2.980000000000 	
O	  6.029105910561 	  0.000000000000 	  0.000000000000 	
O	  7.029105910561 	  0.000000000000 	  2.980000000000 	
O	  6.029105910561 	  3.980000000000 	  0.000000000000 	
O	  7.029105910561 	  3.980000000000 	  2.980000000000 	
O	  0.000000000000 	  2.049105910561 	  0.000000000000 	
O	  1.000000000000 	  2.049105910561 	  2.980000000000 	
O	  0.000000000000 	  6.029105910561 	  0.000000000000 	
O	  1.000000000000 	  6.029105910561 	  2.980000000000 	
O	  3.980000000000 	  2.049105910561 	  0.000000000000 	
O	  4.980000000000 	  2.049105910561 	  2.980000000000 	
O	  3.980000000000 	  6.029105910561 	  0.000000000000 	
O	  4.980000000000 	  6.029105910561 	  2.980000000000 	
O	  0.262655972727 	  0.000000000000 	  1.786449937835 	
O	  1.262655972727 	  0.000000000000 	  4.766449937835 	
O	  0.262655972727 	  3.980000000000 	  1.786449937835 	
O	  1.262655972727 	  3.980000000000 	  4.766449937835 	
O	  4.242655972727 	  0.000000000000 	  1.786449937835 	
O	  5.242655972727 	  0.000000000000 	  4.766449937835 	
O	  4.242655972727 	  3.980000000000 	  1.786449937835 	
O	  5.242655972727 	  3.980000000000 	  4.766449937835 	
O	  2.521886661470 	  1.703975962398 	  1.786449937835 	
O	  3.521886661470 	  1.703975962398 	  4.766449937835 	
O	  2.521886661470 	  5.683975962398 	  1.786449937835 	
O	  3.521886661470 	  5.683975962398 	  4.766449937835 	
O	  6.501886661470 	  1.703975962398 	  1.786449937835 	
O	  7.501886661470 	  1.703975962398 	  4.766449937835 	
O	  6.501886661470 	  5.683975962398 	  1.786449937835 	
O	  7.501886661470 	  5.683975962398 	  4.766449937835 	
64 
Energy: 5.6922201995369957e+00 
Mg	  0.000000000000 	  0.000000000000 	  0.000000000000 	
Mg	  1.000000000000 	  0.000000000000 	  2.980000000000 	
Mg	  0.000000000000 	  3.980000000000 	  0.000000000000 	
Mg	  1.000000000000 	  3.980000000000 	  2.980000000000 	
Mg	  3.980000000000 	  0.000000000000 	  0.000000000000 	
Mg	  4.980000000000 	  0.000000000000 	  2.980000000000 	
Mg	  3.980000000000 	  3.980000000000 	  0.000000000000 	
Mg	  4.980000000000 	  3.980000000000 	  2.980000000000 	
Mg	  1.917506991564 	  1.964190470874 	  0.000000000000 	
Mg	  2.917506991564 	  1.964190470874 	  2.980000000000 	
Mg	  1.917506991564 	  5.944190470874 	  0.000000000000 	
Mg	  2.917506991564 	  5.944190470874 	  2.980000000000 	
Mg	  5.897506991564 	  1.964190470874 	  0.000000000000 	
Mg	  6.897506991564 	  1.964190470874 	  2.980000000000 	
Mg	  5.897506991564 	  5.944190470874 	  0.000000000000 	
Mg	  6.897506991564 	  5.944190470874 	  2.980000000000 	
Mg	  2.290974826044 	  0.000000000000 	  1.824140032943 	
Mg	  3.290974826044 	  0.000000000000 	  4.804140032943 	
Mg	  2.290974826044 	  3.980000000000 	  1.824140032943 	
Mg	  3.290974826044 	  3.980000000000 	  4.804140032943 	
Mg	  6.270974826044 	  0.000000000000 	  1.824140032943 	
Mg	  7.270974826044 	  0.000000000000 	  4.804140032943 	
Mg	  6.270974826044 	  3.980000000000 	  1.824140032943 	
Mg	  7.270974826044 	  3.980000000000 	  4.804140032943 	
Mg	  0.233417396550 	  2.057557429494 	  1.824140032943 	
Mg	  1.233417396550 	  2.057557429494 	  4.804140032943 	
Mg	  0.233417396550 	  6.037557429494 	  1.824140032943 	
Mg	  1.233417396550 	  6.037557429494 	  4.804140032943 	
Mg	  4.213417396550 	  2.057557429494 	  1.824140032943 	
Mg	  5.213417396550 	  2.057557429494 	  4.804140032943 	
Mg	  4.213417396550 	  6.037557429494 	  1.824140032943 	
Mg	  5.213417396550 	  6.037557429494 	  4.804140032943 	
O	  2.057557429494 	  0.000000000000 	  0.000000000000 	
O	  3.057557429494 	  0.000000000000 	  2.980000000000 	
O	  2.057557429494 	  3.980000000000 	  0.000000000000 	
O	  3.057557429494 	  3.980000000000 	  2.980000000000 	
O	  6.037557429494 	  0.000000000000 	  0.000000000000 	
O	  7.037557429494 	  0.000000000000 	  2.980000000000 	
O	  6.037557429494 	  3.980000000000 	  0.000000000000 	
O	  7.037557429494 	  3.980000000000 	  2.980000000000 	
O	  0.000000000000 	  2.057557429494 	  0.000000000000 	
O	  1.000000000000 	  2.057557429494 	  2.980000000000 	
O	  0.000000000000 	  6.037557429494 	  0.000000000000 	
O	  1.000000000000 	  6.037557429494 	  2.980000000000 	
O	  3.980000000000 	  2.057557429494 	  0.000000000000 	
O	  4.980000000000 	  2.057557429494 	  2.980000000000 	
O	  3.980000000000 	  6.037557429494 	  0.000000000000 	
O	  4.980000000000 	  6.037557429494 	  2.980000000000 	
O	  0.233417396550 	  0.000000000000 	  1.824140032943 	
O	  1.233417396550 	  0.000000000000 	  4.804140032943 	
O	  0.233417396550 	  3.980000000000 	  1.824140032943 	
O	  1.233417396550 	  3.980000000000 	  4.804140032943 	
O	  4.213417396550 	  0.000000000000 	  1.824140032943 	
O	  5.213417396550 	  0.000000000000 	  4.804140032943 	
O	  4.213417396550 	  3.980000000000 	  1.824140032943 	
O	  5.213417396550 	  3.980000000000 	  4.804140032943 	
O	  2.477708743285 	  1.750846970427 	  1.824140032943 	
O	  3.477708743285 	  1.750846970427 	  4.804140032943 	
O	  2.477708743285 	  5.730846970427 	  1.824140032943 	
O	  3.477708743285 	  5.730846970427 	  4.804140032943 	
O	  6.457708743285 	  1.750846970427 	  1.824140032943 	
O	  7.457708743285 	  1.750846970427 	  4.804140032943 	
O	  6.457708743285 	  5.730846970427 	  1.824140032943 	
O	  7.457708743285 	  5.730846970427 	  4.804140032943 	
64 
Energy: 5.3866001398409864e+00 
Mg	  0.000000000000 	  0.000000000000 	  0.000000000000 	
Mg	  1.000000000000 	  0.000000000000 	  2.980000000000 	
Mg	  0.000000000000 	  3.980000000000 	  0.000000000000 	
Mg	  1.000000000000 	  3.980000000000 	  2.980000000000 	
Mg	  3.980000000000 	  0.000000000000 	  0.000000000000 	
Mg	  4.980000000000 	  0.000000000000 	  2.980000000000 	
Mg	  3.980000000000 	  3.980000000000 	  0.000000000000 	
Mg	  4.980000000000 	  3.980000000000 	  2.980000000000 	
Mg	  1.943498325411 	  1.984334908208 	  0.000000000000 	
Mg	  2.943498325411 	  1.984334908208 	  2.980000000000 	
Mg	  1.943498325411 	  5.964334908208 	  0.000000000000 	
Mg	  2.943498325411 	  5.964334908208 	  2.980000000000 	
Mg	  5.923498325411 	  1.984334908208 	  0.000000000000 	
Mg	  6.923498325411 	  1.984334908208 	  2.980000000000 	
Mg	  5.923498325411 	  5.964334908208 	  0.000000000000 	
Mg	  6.923498325411 	  5.964334908208 	  2.980000000000 	
Mg	  2.270190987789 	  0.000000000000 	  1.861825159816 	
Mg	  3.270190987789 	  0.000000000000 	  4.841825159816 	
Mg	  2.270190987789 	  3.980000000000 	  1.861825159816 	
Mg	  3.270190987789 	  3.980000000000 	  4.841825159816 	
Mg	  6.250190987789 	  0.000000000000 	  1.861825159816 	
Mg	  7.250190987789 	  0.000000000000 	  4.841825159816 	
Mg	  6.250190987789 	  3.980000000000 	  1.861825159816 	
Mg	  7.250190987789 	  3.980000000000 	  4.841825159816 	
Mg	  0.204182913986 	  2.066008073802 	  1.861825159816 	
Mg	  1.204182913986 	  2.066008073802 	  4.841825159816 	
Mg	  0.204182913986 	  6.046008073802 	  1.861825159816 	
Mg	  1.204182913986 	  6.046008073802 	  4.841825159816 	
Mg	  4.184182913986 	  2.066008073802 	  1.861825159816 	
Mg	  5.184182913986 	  2.066008073802 	  4.841825159816 	
Mg	  4.184182913986 	  6.046008073802 	  1.861825159816 	
Mg	  5.184182913986 	  6.046008073802 	  4.841825159816 	
O	  2.066008073802 	  0.000000000000 	  0.000000000000 	
O	  3.066008073802 	  0.000000000000 	  2.980000000000 	
O	  2.066008073802 	  3.980000000000 	  0.000000000000 	
O	  3.066008073802 	  3.980000000000 	  2.980000000000 	
O	  6.046008073802 	  0.000000000000 	  0.000000000000 	
O	  7.046008073802 	  0.000000000000 	  2.980000000000 	
O	  6.046008073802 	  3.980000000000 	  0.000000000000 	
O	  7.046008073802 	  3.980000000000 	  2.980000000000 	
O	  0.000000000000 	  2.066008073802 	  0.000000000000 	
O	  1.000000000000 	  2.066008073802 	  2.980000000000 	
O	  0.000000000000 	  6.046008073802 	  0.000000000000 	
O	  1.000000000000 	  6.046008073802 	  2.980000000000 	
O	  3.980000000000 	  2.066008073802 	  0.000000000000 	
O	  4.980000000000 	  2.066008073802 	  2.980000000000 	
O	  3.980000000000 	  6.046008073802 	  0.000000000000 	
O	  4.980000000000 	  6.046008073802 	  2.980000000000 	
O	  0.204182913986 	  0.000000000000 	  1.861825159816 	
O	  1.204182913986 	  0.000000000000 	  4.841825159816 	
O	  0.204182913986 	  3.980000000000 	  1.861825159816 	
O	  1.204182913986 	  3.980000000000 	  4.841825159816 	
O	  4.184182913986 	  0.000000000000 	  1.861825159816 	
O	  5.184182913986 	  0.000000000000 	  4.841825159816 	
O	  4.184182913986 	  3.980000000000 	  1.861825159816 	
O	  5.184182913986 	  3.980000000000 	  4.841825159816 	
O	  2.433537318978 	  1.797711724824 	  1.861825159816 	
O	  3.433537318978 	  1.797711724824 	  4.841825159816 	
O	  2.433537318978 	  5.777711724824 	  1.861825159816 	
O	  3.433537318978 	  5.777711724824 	  4.841825159816 	
O	  6.413537318978 	  1.797711724824 	  1.861825159816 	
O	  7.413537318978 	  1.797711724824 	  4.841825159816 	
O	  6.413537318978 	  5.777711724824 	  1.861825159816 	
O	  7.413537318978 	  5.777711724824 	  4.841825159816 	
64 
Energy: 4.8252265454510832e+00 
Mg	  0.000000000000 	  0.000000000000 	  0.000000000000 	
Mg	  1.000000000000 	  0.000000000000 	  2.980000000000 	
Mg	  0.000000000000 	  3.980000000000 	  0.000000000000 	
Mg	  1.000000000000 	  3.980000000000 	  2.980000000000 	
Mg	  3.980000000000 	  0.000000000000 	  0.000000000000 	
Mg	  4.980000000000 	  0.000000000000 	  2.980000000000 	
Mg	  3.980000000000 	  3.980000000000 	  0.000000000000 	
Mg	  4.980000000000 	  3.980000000000 	  2.980000000000 	
Mg	  1.969481691149 	  2.004473203930 	  0.000000000000 	
Mg	  2.969481691149 	  2.004473203930 	  2.980000000000 	
Mg	  1.969481691149 	  5.984473203930 	  0.000000000000 	
Mg	  2.969481691149 	  5.984473203930 	  2.980000000000 	
Mg	  5.949481691149 	  2.004473203930 	  0.000000000000 	
Mg	  6.949481691149 	  2.004473203930 	  2.980000000000 	
Mg	  5.949481691149 	  5.984473203930 	  0.000000000000 	
Mg	  6.949481691149 	  5.984473203930 	  2.980000000000 	
Mg	  2.249413793392 	  0.000000000000 	  1.899498665589 	
Mg	  3.249413793392 	  0.000000000000 	  4.879498665589 	
Mg	  2.249413793392 	  3.980000000000 	  1.899498665589 	
Mg	  3.249413793392 	  3.980000000000 	  4.879498665589 	
Mg	  6.229413793392 	  0.000000000000 	  1.899498665589 	
Mg	  7.229413793392 	  0.000000000000 	  4.879498665589 	
Mg	  6.229413793392 	  3.980000000000 	  1.899498665589 	
Mg	  7.229413793392 	  3.980000000000 	  4.879498665589 	
Mg	  0.174957563901 	  2.074456229490 	  1.899498665589 	
Mg	  1.174957563901 	  2.074456229490 	  4.879498665589 	
Mg	  0.174957563901 	  6.054456229490 	  1.899498665589 	
Mg	  1.174957563901 	  6.054456229490 	  4.879498665589 	
Mg	  4.154957563901 	  2.074456229490 	  1.899498665589 	
Mg	  5.154957563901 	  2.074456229490 	  4.879498665589 	
Mg	  4.154957563901 	  6.054456229490 	  1.899498665589 	
Mg	  5.154957563901 	  6.054456229490 	  4.879498665589 	
O	  2.074456229490 	  0.000000000000 	  0.000000000000 	
O	  3.074456229490 	  0.000000000000 	  2.980000000000 	
O	  2.074456229490 	  3.980000000000 	  0.000000000000 	
O	  3.074456229490 	  3.980000000000 	  2.980000000000 	
O	  6.054456229490 	  0.000000000000 	  0.000000000000 	
O	  7.054456229490 	  0.000000000000 	  2.980000000000 	
O	  6.054456229490 	  3.980000000000 	  0.000000000000 	
O	  7.054456229490 	  3.980000000000 	  2.980000000000 	
O	  0.000000000000 	  2.074456229490 	  0.000000000000 	
O	  1.000000000000 	  2.074456229490 	  2.980000000000 	
O	  0.000000000000 	  6.054456229490 	  0.000000000000 	
O	  1.000000000000 	  6.054456229490 	  2.980000000000 	
O	  3.980000000000 	  2.074456229490 	  0.000000000000 	
O	  4.980000000000 	  2.074456229490 	  2.980000000000 	
O	  3.980000000000 	  6.054456229490 	  0.000000000000 	
O	  4.980000000000 	  6.054456229490 	  2.980000000000 	
O	  0.174957563901 	  0.000000000000 	  1.899498665589 	
O	  1.174957563901 	  0.000000000000 	  4.879498665589 	
O	  0.174957563901 	  3.980000000000 	  1.899498665589 	
O	  1.174957563901 	  3.980000000000 	  4.879498665589 	
O	  4.154957563901 	  0.000000000000 	  1.899498665589 	
O	  5.154957563901 	  0.000000000000 	  4.879498665589 	
O	  4.154957563901 	  3.980000000000 	  1.899498665589 	
O	  5.154957563901 	  3.980000000000 	  4.879498665589 	
O	  2.389379844513 	  1.844561990524 	  1.899498665589 	
O	  3.389379844513 	  1.844561990524 	  4.879498665589 	
O	  2.389379844513 	  5.824561990524 	  1.899498665589 	
O	  3.389379844513 	  5.824561990524 	  4.879498665589 	
O	  6.369379844513 	  1.844561990524 	  1.899498665589 	
O	  7.369379844513 	  1.844561990524 	  4.879498665589 	
O	  6.369379844513 	  5.824561990524 	  1.899498665589 	
O	  7.369379844513 	  5.824561990524 	  4.879498665589 	
64 
Energy: 4.0390439550726427e+00 
Mg	  0.000000000000 	  0.000000000000 	  0.000000000000 	
Mg	  1.000000000000 	  0.000000000000 	  2.980000000000 	
Mg	  0.000000000000 	  3.980000000000 	  0.000000000000 	
Mg	  1.000000000000 	  3.980000000000 	  2.980000000000 	
Mg	  3.980000000000 	  0.000000000000 	  0.000000000000 	
Mg	  4.980000000000 	  0.000000000000 	  2.980000000000 	
Mg	  3.980000000000 	  3.980000000000 	  0.000000000000 	
Mg	  4.980000000000 	  3.980000000000 	  2.980000000000 	
Mg	  1.995452722072 	  2.024601878443 	  0.000000000000 	
Mg	  2.995452722072 	  2.024601878443 	  2.980000000000 	
Mg	  1.995452722072 	  6.004601878443 	  0.000000000000 	
Mg	  2.995452722072 	  6.004601878443 	  2.980000000000 	
Mg	  5.975452722072 	  2.024601878443 	  0.000000000000 	
Mg	  6.975452722072 	  2.024601878443 	  2.980000000000 	
Mg	  5.975452722072 	  6.004601878443 	  0.000000000000 	
Mg	  6.975452722072 	  6.004601878443 	  2.980000000000 	
Mg	  2.228645973042 	  0.000000000000 	  1.937154409330 	
Mg	  3.228645973042 	  0.000000000000 	  4.917154409330 	
Mg	  2.228645973042 	  3.980000000000 	  1.937154409330 	
Mg	  3.228645973042 	  3.980000000000 	  4.917154409330 	
Mg	  6.208645973042 	  0.000000000000 	  1.937154409330 	
Mg	  7.208645973042 	  0.000000000000 	  4.917154409330 	
Mg	  6.208645973042 	  3.980000000000 	  1.937154409330 	
Mg	  7.208645973042 	  3.980000000000 	  4.917154409330 	
Mg	  0.145745781856 	  2.082900191186 	  1.937154409330 	
Mg	  1.145745781856 	  2.082900191186 	  4.917154409330 	
Mg	  0.145745781856 	  6.062900191186 	  1.937154409330 	
Mg	  1.145745781856 	  6.062900191186 	  4.917154409330 	
Mg	  4.125745781856 	  2.082900191186 	  1.937154409330 	
Mg	  5.125745781856 	  2.082900191186 	  4.917154409330 	
Mg	  4.125745781856 	  6.062900191186 	  1.937154409330 	
Mg	  5.125745781856 	  6.062900191186 	  4.917154409330 	
O	  2.082900191186 	  0.000000000000 	  0.000000000000 	
O	  3.082900191186 	  0.000000000000 	  2.980000000000 	
O	  2.082900191186 	  3.980000000000 	  0.000000000000 	
O	  3.082900191186 	  3.980000000000 	  2.980000000000 	
O	  6.062900191186 	  0.000000000000 	  0.000000000000 	
O	  7.062900191186 	  0.000000000000 	  2.980000000000 	
O	  6.062900191186 	  3.980000000000 	  0.000000000000 	
O	  7.062900191186 	  3.980000000000 	  2.980000000000 	
O	  0.000000000000 	  2.082900191186 	  0.000000000000 	
O	  1.000000000000 	  2.082900191186 	  2.980000000000 	
O	  0.000000000000 	  6.062900191186 	  0.000000000000 	
O	  1.000000000000 	  6.062900191186 	  2.980000000000 	
O	  3.980000000000 	  2.082900191186 	  0.000000000000 	
O	  4.980000000000 	  2.082900191186 	  2.980000000000 	
O	  3.980000000000 	  6.062900191186 	  0.000000000000 	
O	  4.980000000000 	  6.062900191186 	  2.980000000000 	
O	  0.145745781856 	  0.000000000000 	  1.937154409330 	
O	  1.145745781856 	  0.000000000000 	  4.917154409330 	
O	  0.145745781856 	  3.980000000000 	  1.937154409330 	
O	  1.145745781856 	  3.980000000000 	  4.917154409330 	
O	  4.125745781856 	  0.000000000000 	  1.937154409330 	
O	  5.125745781856 	  0.000000000000 	  4.917154409330 	
O	  4.125745781856 	  3.980000000000 	  1.937154409330 	
O	  5.125745781856 	  3.980000000000 	  4.917154409330 	
O	  2.345242598528 	  1.891390233827 	  1.937154409330 	
O	  3.345242598528 	  1.891390233827 	  4.917154409330 	
O	  2.345242598528 	  5.871390233827 	  1.937154409330 	
O	  3.345242598528 	  5.871390233827 	  4.917154409330 	
O	  6.325242598528 	  1.891390233827 	  1.937154409330 	
O	  7.325242598528 	  1.891390233827 	  4.917154409330 	
O	  6.325242598528 	  5.871390233827 	  1.937154409330 	
O	  7.325242598528 	  5.871390233827 	  4.917154409330 	
64 
Energy: 3.0856201502244307e+00 
Mg	  0.000000000000 	  0.000000000000 	  0.000000000000 	
Mg	  1.000000000000 	  0.000000000000 	  2.980000000000 	
Mg	  0.000000000000 	  3.980000000000 	  0.000000000000 	
Mg	  1.000000000000 	  3.980000000000 	  2.980000000000 	
Mg	  3.980000000000 	  0.000000000000 	  0.000000000000 	
Mg	  4.980000000000 	  0.000000000000 	  2.980000000000 	
Mg	  3.980000000000 	  3.980000000000 	  0.000000000000 	
Mg	  4.980000000000 	  3.980000000000 	  2.980000000000 	
Mg	  2.021407492059 	  2.044717759884 	  0.000000000000 	
Mg	  3.021407492059 	  2.044717759884 	  2.980000000000 	
Mg	  2.021407492059 	  6.024717759884 	  0.000000000000 	
Mg	  3.021407492059 	  6.024717759884 	  2.980000000000 	
Mg	  6.001407492059 	  2.044717759884 	  0.000000000000 	
Mg	  7.001407492059 	  2.044717759884 	  2.980000000000 	
Mg	  6.001407492059 	  6.024717759884 	  0.000000000000 	
Mg	  7.001407492059 	  6.024717759884 	  2.980000000000 	
Mg	  2.207889634656 	  0.000000000000 	  1.974786956410 	
Mg	  3.207889634656 	  0.000000000000 	  4.954786956410 	
Mg	  2.207889634656 	  3.980000000000 	  1.974786956410 	
Mg	  3.207889634656 	  3.980000000000 	  4.954786956410 	
Mg	  6.187889634656 	  0.000000000000 	  1.974786956410 	
Mg	  7.187889634656 	  0.000000000000 	  4.954786956410 	
Mg	  6.187889634656 	  3.980000000000 	  1.974786956410 	
Mg	  7.187889634656 	  3.980000000000 	  4.954786956410 	
Mg	  0.116551339123 	  2.091338295533 	  1.974786956410 	
Mg	  1.116551339123 	  2.091338295533 	  4.954786956410 	
Mg	  0.116551339123 	  6.071338295533 	  1.974786956410 	
Mg	  1.116551339123 	  6.071338295533 	  4.954786956410 	
Mg	  4.096551339123 	  2.091338295533 	  1.974786956410 	
Mg	  5.096551339123 	  2.091338295533 	  4.954786956410 	
Mg	  4.096551339123 	  6.071338295533 	  1.974786956410 	
Mg	  5.096551339123 	  6.071338295533 	  4.954786956410 	
O	  2.091338295533 	  0.000000000000 	  0.000000000000 	
O	  3.091338295533 	  0.000000000000 	  2.980000000000 	
O	  2.091338295533 	  3.980000000000 	  0.000000000000 	
O	  3.091338295533 	  3.980000000000 	  2.980000000000 	
O	  6.071338295533 	  0.000000000000 	  0.000000000000 	
O	  7.071338295533 	  0.000000000000 	  2.980000000000 	
O	  6.071338295533 	  3.980000000000 	  0.000000000000 	
O	  7.071338295533 	  3.980000000000 	  2.980000000000 	
O	  0.000000000000 	  2.091338295533 	  0.000000000000 	
O	  1.000000000000 	  2.091338295533 	  2.980000000000 	
O	  0.000000000000 	  6.071338295533 	  0.000000000000 	
O	  1.000000000000 	  6.071338295533 	  2.980000000000 	
O	  3.980000000000 	  2.091338295533 	  0.000000000000 	
O	  4.980000000000 	  2.091338295533 	  2.980000000000 	
O	  3.980000000000 	  6.071338295533 	  0.000000000000 	
O	  4.980000000000 	  6.071338295533 	  2.980000000000 	
O	  0.116551339123 	  0.000000000000 	  1.974786956410 	
O	  1.116551339123 	  0.000000000000 	  4.954786956410 	
O	  0.116551339123 	  3.980000000000 	  1.974786956410 	
O	  1.116551339123 	  3.980000000000 	  4.954786956410 	
O	  4.096551339123 	  0.000000000000 	  1.974786956410 	
O	  5.096551339123 	  0.000000000000 	  4.954786956410 	
O	  4.096551339123 	  3.980000000000 	  1.974786956410 	
O	  5.096551339123 	  3.980000000000 	  4.954786956410 	
O	  2.301130705955 	  1.938189835925 	  1.974786956410 	
O	  3.301130705955 	  1.938189835925 	  4.954786956410 	
O	  2.301130705955 	  5.918189835925 	  1.974786956410 	
O	  3.301130705955 	  5.918189835925 	  4.954786956410 	
O	  6.281130705955 	  1.938189835925 	  1.974786956410 	
O	  7.281130705955 	  1.938189835925 	  4.954786956410 	
O	  6.281130705955 	  5.918189835925 	  1.974786956410 	
O	  7.281130705955 	  5.918189835925 	  4.954786956410 	
64 
Energy: 2.0543004675267098e+00 
Mg	  0.000000000000 	  0.000000000000 	  0.000000000000 	
Mg	  1.000000000000 	  0.000000000000 	  2.980000000000 	
Mg	  0.000000000000 	  3.980000000000 	  0.000000000000 	
Mg	  1.000000000000 	  3.980000000000 	  2.980000000000 	
Mg	  3.980000000000 	  0.000000000000 	  0.000000000000 	
Mg	  4.980000000000 	  0.000000000000 	  2.980000000000 	
Mg	  3.980000000000 	  3.980000000000 	  0.000000000000 	
Mg	  4.980000000000 	  3.980000000000 	  2.980000000000 	
Mg	  2.047342475063 	  2.064817957539 	  0.000000000000 	
Mg	  3.047342475063 	  2.064817957539 	  2.980000000000 	
Mg	  2.047342475063 	  6.044817957539 	  0.000000000000 	
Mg	  3.047342475063 	  6.044817957539 	  2.980000000000 	
Mg	  6.027342475063 	  2.064817957539 	  0.000000000000 	
Mg	  7.027342475063 	  2.064817957539 	  2.980000000000 	
Mg	  6.027342475063 	  6.044817957539 	  0.000000000000 	
Mg	  7.027342475063 	  6.044817957539 	  2.980000000000 	
Mg	  2.187146334871 	  0.000000000000 	  2.012391510112 	
Mg	  3.187146334871 	  0.000000000000 	  4.992391510112 	
Mg	  2.187146334871 	  3.980000000000 	  2.012391510112 	
Mg	  3.187146334871 	  3.980000000000 	  4.992391510112 	
Mg	  6.167146334871 	  0.000000000000 	  2.012391510112 	
Mg	  7.167146334871 	  0.000000000000 	  4.992391510112 	
Mg	  6.167146334871 	  3.980000000000 	  2.012391510112 	
Mg	  7.167146334871 	  3.980000000000 	  4.992391510112 	
Mg	  0.087377412379 	  2.099768922491 	  2.012391510112 	
Mg	  1.087377412379 	  2.099768922491 	  4.992391510112 	
Mg	  0.087377412379 	  6.079768922491 	  2.012391510112 	
Mg	  1.087377412379 	  6.079768922491 	  4.992391510112 	
Mg	  4.067377412379 	  2.099768922491 	  2.012391510112 	
Mg	  5.067377412379 	  2.099768922491 	  4.992391510112 	
Mg	  4.067377412379 	  6.079768922491 	  2.012391510112 	
Mg	  5.067377412379 	  6.079768922491 	  4.992391510112 	
O	  2.099768922491 	  0.000000000000 	  0.000000000000 	
O	  3.099768922491 	  0.000000000000 	  2.980000000000 	
O	  2.099768922491 	  3.980000000000 	  0.000000000000 	
O	  3.099768922491 	  3.980000000000 	  2.980000000000 	
O	  6.079768922491 	  0.000000000000 	  0.000000000000 	
O	  7.079768922491 	  0.000000000000 	  2.980000000000 	
O	  6.079768922491 	  3.980000000000 	  0.000000000000 	
O	  7.079768922491 	  3.980000000000 	  2.980000000000 	
O	  0.000000000000 	  2.099768922491 	  0.000000000000 	
O	  1.000000000000 	  2.099768922491 	  2.980000000000 	
O	  0.000000000000 	  6.079768922491 	  0.000000000000 	
O	  1.000000000000 	  6.079768922491 	  2.980000000000 	
O	  3.980000000000 	  2.099768922491 	  0.000000000000 	
O	  4.980000000000 	  2.099768922491 	  2.980000000000 	
O	  3.980000000000 	  6.079768922491 	  0.000000000000 	
O	  4.980000000000 	  6.079768922491 	  2.980000000000 	
O	  0.087377412379 	  0.000000000000 	  2.012391510112 	
O	  1.087377412379 	  0.000000000000 	  4.992391510112 	
O	  0.087377412379 	  3.980000000000 	  2.012391510112 	
O	  1.087377412379 	  3.980000000000 	  4.992391510112 	
O	  4.067377412379 	  0.000000000000 	  2.012391510112 	
O	  5.067377412379 	  0.000000000000 	  4.992391510112 	
O	  4.067377412379 	  3.980000000000 	  2.012391510112 	
O	  5.067377412379 	  3.980000000000 	  4.992391510112 	
O	  2.257048264774 	  1.984955002625 	  2.012391510112 	
O	  3.257048264774 	  1.984955002625 	  4.992391510112 	
O	  2.257048264774 	  5.964955002625 	  2.012391510112 	
O	  3.257048264774 	  5.964955002625 	  4.992391510112 	
O	  6.237048264774 	  1.984955002625 	  2.012391510112 	
O	  7.237048264774 	  1.984955002625 	  4.992391510112 	
O	  6.237048264774 	  5.964955002625 	  2.012391510112 	
O	  7.237048264774 	  5.964955002625 	  4.992391510112 	
64 
Energy: 1.0725075863249796e+00 
Mg	  0.000000000000 	  0.000000000000 	  0.000000000000 	
Mg	  1.000000000000 	  0.000000000000 	  2.980000000000 	
Mg	  0.000000000000 	  3.980000000000 	  0.000000000000 	
Mg	  1.000000000000 	  3.980000000000 	  2.980000000000 	
Mg	  3.980000000000 	  0.000000000000 	  0.000000000000 	
Mg	  4.980000000000 	  0.000000000000 	  2.980000000000 	
Mg	  3.980000000000 	  3.980000000000 	  0.000000000000 	
Mg	  4.980000000000 	  3.980000000000 	  2.980000000000 	
Mg	  2.073254560765 	  2.084899864417 	  0.000000000000 	
Mg	  3.073254560765 	  2.084899864417 	  2.980000000000 	
Mg	  2.073254560765 	  6.064899864417 	  0.000000000000 	
Mg	  3.073254560765 	  6.064899864417 	  2.980000000000 	
Mg	  6.053254560765 	  2.084899864417 	  0.000000000000 	
Mg	  7.053254560765 	  2.084899864417 	  2.980000000000 	
Mg	  6.053254560765 	  6.064899864417 	  0.000000000000 	
Mg	  7.053254560765 	  6.064899864417 	  2.980000000000 	
Mg	  2.166416989984 	  0.000000000000 	  2.049963953460 	
Mg	  3.166416989984 	  0.000000000000 	  5.029963953460 	
Mg	  2.166416989984 	  3.980000000000 	  2.049963953460 	
Mg	  3.166416989984 	  3.980000000000 	  5.029963953460 	
Mg	  6.146416989984 	  0.000000000000 	  2.049963953460 	
Mg	  7.146416989984 	  0.000000000000 	  5.029963953460 	
Mg	  6.146416989984 	  3.980000000000 	  2.049963953460 	
Mg	  7.146416989984 	  3.980000000000 	  5.029963953460 	
Mg	  0.058226518262 	  2.108190471722 	  2.049963953460 	
Mg	  1.058226518262 	  2.108190471722 	  5.029963953460 	
Mg	  0.058226518262 	  6.088190471722 	  2.049963953460 	
Mg	  1.058226518262 	  6.088190471722 	  5.029963953460 	
Mg	  4.038226518262 	  2.108190471722 	  2.049963953460 	
Mg	  5.038226518262 	  2.108190471722 	  5.029963953460 	
Mg	  4.038226518262 	  6.088190471722 	  2.049963953460 	
Mg	  5.038226518262 	  6.088190471722 	  5.029963953460 	
O	  2.108190471722 	  0.000000000000 	  0.000000000000 	
O	  3.108190471722 	  0.000000000000 	  2.980000000000 	
O	  2.108190471722 	  3.980000000000 	  0.000000000000 	
O	  3.108190471722 	  3.980000000000 	  2.980000000000 	
O	  6.088190471722 	  0.000000000000 	  0.000000000000 	
O	  7.088190471722 	  0.000000000000 	  2.980000000000 	
O	  6.088190471722 	  3.980000000000 	  0.000000000000 	
O	  7.088190471722 	  3.980000000000 	  2.980000000000 	
O	  0.000000000000 	  2.108190471722 	  0.000000000000 	
O	  1.000000000000 	  2.108190471722 	  2.980000000000 	
O	  0.000000000000 	  6.088190471722 	  0.000000000000 	
O	  1.000000000000 	  6.088190471722 	  2.980000000000 	
O	  3.980000000000 	  2.108190471722 	  0.000000000000 	
O	  4.980000000000 	  2.108190471722 	  2.980000000000 	
O	  3.980000000000 	  6.088190471722 	  0.000000000000 	
O	  4.980000000000 	  6.088190471722 	  2.980000000000 	
O	  0.058226518262 	  0.000000000000 	  2.049963953460 	
O	  1.058226518262 	  0.000000000000 	  5.029963953460 	
O	  0.058226518262 	  3.980000000000 	  2.049963953460 	
O	  1.058226518262 	  3.980000000000 	  5.029963953460 	
O	  4.038226518262 	  0.000000000000 	  2.049963953460 	
O	  5.038226518262 	  0.000000000000 	  5.029963953460 	
O	  4.038226518262 	  3.980000000000 	  2.049963953460 	
O	  5.038226518262 	  3.980000000000 	  5.029963953460 	
O	  2.212998204594 	  2.031680826725 	  2.049963953460 	
O	  3.212998204594 	  2.031680826725 	  5.029963953460 	
O	  2.212998204594 	  6.011680826725 	  2.049963953460 	
O	  3.212998204594 	  6.011680826725 	  5.029963953460 	
O	  6.192998204594 	  2.031680826725 	  2.049963953460 	
O	  7.192998204594 	  2.031680826725 	  5.029963953460 	
O	  6.192998204594 	  6.011680826725 	  2.049963953460 	
O	  7.192998204594 	  6.011680826725 	  5.029963953460 	
64 
Energy: 3.1279478016947937e-01 
Mg	  0.000000000000 	  0.000000000000 	  0.000000000000 	
Mg	  1.000000000000 	  0.000000000000 	  2.980000000000 	
Mg	  0.000000000000 	  3.980000000000 	  0.000000000000 	
Mg	  1.000000000000 	  3.980000000000 	  2.980000000000 	
Mg	  3.980000000000 	  0.000000000000 	  0.000000000000 	
Mg	  4.980000000000 	  0.000000000000 	  2.980000000000 	
Mg	  3.980000000000 	  3.980000000000 	  0.000000000000 	
Mg	  4.980000000000 	  3.980000000000 	  2.980000000000 	
Mg	  2.099141105591 	  2.104961188807 	  0.000000000000 	
Mg	  3.099141105591 	  2.104961188807 	  2.980000000000 	
Mg	  2.099141105591 	  6.084961188807 	  0.000000000000 	
Mg	  3.099141105591 	  6.084961188807 	  2.980000000000 	
Mg	  6.079141105591 	  2.104961188807 	  0.000000000000 	
Mg	  7.079141105591 	  2.104961188807 	  2.980000000000 	
Mg	  6.079141105591 	  6.084961188807 	  0.000000000000 	
Mg	  7.079141105591 	  6.084961188807 	  2.980000000000 	
Mg	  2.145701771320 	  0.000000000000 	  2.087500939158 	
Mg	  3.145701771320 	  0.000000000000 	  5.067500939158 	
Mg	  2.145701771320 	  3.980000000000 	  2.087500939158 	
Mg	  3.145701771320 	  3.980000000000 	  5.067500939158 	
Mg	  6.125701771320 	  0.000000000000 	  2.087500939158 	
Mg	  7.125701771320 	  0.000000000000 	  5.067500939158 	
Mg	  6.125701771320 	  3.980000000000 	  2.087500939158 	
Mg	  7.125701771320 	  3.980000000000 	  5.067500939158 	
Mg	  0.029100416081 	  2.116601355239 	  2.087500939158 	
Mg	  1.029100416081 	  2.116601355239 	  5.067500939158 	
Mg	  0.029100416081 	  6.096601355239 	  2.087500939158 	
Mg	  1.029100416081 	  6.096601355239 	  5.067500939158 	
Mg	  4.009100416081 	  2.116601355239 	  2.087500939158 	
Mg	  5.009100416081 	  2.116601355239 	  5.067500939158 	
Mg	  4.009100416081 	  6.096601355239 	  2.087500939158 	
Mg	  5.009100416081 	  6.096601355239 	  5.067500939158 	
O	  2.116601355239 	  0.000000000000 	  0.000000000000 	
O	  3.116601355239 	  0.000000000000 	  2.980000000000 	
O	  2.116601355239 	  3.980000000000 	  0.000000000000 	
O	  3.116601355239 	  3.980000000000 	  2.980000000000 	
O	  6.096601355239 	  0.000000000000 	  0.000000000000 	
O	  7.096601355239 	  0.000000000000 	  2.980000000000 	
O	  6.096601355239 	  3.980000000000 	  0.000000000000 	
O	  7.096601355239 	  3.980000000000 	  2.980000000000 	
O	  0.000000000000 	  2.116601355239 	  0.000000000000 	
O	  1.000000000000 	  2.116601355239 	  2.980000000000 	
O	  0.000000000000 	  6.096601355239 	  0.000000000000 	
O	  1.000000000000 	  6.096601355239 	  2.980000000000 	
O	  3.980000000000 	  2.116601355239 	  0.000000000000 	
O	  4.980000000000 	  2.116601355239 	  2.980000000000 	
O	  3.980000000000 	  6.096601355239 	  0.000000000000 	
O	  4.980000000000 	  6.096601355239 	  2.980000000000 	
O	  0.029100416081 	  0.000000000000 	  2.087500939158 	
O	  1.029100416081 	  0.000000000000 	  5.067500939158 	
O	  0.029100416081 	  3.980000000000 	  2.087500939158 	
O	  1.029100416081 	  3.980000000000 	  5.067500939158 	
O	  4.009100416081 	  0.000000000000 	  2.087500939158 	
O	  5.009100416081 	  0.000000000000 	  5.067500939158 	
O	  4.009100416081 	  3.980000000000 	  2.087500939158 	
O	  5.009100416081 	  3.980000000000 	  5.067500939158 	
O	  2.168982104185 	  2.078363408509 	  2.087500939158 	
O	  3.168982104185 	  2.078363408509 	  5.067500939158 	
O	  2.168982104185 	  6.058363408509 	  2.087500939158 	
O	  3.168982104185 	  6.058363408509 	  5.067500939158 	
O	  6.148982104185 	  2.078363408509 	  2.087500939158 	
O	  7.148982104185 	  2.078363408509 	  5.067500939158 	
O	  6.148982104185 	  6.058363408509 	  2.087500939158 	
O	  7.148982104185 	  6.058363408509 	  5.067500939158 	
64 
Energy: 0.0000000000000000e+00 
Mg	  0.000000000000 	  0.000000000000 	  0.000000000000 	
Mg	  1.000000000000 	  0.000000000000 	  2.980000000000 	
Mg	  0.000000000000 	  3.980000000000 	  0.000000000000 	
Mg	  1.000000000000 	  3.980000000000 	  2.980000000000 	
Mg	  3.980000000000 	  0.000000000000 	  0.000000000000 	
Mg	  4.980000000000 	  0.000000000000 	  2.980000000000 	
Mg	  3.980000000000 	  3.980000000000 	  0.000000000000 	
Mg	  4.980000000000 	  3.980000000000 	  2.980000000000 	
Mg	  2.125000000000 	  2.125000000000 	  0.000000000000 	
Mg	  3.125000000000 	  2.125000000000 	  2.980000000000 	
Mg	  2.125000000000 	  6.105000000000 	  0.000000000000 	
Mg	  3.125000000000 	  6.105000000000 	  2.980000000000 	
Mg	  6.105000000000 	  2.125000000000 	  0.000000000000 	
Mg	  7.105000000000 	  2.125000000000 	  2.980000000000 	
Mg	  6.105000000000 	  6.105000000000 	  0.000000000000 	
Mg	  7.105000000000 	  6.105000000000 	  2.980000000000 	
Mg	  2.125000000000 	  0.000000000000 	  2.125000000000 	
Mg	  3.125000000000 	  0.000000000000 	  5.105000000000 	
Mg	  2.125000000000 	  3.980000000000 	  2.125000000000 	
Mg	  3.125000000000 	  3.980000000000 	  5.105000000000 	
Mg	  6.105000000000 	  0.000000000000 	  2.125000000000 	
Mg	  7.105000000000 	  0.000000000000 	  5.105000000000 	
Mg	  6.105000000000 	  3.980000000000 	  2.125000000000 	
Mg	  7.105000000000 	  3.980000000000 	  5.105000000000 	
Mg	  0.000000000000 	  2.125000000000 	  2.125000000000 	
Mg	  1.000000000000 	  2.125000000000 	  5.105000000000 	
Mg	  0.000000000000 	  6.105000000000 	  2.125000000000 	
Mg	  1.000000000000 	  6.105000000000 	  5.105000000000 	
Mg	  3.980000000000 	  2.125000000000 	  2.125000000000 	
Mg	  4.980000000000 	  2.125000000000 	  5.105000000000 	
Mg	  3.980000000000 	  6.105000000000 	  2.125000000000 	
Mg	  4.980000000000 	  6.105000000000 	  5.105000000000 	
O	  2.125000000000 	  0.000000000000 	  0.000000000000 	
O	  3.125000000000 	  0.000000000000 	  2.980000000000 	
O	  2.125000000000 	  3.980000000000 	  0.000000000000 	
O	  3.125000000000 	  3.980000000000 	  2.980000000000 	
O	  6.105000000000 	  0.000000000000 	  0.000000000000 	
O	  7.105000000000 	  0.000000000000 	  2.980000000000 	
O	  6.105000000000 	  3.980000000000 	  0.000000000000 	
O	  7.105000000000 	  3.980000000000 	  2.980000000000 	
O	  0.000000000000 	  2.125000000000 	  0.000000000000 	
O	  1.000000000000 	  2.125000000000 	  2.980000000000 	
O	  0.000000000000 	  6.105000000000 	  0.000000000000 	
O	  1.000000000000 	  6.105000000000 	  2.980000000000 	
O	  3.980000000000 	  2.125000000000 	  0.000000000000 	
O	  4.980000000000 	  2.125000000000 	  2.980000000000 	
O	  3.980000000000 	  6.105000000000 	  0.000000000000 	
O	  4.980000000000 	  6.105000000000 	  2.980000000000 	
O	  0.000000000000 	  0.000000000000 	  2.125000000000 	
O	  1.000000000000 	  0.000000000000 	  5.105000000000 	
O	  0.000000000000 	  3.980000000000 	  2.125000000000 	
O	  1.000000000000 	  3.980000000000 	  5.105000000000 	
O	  3.980000000000 	  0.000000000000 	  2.125000000000 	
O	  4.980000000000 	  0.000000000000 	  5.105000000000 	
O	  3.980000000000 	  3.980000000000 	  2.125000000000 	
O	  4.980000000000 	  3.980000000000 	  5.105000000000 	
O	  2.125000000000 	  2.125000000000 	  2.125000000000 	
O	  3.125000000000 	  2.125000000000 	  5.105000000000 	
O	  2.125000000000 	  6.105000000000 	  2.125000000000 	
O	  3.125000000000 	  6.105000000000 	  5.105000000000 	
O	  6.105000000000 	  2.125000000000 	  2.125000000000 	
O	  7.105000000000 	  2.125000000000 	  5.105000000000 	
O	  6.105000000000 	  6.105000000000 	  2.125000000000 	
O	  7.105000000000 	  6.105000000000 	  5.105000000000 	
