  Invoking FHI-aims ...
  | Number of atoms                   :  96
  ...scf iterations...
  | Total energy corrected        :   -9.550923948000E+01 eV
  ...
  Total atomic forces (unitary forces cleaned)
     1  -2.8722052313E-01  6.0951714201E-01  1.8980625643E-01
     2  2.1942316650E-01  5.6771671435E-01  -1.9245380796E-01
     3  2.8722058576E-01  -6.0951704828E-01  -1.8980619340E-01
     4  -2.1942301704E-01  -5.6771652358E-01  1.9245387519E-01
     5  -7.9893311615E-01  1.6644184760E+00  2.8669132175E-01
     6  8.5898483623E-01  2.0455851321E-01  5.0404735427E-01
     7  7.9893347074E-01  -1.6644183309E+00  -2.8669092360E-01
     8  -8.5898503591E-01  -2.0455864690E-01  -5.0404704370E-01
     9  -3.9425708220E-01  2.6404358363E-01  -1.9138556305E-01
    10  9.7545310224E-01  5.7110063048E-01  1.6419650895E-01
    11  3.9425664790E-01  -2.6404338757E-01  1.9138519422E-01
    12  -9.7545315187E-01  -5.7110049659E-01  -1.6419627535E-01
    13  -5.3804390831E-01  -1.0307599429E+00  -1.1050668829E+00
    14  -5.6412550106E-02  -1.3883802052E+00  1.1697493846E+00
    15  5.3804327639E-01  1.0307600990E+00  1.1050665774E+00
    16  5.6412134034E-02  1.3883802317E+00  -1.1697487697E+00
    17  3.8145694150E-01  -5.0909454293E-01  -3.6770979256E-02
    18  -3.1341834176E-01  -4.6811488801E-01  3.5615563958E-01
    19  -3.8145606183E-01  5.0909445907E-01  3.6771531179E-02
    20  3.1341816951E-01  4.6811460106E-01  -3.5615584057E-01
    21  6.9489263747E-01  -1.3051416857E+00  -2.5082543352E-01
    22  -6.8896612789E-01  -1.3945197256E+00  3.2482651497E-01
    23  -6.9489326550E-01  1.3051421218E+00  2.5082494722E-01
    24  6.8896602642E-01  1.3945199849E+00  -3.2482678129E-01
    25  9.3152875610E-01  4.4094153393E-02  7.7742439780E-01
    26  -9.3353308619E-01  1.5264208862E-03  -1.0454469406E+00
    27  -9.3152998507E-01  -4.4094551093E-02  -7.7742546194E-01
    28  9.3353411545E-01  -1.5259356114E-03  1.0454465032E+00
    29  4.8923313911E-01  2.7790003923E-01  5.7478450035E-01
    30  -4.5557408461E-01  3.3901785275E-01  -5.9693941579E-01
    31  -4.8923296946E-01  -2.7790000455E-01  -5.7478455595E-01
    32  4.5557351680E-01  -3.3901799445E-01  5.9693902473E-01
    33  2.2653640125E-01  1.1406440534E+00  1.0169496581E+00
    34  -2.0829418501E-01  1.1908684545E+00  -9.7919403732E-01
    35  -2.2653626536E-01  -1.1406443999E+00  -1.0169493914E+00
    36  2.0829454922E-01  -1.1908688506E+00  9.7919388268E-01
    37  -6.7557960576E-01  4.2859679187E-01  -2.4827910710E-01
    38  6.9926745681E-01  4.7913413834E-01  2.2012347522E-01
    39  6.7557968801E-01  -4.2859706596E-01  2.4827912475E-01
    40  -6.9926742776E-01  -4.7913444835E-01  -2.2012301539E-01
    41  -9.4777511303E-01  1.2623264855E+00  8.8303722668E-02
    42  9.5482170603E-01  1.2757411680E+00  -8.5615967438E-02
    43  9.4777501632E-01  -1.2623263106E+00  -8.8303455613E-02
    44  -9.5482140658E-01  -1.2757408299E+00  8.5616155940E-02
    45  -1.7918451332E-01  2.0952505261E-01  2.2859457348E-01
    46  -3.2559711952E+00  -3.6353178426E+00  -1.4588391730E+00
    47  1.7922864025E-01  -2.0951667827E-01  -2.2855271516E-01
    48  3.2559687834E+00  3.6353139497E+00  1.4588370558E+00
    49  -2.9669456165E+00  6.8494695179E-01  1.1018512064E+00
    50  5.1774272188E+00  6.6813005508E+00  -5.6066237453E+00
    51  2.9668953813E+00  -6.8493179919E-01  -1.1018674307E+00
    52  -5.1774208514E+00  -6.6812941553E+00  5.6066220727E+00
    53  1.3418656310E-01  -6.0364595568E-01  -3.9717766971E-01
    54  6.5248330254E-01  -2.0172750978E+00  -1.0084142173E-01
    55  -1.3415923133E-01  6.0364989955E-01  3.9715884980E-01
    56  -6.5248059861E-01  2.0172734758E+00  1.0084095276E-01
    57  1.5425326021E+00  -2.4844086431E-01  1.4990737200E+00
    58  8.6843818748E-01  5.2162420764E-02  1.4549921969E+00
    59  -1.5425276822E+00  2.4843879000E-01  -1.4990689886E+00
    60  -8.6844038836E-01  -5.2162799430E-02  -1.4549928932E+00
    61  3.3145701260E-01  5.3137714719E-01  -3.2880030649E-01
    62  -5.8090247347E+00  -4.8980418973E+00  3.8370005749E+00
    63  -3.3143457589E-01  -5.3139782377E-01  3.2878216895E-01
    64  5.8090180775E+00  4.8980362357E+00  -3.8369947819E+00
    65  -3.5158894123E-01  -9.9766876542E-01  -3.2235661536E-01
    66  4.5028940355E+00  3.5421371526E+00  -1.0564162389E+00
    67  3.5156444553E-01  9.9767051798E-01  3.2234501079E-01
    68  -4.5028915435E+00  -3.5421352632E+00  1.0564196806E+00
    69  -7.8605381727E-01  -7.3718798872E-01  5.9185799026E-01
    70  5.8554856041E-01  -2.9918484738E-01  -6.2395196334E-01
    71  7.8606328911E-01  7.3720547378E-01  -5.9185712937E-01
    72  -5.8554836299E-01  2.9918504050E-01  6.2395167457E-01
    73  6.9833687325E-01  -1.4336201735E-01  -1.4874408086E+00
    74  -1.0717220198E+00  -7.4997498885E-01  2.6249213173E+00
    75  -6.9833909111E-01  1.4336729001E-01  1.4874534716E+00
    76  1.0717211691E+00  7.4997750097E-01  -2.6249245975E+00
    77  1.3445765265E+00  -4.0677218759E-01  8.2033611072E-01
    78  -1.6368467923E+00  -5.9914817479E-01  -1.0692862467E+00
    79  -1.3445754566E+00  4.0677090207E-01  -8.2033660965E-01
    80  1.6368473718E+00  5.9914825985E-01  1.0692856347E+00
    81  -5.2156432131E-01  2.0520818172E+00  -1.1786916170E+00
    82  7.1896821684E-01  2.0584410315E+00  1.2726307733E+00
    83  5.2152980698E-01  -2.0520670034E+00  1.1786652818E+00
    84  -7.1896682394E-01  -2.0584411543E+00  -1.2726370377E+00
    85  1.6695213930E+00  9.9117530441E-02  8.1173742806E-01
    86  -1.6879681634E+00  1.2429743473E-01  -7.3163964706E-01
    87  -1.6695191230E+00  -9.9117498587E-02  -8.1173629797E-01
    88  1.6879679099E+00  -1.2429745846E-01  7.3163953288E-01
    89  2.7484551911E-01  -4.5711532681E-01  -1.0389614264E+00
    90  -2.9734549358E-01  -4.1658137669E-01  1.0994980087E+00
    91  -2.7484984462E-01  4.5710581421E-01  1.0389839363E+00
    92  2.9734411836E-01  4.1658311517E-01  -1.0994928127E+00
    93  -2.3288227114E-01  -4.1928242436E-02  4.3278757739E-01
    94  2.0210961754E-01  5.3686326142E-02  -3.9167441846E-01
    95  2.3288784320E-01  4.1894594896E-02  -4.3277937853E-01
    96  -2.0211004107E-01  -5.3687368248E-02  3.9167546185E-01
  Stress tensor (eV/A^3):
  7.3907589434E-02  -1.4573046182E-02  3.5554631145E-02
  -1.4573046182E-02  6.2744641245E-02  7.6241509363E-03
  3.5554631145E-02  7.6241509363E-03  6.8079363749E-02
