  Invoking FHI-aims ...
  | Number of atoms                   :  96
  ...scf iterations...
  | Total energy corrected        :   2.877088932872E-01 eV
  ...
  Total atomic forces (unitary forces cleaned)
     1  -2.2489512001E-01  5.8907452368E-01  1.9653249388E-01
     2  2.2488722430E-01  5.8907210778E-01  -1.9653027998E-01
     3  2.2489518217E-01  -5.8907444228E-01  -1.9653244848E-01
     4  -2.2488710566E-01  -5.8907197506E-01  1.9653036041E-01
     5  -8.4640569569E-01  1.1644687014E+00  5.5506110102E-02
     6  8.4641859933E-01  1.1644730505E+00  -5.5510064893E-02
     7  8.4640599150E-01  -1.1644685741E+00  -5.5505782039E-02
     8  -8.4641872299E-01  -1.1644731843E+00  5.5510340488E-02
     9  -1.7348696208E-01  1.5863803971E-01  -7.6618928353E-02
    10  1.7347569514E-01  1.5862374517E-01  7.6635222896E-02
    11  1.7348661251E-01  -1.5863789845E-01  7.6618678558E-02
    12  -1.7347604225E-01  -1.5862381219E-01  -7.6635245260E-02
    13  -3.6577297372E-01  -8.7545612509E-01  -8.4762993906E-01
    14  3.6577214924E-01  -8.7545175527E-01  8.4760217927E-01
    15  3.6577246080E-01  8.7545619977E-01  8.4762968791E-01
    16  -3.6577223697E-01  8.7545196333E-01  -8.4760169484E-01
    17  2.7077942002E+00  -3.8881066201E+00  -3.6222544122E-01
    18  -2.7078078764E+00  -3.8880919926E+00  3.6225546077E-01
    19  -2.7077971931E+00  3.8881120670E+00  3.6222571744E-01
    20  2.7078086317E+00  3.8880940121E+00  -3.6225641699E-01
    21  -1.8269608167E+00  2.2929634742E+00  7.5511830778E-02
    22  1.8269948976E+00  2.2929534901E+00  -7.5510810393E-02
    23  1.8269640673E+00  -2.2929687815E+00  -7.5512086189E-02
    24  -1.8269957209E+00  -2.2929554590E+00  7.5511311390E-02
    25  4.0278676069E-01  2.4971781721E-02  3.3215523058E-01
    26  -4.0279485125E-01  2.4989241915E-02  -3.3215691166E-01
    27  -4.0278723044E-01  -2.4971976378E-02  -3.3215555648E-01
    28  4.0279529978E-01  -2.4989035987E-02  3.3215678335E-01
    29  1.0451335661E+00  3.2937782148E+00  3.1207610830E+00
    30  -1.0451407859E+00  3.2938359317E+00  -3.1207684850E+00
    31  -1.0451337020E+00  -3.2937783813E+00  -3.1207605771E+00
    32  1.0451417304E+00  -3.2938381789E+00  3.1207693568E+00
    33  -5.8116125796E-01  -1.9609391391E+00  -1.8281656039E+00
    34  5.8119007875E-01  -1.9609927425E+00  1.8281947961E+00
    35  5.8116159950E-01  1.9609391366E+00  1.8281651399E+00
    36  -5.8119114183E-01  1.9609946683E+00  -1.8281959820E+00
    37  -2.8816485786E+00  3.6922834173E+00  2.8175653665E-01
    38  2.8816044537E+00  3.6922348282E+00  -2.8176978809E-01
    39  2.8816468095E+00  -3.6922809142E+00  -2.8175570509E-01
    40  -2.8816017884E+00  -3.6922317407E+00  2.8177020614E-01
    41  1.5692630331E+00  -2.1548853363E+00  -2.7403323826E-01
    42  -1.5692372594E+00  -2.1548348856E+00  2.7402450482E-01
    43  -1.5692612620E+00  2.1548827163E+00  2.7403263993E-01
    44  1.5692349948E+00  2.1548318267E+00  -2.7402444809E-01
    45  -1.6038892629E+00  1.1065611858E-01  -9.9102745281E-01
    46  1.6038726669E+00  1.1065699387E-01  9.9104139428E-01
    47  1.6038823808E+00  -1.1065633004E-01  9.9102360033E-01
    48  -1.6038728423E+00  -1.1065618365E-01  -9.9104128256E-01
    49  -9.6281929953E+01  1.1484055001E+01  3.9529326310E+01
    50  9.6277768715E+01  1.1474660149E+01  -3.9525788665E+01
    51  9.6280807917E+01  -1.1483722220E+01  -3.9528908501E+01
    52  -9.6277816235E+01  -1.1474595071E+01  3.9525812642E+01
    53  5.9352529232E+01  6.1347126036E+01  -1.6578931388E+01
    54  -5.9352962880E+01  6.1347273753E+01  1.6578330272E+01
    55  -5.9351784858E+01  -6.1346501759E+01  1.6578723765E+01
    56  5.9353010236E+01  -6.1347333476E+01  -1.6578377719E+01
    57  -7.0212868730E-01  8.0044472026E-02  -4.9491974987E-01
    58  7.0221909148E-01  8.0065772032E-02  4.9495792331E-01
    59  7.0213363609E-01  -8.0045089277E-02  4.9492429213E-01
    60  -7.0221185457E-01  -8.0065072057E-02  -4.9495210807E-01
    61  3.6559375664E+01  -7.2794845800E+01  -1.8999617755E+01
    62  -3.6554857948E+01  -7.2785622254E+01  1.8996649329E+01
    63  -3.6559005434E+01  7.2793891657E+01  1.8999412675E+01
    64  3.6554851690E+01  7.2785615417E+01  -1.8996631421E+01
    65  -1.6409855049E+01  -4.7020558905E+01  -3.4328684541E+01
    66  1.6407034137E+01  -4.7014237108E+01  3.4325543145E+01
    67  1.6409637302E+01  4.7020159391E+01  3.4328421319E+01
    68  -1.6407073536E+01  4.7014242188E+01  -3.4325461352E+01
    69  2.9843650216E+01  4.0744232651E+01  -7.8637350285E+00
    70  -2.9839743582E+01  4.0737895277E+01  7.8620067023E+00
    71  -2.9843368066E+01  -4.0743898684E+01  7.8636338094E+00
    72  2.9839749122E+01  -4.0737897293E+01  -7.8620291323E+00
    73  -1.0843283656E+01  3.2127645601E+00  4.2189927352E+01
    74  1.0842274032E+01  3.2127944757E+00  -4.2185046581E+01
    75  1.0843220465E+01  -3.2127078561E+00  -4.2189564325E+01
    76  -1.0842242562E+01  -3.2127977920E+00  4.2184986152E+01
    77  -7.4070645866E-01  -1.1693312758E-01  -6.5096562220E-01
    78  7.4065442086E-01  -1.1693090135E-01  6.5093453545E-01
    79  7.4070775438E-01  1.1693209549E-01  6.5096614616E-01
    80  -7.4065320367E-01  1.1693072623E-01  -6.5093312802E-01
    81  -2.2634257191E+01  7.2195523038E+01  -4.3508448654E+01
    82  2.2631928264E+01  7.2195127221E+01  4.3514557283E+01
    83  2.2633999326E+01  -7.2194786158E+01  4.3507936489E+01
    84  -2.2631921088E+01  -7.2195138458E+01  -4.3514677962E+01
    85  -5.6964904544E-01  7.8327836934E-02  -4.0075185829E-01
    86  5.6945014681E-01  7.8307454682E-02  4.0062830555E-01
    87  5.6965348296E-01  -7.8327567475E-02  4.0075408566E-01
    88  -5.6944783126E-01  -7.8307538686E-02  -4.0062651768E-01
    89  -1.0275632842E+01  -1.3021810448E+00  5.9976879188E+01
    90  1.0278186334E+01  -1.3017061977E+00  -5.9982044047E+01
    91  1.0275530797E+01  1.3022159198E+00  -5.9976252513E+01
    92  -1.0278197766E+01  1.3016900375E+00  5.9982138601E+01
    93  3.5615216947E+01  -6.8086082187E+01  -1.6960300371E+01
    94  -3.5615264619E+01  -6.8086164313E+01  1.6959472071E+01
    95  -3.5614854028E+01  6.8085317652E+01  1.6960178714E+01
    96  3.5615266788E+01  6.8086192303E+01  -1.6959448663E+01
  Stress tensor (eV/A^3):
  -3.4219104907E-01  1.0909239868E-06  2.2863788592E-01
  1.0909239868E-06  -7.6906241327E-01  -1.4699545942E-06
  2.2863788592E-01  -1.4699545942E-06  -4.2085412692E-01
