  Invoking FHI-aims ...
  | Number of atoms                   :  96
  ...scf iterations...
  | Total energy corrected        :   -9.888333985856E+01 eV
  ...
  Total atomic forces (unitary forces cleaned)
     1  -3.0059145115E-01  6.0984240241E-01  1.8449040461E-01
     2  2.2386572520E-01  5.7602061862E-01  -1.8439165869E-01
     3  3.0059145140E-01  -6.0984229718E-01  -1.8449036766E-01
     4  -2.2386557776E-01  -5.7602052079E-01  1.8439172959E-01
     5  -8.2684289639E-01  1.6123678198E+00  2.8162104322E-01
     6  9.1466983631E-01  -5.0619013696E-01  1.1190447895E+00
     7  8.2684350766E-01  -1.6123676574E+00  -2.8162044747E-01
     8  -9.1466982896E-01  5.0618998214E-01  -1.1190444673E+00
     9  -4.2534935628E-01  2.6498654307E-01  -1.9421253900E-01
    10  8.5251957262E-01  3.4675262877E-01  1.6082610876E-01
    11  4.2534875030E-01  -2.6498669111E-01  1.9421199687E-01
    12  -8.5251967182E-01  -3.4675233497E-01  -1.6082616671E-01
    13  -5.5301652478E-01  -1.0685687099E+00  -1.1074338340E+00
    14  9.3094257848E-02  -1.2155398906E+00  1.1782896186E+00
    15  5.5301579651E-01  1.0685689566E+00  1.1074335211E+00
    16  -9.3094646283E-02  1.2155398632E+00  -1.1782892014E+00
    17  3.6324209354E-01  -4.7535129249E-01  -2.7091212501E-02
    18  -4.1312129330E-01  -1.9115959025E-01  8.7840279298E-02
    19  -3.6324135136E-01  4.7535131589E-01  2.7091745851E-02
    20  4.1312131084E-01  1.9115914895E-01  -8.7840365417E-02
    21  7.3630050177E-01  -1.3354557193E+00  -2.4169633849E-01
    22  -7.1454586284E-01  -1.4424958758E+00  3.3680468286E-01
    23  -7.3630096252E-01  1.3354559585E+00  2.4169602054E-01
    24  7.1454595358E-01  1.4424961051E+00  -3.3680480344E-01
    25  9.3484688451E-01  8.1785113739E-02  7.4289363424E-01
    26  -7.5883598278E-01  -2.2376647964E-01  -7.0061880367E-01
    27  -9.3485015661E-01  -8.1785394651E-02  -7.4289593337E-01
    28  7.5883646682E-01  2.2376717236E-01  7.0061837248E-01
    29  4.9589821171E-01  2.6412416397E-01  5.4999620359E-01
    30  -4.5435742286E-01  3.4138120173E-01  -5.8237379360E-01
    31  -4.9589799312E-01  -2.6412425237E-01  -5.4999645279E-01
    32  4.5435665801E-01  -3.4138149392E-01  5.8237345931E-01
    33  2.3997486315E-01  1.1840130784E+00  1.0567200240E+00
    34  -2.3066818561E-01  1.2379259417E+00  -1.0460200298E+00
    35  -2.3997442862E-01  -1.1840131953E+00  -1.0567196197E+00
    36  2.3066846870E-01  -1.2379262304E+00  1.0460199304E+00
    37  -6.7676233611E-01  3.7376033265E-01  -2.5265846629E-01
    38  7.0541523199E-01  4.3650453240E-01  2.1521953364E-01
    39  6.7676244635E-01  -3.7376062642E-01  2.5265859114E-01
    40  -7.0541511127E-01  -4.3650504327E-01  -2.1521899260E-01
    41  -1.0059892611E+00  1.2954992409E+00  9.4313753607E-02
    42  1.0157628149E+00  1.3121020310E+00  -9.2933690426E-02
    43  1.0059891261E+00  -1.2954989189E+00  -9.4313574976E-02
    44  -1.0157624513E+00  -1.3121016706E+00  9.2933824940E-02
    45  1.5922529936E+00  1.8634791242E-01  1.7184742665E+00
    46  -5.4053409365E+00  -1.6602020551E+00  -4.0291105963E+00
    47  -1.5921909175E+00  -1.8634339786E-01  -1.7183928125E+00
    48  5.4053661407E+00  1.6602291580E+00  4.0290196622E+00
    49  -3.4394127415E+00  -4.8005858334E-02  -2.1505401643E-01
    50  4.3736826722E+00  1.0456657360E+00  -2.7676009541E+00
    51  3.4393306536E+00  4.8015456648E-02  2.1502226825E-01
    52  -4.3737601538E+00  -1.0456953817E+00  2.7677568814E+00
    53  5.5195357629E-01  -6.4335882543E-01  -7.7637225169E-01
    54  5.1039771086E-01  -6.6315360532E-01  1.2567270337E-01
    55  -5.5191724708E-01  6.4336279740E-01  7.7634329166E-01
    56  -5.1037484649E-01  6.6313175357E-01  -1.2568565877E-01
    57  1.6104540879E+00  -2.5755745020E-01  1.5096221934E+00
    58  8.0300067427E-01  3.5747295029E-01  1.6024143233E+00
    59  -1.6104404224E+00  2.5755435399E-01  -1.5096106129E+00
    60  -8.0301516544E-01  -3.5747505341E-01  -1.6024292137E+00
    61  3.4872528856E-01  9.7054343910E-01  -3.3652347898E-01
    62  -4.5633851092E+00  -1.9446719348E+00  3.4749295696E+00
    63  -3.4869046299E-01  -9.7054747831E-01  3.3649464581E-01
    64  4.5634485866E+00  1.9447111262E+00  -3.4749708073E+00
    65  -9.5751024072E-01  -7.3987560779E-02  -3.4840559060E-01
    66  4.9767120037E+00  1.8682976287E+00  -4.4000115627E-01
    67  9.5748249750E-01  7.3987107192E-02  3.4838941033E-01
    68  -4.9767326144E+00  -1.8683165047E+00  4.4001169671E-01
    69  -5.7189062635E-01  -8.4706631748E-01  5.4977491745E-01
    70  7.1156404617E-01  -7.5424885526E-01  -8.9625670579E-01
    71  5.7189814288E-01  8.4708817007E-01  -5.4976855965E-01
    72  -7.1156373083E-01  7.5424834936E-01  8.9625611969E-01
    73  6.4627904865E-01  2.8062110218E-01  -1.5064578421E+00
    74  -9.6357508581E-01  4.0063250144E-01  1.8441540915E+00
    75  -6.4628161279E-01  -2.8061514875E-01  1.5064737645E+00
    76  9.6357585473E-01  -4.0062872753E-01  -1.8441617382E+00
    77  1.2784429742E+00  -3.4601539191E-01  6.6478453624E-01
    78  -1.4474456326E+00  -4.4527047701E-01  -8.4000409505E-01
    79  -1.2784461590E+00  3.4601522478E-01  -6.6478759211E-01
    80  1.4474476585E+00  4.4527107232E-01  8.4000488096E-01
    81  -1.8631193961E+00  1.4752008681E+00  -6.2832058318E-01
    82  1.7106655903E+00  2.0562703843E+00  9.5531418556E-01
    83  1.8630618087E+00  -1.4751555612E+00  6.2830664785E-01
    84  -1.7106669386E+00  -2.0562717459E+00  -9.5531722013E-01
    85  1.6011135114E+00  1.6053357933E-01  8.0153489574E-01
    86  -1.6198684306E+00  2.3957240131E-01  -6.9792621124E-01
    87  -1.6011121710E+00  -1.6053438985E-01  -8.0153403120E-01
    88  1.6198677739E+00  -2.3957226605E-01  6.9792608504E-01
    89  4.0251334533E-01  -2.9659317415E-01  -1.3369993331E+00
    90  -4.4638008317E-01  -1.8073502300E-01  1.4794013039E+00
    91  -4.0251041127E-01  2.9657870699E-01  1.3370014097E+00
    92  4.4637986412E-01  1.8073763855E-01  -1.4793989124E+00
    93  -1.7460442707E-01  -5.7547138134E-01  6.4479572799E-01
    94  1.6034112689E-01  -3.3103385946E-01  -5.9299415399E-01
    95  1.7462205124E-01  5.7540293457E-01  -6.4478974180E-01
    96  -1.6034129655E-01  3.3103494222E-01  5.9299588207E-01
  Stress tensor (eV/A^3):
  6.7167743171E-02  -1.0796933412E-02  3.8524979515E-02
  -1.0796933412E-02  6.3063439717E-02  9.1133852957E-03
  3.8524979515E-02  9.1133852957E-03  5.1621916692E-02
