  Invoking FHI-aims ...
  | Number of atoms                   :  96
  ...scf iterations...
  | Total energy corrected        :   -7.876720712427E+01 eV
  ...
  Total atomic forces (unitary forces cleaned)
     1  -2.1830862362E-01  5.9089679960E-01  1.8907313740E-01
     2  2.0896080079E-01  5.7850527986E-01  -1.9509848082E-01
     3  2.1830876279E-01  -5.9089671389E-01  -1.8907305127E-01
     4  -2.0896067453E-01  -5.7850503198E-01  1.9509853657E-01
     5  -8.2947928882E-01  1.1918204320E+00  8.8973986622E-02
     6  8.1724279484E-01  1.1234225707E+00  7.7710873158E-03
     7  8.2947936381E-01  -1.1918203037E+00  -8.8973824504E-02
     8  -8.1724315725E-01  -1.1234226791E+00  -7.7707801557E-03
     9  -2.1879413465E-01  1.7012208693E-01  -1.2430695536E-01
    10  1.2838364877E-01  7.2178318226E-02  1.3095082481E-01
    11  2.1879391939E-01  -1.7012160764E-01  1.2430676439E-01
    12  -1.2838405786E-01  -7.2178662206E-02  -1.3095061342E-01
    13  -4.1006966401E-01  -8.8552273042E-01  -9.2773578734E-01
    14  5.0483250134E-01  -7.8580344581E-01  9.2356513709E-01
    15  4.1006917810E-01  8.8552272055E-01  9.2773551698E-01
    16  -5.0483264248E-01  7.8580384298E-01  -9.2356436123E-01
    17  1.1355356377E+00  -1.6802407109E+00  -1.5958270901E-01
    18  -1.1808654251E+00  -1.6173865702E+00  5.7339927621E-02
    19  -1.1355357805E+00  1.6802422618E+00  1.5958297616E-01
    20  1.1808653000E+00  1.6173867266E+00  -5.7340614344E-02
    21  -2.2183415471E-01  4.9338355504E-02  -1.3862627574E-01
    22  2.3181279945E-01  6.9126955634E-02  1.3075304376E-01
    23  2.2183469242E-01  -4.9339405319E-02  1.3862588262E-01
    24  -2.3181296532E-01  -6.9127028397E-02  -1.3075311003E-01
    25  5.4605819134E-01  -6.4763121873E-03  4.9179102150E-01
    26  -5.1346302766E-01  -8.8790562763E-02  -3.8860023846E-01
    27  -5.4605820642E-01  6.4760111177E-03  -4.9179117621E-01
    28  5.1346376318E-01  8.8790639038E-02  3.8860006387E-01
    29  6.0283914212E-01  1.3244687813E+00  1.4402191638E+00
    30  -6.0215845336E-01  1.3230381255E+00  -1.4377283499E+00
    31  -6.0283939714E-01  -1.3244694603E+00  -1.4402193163E+00
    32  6.0215882169E-01  -1.3230388182E+00  1.4377283457E+00
    33  -1.1300783332E-01  5.5082522207E-04  -1.1139263843E-01
    34  1.1092804788E-01  -1.0885473366E-03  1.1007118893E-01
    35  1.1300801408E-01  -5.5054550861E-04  1.1139312617E-01
    36  -1.1092823245E-01  1.0889330365E-03  -1.1007157428E-01
    37  -1.3449530408E+00  1.6423417105E+00  5.8667888440E-03
    38  1.3427236831E+00  1.6404566831E+00  -5.9536006640E-03
    39  1.3449528840E+00  -1.6423416342E+00  -5.8664474940E-03
    40  -1.3427232937E+00  -1.6404562258E+00  5.9540504620E-03
    41  2.4278686645E-03  -2.6001196055E-02  -4.3382144081E-02
    42  -3.6825157610E-03  -2.6883465253E-02  4.3990340078E-02
    43  -2.4276773373E-03  2.6000891947E-02  4.3382111772E-02
    44  3.6823247842E-03  2.6883173262E-02  -4.3990306999E-02
    45  -1.2811227516E+00  1.3546812326E-01  -8.3583836760E-01
    46  1.2048051385E+00  -8.4924417377E-03  8.1783382428E-01
    47  1.2811178438E+00  -1.3546750229E-01  8.3583613919E-01
    48  -1.2048055481E+00  8.4925348815E-03  -8.1783359827E-01
    49  -3.0117185411E+00  2.3618020029E+00  4.7290536235E+00
    50  3.9717028704E+00  7.0930212610E+00  -4.7896033562E+00
    51  3.0116858101E+00  -2.3617664090E+00  -4.7290408676E+00
    52  -3.9717041928E+00  -7.0930142380E+00  4.7896033680E+00
    53  2.2189529045E+00  1.0268344593E+00  -1.2385163187E+00
    54  -1.7785007172E+00  8.8482101640E-01  1.0437910413E+00
    55  -2.2189282929E+00  -1.0268284064E+00  1.2385039779E+00
    56  1.7785042664E+00  -8.8482309870E-01  -1.0437937247E+00
    57  -5.4365247303E-01  6.3743550849E-02  -5.0067670379E-01
    58  3.4137515201E-01  7.2537140288E-02  3.7488109328E-01
    59  5.4365649910E-01  -6.3744166675E-02  5.0068051925E-01
    60  -3.4137498888E-01  -7.2537339815E-02  -3.7488040713E-01
    61  7.6144751741E-01  -2.5372430022E+00  -2.3525557612E-01
    62  -1.9508428057E+00  -7.1416454628E+00  6.4995706111E-01
    63  -7.6144267588E-01  2.5372061781E+00  2.3525479452E-01
    64  1.9508416341E+00  7.1416403254E+00  -6.4995496035E-01
    65  7.8325722635E-01  -4.7756621534E+00  -1.0294398626E-01
    66  -5.4979577679E-01  -4.4498485076E+00  -8.0464961310E-01
    67  -7.8326657597E-01  4.7756465486E+00  1.0294359107E-01
    68  5.4979647182E-01  4.4498461150E+00  8.0465042790E-01
    69  1.1337379489E+00  1.2195231685E+00  -3.7043823187E-01
    70  -1.3737520438E+00  1.4248724880E+00  4.5828212844E-01
    71  -1.1337299498E+00  -1.2195178566E+00  3.7043372529E-01
    72  1.3737505821E+00  -1.4248708842E+00  -4.5828247756E-01
    73  -1.6485436293E-01  6.9609461197E-01  1.2970161612E+00
    74  -1.2782687706E-02  3.6050664453E-01  -6.3805269852E-01
    75  1.6485463903E-01  -6.9608981132E-01  -1.2970088220E+00
    76  1.2783270078E-02  -3.6050620732E-01  6.3805160745E-01
    77  -7.3158696246E-01  5.1635860035E-02  -5.9800197359E-01
    78  9.7582500592E-01  2.9122210484E-02  7.6780816312E-01
    79  7.3158710475E-01  -5.1636127320E-02  5.9800224494E-01
    80  -9.7582532637E-01  -2.9122295505E-02  -7.6780761579E-01
    81  2.6101306218E+00  3.8794946775E+00  -2.8601702243E+00
    82  -2.6071417743E+00  3.8706616030E+00  2.8562931727E+00
    83  -2.6101295403E+00  -3.8794773700E+00  2.8601418939E+00
    84  2.6071435491E+00  -3.8706554716E+00  -2.8563009283E+00
    85  -7.6490860439E-01  -4.7971686429E-03  -4.3263193785E-01
    86  7.6843750946E-01  -6.0300658586E-03  4.2987373019E-01
    87  7.6491143725E-01  4.7973374052E-03  4.3263340145E-01
    88  -7.6843767740E-01  6.0297921399E-03  -4.2987326285E-01
    89  -3.7686495184E-01  2.5737309453E-01  1.7599051755E+00
    90  3.7769387659E-01  2.5552996763E-01  -1.7641302890E+00
    91  3.7686202018E-01  -2.5736660259E-01  -1.7598889087E+00
    92  -3.7769474501E-01  -2.5553182719E-01  1.7641358089E+00
    93  5.8178518938E-01  -2.5061682904E+00  2.9964832315E-01
    94  -5.8025796238E-01  -2.5128325607E+00  -3.1258769913E-01
    95  -5.8178087973E-01  2.5061446647E+00  -2.9964205849E-01
    96  5.8025682567E-01  2.5128294243E+00  3.1258894397E-01
  Stress tensor (eV/A^3):
  3.3080964879E-02  -2.6425404414E-03  2.3740752148E-02
  -2.6425404414E-03  1.8347347034E-02  4.5019287255E-04
  2.3740752148E-02  4.5019287255E-04  3.4486200301E-02
