  Invoking FHI-aims ...
  | Number of atoms                   :  96
  ...scf iterations...
  | Total energy corrected        :   -8.880992986648E+01 eV
  ...
  Total atomic forces (unitary forces cleaned)
     1  -2.9220297243E-01  6.1837748405E-01  1.9635363618E-01
     2  2.1673133631E-01  5.7156280995E-01  -1.9368077496E-01
     3  2.9220308577E-01  -6.1837739713E-01  -1.9635354737E-01
     4  -2.1673120697E-01  -5.7156254371E-01  1.9368082361E-01
     5  -7.4253451824E-01  1.6000705732E+00  1.8657744799E-01
     6  9.0155848227E-01  -6.5190026378E-01  1.3118328478E+00
     7  7.4253465445E-01  -1.6000704303E+00  -1.8657722391E-01
     8  -9.0155891322E-01  6.5190014708E-01  -1.3118325748E+00
     9  -4.1011171560E-01  2.9585120907E-01  -2.0665992705E-01
    10  7.7397225451E-01  3.3801323125E-01  1.9522417062E-01
    11  4.1011142970E-01  -2.9585067978E-01  2.0665972701E-01
    12  -7.7397153681E-01  -3.3801249348E-01  -1.9522370955E-01
    13  -5.4220686855E-01  -1.0229924621E+00  -1.1384283539E+00
    14  1.4536340879E-01  -1.1346046651E+00  1.1837465976E+00
    15  5.4220629767E-01  1.0229925486E+00  1.1384280407E+00
    16  -1.4536461731E-01  1.1346039968E+00  -1.1837457288E+00
    17  3.6390232592E-01  -4.8297292645E-01  -3.5822752284E-02
    18  -4.1617629063E-01  -1.7522868114E-01  5.8954448821E-02
    19  -3.6390118786E-01  4.8297265616E-01  3.5823416816E-02
    20  4.1617630089E-01  1.7522818854E-01  -5.8954435308E-02
    21  7.2683420851E-01  -1.3443627664E+00  -2.4374286542E-01
    22  -7.3187780535E-01  -1.4390831675E+00  3.3044098298E-01
    23  -7.2683473955E-01  1.3443636234E+00  2.4374225941E-01
    24  7.3187751022E-01  1.4390833869E+00  -3.3044134561E-01
    25  9.8553550318E-01  1.5213854522E-02  8.6127503774E-01
    26  -9.1355679736E-01  -3.0271559290E-01  -8.6149855884E-01
    27  -9.8553526590E-01  -1.5214492212E-02  -8.6127522219E-01
    28  9.1355773444E-01  3.0271618844E-01  8.6149767234E-01
    29  4.7234021362E-01  2.3015958735E-01  5.4308820991E-01
    30  -4.3794412517E-01  2.9730382727E-01  -5.6754663157E-01
    31  -4.7234010358E-01  -2.3015935061E-01  -5.4308801732E-01
    32  4.3794374002E-01  -2.9730378556E-01  5.6754620418E-01
    33  2.0321838290E-01  1.1681080691E+00  1.0343975399E+00
    34  -1.4377795552E-01  1.2328334204E+00  -9.6646866577E-01
    35  -2.0321853590E-01  -1.1681087039E+00  -1.0343973652E+00
    36  1.4377840835E-01  -1.2328339620E+00  9.6646857127E-01
    37  -6.4323513562E-01  4.0753576982E-01  -2.7164509744E-01
    38  6.7392542645E-01  4.6929992363E-01  2.3853762063E-01
    39  6.4323522387E-01  -4.0753606153E-01  2.7164499068E-01
    40  -6.7392558107E-01  -4.6930009426E-01  -2.3853728793E-01
    41  -9.5941703909E-01  1.3209967277E+00  8.8990972095E-02
    42  9.6876080340E-01  1.3369458480E+00  -8.6380382481E-02
    43  9.5941695550E-01  -1.3209966686E+00  -8.8990596984E-02
    44  -9.6876054848E-01  -1.3369455104E+00  8.6380637964E-02
    45  -1.8874273434E+00  1.8419440881E-01  -1.2591702714E+00
    46  3.3669540745E-02  -4.7187053478E+00  8.2251546029E-01
    47  1.8874254658E+00  -1.8419370863E-01  1.2591694731E+00
    48  -3.3671424200E-02  4.7187032025E+00  -8.2251507210E-01
    49  2.7491088050E-01  2.0290049155E-01  1.2491397123E+00
    50  -5.1015516529E-01  6.6356274871E+00  -4.7450100551E+00
    51  -2.7491410770E-01  -2.0289731847E-01  -1.2491379200E+00
    52  5.1015815328E-01  -6.6356270596E+00  4.7450086462E+00
    53  -1.8028934874E+00  -9.6430788318E-01  8.9578241992E-01
    54  1.7257702203E+00  -1.2032189253E+00  -1.0318470802E+00
    55  1.8028929892E+00  9.6431162394E-01  -8.9578163702E-01
    56  -1.7257683041E+00  1.2032179523E+00  1.0318472228E+00
    57  1.1390503569E+00  -1.9296879861E-01  1.0332446677E+00
    58  1.5499159618E+00  -2.7499448477E-02  1.6358327830E+00
    59  -1.1390499564E+00  1.9296760442E-01  -1.0332433897E+00
    60  -1.5499188191E+00  2.7498938034E-02  -1.6358329751E+00
    61  -4.0952551500E-01  2.1475589546E+00  2.0215609930E-01
    62  -2.0136349150E+00  -3.8641974690E+00  6.7723129698E-01
    63  4.0953004433E-01  -2.1475604225E+00  -2.0215871183E-01
    64  2.0136345882E+00  3.8641978436E+00  -6.7722957644E-01
    65  8.2663979516E-01  -9.4030584979E-01  5.4270846304E-01
    66  2.0661328283E+00  4.3852898439E+00  -5.4270319547E-01
    67  -8.2664198123E-01  9.4030622662E-01  -5.4270823376E-01
    68  -2.0661312657E+00  -4.3852884591E+00  5.4270330716E-01
    69  -1.5816894114E+00  -1.3385569234E+00  8.1424599179E-01
    70  1.5235265415E+00  -1.1206730715E+00  -7.2954138798E-01
    71  1.5816877287E+00  1.3385580318E+00  -8.1424368367E-01
    72  -1.5235264778E+00  1.1206730763E+00  7.2954238384E-01
    73  7.5027206830E-01  -8.5489142759E-01  -1.9366506132E+00
    74  -8.9454294368E-01  -1.6847870130E+00  2.6245101045E+00
    75  -7.5027305898E-01  8.5488728571E-01  1.9366503213E+00
    76  8.9454108440E-01  1.6847874466E+00  -2.6245101324E+00
    77  1.1051014413E+00  -2.8458926856E-01  8.0114610614E-01
    78  -1.7892145614E+00  -7.0970678042E-01  -1.3185465315E+00
    79  -1.1050993750E+00  2.8458793108E-01  -8.0114549358E-01
    80  1.7892152122E+00  7.0970694632E-01  1.3185455949E+00
    81  1.2790200957E+00  5.0755406036E-01  8.4004788804E-03
    82  -1.3827612519E+00  5.9283328994E-01  9.4051004722E-02
    83  -1.2790204505E+00  -5.0755276689E-01  -8.4025946241E-03
    84  1.3827617246E+00  -5.9283275515E-01  -9.4051703692E-02
    85  1.2525838652E+00  -1.0083435291E-02  6.7074043553E-01
    86  -1.2907522815E+00  -4.4033888920E-03  -6.2253956290E-01
    87  -1.2525818932E+00  1.0083786212E-02  -6.7073965376E-01
    88  1.2907520055E+00  4.4033432409E-03  6.2253942647E-01
    89  4.6310962853E-01  -6.3352036208E-01  -2.1098641356E+00
    90  -4.8728235044E-01  -6.0421239807E-01  2.1616980160E+00
    91  -4.6310960283E-01  6.3351733411E-01  2.1098641385E+00
    92  4.8728161912E-01  6.0421332140E-01  -2.1616973015E+00
    93  -4.9738729799E-01  2.0722722754E+00  -1.5479619849E-01
    94  4.7487381212E-01  2.1524471021E+00  2.0372709743E-01
    95  4.9738904766E-01  -2.0722723011E+00  1.5479334482E-01
    96  -4.7487368479E-01  -2.1524475980E+00  -2.0372767748E-01
  Stress tensor (eV/A^3):
  9.5749559798E-02  -7.7065936107E-03  1.7571585184E-02
  -7.7065936107E-03  9.2966854101E-02  1.0120157149E-03
  1.7571585184E-02  1.0120157149E-03  9.6724243642E-02
