  Invoking FHI-aims ...
  | Number of atoms                   :  96
  ...scf iterations...
  | Total energy corrected        :   -9.789929438744E+01 eV
  ...
  Total atomic forces (unitary forces cleaned)
     1  -3.1809374556E-01  6.0258148699E-01  1.9502227550E-01
     2  2.4715452515E-01  5.9042873197E-01  -1.8260635710E-01
     3  3.1809366680E-01  -6.0258136075E-01  -1.9502225775E-01
     4  -2.4715443081E-01  -5.9042871635E-01  1.8260645495E-01
     5  -7.8856426237E-01  1.1188607194E+00  -7.7258067791E-02
     6  1.1334649317E+00  -2.6681070918E+00  3.4430365704E+00
     7  7.8856521394E-01  -1.1188605162E+00  7.7258913766E-02
     8  -1.1334646892E+00  2.6681069044E+00  -3.4430362222E+00
     9  -4.8278049362E-01  2.9438806691E-01  -2.0026820564E-01
    10  -8.6909590029E-01  -1.2037477577E+00  1.9612072080E-01
    11  4.8277967137E-01  -2.9438863302E-01  2.0026742409E-01
    12  8.6909540909E-01  1.2037481337E+00  -1.9612123937E-01
    13  -5.7628569289E-01  -1.1282811221E+00  -1.1142660223E+00
    14  1.8482655724E+00  2.5367990849E-01  1.1694321203E+00
    15  5.7628479696E-01  1.1282814747E+00  1.1142656668E+00
    16  -1.8482657028E+00  -2.5367986644E-01  -1.1694318345E+00
    17  4.5479774726E-01  -5.8118492781E-01  -2.5550237961E-02
    18  -1.4126987038E+00  1.1097619644E+00  -1.8671064926E+00
    19  -4.5479707077E-01  5.8118516574E-01  2.5550836413E-02
    20  1.4126989384E+00  -1.1097623176E+00  1.8671064111E+00
    21  7.1075686677E-01  -1.2598647254E+00  -1.9383871798E-01
    22  -6.2428360128E-01  -1.3363161824E+00  3.4037966507E-01
    23  -7.1075705647E-01  1.2598648643E+00  1.9383859944E-01
    24  6.2428377384E-01  1.3363163386E+00  -3.4037969163E-01
    25  1.1305098616E+00  1.2115393654E-01  8.3685476938E-01
    26  -1.9204997480E-01  -1.7292584355E+00  1.1421214516E+00
    27  -1.1305106479E+00  -1.2115461991E-01  -8.3685563683E-01
    28  1.9205050336E-01  1.7292593551E+00  -1.1421218001E+00
    29  5.2384962261E-01  3.6345174566E-01  6.2054275294E-01
    30  -4.3846268562E-01  4.9631637311E-01  -6.7471319632E-01
    31  -5.2384947687E-01  -3.6345181106E-01  -6.2054318823E-01
    32  4.3846177219E-01  -4.9631685122E-01  6.7471296050E-01
    33  1.9169003603E-01  1.1432208241E+00  9.6827663941E-01
    34  -1.7670536814E-01  1.2045816823E+00  -9.7273379460E-01
    35  -1.9168980766E-01  -1.1432206467E+00  -9.6827634382E-01
    36  1.7670543508E-01  -1.2045818700E+00  9.7273373896E-01
    37  -7.8246937156E-01  4.3709194712E-01  -2.5397710998E-01
    38  8.2159063570E-01  5.4889051790E-01  1.7293532047E-01
    39  7.8246952670E-01  -4.3709218252E-01  2.5397739754E-01
    40  -8.2159042661E-01  -5.4889120109E-01  -1.7293472486E-01
    41  -9.7749426028E-01  1.2116945583E+00  8.5595270739E-02
    42  9.9885788376E-01  1.2429418325E+00  -8.9140473241E-02
    43  9.7749410686E-01  -1.2116941340E+00  -8.5595191292E-02
    44  -9.9885752078E-01  -1.2429415365E+00  8.9140550066E-02
    45  -8.4271200366E-01  1.4094764464E-01  -5.4204395614E-01
    46  -2.6871567032E+00  -1.6175588235E+00  -3.0489479295E+00
    47  8.4273245239E-01  -1.4094475866E-01  5.4206284483E-01
    48  2.6871562368E+00  1.6175574909E+00  3.0489463596E+00
    49  -3.7009850897E-01  -3.0823850936E-01  7.8688919256E-01
    50  5.9757420672E-01  -5.1768311690E-01  -2.0479593076E+00
    51  3.7008662905E-01  3.0824010991E-01  -7.8689895011E-01
    52  -5.9757511480E-01  5.1768406270E-01  2.0479615556E+00
    53  -7.5078567350E-01  -1.5854035922E+00  -1.3100883419E-01
    54  3.0870552995E-02  -2.4580471282E+00  4.8168647052E-01
    55  7.5079234502E-01  1.5854105308E+00  1.3100538746E-01
    56  -3.0870236179E-02  2.4580462206E+00  -4.8168572150E-01
    57  1.1369664966E+00  -1.8393059667E-01  1.0094798813E+00
    58  2.4569973139E+00  5.0486956311E-01  2.4266860319E+00
    59  -1.1369676219E+00  1.8393007979E-01  -1.0094816747E+00
    60  -2.4569972593E+00  -5.0486973655E-01  -2.4266859336E+00
    61  -1.1159992382E+00  1.2631460908E+00  7.9165684332E-01
    62  -2.3441941897E+00  1.3005357428E+00  1.2926145674E+00
    63  1.1160082448E+00  -1.2631484289E+00  -7.9166273322E-01
    64  2.3441939865E+00  -1.3005353378E+00  -1.2926144774E+00
    65  5.5564925029E-01  -3.3815042400E-01  -1.3006123665E-02
    66  3.7512682202E+00  7.9452288598E-01  -3.0894817512E-01
    67  -5.5565903199E-01  3.3815402456E-01  1.3006608420E-02
    68  -3.7512689612E+00  -7.9452288990E-01  3.0895071295E-01
    69  -5.5229682464E-01  -1.8616396734E+00  7.8660611663E-02
    70  1.1399547869E+00  -2.0100837654E+00  -7.4753661953E-01
    71  5.5229806243E-01  1.8616451273E+00  -7.8658380843E-02
    72  -1.1399546965E+00  2.0100822568E+00  7.4753654866E-01
    73  5.9076521673E-01  5.1206305673E-01  -1.9785118275E+00
    74  -9.2742001018E-01  1.0166421320E+00  2.0306467609E+00
    75  -5.9076649702E-01  -5.1206246979E-01  1.9785154618E+00
    76  9.2742026518E-01  -1.0166400600E+00  -2.0306503210E+00
    77  1.1975390905E+00  -2.0087249648E-01  6.1751801580E-01
    78  -2.0296467871E+00  -5.3288593692E-01  -1.1667256869E+00
    79  -1.1975405207E+00  2.0087226210E-01  -6.1751987861E-01
    80  2.0296477295E+00  5.3288614843E-01  1.1667258931E+00
    81  2.9797668262E-01  6.7126816476E-01  2.5461986575E-01
    82  -2.2962219441E-01  1.0543145028E+00  -7.4381621372E-02
    83  -2.9799017759E-01  -6.7127059354E-01  -2.5462125516E-01
    84  2.2962253282E-01  -1.0543155587E+00  7.4380910060E-02
    85  1.3024465521E+00  1.4045278383E-01  7.0174001355E-01
    86  -1.3606093689E+00  3.1334066926E-01  -6.0039462439E-01
    87  -1.3024495761E+00  -1.4045328523E-01  -7.0174157068E-01
    88  1.3606087740E+00  -3.1334055791E-01  6.0039442756E-01
    89  3.6047441179E-01  6.3774777160E-01  -1.8586130860E+00
    90  -3.8816211792E-01  8.1928721951E-01  1.9727174312E+00
    91  -3.6047431128E-01  -6.3775221957E-01  1.8586167627E+00
    92  3.8816226134E-01  -8.1928600702E-01  -1.9727170987E+00
    93  -9.1006724721E-01  1.1131813782E+00  9.2160358777E-01
    94  9.0125191796E-01  1.3838461415E+00  -8.7764781014E-01
    95  9.1007263003E-01  -1.1131921744E+00  -9.2160650586E-01
    96  -9.0125158446E-01  -1.3838459467E+00  8.7764765292E-01
  Stress tensor (eV/A^3):
  8.0367513746E-02  -6.8470520981E-03  2.7262948122E-02
  -6.8470520981E-03  9.5690132619E-02  9.5365754783E-03
  2.7262948122E-02  9.5365754783E-03  6.0635396655E-02
