  Invoking FHI-aims ...
  | Number of atoms                   :  96
  ...scf iterations...
  | Total energy corrected        :   -7.590388525420E+01 eV
  ...
  Total atomic forces (unitary forces cleaned)
     1  -2.1630824499E-01  5.9139783940E-01  1.9200014668E-01
     2  2.1095925200E-01  5.8279990487E-01  -1.9620195063E-01
     3  2.1630838351E-01  -5.9139775328E-01  -1.9200006134E-01
     4  -2.1095912977E-01  -5.8279966021E-01  1.9620200561E-01
     5  -8.2745810770E-01  1.1628118707E+00  6.5792959533E-02
     6  8.1479242892E-01  1.0766341652E+00  4.1203696837E-02
     7  8.2745817832E-01  -1.1628117450E+00  -6.5792801843E-02
     8  -8.1479278789E-01  -1.0766342726E+00  -4.1203390020E-02
     9  -1.9601245012E-01  1.6757743969E-01  -1.0673761619E-01
    10  9.1101289745E-02  5.3181425474E-02  1.1571937388E-01
    11  1.9601224370E-01  -1.6757696438E-01  1.0673743073E-01
    12  -9.1101690133E-02  -5.3181744003E-02  -1.1571919112E-01
    13  -3.8844490587E-01  -8.6893724268E-01  -8.9821423859E-01
    14  4.9554179045E-01  -7.5255050625E-01  8.8928705072E-01
    15  3.8844441630E-01  8.6893721829E-01  8.9821395940E-01
    16  -4.9554193755E-01  7.5255088170E-01  -8.8928629497E-01
    17  1.6412459905E+00  -2.4459629148E+00  -2.2719368603E-01
    18  -1.6835534965E+00  -2.3655748096E+00  1.1145536373E-01
    19  -1.6412472862E+00  2.4459663107E+00  2.2719387181E-01
    20  1.6835534181E+00  2.3655752291E+00  -1.1145619907E-01
    21  -7.4307698818E-01  8.3632880622E-01  -7.2312075108E-02
    22  7.4863082702E-01  8.5050128232E-01  6.4323333649E-02
    23  7.4307868053E-01  -8.3633172588E-01  7.2311754565E-02
    24  -7.4863101868E-01  -8.5050163535E-01  -6.4323217056E-02
    25  4.9050562408E-01  -5.7201157800E-03  4.4709427246E-01
    26  -4.5413316324E-01  -9.8488633607E-02  -3.2926815272E-01
    27  -4.9050565137E-01  5.7198554641E-03  -4.4709441003E-01
    28  4.5413384488E-01  9.8488700987E-02  3.2926799387E-01
    29  7.4802804346E-01  1.9717383989E+00  2.0296324026E+00
    30  -7.4856116499E-01  1.9684749410E+00  -2.0270347192E+00
    31  -7.4802857349E-01  -1.9717398490E+00  -2.0296329612E+00
    32  7.4856202894E-01  -1.9684764163E+00  2.0270351865E+00
    33  -2.8420916297E-01  -6.6052006135E-01  -7.3337650097E-01
    34  2.8207522541E-01  -6.6289497961E-01  7.3158995365E-01
    35  2.8420960889E-01  6.6052111749E-01  7.3337738187E-01
    36  -2.8207589462E-01  6.6289616273E-01  -7.3159078767E-01
    37  -1.8326261326E+00  2.3657802617E+00  9.9611860129E-02
    38  1.8306349861E+00  2.3621699219E+00  -9.8317404115E-02
    39  1.8326256798E+00  -2.3657797847E+00  -9.9611276409E-02
    40  -1.8306341601E+00  -2.3621688656E+00  9.8317930130E-02
    41  5.2659228401E-01  -7.7070906535E-01  -1.2009636073E-01
    42  -5.2759212587E-01  -7.7117369399E-01  1.2089437774E-01
    43  -5.2659180625E-01  7.7070836717E-01  1.2009607870E-01
    44  5.2759151118E-01  7.7117280186E-01  -1.2089442917E-01
    45  -1.1393934628E+00  1.2058874880E-01  -7.3280489774E-01
    46  1.0559687116E+00  -4.0610252729E-02  7.4741968047E-01
    47  1.1393887201E+00  -1.2058822471E-01  7.3280267122E-01
    48  -1.0559690831E+00  4.0610364171E-02  -7.4741954116E-01
    49  -5.2772947440E+00  3.7251184877E+00  6.4241699909E+00
    50  5.1404642907E+00  3.9047502042E+00  -6.0026179556E+00
    51  5.2772666836E+00  -3.7250785254E+00  -6.4241571832E+00
    52  -5.1404671946E+00  -3.9047464837E+00  6.0026176761E+00
    53  4.6066013934E+00  2.3480952580E+00  -2.3542760513E+00
    54  -4.0776907652E+00  2.1886796779E+00  2.1226058340E+00
    55  -4.6065742201E+00  -2.3480939565E+00  2.3542625916E+00
    56  4.0776933609E+00  -2.1886814184E+00  -2.1226093640E+00
    57  -1.3085168028E+00  2.0837391853E-01  -1.1029128266E+00
    58  9.3770011623E-01  1.9306659343E-01  8.4752198751E-01
    59  1.3085185915E+00  -2.0837352711E-01  1.1029145011E+00
    60  -9.3769818249E-01  -1.9306633852E-01  -8.4751943131E-01
    61  1.4279423268E+00  -5.4105628705E+00  -3.4201637793E-01
    62  -1.4383083061E+00  -5.4293141865E+00  3.9983107590E-01
    63  -1.4279424820E+00  5.4105252554E+00  3.4201879216E-01
    64  1.4383078470E+00  5.4293115452E+00  -3.9982967366E-01
    65  -3.9385262773E-02  -7.3729580464E+00  -1.2985202413E+00
    66  -2.5432948797E-03  -7.2391369121E+00  1.2652024325E+00
    67  3.9374052085E-02  7.3729372322E+00  1.2985218278E+00
    68  2.5418644750E-03  7.2391341462E+00  -1.2652015618E+00
    69  3.1199702476E+00  2.9157503124E+00  -1.2325215607E+00
    70  -3.3646225765E+00  3.1199890995E+00  1.3173365519E+00
    71  -3.1199581109E+00  -2.9157451701E+00  1.2325134411E+00
    72  3.3646203302E+00  -3.1199866781E+00  -1.3173379336E+00
    73  -8.4624402651E-01  1.6863376466E+00  3.7562116724E+00
    74  9.1934582231E-01  1.6069855821E+00  -3.9868897033E+00
    75  8.4624568588E-01  -1.6863276764E+00  -3.7562004150E+00
    76  -9.1934312439E-01  -1.6069855892E+00  3.9868885080E+00
    77  -1.2585491437E+00  9.0319274920E-02  -1.0072671059E+00
    78  1.5375142800E+00  3.1143293847E-02  1.2071363780E+00
    79  1.2585456697E+00  -9.0319059570E-02  1.0072649603E+00
    80  -1.5375137969E+00  -3.1143338194E-02  -1.2071347493E+00
    81  2.8782404262E+00  5.7714062095E+00  -5.3304708311E+00
    82  -2.8741116351E+00  5.7642766889E+00  5.3254669364E+00
    83  -2.8782346957E+00  -5.7713925276E+00  5.3304381725E+00
    84  2.8741130905E+00  -5.7642699746E+00  -5.3254760561E+00
    85  -1.4162275807E+00  3.7068323597E-02  -8.4734157134E-01
    86  1.4201191959E+00  3.6234369951E-02  8.4378324015E-01
    87  1.4162267429E+00  -3.7068081057E-02  8.4734074619E-01
    88  -1.4201193431E+00  -3.6234703484E-02  -8.4378256632E-01
    89  -8.9433715759E-01  1.0149535304E+00  4.5440581205E+00
    90  8.9538501395E-01  1.0127299520E+00  -4.5481343282E+00
    91  8.9433429094E-01  -1.0149419422E+00  -4.5440391712E+00
    92  -8.9538529581E-01  -1.0127329803E+00  4.5481397566E+00
    93  1.3839106643E+00  -5.2695117842E+00  4.5158452112E-01
    94  -1.3821149033E+00  -5.2773938848E+00  -4.6511334627E-01
    95  -1.3839075758E+00  5.2694866078E+00  -4.5157415577E-01
    96  1.3821134914E+00  5.2773913460E+00  4.6511587263E-01
  Stress tensor (eV/A^3):
  4.4580324042E-03  -2.3271154818E-04  3.0312036664E-02
  -2.3271154818E-04  -1.6093642090E-02  4.3944301725E-04
  3.0312036664E-02  4.3944301725E-04  2.8770568235E-04
