768 
Energy: -7.3825508041559999e+01 
S	  8.778583098100 	  1.541356859400 	  0.034410210600 	
S	  8.210038968100 	  1.541359669400 	 10.164966930600 	
S	  8.778551998100 	  7.724918619400 	  0.034407380600 	
S	  8.210007868100 	  7.724921429400 	 10.164964100600 	
S	 23.459410398100 	  1.541366089400 	  0.062540140600 	
S	 22.890866268100 	  1.541368899400 	 10.193096860600 	
S	 23.459379298100 	  7.724927849400 	  0.062537310600 	
S	 22.890835168100 	  7.724930659400 	 10.193094030600 	
S	  5.617972169000 	  4.633116300900 	  5.058959345800 	
S	  5.049428039000 	  4.633119110900 	 15.189516065800 	
S	  5.617941069000 	 10.816678060900 	  5.058956515800 	
S	  5.049396939000 	 10.816680870900 	 15.189513235800 	
S	 20.298799469000 	  4.633125530900 	  5.087089275800 	
S	 19.730255339000 	  4.633128340900 	 15.217645995800 	
S	 20.298768369000 	 10.816687290900 	  5.087086445800 	
S	 19.730224239000 	 10.816690100900 	 15.217643165800 	
S	  5.333668977500 	  4.642216569600 	 10.124273508100 	
S	  4.765124847500 	  4.642219379600 	 20.254830228100 	
S	  5.333637877500 	 10.825778329600 	 10.124270678100 	
S	  4.765093747500 	 10.825781139600 	 20.254827398100 	
S	 20.014496277500 	  4.642225799600 	 10.152403438100 	
S	 19.445952147500 	  4.642228609600 	 20.282960158100 	
S	 20.014465177500 	 10.825787559600 	 10.152400608100 	
S	 19.445921047500 	 10.825790369600 	 20.282957328100 	
S	  8.494280183300 	  1.550457870200 	  5.099724677400 	
S	  7.925736053300 	  1.550460680200 	 15.230281397400 	
S	  8.494249083300 	  7.734019630200 	  5.099721847400 	
S	  7.925704953300 	  7.734022440200 	 15.230278567400 	
S	 23.175107483300 	  1.550467100200 	  5.127854607400 	
S	 22.606563353300 	  1.550469910200 	 15.258411327400 	
S	 23.175076383300 	  7.734028860200 	  5.127851777400 	
S	 22.606532253300 	  7.734031670200 	 15.258408497400 	
C	  6.798118307500 	  2.504334010600 	  9.780797448900 	
C	  6.229574177500 	  2.504336820600 	 19.911354168900 	
C	  6.798087207500 	  8.687895770600 	  9.780794618900 	
C	  6.229543077500 	  8.687898580600 	 19.911351338900 	
C	 21.478945607500 	  2.504343240600 	  9.808927378900 	
C	 20.910401477500 	  2.504346050600 	 19.939484098900 	
C	 21.478914507500 	  8.687905000600 	  9.808924548900 	
C	 20.910370377500 	  8.687907810600 	 19.939481268900 	
C	  7.029858902800 	  5.596110217300 	  5.443156977400 	
C	  6.461314772800 	  5.596113027300 	 15.573713697400 	
C	  7.029827802800 	 11.779671977300 	  5.443154147400 	
C	  6.461283672800 	 11.779674787300 	 15.573710867400 	
C	 21.710686202800 	  5.596119447300 	  5.471286907400 	
C	 21.142142072800 	  5.596122257300 	 15.601843627400 	
C	 21.710655102800 	 11.779681207300 	  5.471284077400 	
C	 21.142110972800 	 11.779684017300 	 15.601840797400 	
C	  7.314133768200 	  3.679239356500 	  0.377886269800 	
C	  6.745589638200 	  3.679242166500 	 10.508442989800 	
C	  7.314102668200 	  9.862801116500 	  0.377883439800 	
C	  6.745558538200 	  9.862803926500 	 10.508440159800 	
C	 21.994961068200 	  3.679248586500 	  0.406016199800 	
C	 21.426416938200 	  3.679251396500 	 10.536572919800 	
C	 21.994929968200 	  9.862810346500 	  0.406013369800 	
C	 21.426385838200 	  9.862813156500 	 10.536570089800 	
C	  7.082393302600 	  0.587464077300 	  4.715527045500 	
C	  6.513849172600 	  0.587466887300 	 14.846083765500 	
C	  7.082362202600 	  6.771025837300 	  4.715524215500 	
C	  6.513818072600 	  6.771028647300 	 14.846080935500 	
C	 21.763220602600 	  0.587473307300 	  4.743656975500 	
C	 21.194676472600 	  0.587476117300 	 14.874213695500 	
C	 21.763189502600 	  6.771035067300 	  4.743654145500 	
C	 21.194645372600 	  6.771037877300 	 14.874210865500 	
C	  5.707537281800 	  2.321126042300 	  8.876603728600 	
C	  5.138993151800 	  2.321128852300 	 19.007160448600 	
C	  5.707506181800 	  8.504687802300 	  8.876600898600 	
C	  5.138962051800 	  8.504690612300 	 19.007157618600 	
C	 20.388364581800 	  2.321135272300 	  8.904733658600 	
C	 19.819820451800 	  2.321138082300 	 19.035290378600 	
C	 20.388333481800 	  8.504697032300 	  8.904730828600 	
C	 19.819789351800 	  8.504699842300 	 19.035287548600 	
C	  8.120442166400 	  5.412901958300 	  6.347351676700 	
C	  7.551898036400 	  5.412904768300 	 16.477908396700 	
C	  8.120411066400 	 11.596463718300 	  6.347348846700 	
C	  7.551866936400 	 11.596466528300 	 16.477905566700 	
C	 22.801269466400 	  5.412911188300 	  6.375481606700 	
C	 22.232725336400 	  5.412913998300 	 16.506038326700 	
C	 22.801238366400 	 11.596472948300 	  6.375478776700 	
C	 22.232694236400 	 11.596475758300 	 16.506035496700 	
C	  8.404714652800 	  3.862447386700 	  1.282079888500 	
C	  7.836170522800 	  3.862450196700 	 11.412636608500 	
C	  8.404683552800 	 10.046009146700 	  1.282077058500 	
C	  7.836139422800 	 10.046011956700 	 11.412633778500 	
C	 23.085541952800 	  3.862456616700 	  1.310209818500 	
C	 22.516997822800 	  3.862459426700 	 11.440766538500 	
C	 23.085510852800 	 10.046018376700 	  1.310206988500 	
C	 22.516966722800 	 10.046021186700 	 11.440763708500 	
C	  5.991810044800 	  0.770672274600 	  3.811332244900 	
C	  5.423265914800 	  0.770675084600 	 13.941888964900 	
C	  5.991778944800 	  6.954234034600 	  3.811329414900 	
C	  5.423234814800 	  6.954236844600 	 13.941886134900 	
C	 20.672637344800 	  0.770681504600 	  3.839462174900 	
C	 20.104093214800 	  0.770684314600 	 13.970018894900 	
C	 20.672606244800 	  6.954243264600 	  3.839459344900 	
C	 20.104062114800 	  6.954246074600 	 13.970016064900 	
C	  4.807288713200 	  3.418578044500 	  8.955234686400 	
C	  4.238744583200 	  3.418580854500 	 19.085791406400 	
C	  4.807257613200 	  9.602139804500 	  8.955231856400 	
C	  4.238713483200 	  9.602142614500 	 19.085788576400 	
C	 19.488116013200 	  3.418587274500 	  8.983364616400 	
C	 18.919571883200 	  3.418590084500 	 19.113921336400 	
C	 19.488084913200 	  9.602149034500 	  8.983361786400 	
C	 18.919540783200 	  9.602151844500 	 19.113918506400 	
C	  9.020685667900 	  0.326811214600 	  6.268754309600 	
C	  8.452141537900 	  0.326814024600 	 16.399311029600 	
C	  9.020654567900 	  6.510372974600 	  6.268751479600 	
C	  8.452110437900 	  6.510375784600 	 16.399308199600 	
C	 23.701512967900 	  0.326820444600 	  6.296884239600 	
C	 23.132968837900 	  0.326823254600 	 16.427440959600 	
C	 23.701481867900 	  6.510382204600 	  6.296881409600 	
C	 23.132937737900 	  6.510385014600 	 16.427438129600 	
C	  9.304963215700 	  2.764995446300 	  1.203449032000 	
C	  8.736419085700 	  2.764998256300 	 11.334005752000 	
C	  9.304932115700 	  8.948557206300 	  1.203446202000 	
C	  8.736387985700 	  8.948560016300 	 11.334002922000 	
C	 23.985790515700 	  2.765004676300 	  1.231578962000 	
C	 23.417246385700 	  2.765007486300 	 11.362135682000 	
C	 23.985759415700 	  8.948566436300 	  1.231576132000 	
C	 23.417215285700 	  8.948569246300 	 11.362132852000 	
C	  5.091566543200 	  5.856762956400 	  3.889929612000 	
C	  4.523022413200 	  5.856765766400 	 14.020486332000 	
C	  5.091535443200 	 12.040324716400 	  3.889926782000 	
C	  4.522991313200 	 12.040327526400 	 14.020483502000 	
C	 19.772393843200 	  5.856772186400 	  3.918059542000 	
C	 19.203849713200 	  5.856774996400 	 14.048616262000 	
C	 19.772362743200 	 12.040333946400 	  3.918056712000 	
C	 19.203818613200 	 12.040336756400 	 14.048613432000 	
C	  3.638231112900 	  3.456968704600 	  8.193277916700 	
C	  3.069686982900 	  3.456971514600 	 18.323834636700 	
C	  3.638200012900 	  9.640530464600 	  8.193275086700 	
C	  3.069655882900 	  9.640533274600 	 18.323831806700 	
C	 18.319058412900 	  3.456977934600 	  8.221407846700 	
C	 17.750514282900 	  3.456980744600 	 18.351964566700 	
C	 18.319027312900 	  9.640539694600 	  8.221405016700 	
C	 17.750483182900 	  9.640542504600 	 18.351961736700 	
C	 10.189735933600 	  0.365211363600 	  7.030719744100 	
C	  9.621191803600 	  0.365214173600 	 17.161276464100 	
C	 10.189704833600 	  6.548773123600 	  7.030716914100 	
C	  9.621160703600 	  6.548775933600 	 17.161273634100 	
C	 24.870563233600 	  0.365220593600 	  7.058849674100 	
C	 24.302019103600 	  0.365223403600 	 17.189406394100 	
C	 24.870532133600 	  6.548782353600 	  7.058846844100 	
C	 24.301988003600 	  6.548785163600 	 17.189403564100 	
C	 10.474020810300 	  2.726604848100 	  1.965405903000 	
C	  9.905476680300 	  2.726607658100 	 12.095962623000 	
C	 10.473989710300 	  8.910166608100 	  1.965403073000 	
C	  9.905445580300 	  8.910169418100 	 12.095959793000 	
C	 25.154848110300 	  2.726614078100 	  1.993535833000 	
C	 24.586303980300 	  2.726616888100 	 12.124092553000 	
C	 25.154817010300 	  8.910175838100 	  1.993533003000 	
C	 24.586272880300 	  8.910178648100 	 12.124089723000 	
C	  3.922516277600 	  5.818362745600 	  3.127964177500 	
C	  3.353972147600 	  5.818365555600 	 13.258520897500 	
C	  3.922485177600 	 12.001924505600 	  3.127961347500 	
C	  3.353941047600 	 12.001927315600 	 13.258518067500 	
C	 18.603343577600 	  5.818371975600 	  3.156094107500 	
C	 18.034799447600 	  5.818374785600 	 13.286650827500 	
C	 18.603312477600 	 12.001933735600 	  3.156091277500 	
C	 18.034768347600 	 12.001936545600 	 13.286647997500 	
H	  2.977023765500 	  4.314908014000 	  8.276816523600 	
H	  2.408479635500 	  4.314910824000 	 18.407373243600 	
H	  2.976992665500 	 10.498469774000 	  8.276813693600 	
H	  2.408448535500 	 10.498472584000 	 18.407370413600 	
H	 17.657851065500 	  4.314917244000 	  8.304946453600 	
H	 17.089306935500 	  4.314920054000 	 18.435503173600 	
H	 17.657819965500 	 10.498479004000 	  8.304943623600 	
H	 17.089275835500 	 10.498481814000 	 18.435500343600 	
H	 10.850920197100 	  1.223158377000 	  6.947191975500 	
H	 10.282376067100 	  1.223161187000 	 17.077748695500 	
H	 10.850889097100 	  7.406720137000 	  6.947189145500 	
H	 10.282344967100 	  7.406722947000 	 17.077745865500 	
H	 25.531747497100 	  1.223167607000 	  6.975321905500 	
H	 24.963203367100 	  1.223170417000 	 17.105878625500 	
H	 25.531716397100 	  7.406729367000 	  6.975319075500 	
H	 24.963172267100 	  7.406732177000 	 17.105875795500 	
H	 11.135228163400 	  1.868665538700 	  1.881867194800 	
H	 10.566684033400 	  1.868668348700 	 12.012423914800 	
H	 11.135197063400 	  8.052227298700 	  1.881864364800 	
H	 10.566652933400 	  8.052230108700 	 12.012421084800 	
H	 25.816055463400 	  1.868674768700 	  1.909997124800 	
H	 25.247511333400 	  1.868677578700 	 12.040553844800 	
H	 25.816024363400 	  8.052236528700 	  1.909994294800 	
H	 25.247480233400 	  8.052239338700 	 12.040551014800 	
H	  3.261332160800 	  4.960415670400 	  3.211491946300 	
H	  2.692788030800 	  4.960418480400 	 13.342048666300 	
H	  3.261301060800 	 11.143977430400 	  3.211489116300 	
H	  2.692756930800 	 11.143980240400 	 13.342045836300 	
H	 17.942159460800 	  4.960424900400 	  3.239621876300 	
H	 17.373615330800 	  4.960427710400 	 13.370178596300 	
H	 17.942128360800 	 11.143986660400 	  3.239619046300 	
H	 17.373584230800 	 11.143989470400 	 13.370175766300 	
C	  3.326383536000 	  2.393111112500 	  7.336713806700 	
C	  2.757839406000 	  2.393113922500 	 17.467270526700 	
C	  3.326352436000 	  8.576672872500 	  7.336710976700 	
C	  2.757808306000 	  8.576675682500 	 17.467267696700 	
C	 18.007210836000 	  2.393120342500 	  7.364843736700 	
C	 17.438666706000 	  2.393123152500 	 17.495400456700 	
C	 18.007179736000 	  8.576682102500 	  7.364840906700 	
C	 17.438635606000 	  8.576684912500 	 17.495397626700 	
C	 10.501585199000 	  5.484900443400 	  7.887257318900 	
C	  9.933041069000 	  5.484903253400 	 18.017814038900 	
C	 10.501554099000 	 11.668462203400 	  7.887254488900 	
C	  9.933009969000 	 11.668465013400 	 18.017811208900 	
C	 25.182412499000 	  5.484909673400 	  7.915387248900 	
C	 24.613868369000 	  5.484912483400 	 18.045943968900 	
C	 25.182381399000 	 11.668471433400 	  7.915384418900 	
C	 24.613837269000 	 11.668474243400 	 18.045941138900 	
C	 10.785868240400 	  3.790462378300 	  2.821970012800 	
C	 10.217324110400 	  3.790465188300 	 12.952526732800 	
C	 10.785837140400 	  9.974024138300 	  2.821967182800 	
C	 10.217293010400 	  9.974026948300 	 12.952523902800 	
C	 25.466695540400 	  3.790471608300 	  2.850099942800 	
C	 24.898151410400 	  3.790474418300 	 12.980656662800 	
C	 25.466664440400 	  9.974033368300 	  2.850097112800 	
C	 24.898120310400 	  9.974036178300 	 12.980653832800 	
C	  3.610667164600 	  0.698673603900 	  2.271426501600 	
C	  3.042123034600 	  0.698676413900 	 12.401983221600 	
C	  3.610636064600 	  6.882235363900 	  2.271423671600 	
C	  3.042091934600 	  6.882238173900 	 12.401980391600 	
C	 18.291494464600 	  0.698682833900 	  2.299556431600 	
C	 17.722950334600 	  0.698685643900 	 12.430113151600 	
C	 18.291463364600 	  6.882244593900 	  2.299553601600 	
C	 17.722919234600 	  6.882247403900 	 12.430110321600 	
C	  4.246239376200 	  1.326745920100 	  7.232392811600 	
C	  3.677695246200 	  1.326748730100 	 17.362949531600 	
C	  4.246208276200 	  7.510307680100 	  7.232389981600 	
C	  3.677664146200 	  7.510310490100 	 17.362946701600 	
C	 18.927066676200 	  1.326755150100 	  7.260522741600 	
C	 18.358522546200 	  1.326757960100 	 17.391079461600 	
C	 18.927035576200 	  7.510316910100 	  7.260519911600 	
C	 18.358491446200 	  7.510319720100 	 17.391076631600 	
C	  9.581760883400 	  4.418519382000 	  7.991559269300 	
C	  9.013216753400 	  4.418522192000 	 18.122115989300 	
C	  9.581729783400 	 10.602081142000 	  7.991556439300 	
C	  9.013185653400 	 10.602083952000 	 18.122113159300 	
C	 24.262588183400 	  4.418528612000 	  8.019689199300 	
C	 23.694044053400 	  4.418531422000 	 18.150245919300 	
C	 24.262557083400 	 10.602090372000 	  8.019686369300 	
C	 23.694012953400 	 10.602093182000 	 18.150243089300 	
C	  9.866012247700 	  4.856827447100 	  2.926291108900 	
C	  9.297468117700 	  4.856830257100 	 13.056847828900 	
C	  9.865981147700 	 11.040389207100 	  2.926288278900 	
C	  9.297437017700 	 11.040392017100 	 13.056844998900 	
C	 24.546839547700 	  4.856836677100 	  2.954421038900 	
C	 23.978295417700 	  4.856839487100 	 13.084977758900 	
C	 24.546808447700 	 11.040398437100 	  2.954418208900 	
C	 23.978264317700 	 11.040401247100 	 13.084974928900 	
C	  4.530491333400 	  1.765054665300 	  2.167124550900 	
C	  3.961947203400 	  1.765057475300 	 12.297681270900 	
C	  4.530460233400 	  7.948616425300 	  2.167121720900 	
C	  3.961916103400 	  7.948619235300 	 12.297678440900 	
C	 19.211318633400 	  1.765063895300 	  2.195254480900 	
C	 18.642774503400 	  1.765066705300 	 12.325811200900 	
C	 19.211287533400 	  7.948625655300 	  2.195251650900 	
C	 18.642743403400 	  7.948628465300 	 12.325808370900 	
H	  4.049839811700 	  0.502303909100 	  6.552247741900 	
H	  3.481295681700 	  0.502306719100 	 16.682804461900 	
H	  4.049808711700 	  6.685865669100 	  6.552244911900 	
H	  3.481264581700 	  6.685868479100 	 16.682801631900 	
H	 18.730667111700 	  0.502313139100 	  6.580377671900 	
H	 18.162122981700 	  0.502315949100 	 16.710934391900 	
H	 18.730636011700 	  6.685874899100 	  6.580374841900 	
H	 18.162091881700 	  6.685877709100 	 16.710931561900 	
H	  9.778172631800 	  3.594078723200 	  8.671703784000 	
H	  9.209628501800 	  3.594081533200 	 18.802260504000 	
H	  9.778141531800 	  9.777640483200 	  8.671700954000 	
H	  9.209597401800 	  9.777643293200 	 18.802257674000 	
H	 24.458999931800 	  3.594087953200 	  8.699833714000 	
H	 23.890455801800 	  3.594090763200 	 18.830390434000 	
H	 24.458968831800 	  9.777649713200 	  8.699830884000 	
H	 23.890424701800 	  9.777652523200 	 18.830387604000 	
H	 10.062411806500 	  5.681269458100 	  3.606436279800 	
H	  9.493867676500 	  5.681272268100 	 13.736992999800 	
H	 10.062380706500 	 11.864831218100 	  3.606433449800 	
H	  9.493836576500 	 11.864834028100 	 13.736990169800 	
H	 24.743239106500 	  5.681278688100 	  3.634566209800 	
H	 24.174694976500 	  5.681281498100 	 13.765122929800 	
H	 24.743208006500 	 11.864840448100 	  3.634563379800 	
H	 24.174663876500 	 11.864843258100 	 13.765120099800 	
H	  4.334079585100 	  2.589495324100 	  1.486980036300 	
H	  3.765535455100 	  2.589498134100 	 11.617536756300 	
H	  4.334048485100 	  8.773057084100 	  1.486977206300 	
H	  3.765504355100 	  8.773059894100 	 11.617533926300 	
H	 19.014906885100 	  2.589504554100 	  1.515109966300 	
H	 18.446362755100 	  2.589507364100 	 11.645666686300 	
H	 19.014875785100 	  8.773066314100 	  1.515107136300 	
H	 18.446331655100 	  8.773069124100 	 11.645663856300 	
C	  5.415710393500 	  1.283137318900 	  7.979564150100 	
C	  4.847166263500 	  1.283140128900 	 18.110120870100 	
C	  5.415679293500 	  7.466699078900 	  7.979561320100 	
C	  4.847135163500 	  7.466701888900 	 18.110118040100 	
C	 20.096537693500 	  1.283146548900 	  8.007694080100 	
C	 19.527993563500 	  1.283149358900 	 18.138250800100 	
C	 20.096506593500 	  7.466708308900 	  8.007691250100 	
C	 19.527962463500 	  7.466711118900 	 18.138247970100 	
C	  8.412295413000 	  4.374903959500 	  7.244378051500 	
C	  7.843751283000 	  4.374906769500 	 17.374934771500 	
C	  8.412264313000 	 10.558465719500 	  7.244375221500 	
C	  7.843720183000 	 10.558468529500 	 17.374931941500 	
C	 23.093122713000 	  4.374913189500 	  7.272507981500 	
C	 22.524578583000 	  4.374915999500 	 17.403064701500 	
C	 23.093091613000 	 10.558474949500 	  7.272505151500 	
C	 22.524547483000 	 10.558477759500 	 17.403061871500 	
C	  8.696541388600 	  4.900436048200 	  2.179119568000 	
C	  8.127997258600 	  4.900438858200 	 12.309676288000 	
C	  8.696510288600 	 11.083997808200 	  2.179116738000 	
C	  8.127966158600 	 11.084000618200 	 12.309673458000 	
C	 23.377368688600 	  4.900445278200 	  2.207249498000 	
C	 22.808824558600 	  4.900448088200 	 12.337806218000 	
C	 23.377337588600 	 11.084007038200 	  2.207246668000 	
C	 22.808793458600 	 11.084009848200 	 12.337803388000 	
C	  5.699956798100 	  1.808670211500 	  2.914305870100 	
C	  5.131412668100 	  1.808673021500 	 13.044862590100 	
C	  5.699925698100 	  7.992231971500 	  2.914303040100 	
C	  5.131381568100 	  7.992234781500 	 13.044859760100 	
C	 20.380784098100 	  1.808679441500 	  2.942435800100 	
C	 19.812239968100 	  1.808682251500 	 13.072992520100 	
C	 20.380752998100 	  7.992241201500 	  2.942432970100 	
C	 19.812208868100 	  7.992244011500 	 13.072989690100 	
H	  6.095413680900 	  0.440179673500 	  7.880948511900 	
H	  5.526869550900 	  0.440182483500 	 18.011505231900 	
H	  6.095382580900 	  6.623741433500 	  7.880945681900 	
H	  5.526838450900 	  6.623744243500 	 18.011502401900 	
H	 20.776240980900 	  0.440188903500 	  7.909078441900 	
H	 20.207696850900 	  0.440191713500 	 18.039635161900 	
H	 20.776209880900 	  6.623750663500 	  7.909075611900 	
H	 20.207665750900 	  6.623753473500 	 18.039632331900 	
H	  7.732618281700 	  3.531935504600 	  7.342985579400 	
H	  7.164074151700 	  3.531938314600 	 17.473542299400 	
H	  7.732587181700 	  9.715497264600 	  7.342982749400 	
H	  7.164043051700 	  9.715500074600 	 17.473539469400 	
H	 22.413445581700 	  3.531944734600 	  7.371115509400 	
H	 21.844901451700 	  3.531947544600 	 17.501672229400 	
H	 22.413414481700 	  9.715506494600 	  7.371112679400 	
H	 21.844870351700 	  9.715509304600 	 17.501669399400 	
H	  8.016837948600 	  5.743393631800 	  2.277735307300 	
H	  7.448293818600 	  5.743396441800 	 12.408292027300 	
H	  8.016806848600 	 11.926955391800 	  2.277732477300 	
H	  7.448262718600 	 11.926958201800 	 12.408289197300 	
H	 22.697665248600 	  5.743402861800 	  2.305865237300 	
H	 22.129121118600 	  5.743405671800 	 12.436421957300 	
H	 22.697634148600 	 11.926964621800 	  2.305862407300 	
H	 22.129090018600 	 11.926967431800 	 12.436419127300 	
H	  6.379633929400 	  2.651638728300 	  2.815698342200 	
H	  5.811089799400 	  2.651641538300 	 12.946255062200 	
H	  6.379602829400 	  8.835200488300 	  2.815695512200 	
H	  5.811058699400 	  8.835203298300 	 12.946252232200 	
H	 21.060461229400 	  2.651647958300 	  2.843828272200 	
H	 20.491917099400 	  2.651650768300 	 12.974384992200 	
H	 21.060430129400 	  8.835209718300 	  2.843825442200 	
H	 20.491885999400 	  8.835212528300 	 12.974382162200 	
C	  2.038932514800 	  2.415402770700 	  6.496426445200 	
C	  1.470388384800 	  2.415405580700 	 16.626983165200 	
C	  2.038901414800 	  8.598964530700 	  6.496423615200 	
C	  1.470357284800 	  8.598967340700 	 16.626980335200 	
C	 16.719759814800 	  2.415412000700 	  6.524556375200 	
C	 16.151215684800 	  2.415414810700 	 16.655113095200 	
C	 16.719728714800 	  8.598973760700 	  6.524553545200 	
C	 16.151184584800 	  8.598976570700 	 16.655110265200 	
C	 11.789036815200 	  5.507193873300 	  8.727543141800 	
C	 11.220492685200 	  5.507196683300 	 18.858099861800 	
C	 11.789005715200 	 11.690755633300 	  8.727540311800 	
C	 11.220461585200 	 11.690758443300 	 18.858097031800 	
C	 26.469864115200 	  5.507203103300 	  8.755673071800 	
C	 25.901319985200 	  5.507205913300 	 18.886229791800 	
C	 26.469833015200 	 11.690764863300 	  8.755670241800 	
C	 25.901288885200 	 11.690767673300 	 18.886226961800 	
C	 12.073319255900 	  3.768170843800 	  3.662257475500 	
C	 11.504775125900 	  3.768173653800 	 13.792814195500 	
C	 12.073288155900 	  9.951732603800 	  3.662254645500 	
C	 11.504744025900 	  9.951735413800 	 13.792811365500 	
C	 26.754146555900 	  3.768180073800 	  3.690387405500 	
C	 26.185602425900 	  3.768182883800 	 13.820944125500 	
C	 26.754115455900 	  9.951741833800 	  3.690384575500 	
C	 26.185571325900 	  9.951744643800 	 13.820941295500 	
C	  2.323215700900 	  0.676380050400 	  1.431140577700 	
C	  1.754671570900 	  0.676382860400 	 11.561697297700 	
C	  2.323184600900 	  6.859941810400 	  1.431137747700 	
C	  1.754640470900 	  6.859944620400 	 11.561694467700 	
C	 17.004043000900 	  0.676389280400 	  1.459270507700 	
C	 16.435498870900 	  0.676392090400 	 11.589827227700 	
C	 17.004011900900 	  6.859951040400 	  1.459267677700 	
C	 16.435467770900 	  6.859953850400 	 11.589824397700 	
C	  2.316129708800 	  3.196526817000 	  5.195239794800 	
C	  1.747585578800 	  3.196529627000 	 15.325796514800 	
C	  2.316098608800 	  9.380088577000 	  5.195236964800 	
C	  1.747554478800 	  9.380091387000 	 15.325793684800 	
C	 16.996957008800 	  3.196536047000 	  5.223369724800 	
C	 16.428412878800 	  3.196538857000 	 15.353926444800 	
C	 16.996925908800 	  9.380097807000 	  5.223366894800 	
C	 16.428381778800 	  9.380100617000 	 15.353923614800 	
C	 11.511861565400 	  0.104754769900 	 10.028731499500 	
C	 10.943317435400 	  0.104757579900 	 20.159288219500 	
C	 11.511830465400 	  6.288316529900 	 10.028728669500 	
C	 10.943286335400 	  6.288319339900 	 20.159285389500 	
C	 26.192688865400 	  0.104763999900 	 10.056861429500 	
C	 25.624144735400 	  0.104766809900 	 20.187418149500 	
C	 26.192657765400 	  6.288325759900 	 10.056858599500 	
C	 25.624113635400 	  6.288328569900 	 20.187415319500 	
C	 11.796121898000 	  2.987047354100 	  4.963444429600 	
C	 11.227577768000 	  2.987050164100 	 15.094001149600 	
C	 11.796090798000 	  9.170609114100 	  4.963441599600 	
C	 11.227546668000 	  9.170611924100 	 15.093998319600 	
C	 26.476949198000 	  2.987056584100 	  4.991574359600 	
C	 25.908405068000 	  2.987059394100 	 15.122131079600 	
C	 26.476918098000 	  9.170618344100 	  4.991571529600 	
C	 25.908373968000 	  9.170621154100 	 15.122128249600 	
C	  2.600391103200 	  6.078819463000 	  0.129952119000 	
C	  2.031846973200 	  6.078822273000 	 10.260508839000 	
C	  2.600360003200 	 12.262381223000 	  0.129949289000 	
C	  2.031815873200 	 12.262384033000 	 10.260506009000 	
C	 17.281218403200 	  6.078828693000 	  0.158082049000 	
C	 16.712674273200 	  6.078831503000 	 10.288638769000 	
C	 17.281187303200 	 12.262390453000 	  0.158079219000 	
C	 16.712643173200 	 12.262393263000 	 10.288635939000 	
H	  2.612757015800 	  4.227841415400 	  5.421537736000 	
H	  2.044212885800 	  4.227844225400 	 15.552094456000 	
H	  2.612725915800 	 10.411403175400 	  5.421534906000 	
H	  2.044181785800 	 10.411405985400 	 15.552091626000 	
H	 17.293584315800 	  4.227850645400 	  5.449667666000 	
H	 16.725040185800 	  4.227853455400 	 15.580224386000 	
H	 17.293553215800 	 10.411412405400 	  5.449664836000 	
H	 16.725009085800 	 10.411415215400 	 15.580221556000 	
H	 11.215218029300 	  1.136067184600 	  9.802432299100 	
H	 10.646673899300 	  1.136069994600 	 19.932989019100 	
H	 11.215186929300 	  7.319628944600 	  9.802429469100 	
H	 10.646642799300 	  7.319631754600 	 19.932986189100 	
H	 25.896045329300 	  1.136076414600 	  9.830562229100 	
H	 25.327501199300 	  1.136079224600 	 19.961118949100 	
H	 25.896014229300 	  7.319638174600 	  9.830559399100 	
H	 25.327470099300 	  7.319640984600 	 19.961116119100 	
H	 11.499494568300 	  1.955732631900 	  4.737146893600 	
H	 10.930950438300 	  1.955735441900 	 14.867703613600 	
H	 11.499463468300 	  8.139294391900 	  4.737144063600 	
H	 10.930919338300 	  8.139297201900 	 14.867700783600 	
H	 26.180321868300 	  1.955741861900 	  4.765276823600 	
H	 25.611777738300 	  1.955744671900 	 14.895833543600 	
H	 26.180290768300 	  8.139303621900 	  4.765273993600 	
H	 25.611746638300 	  8.139306431900 	 14.895830713600 	
H	  2.897034650700 	  5.047507048200 	  0.356251116800 	
H	  2.328490520700 	  5.047509858200 	 10.486807836800 	
H	  2.897003550700 	 11.231068808200 	  0.356248286800 	
H	  2.328459420700 	 11.231071618200 	 10.486805006800 	
H	 17.577861950700 	  5.047516278200 	  0.384381046800 	
H	 17.009317820700 	  5.047519088200 	 10.514937766800 	
H	 17.577830850700 	 11.231078038200 	  0.384378216800 	
H	 17.009286720700 	 11.231080848200 	 10.514934936800 	
H	  1.412048820700 	  3.230173843200 	  4.570178105800 	
H	  0.843504690700 	  3.230176653200 	 14.700734825800 	
H	  1.412017720700 	  9.413735603200 	  4.570175275800 	
H	  0.843473590700 	  9.413738413200 	 14.700731995800 	
H	 16.092876120700 	  3.230183073200 	  4.598308035800 	
H	 15.524331990700 	  3.230185883200 	 14.728864755800 	
H	 16.092845020700 	  9.413744833200 	  4.598305205800 	
H	 15.524300890700 	  9.413747643200 	 14.728861925800 	
H	 12.984491248900 	  0.138409911600 	  0.523233610500 	
H	 12.415947118900 	  0.138412721600 	 10.653790330500 	
H	 12.984460148900 	  6.321971671600 	  0.523230780500 	
H	 12.415916018900 	  6.321974481600 	 10.653787500500 	
H	 27.665318548900 	  0.138419141600 	  0.551363540500 	
H	 27.096774418900 	  0.138421951600 	 10.681920260500 	
H	 27.665287448900 	  6.321980901600 	  0.551360710500 	
H	 27.096743318900 	  6.321983711600 	 10.681917430500 	
H	 12.700202627900 	  2.953400575200 	  5.588506320900 	
H	 12.131658497900 	  2.953403385200 	 15.719063040900 	
H	 12.700171527900 	  9.136962335200 	  5.588503490900 	
H	 12.131627397900 	  9.136965145200 	 15.719060210900 	
H	 27.381029927900 	  2.953409805200 	  5.616636250900 	
H	 26.812485797900 	  2.953412615200 	 15.747192970900 	
H	 27.380998827900 	  9.136971565200 	  5.616633420900 	
H	 26.812454697900 	  9.136974375200 	 15.747190140900 	
H	  1.127761431100 	  6.045164321200 	  9.635449805400 	
H	  0.559217301100 	  6.045167131200 	 19.766006525400 	
H	  1.127730331100 	 12.228726081200 	  9.635446975400 	
H	  0.559186201100 	 12.228728891200 	 19.766003695400 	
H	 15.808588731100 	  6.045173551200 	  9.663579735400 	
H	 15.240044601100 	  6.045176361200 	 19.794136455400 	
H	 15.808557631100 	 12.228735311200 	  9.663576905400 	
H	 15.240013501100 	 12.228738121200 	 19.794133625400 	
H	  3.117974382100 	  2.721514149100 	  4.615664106800 	
H	  2.549430252100 	  2.721516959100 	 14.746220826800 	
H	  3.117943282100 	  8.905075909100 	  4.615661276800 	
H	  2.549399152100 	  8.905078719100 	 14.746217996800 	
H	 17.798801682100 	  2.721523379100 	  4.643794036800 	
H	 17.230257552100 	  2.721526189100 	 14.774350756800 	
H	 17.798770582100 	  8.905085139100 	  4.643791206800 	
H	 17.230226452100 	  8.905087949100 	 14.774347926800 	
H	 11.278543592100 	  5.813293234200 	  0.477751838000 	
H	 10.709999462100 	  5.813296044200 	 10.608308558000 	
H	 11.278512492100 	 11.996854994200 	  0.477749008000 	
H	 10.709968362100 	 11.996857804200 	 10.608305728000 	
H	 25.959370892100 	  5.813302464200 	  0.505881768000 	
H	 25.390826762100 	  5.813305274200 	 10.636438488000 	
H	 25.959339792100 	 11.996864224200 	  0.505878938000 	
H	 25.390795662100 	 11.996867034200 	 10.636435658000 	
H	 10.994277095000 	  3.462060207400 	  5.543019813300 	
H	 10.425732965000 	  3.462063017400 	 15.673576533300 	
H	 10.994245995000 	  9.645621967400 	  5.543016983300 	
H	 10.425701865000 	  9.645624777400 	 15.673573703300 	
H	 25.675104395000 	  3.462069437400 	  5.571149743300 	
H	 25.106560265000 	  3.462072247400 	 15.701706463300 	
H	 25.675073295000 	  9.645631197400 	  5.571146913300 	
H	 25.106529165000 	  9.645634007400 	 15.701703633300 	
H	  2.833709070800 	  0.370281122300 	  9.680931881800 	
H	  2.265164940800 	  0.370283932300 	 19.811488601800 	
H	  2.833677970800 	  6.553842882300 	  9.680929051800 	
H	  2.265133840800 	  6.553845692300 	 19.811485771800 	
H	 17.514536370800 	  0.370290352300 	  9.709061811800 	
H	 16.945992240800 	  0.370293162300 	 19.839618531800 	
H	 17.514505270800 	  6.553852112300 	  9.709058981800 	
H	 16.945961140800 	  6.553854922300 	 19.839615701800 	
C	  0.887164533100 	  3.099405811500 	  7.256915573700 	
C	  0.318620403100 	  3.099408621500 	 17.387472293700 	
C	  0.887133433100 	  9.282967571500 	  7.256912743700 	
C	  0.318589303100 	  9.282970381500 	 17.387469463700 	
C	 15.567991833100 	  3.099415041500 	  7.285045503700 	
C	 14.999447703100 	  3.099417851500 	 17.415602223700 	
C	 15.567960733100 	  9.282976801500 	  7.285042673700 	
C	 14.999416603100 	  9.282979611500 	 17.415599393700 	
C	 12.940820695000 	  0.007641134200 	  7.967052756600 	
C	 12.372276565000 	  0.007643944200 	 18.097609476600 	
C	 12.940789595000 	  6.191202894200 	  7.967049926600 	
C	 12.372245465000 	  6.191205704200 	 18.097606646600 	
C	 27.621647995000 	  0.007650364200 	  7.995182686600 	
C	 27.053103865000 	  0.007653174200 	 18.125739406600 	
C	 27.621616895000 	  6.191212124200 	  7.995179856600 	
C	 27.053072765000 	  6.191214934200 	 18.125736576600 	
C	 13.225087214900 	  3.084167431900 	  2.901768752300 	
C	 12.656543084900 	  3.084170241900 	 13.032325472300 	
C	 13.225056114900 	  9.267729191900 	  2.901765922300 	
C	 12.656511984900 	  9.267732001900 	 13.032322642300 	
C	 27.905914514900 	  3.084176661900 	  2.929898682300 	
C	 27.337370384900 	  3.084179471900 	 13.060455402300 	
C	 27.905883414900 	  9.267738421900 	  2.929895852300 	
C	 27.337339284900 	  9.267741231900 	 13.060452572300 	
C	  1.171431838100 	  6.175932418400 	  2.191630659100 	
C	  0.602887708100 	  6.175935228400 	 12.322187379100 	
C	  1.171400738100 	 12.359494178400 	  2.191627829100 	
C	  0.602856608100 	 12.359496988400 	 12.322184549100 	
C	 15.852259138100 	  6.175941648400 	  2.219760589100 	
C	 15.283715008100 	  6.175944458400 	 12.350317309100 	
C	 15.852228038100 	 12.359503408400 	  2.219757759100 	
C	 15.283683908100 	 12.359506218400 	 12.350314479100 	
H	  1.090122822200 	  4.156575733700 	  7.463856135200 	
H	  0.521578692200 	  4.156578543700 	 17.594412855200 	
H	  1.090091722200 	 10.340137493700 	  7.463853305200 	
H	  0.521547592200 	 10.340140303700 	 17.594410025200 	
H	 15.770950122200 	  4.156584963700 	  7.491986065200 	
H	 15.202405992200 	  4.156587773700 	 17.622542785200 	
H	 15.770919022200 	 10.340146723700 	  7.491983235200 	
H	 15.202374892200 	 10.340149533700 	 17.622539955200 	
H	 12.737839640600 	  1.064812279800 	  7.760118093700 	
H	 12.169295510600 	  1.064815089800 	 17.890674813700 	
H	 12.737808540600 	  7.248374039800 	  7.760115263700 	
H	 12.169264410600 	  7.248376849800 	 17.890671983700 	
H	 27.418666940600 	  1.064821509800 	  7.788248023700 	
H	 26.850122810600 	  1.064824319800 	 17.918804743700 	
H	 27.418635840600 	  7.248383269800 	  7.788245193700 	
H	 26.850091710600 	  7.248386079800 	 17.918801913700 	
H	 13.022128767600 	  2.026997447900 	  2.694828393100 	
H	 12.453584637600 	  2.027000257900 	 12.825385113100 	
H	 13.022097667600 	  8.210559207900 	  2.694825563100 	
H	 12.453553537600 	  8.210562017900 	 12.825382283100 	
H	 27.702956067600 	  2.027006677900 	  2.722958323100 	
H	 27.134411937600 	  2.027009487900 	 12.853515043100 	
H	 27.702924967600 	  8.210568437900 	  2.722955493100 	
H	 27.134380837600 	  8.210571247900 	 12.853512213100 	
H	  1.374413050700 	  5.118761334700 	  2.398565119600 	
H	  0.805868920700 	  5.118764144700 	 12.529121839600 	
H	  1.374381950700 	 11.302323094700 	  2.398562289600 	
H	  0.805837820700 	 11.302325904700 	 12.529119009600 	
H	 16.055240350700 	  5.118770564700 	  2.426695049600 	
H	 15.486696220700 	  5.118773374700 	 12.557251769600 	
H	 16.055209250700 	 11.302332324700 	  2.426692219600 	
H	 15.486665120700 	 11.302335134700 	 12.557248939600 	
H	  0.683561485800 	  2.596531593500 	  8.210188040200 	
H	  0.115017355800 	  2.596534403500 	 18.340744760200 	
H	  0.683530385800 	  8.780093353500 	  8.210185210200 	
H	  0.114986255800 	  8.780096163500 	 18.340741930200 	
H	 15.364388785800 	  2.596540823500 	  8.238317970200 	
H	 14.795844655800 	  2.596543633500 	 18.368874690200 	
H	 15.364357685800 	  8.780102583500 	  8.238315140200 	
H	 14.795813555800 	  8.780105393500 	 18.368871860200 	
H	 13.144397725400 	  5.688341754300 	  7.013772246600 	
H	 12.575853595400 	  5.688344564300 	 17.144328966600 	
H	 13.144366625400 	 11.871903514300 	  7.013769416600 	
H	 12.575822495400 	 11.871906324300 	 17.144326136600 	
H	 27.825225025400 	  5.688350984300 	  7.041902176600 	
H	 27.256680895400 	  5.688353794300 	 17.172458896600 	
H	 27.825193925400 	 11.871912744300 	  7.041899346600 	
H	 27.256649795400 	 11.871915554300 	 17.172456066600 	
H	 13.428690561400 	  3.587041340800 	  1.948496185000 	
H	 12.860146431400 	  3.587044150800 	 12.079052905000 	
H	 13.428659461400 	  9.770603100800 	  1.948493355000 	
H	 12.860115331400 	  9.770605910800 	 12.079050075000 	
H	 28.109517861400 	  3.587050570800 	  1.976626115000 	
H	 27.540973731400 	  3.587053380800 	 12.107182835000 	
H	 28.109486761400 	  9.770612330800 	  1.976623285000 	
H	 27.540942631400 	  9.770615140800 	 12.107180005000 	
H	  0.967854649600 	  0.495231612900 	  3.144911371300 	
H	  0.399310519600 	  0.495234422900 	 13.275468091300 	
H	  0.967823549600 	  6.678793372900 	  3.144908541300 	
H	  0.399279419600 	  6.678796182900 	 13.275465261300 	
H	 15.648681949600 	  0.495240842900 	  3.173041301300 	
H	 15.080137819600 	  0.495243652900 	 13.303598021300 	
H	 15.648650849600 	  6.678802602900 	  3.173038471300 	
H	 15.080106719600 	  6.678805412900 	 13.303595191300 	
H	 -0.027515277800 	  3.062154096700 	  6.650929329100 	
H	 -0.596059407800 	  3.062156906700 	 16.781486049100 	
H	 -0.027546377800 	  9.245715856700 	  6.650926499100 	
H	 -0.596090507800 	  9.245718666700 	 16.781483219100 	
H	 14.653312022200 	  3.062163326700 	  6.679059259100 	
H	 14.084767892200 	  3.062166136700 	 16.809615979100 	
H	 14.653280922200 	  9.245725086700 	  6.679056429100 	
H	 14.084736792200 	  9.245727896700 	 16.809613149100 	
H	 13.855469667900 	  6.153952088900 	  8.573035597100 	
H	 13.286925537900 	  6.153954898900 	 18.703592317100 	
H	 13.855438567900 	 12.337513848900 	  8.573032767100 	
H	 13.286894437900 	 12.337516658900 	 18.703589487100 	
H	 28.536296967900 	  6.153961318900 	  8.601165527100 	
H	 27.967752837900 	  6.153964128900 	 18.731722247100 	
H	 28.536265867900 	 12.337523078900 	  8.601162697100 	
H	 27.967721737900 	 12.337525888900 	 18.731719417100 	
H	 14.139766867500 	  3.121419146800 	  3.507755199200 	
H	 13.571222737500 	  3.121421956800 	 13.638311919200 	
H	 14.139735767500 	  9.304980906800 	  3.507752369200 	
H	 13.571191637500 	  9.304983716800 	 13.638309089200 	
H	 28.820594167500 	  3.121428376800 	  3.535885129200 	
H	 28.252050037500 	  3.121431186800 	 13.666441849200 	
H	 28.820563067500 	  9.304990136800 	  3.535882299200 	
H	 28.252018937500 	  9.304992946800 	 13.666439019200 	
H	  0.256782865300 	  0.029621463700 	  1.585647818500 	
H	 -0.311761264700 	  0.029624273700 	 11.716204538500 	
H	  0.256751765300 	  6.213183223700 	  1.585644988500 	
H	 -0.311792364700 	  6.213186033700 	 11.716201708500 	
H	 14.937610165300 	  0.029630693700 	  1.613777748500 	
H	 14.369066035300 	  0.029633503700 	 11.744334468500 	
H	 14.937579065300 	  6.213192453700 	  1.613774918500 	
H	 14.369034935300 	  6.213195263700 	 11.744331638500 	
C	  1.581473236200 	  0.991044022700 	  6.130188493600 	
C	  1.012929106200 	  0.991046832700 	 16.260745213600 	
C	  1.581442136200 	  7.174605782700 	  6.130185663600 	
C	  1.012898006200 	  7.174608592700 	 16.260742383600 	
C	 16.262300536200 	  0.991053252700 	  6.158318423600 	
C	 15.693756406200 	  0.991056062700 	 16.288875143600 	
C	 16.262269436200 	  7.174615012700 	  6.158315593600 	
C	 15.693725306200 	  7.174617822700 	 16.288872313600 	
C	 12.246521765400 	  4.082837103900 	  9.093781709700 	
C	 11.677977635400 	  4.082839913900 	 19.224338429700 	
C	 12.246490665400 	 10.266398863900 	  9.093778879700 	
C	 11.677946535400 	 10.266401673900 	 19.224335599700 	
C	 26.927349065400 	  4.082846333900 	  9.121911639700 	
C	 26.358804935400 	  4.082849143900 	 19.252468359700 	
C	 26.927317965400 	 10.266408093900 	  9.121908809700 	
C	 26.358773835400 	 10.266410903900 	 19.252465529700 	
C	 12.530778715400 	  5.192529777300 	  4.028494819600 	
C	 11.962234585400 	  5.192532587300 	 14.159051539600 	
C	 12.530747615400 	 11.376091537300 	  4.028491989600 	
C	 11.962203485400 	 11.376094347300 	 14.159048709600 	
C	 27.211606015400 	  5.192539007300 	  4.056624749600 	
C	 26.643061885400 	  5.192541817300 	 14.187181469600 	
C	 27.211574915400 	 11.376100767300 	  4.056621919600 	
C	 26.643030785400 	 11.376103577300 	 14.187178639600 	
C	  1.865730445700 	  2.100736819800 	  1.064902211900 	
C	  1.297186315700 	  2.100739629800 	 11.195458931900 	
C	  1.865699345700 	  8.284298579800 	  1.064899381900 	
C	  1.297155215700 	  8.284301389800 	 11.195456101900 	
C	 16.546557745700 	  2.100746049800 	  1.093032141900 	
C	 15.978013615700 	  2.100748859800 	 11.223588861900 	
C	 16.546526645700 	  8.284307809800 	  1.093029311900 	
C	 15.977982515700 	  8.284310619800 	 11.223586031900 	
H	  0.610675950600 	  1.034865784000 	  5.618136422600 	
H	  0.042131820600 	  1.034868594000 	 15.748693142600 	
H	  0.610644850600 	  7.218427544000 	  5.618133592600 	
H	  0.042100720600 	  7.218430354000 	 15.748690312600 	
H	 15.291503250600 	  1.034875014000 	  5.646266352600 	
H	 14.722959120600 	  1.034877824000 	 15.776823072600 	
H	 15.291472150600 	  7.218436774000 	  5.646263522600 	
H	 14.722928020600 	  7.218439584000 	 15.776820242600 	
H	 13.217317326700 	  4.126663991400 	  9.605838297400 	
H	 12.648773196700 	  4.126666801400 	 19.736395017400 	
H	 13.217286226700 	 10.310225751400 	  9.605835467400 	
H	 12.648742096700 	 10.310228561400 	 19.736392187400 	
H	 27.898144626700 	  4.126673221400 	  9.633968227400 	
H	 27.329600496700 	  4.126676031400 	 19.764524947400 	
H	 27.898113526700 	 10.310234981400 	  9.633965397400 	
H	 27.329569396700 	 10.310237791400 	 19.764522117400 	
H	 13.501575842900 	  5.148708016000 	  4.540547092900 	
H	 12.933031712900 	  5.148710826000 	 14.671103812900 	
H	 13.501544742900 	 11.332269776000 	  4.540544262900 	
H	 12.933000612900 	 11.332272586000 	 14.671100982900 	
H	 28.182403142900 	  5.148717246000 	  4.568677022900 	
H	 27.613859012900 	  5.148720056000 	 14.699233742900 	
H	 28.182372042900 	 11.332279006000 	  4.568674192900 	
H	 27.613827912900 	 11.332281816000 	 14.699230912900 	
H	  0.894934890100 	  2.056909870500 	  0.552845522900 	
H	  0.326390760100 	  2.056912680500 	 10.683402242900 	
H	  0.894903790100 	  8.240471630500 	  0.552842692900 	
H	  0.326359660100 	  8.240474440500 	 10.683399412900 	
H	 15.575762190100 	  2.056919100500 	  0.580975452900 	
H	 15.007218060100 	  2.056921910500 	 10.711532172900 	
H	 15.575731090100 	  8.240480860500 	  0.580972622900 	
H	 15.007186960100 	  8.240483670500 	 10.711529342900 	
H	  1.459783142400 	  0.369871747300 	  7.026704052400 	
H	  0.891239012400 	  0.369874557300 	 17.157260772400 	
H	  1.459752042400 	  6.553433507300 	  7.026701222400 	
H	  0.891207912400 	  6.553436317300 	 17.157257942400 	
H	 16.140610442400 	  0.369880977300 	  7.054833982400 	
H	 15.572066312400 	  0.369883787300 	 17.185390702400 	
H	 16.140579342400 	  6.553442737300 	  7.054831152400 	
H	 15.572035212400 	  6.553445547300 	 17.185387872400 	
H	 12.368224107600 	  3.461662627600 	  8.197272303400 	
H	 11.799679977600 	  3.461665437600 	 18.327829023400 	
H	 12.368193007600 	  9.645224387600 	  8.197269473400 	
H	 11.799648877600 	  9.645227197600 	 18.327826193400 	
H	 27.049051407600 	  3.461671857600 	  8.225402233400 	
H	 26.480507277600 	  3.461674667600 	 18.355958953400 	
H	 27.049020307600 	  9.645233617600 	  8.225399403400 	
H	 26.480476177600 	  9.645236427600 	 18.355956123400 	
H	 12.652468820600 	  5.813701619900 	  3.131979058100 	
H	 12.083924690600 	  5.813704429900 	 13.262535778100 	
H	 12.652437720600 	 11.997263379900 	  3.131976228100 	
H	 12.083893590600 	 11.997266189900 	 13.262532948100 	
H	 27.333296120600 	  5.813710849900 	  3.160108988100 	
H	 26.764751990600 	  5.813713659900 	 13.290665708100 	
H	 27.333265020600 	 11.997272609900 	  3.160106158100 	
H	 26.764720890600 	 11.997275419900 	 13.290662878100 	
H	  1.744027951100 	  2.721911110600 	  1.961411719200 	
H	  1.175483821100 	  2.721913920600 	 12.091968439200 	
H	  1.743996851100 	  8.905472870600 	  1.961408889200 	
H	  1.175452721100 	  8.905475680600 	 12.091965609200 	
H	 16.424855251100 	  2.721920340600 	  1.989541649200 	
H	 15.856311121100 	  2.721923150600 	 12.120098369200 	
H	 16.424824151100 	  8.905482100600 	  1.989538819200 	
H	 15.856280021100 	  8.905484910600 	 12.120095539200 	
H	  2.286177287500 	  0.494504553500 	  5.453213134500 	
H	  1.717633157500 	  0.494507363500 	 15.583769854500 	
H	  2.286146187500 	  6.678066313500 	  5.453210304500 	
H	  1.717602057500 	  6.678069123500 	 15.583767024500 	
H	 16.967004587500 	  0.494513783500 	  5.481343064500 	
H	 16.398460457500 	  0.494516593500 	 15.611899784500 	
H	 16.966973487500 	  6.678075543500 	  5.481340234500 	
H	 16.398429357500 	  6.678078353500 	 15.611896954500 	
H	 11.541823906000 	  3.586296368900 	  9.770757120400 	
H	 10.973279776000 	  3.586299178900 	 19.901313840400 	
H	 11.541792806000 	  9.769858128900 	  9.770754290400 	
H	 10.973248676000 	  9.769860938900 	 19.901311010400 	
H	 26.222651206000 	  3.586305598900 	  9.798887050400 	
H	 25.654107076000 	  3.586308408900 	 19.929443770400 	
H	 26.222620106000 	  9.769867358900 	  9.798884220400 	
H	 25.654075976000 	  9.769870168900 	 19.929440940400 	
H	 11.826074523000 	  5.689069555700 	  4.705470077100 	
H	 11.257530393000 	  5.689072365700 	 14.836026797100 	
H	 11.826043423000 	 11.872631315700 	  4.705467247100 	
H	 11.257499293000 	 11.872634125700 	 14.836023967100 	
H	 26.506901823000 	  5.689078785700 	  4.733600007100 	
H	 25.938357693000 	  5.689081595700 	 14.864156727100 	
H	 26.506870723000 	 11.872640545700 	  4.733597177100 	
H	 25.938326593000 	 11.872643355700 	 14.864153897100 	
H	  2.570428293700 	  2.597277802200 	  0.387927003800 	
H	  2.001884163700 	  2.597280612200 	 10.518483723800 	
H	  2.570397193700 	  8.780839562200 	  0.387924173800 	
H	  2.001853063700 	  8.780842372200 	 10.518480893800 	
H	 17.251255593700 	  2.597287032200 	  0.416056933800 	
H	 16.682711463700 	  2.597289842200 	 10.546613653800 	
H	 17.251224493700 	  8.780848792200 	  0.416054103800 	
H	 16.682680363700 	  8.780851602200 	 10.546610823800 	
768 
Energy: -8.7780542864739999e+01 
S	  8.729188283536 	  1.553396527154 	  0.049695283545 	
S	  8.160644153536 	  1.553399337154 	 10.180252003545 	
S	  8.729157183536 	  7.736958287154 	  0.049692453545 	
S	  8.160613053536 	  7.736961097154 	 10.180249173545 	
S	 23.410015583536 	  1.553405757154 	  0.077825213545 	
S	 22.841471453536 	  1.553408567154 	 10.208381933545 	
S	 23.409984483536 	  7.736967517154 	  0.077822383545 	
S	 22.841440353536 	  7.736970327154 	 10.208379103545 	
S	  5.616593357664 	  4.641028719047 	  5.073730839621 	
S	  5.048049227664 	  4.641031529047 	 15.204287559621 	
S	  5.616562257664 	 10.824590479047 	  5.073728009621 	
S	  5.048018127664 	 10.824593289047 	 15.204284729621 	
S	 20.297420657664 	  4.641037949047 	  5.101860769621 	
S	 19.728876527664 	  4.641040759047 	 15.232417489621 	
S	 20.297389557664 	 10.824599709047 	  5.101857939621 	
S	 19.728845427664 	 10.824602519047 	 15.232414659621 	
S	  5.339051322369 	  4.623161559406 	 10.160844461335 	
S	  4.770507192369 	  4.623164369406 	 20.291401181335 	
S	  5.339020222369 	 10.806723319406 	 10.160841631335 	
S	  4.770476092369 	 10.806726129406 	 20.291398351335 	
S	 20.019878622369 	  4.623170789406 	 10.188974391335 	
S	 19.451334492369 	  4.623173599406 	 20.319531111335 	
S	 20.019847522369 	 10.806732549406 	 10.188971561335 	
S	 19.451303392369 	 10.806735359406 	 20.319528281335 	
S	  8.451646627803 	  1.535530040466 	  5.136809152805 	
S	  7.883102497803 	  1.535532850466 	 15.267365872805 	
S	  8.451615527803 	  7.719091800466 	  5.136806322805 	
S	  7.883071397803 	  7.719094610466 	 15.267363042805 	
S	 23.132473927803 	  1.535539270466 	  5.164939082805 	
S	 22.563929797803 	  1.535542080466 	 15.295495802805 	
S	 23.132442827803 	  7.719101030466 	  5.164936252805 	
S	 22.563898697803 	  7.719103840466 	 15.295492972805 	
C	  6.743551953035 	  2.558272120877 	  9.834098191520 	
C	  6.175007823035 	  2.558274930877 	 19.964654911520 	
C	  6.743520853035 	  8.741833880877 	  9.834095361520 	
C	  6.174976723035 	  8.741836690877 	 19.964652081520 	
C	 21.424379253035 	  2.558281350877 	  9.862228121520 	
C	 20.855835123035 	  2.558284160877 	 19.992784841520 	
C	 21.424348153035 	  8.741843110877 	  9.862225291520 	
C	 20.855804023035 	  8.741845920877 	 19.992782011520 	
C	  7.046419825620 	  5.616503733578 	  5.481234224522 	
C	  6.477875695620 	  5.616506543578 	 15.611790944522 	
C	  7.046388725620 	 11.800065493578 	  5.481231394522 	
C	  6.477844595620 	 11.800068303578 	 15.611788114522 	
C	 21.727247125620 	  5.616512963578 	  5.509364154522 	
C	 21.158702995620 	  5.616515773578 	 15.639920874522 	
C	 21.727216025620 	 11.800074723578 	  5.509361324522 	
C	 21.158671895620 	 11.800077533578 	 15.639918044522 	
C	  7.324687692439 	  3.618285913849 	  0.376441567279 	
C	  6.756143562439 	  3.618288723849 	 10.506998287279 	
C	  7.324656592439 	  9.801847673849 	  0.376438737279 	
C	  6.756112462439 	  9.801850483849 	 10.506995457279 	
C	 22.005514992439 	  3.618295143849 	  0.404571497279 	
C	 21.436970862439 	  3.618297953849 	 10.535128217279 	
C	 22.005483892439 	  9.801856903849 	  0.404568667279 	
C	 21.436939762439 	  9.801859713849 	 10.535125387279 	
C	  7.021820021669 	  0.560055138202 	  4.729305754285 	
C	  6.453275891669 	  0.560057948202 	 14.859862474285 	
C	  7.021788921669 	  6.743616898202 	  4.729302924285 	
C	  6.453244791669 	  6.743619708202 	 14.859859644285 	
C	 21.702647321669 	  0.560064368202 	  4.757435684285 	
C	 21.134103191669 	  0.560067178202 	 14.887992404285 	
C	 21.702616221669 	  6.743626128202 	  4.757432854285 	
C	 21.134072091669 	  6.743628938202 	 14.887989574285 	
C	  5.680606450616 	  2.334417539402 	  8.911411144595 	
C	  5.112062320616 	  2.334420349402 	 19.041967864595 	
C	  5.680575350616 	  8.517979299402 	  8.911408314595 	
C	  5.112031220616 	  8.517982109402 	 19.041965034595 	
C	 20.361433750616 	  2.334426769402 	  8.939541074595 	
C	 19.792889620616 	  2.334429579402 	 19.070097794595 	
C	 20.361402650616 	  8.517988529402 	  8.939538244595 	
C	 19.792858520616 	  8.517991339402 	 19.070094964595 	
C	  8.116187274362 	  5.425253030260 	  6.385731604800 	
C	  7.547643144362 	  5.425255840260 	 16.516288324800 	
C	  8.116156174362 	 11.608814790260 	  6.385728774800 	
C	  7.547612044362 	 11.608817600260 	 16.516285494800 	
C	 22.797014574362 	  5.425262260260 	  6.413861534800 	
C	 22.228470444362 	  5.425265070260 	 16.544418254800 	
C	 22.796983474362 	 11.608824020260 	  6.413858704800 	
C	 22.228439344362 	 11.608826830260 	 16.544415424800 	
C	  8.387632999162 	  3.842140526297 	  1.299128469360 	
C	  7.819088869162 	  3.842143336297 	 11.429685189360 	
C	  8.387601899162 	 10.025702286297 	  1.299125639360 	
C	  7.819057769162 	 10.025705096297 	 11.429682359360 	
C	 23.068460299162 	  3.842149756297 	  1.327258399360 	
C	 22.499916169162 	  3.842152566297 	 11.457815119360 	
C	 23.068429199162 	 10.025711516297 	  1.327255569360 	
C	 22.499885069162 	 10.025714326297 	 11.457812289360 	
C	  5.952052531190 	  0.751305807933 	  3.824808281683 	
C	  5.383508401190 	  0.751308617933 	 13.955365001683 	
C	  5.952021431190 	  6.934867567933 	  3.824805451683 	
C	  5.383477301190 	  6.934870377933 	 13.955362171683 	
C	 20.632879831190 	  0.751315037933 	  3.852938211683 	
C	 20.064335701190 	  0.751317847933 	 13.983494931683 	
C	 20.632848731190 	  6.934876797933 	  3.852935381683 	
C	 20.064304601190 	  6.934879607933 	 13.983492101683 	
C	  4.781178812280 	  3.388893769195 	  8.956423199428 	
C	  4.212634682280 	  3.388896579195 	 19.086979919428 	
C	  4.781147712280 	  9.572455529195 	  8.956420369428 	
C	  4.212603582280 	  9.572458339195 	 19.086977089428 	
C	 19.462006112280 	  3.388902999195 	  8.984553129428 	
C	 18.893461982280 	  3.388905809195 	 19.115109849428 	
C	 19.461975012280 	  9.572464759195 	  8.984550299428 	
C	 18.893430882280 	  9.572467569195 	 19.115107019428 	
C	  8.999625292874 	  0.297156044917 	  6.342208193512 	
C	  8.431081162874 	  0.297158854917 	 16.472764913512 	
C	  8.999594192874 	  6.480717804917 	  6.342205363512 	
C	  8.431050062874 	  6.480720614917 	 16.472762083512 	
C	 23.680452592874 	  0.297165274917 	  6.370338123512 	
C	 23.111908462874 	  0.297168084917 	 16.500894843512 	
C	 23.680421492874 	  6.480727034917 	  6.370335293512 	
C	 23.111877362874 	  6.480729844917 	 16.500892013512 	
C	  9.287060633343 	  2.787664384808 	  1.254116518883 	
C	  8.718516503343 	  2.787667194808 	 11.384673238883 	
C	  9.287029533343 	  8.971226144808 	  1.254113688883 	
C	  8.718485403343 	  8.971228954808 	 11.384670408883 	
C	 23.967887933343 	  2.787673614808 	  1.282246448883 	
C	 23.399343803343 	  2.787676424808 	 11.412803168883 	
C	 23.967856833343 	  8.971235374808 	  1.282243618883 	
C	 23.399312703343 	  8.971238184808 	 11.412800338883 	
C	  5.068614532096 	  5.879402728469 	  3.868331721242 	
C	  4.500070402096 	  5.879405538469 	 13.998888441242 	
C	  5.068583432096 	 12.062964488469 	  3.868328891242 	
C	  4.500039302096 	 12.062967298469 	 13.998885611242 	
C	 19.749441832096 	  5.879411958469 	  3.896461651242 	
C	 19.180897702096 	  5.879414768469 	 14.027018371242 	
C	 19.749410732096 	 12.062973718469 	  3.896458821242 	
C	 19.180866602096 	 12.062976528469 	 14.027015541242 	
C	  3.681061168551 	  3.421167915936 	  8.220959602704 	
C	  3.112517038551 	  3.421170725936 	 18.351516322704 	
C	  3.681030068551 	  9.604729675936 	  8.220956772704 	
C	  3.112485938551 	  9.604732485936 	 18.351513492704 	
C	 18.361888468551 	  3.421177145936 	  8.249089532704 	
C	 17.793344338551 	  3.421179955936 	 18.379646252704 	
C	 18.361857368551 	  9.604738905936 	  8.249086702704 	
C	 17.793313238551 	  9.604741715936 	 18.379643422704 	
C	 10.107787488058 	  0.336725141546 	  7.077622600957 	
C	  9.539243358058 	  0.336727951546 	 17.208179320957 	
C	 10.107756388058 	  6.520286901546 	  7.077619770957 	
C	  9.539212258058 	  6.520289711546 	 17.208176490957 	
C	 24.788614788058 	  0.336734371546 	  7.105752530957 	
C	 24.220070658058 	  0.336737181546 	 17.236309250957 	
C	 24.788583688058 	  6.520296131546 	  7.105749700957 	
C	 24.220039558058 	  6.520298941546 	 17.236306420957 	
C	 10.387178316510 	  2.755390304858 	  1.989580256734 	
C	  9.818634186510 	  2.755393114858 	 12.120136976734 	
C	 10.387147216510 	  8.938952064858 	  1.989577426734 	
C	  9.818603086510 	  8.938954874858 	 12.120134146734 	
C	 25.068005616510 	  2.755399534858 	  2.017710186734 	
C	 24.499461486510 	  2.755402344858 	 12.148266906734 	
C	 25.067974516510 	  8.938961294858 	  2.017707356734 	
C	 24.499430386510 	  8.938964104858 	 12.148264076734 	
C	  3.960452317475 	  5.839833598818 	  3.132917354109 	
C	  3.391908187475 	  5.839836408818 	 13.263474074109 	
C	  3.960421217475 	 12.023395358818 	  3.132914524109 	
C	  3.391877087475 	 12.023398168818 	 13.263471244109 	
C	 18.641279617475 	  5.839842828818 	  3.161047284109 	
C	 18.072735487475 	  5.839845638818 	 13.291604004109 	
C	 18.641248517475 	 12.023404588818 	  3.161044454109 	
C	 18.072704387475 	 12.023407398818 	 13.291601174109 	
H	  2.978933488012 	  4.332242542098 	  8.305876700505 	
H	  2.410389358012 	  4.332245352098 	 18.436433420505 	
H	  2.978902388012 	 10.515804302098 	  8.305873870505 	
H	  2.410358258012 	 10.515807112098 	 18.436430590505 	
H	 17.659760788012 	  4.332251772098 	  8.334006630505 	
H	 17.091216658012 	  4.332254582098 	 18.464563350505 	
H	 17.659729688012 	 10.515813532098 	  8.334003800505 	
H	 17.091185558012 	 10.515816342098 	 18.464560520505 	
H	 10.809995890472 	  1.242020393575 	  6.993117062599 	
H	 10.241451760472 	  1.242023203575 	 17.123673782599 	
H	 10.809964790472 	  7.425582153575 	  6.993114232599 	
H	 10.241420660472 	  7.425584963575 	 17.123670952599 	
H	 25.490823190472 	  1.242029623575 	  7.021246992599 	
H	 24.922279060472 	  1.242032433575 	 17.151803712599 	
H	 25.490792090472 	  7.425591383575 	  7.021244162599 	
H	 24.922247960472 	  7.425594193575 	 17.151800882599 	
H	 11.089305971507 	  1.844315664388 	  1.904663068126 	
H	 10.520761841507 	  1.844318474388 	 12.035219788126 	
H	 11.089274871507 	  8.027877424388 	  1.904660238126 	
H	 10.520730741507 	  8.027880234388 	 12.035216958126 	
H	 25.770133271507 	  1.844324894388 	  1.932792998126 	
H	 25.201589141507 	  1.844327704388 	 12.063349718126 	
H	 25.770102171507 	  8.027886654388 	  1.932790168126 	
H	 25.201558041507 	  8.027889464388 	 12.063346888126 	
H	  3.258244030572 	  4.934538249488 	  3.217422914611 	
H	  2.689699900572 	  4.934541059488 	 13.347979634611 	
H	  3.258212930572 	 11.118100009488 	  3.217420084611 	
H	  2.689668800572 	 11.118102819488 	 13.347976804611 	
H	 17.939071330572 	  4.934547479488 	  3.245552844611 	
H	 17.370527200572 	  4.934550289488 	 13.376109564611 	
H	 17.939040230572 	 11.118109239488 	  3.245550014611 	
H	 17.370496100572 	 11.118112049488 	 13.376106734611 	
C	  3.355669311798 	  2.425681528474 	  7.383083781043 	
C	  2.787125181798 	  2.425684338474 	 17.513640501043 	
C	  3.355638211798 	  8.609243288474 	  7.383080951043 	
C	  2.787094081798 	  8.609246098474 	 17.513637671043 	
C	 18.036496611798 	  2.425690758474 	  7.411213711043 	
C	 17.467952481798 	  2.425693568474 	 17.541770431043 	
C	 18.036465511798 	  8.609252518474 	  7.411210881043 	
C	 17.467921381798 	  8.609255328474 	 17.541767601043 	
C	 10.433752399642 	  5.510291605699 	  7.913864643577 	
C	  9.865208269642 	  5.510294415699 	 18.044421363577 	
C	 10.433721299642 	 11.693853365699 	  7.913861813577 	
C	  9.865177169642 	 11.693856175699 	 18.044418533577 	
C	 25.114579699642 	  5.510300835699 	  7.941994573577 	
C	 24.546035569642 	  5.510303645699 	 18.072551293577 	
C	 25.114548599642 	 11.693862595699 	  7.941991743577 	
C	 24.546004469642 	 11.693865405699 	 18.072548463577 	
C	 10.712570004786 	  3.750876615600 	  2.827456019536 	
C	 10.144025874786 	  3.750879425600 	 12.958012739536 	
C	 10.712538904786 	  9.934438375600 	  2.827453189536 	
C	 10.143994774786 	  9.934441185600 	 12.958009909536 	
C	 25.393397304786 	  3.750885845600 	  2.855585949536 	
C	 24.824853174786 	  3.750888655600 	 12.986142669536 	
C	 25.393366204786 	  9.934447605600 	  2.855583119536 	
C	 24.824822074786 	  9.934450415600 	 12.986139839536 	
C	  3.634487489979 	  0.666267092227 	  2.296675245871 	
C	  3.065943359979 	  0.666269902227 	 12.427231965871 	
C	  3.634456389979 	  6.849828852227 	  2.296672415871 	
C	  3.065912259979 	  6.849831662227 	 12.427229135871 	
C	 18.315314789979 	  0.666276322227 	  2.324805175871 	
C	 17.746770659979 	  0.666279132227 	 12.455361895871 	
C	 18.315283689979 	  6.849838082227 	  2.324802345871 	
C	 17.746739559979 	  6.849840892227 	 12.455359065871 	
C	  4.260461808920 	  1.398556127352 	  7.310998186887 	
C	  3.691917678920 	  1.398558937352 	 17.441554906887 	
C	  4.260430708920 	  7.582117887352 	  7.310995356887 	
C	  3.691886578920 	  7.582120697352 	 17.441552076887 	
C	 18.941289108920 	  1.398565357352 	  7.339128116887 	
C	 18.372744978920 	  1.398568167352 	 17.469684836887 	
C	 18.941258008920 	  7.582127117352 	  7.339125286887 	
C	 18.372713878920 	  7.582129927352 	 17.469682006887 	
C	  9.528939798181 	  4.487771886373 	  7.985982796865 	
C	  8.960395668181 	  4.487774696373 	 18.116539516865 	
C	  9.528908698181 	 10.671333646373 	  7.985979966865 	
C	  8.960364568181 	 10.671336456373 	 18.116536686865 	
C	 24.209767098181 	  4.487781116373 	  8.014112726865 	
C	 23.641222968181 	  4.487783926373 	 18.144669446865 	
C	 24.209735998181 	 10.671342876373 	  8.014109896865 	
C	 23.641191868181 	 10.671345686373 	 18.144666616865 	
C	  9.807777399108 	  4.778001971468 	  2.899541710928 	
C	  9.239233269108 	  4.778004781468 	 13.030098430928 	
C	  9.807746299108 	 10.961563731468 	  2.899538880928 	
C	  9.239202169108 	 10.961566541468 	 13.030095600928 	
C	 24.488604699108 	  4.778011201468 	  2.927671640928 	
C	 23.920060569108 	  4.778014011468 	 13.058228360928 	
C	 24.488573599108 	 10.961572961468 	  2.927668810928 	
C	 23.920029469108 	 10.961575771468 	 13.058225530928 	
C	  4.539299919310 	  1.688786765202 	  2.224557059375 	
C	  3.970755789310 	  1.688789575202 	 12.355113779375 	
C	  4.539268819310 	  7.872348525202 	  2.224554229375 	
C	  3.970724689310 	  7.872351335202 	 12.355110949375 	
C	 19.220127219310 	  1.688795995202 	  2.252686989375 	
C	 18.651583089310 	  1.688798805202 	 12.383243709375 	
C	 19.220096119310 	  7.872357755202 	  2.252684159375 	
C	 18.651551989310 	  7.872360565202 	 12.383240879375 	
H	  4.035744799066 	  0.537845647594 	  6.580354623045 	
H	  3.467200669066 	  0.537848457594 	 16.710911343045 	
H	  4.035713699066 	  6.721407407594 	  6.580351793045 	
H	  3.467169569066 	  6.721410217594 	 16.710908513045 	
H	 18.716572099066 	  0.537854877594 	  6.608484553045 	
H	 18.148027969066 	  0.537857687594 	 16.739041273045 	
H	 18.716540999066 	  6.721416637594 	  6.608481723045 	
H	 18.147996869066 	  6.721419447594 	 16.739038443045 	
H	  9.753291771300 	  3.626571084717 	  8.717216677466 	
H	  9.184747641300 	  3.626573894717 	 18.847773397466 	
H	  9.753260671300 	  9.810132844717 	  8.717213847466 	
H	  9.184716541300 	  9.810135654717 	 18.847770567466 	
H	 24.434119071300 	  3.626580314717 	  8.745346607466 	
H	 23.865574941300 	  3.626583124717 	 18.875903327466 	
H	 24.434087971300 	  9.810142074717 	  8.745343777466 	
H	 23.865543841300 	  9.810144884717 	 18.875900497466 	
H	 10.032494399674 	  5.638712405079 	  3.630185315641 	
H	  9.463950269674 	  5.638715215079 	 13.760742035641 	
H	 10.032463299674 	 11.822274165079 	  3.630182485641 	
H	  9.463919169674 	 11.822276975079 	 13.760739205641 	
H	 24.713321699674 	  5.638721635079 	  3.658315245641 	
H	 24.144777569674 	  5.638724445079 	 13.788871965641 	
H	 24.713290599674 	 11.822283395079 	  3.658312415641 	
H	 24.144746469674 	 11.822286205079 	 13.788869135641 	
H	  4.314947942346 	  2.549987593490 	  1.493323207777 	
H	  3.746403812346 	  2.549990403490 	 11.623879927777 	
H	  4.314916842346 	  8.733549353490 	  1.493320377777 	
H	  3.746372712346 	  8.733552163490 	 11.623877097777 	
H	 18.995775242346 	  2.549996823490 	  1.521453137777 	
H	 18.427231112346 	  2.549999633490 	 11.652009857777 	
H	 18.995744142346 	  8.733558583490 	  1.521450307777 	
H	 18.427200012346 	  8.733561393490 	 11.652007027777 	
C	  5.344688182802 	  1.348943597354 	  8.014182371617 	
C	  4.776144052802 	  1.348946407354 	 18.144739091617 	
C	  5.344657082802 	  7.532505357354 	  8.014179541617 	
C	  4.776112952802 	  7.532508167354 	 18.144736261617 	
C	 20.025515482802 	  1.348952827354 	  8.042312301617 	
C	 19.456971352802 	  1.348955637354 	 18.172869021617 	
C	 20.025484382802 	  7.532514587354 	  8.042309471617 	
C	 19.456940252802 	  7.532517397354 	 18.172866191617 	
C	  8.444953485923 	  4.438048206009 	  7.283062585445 	
C	  7.876409355923 	  4.438051016009 	 17.413619305445 	
C	  8.444922385923 	 10.621609966009 	  7.283059755445 	
C	  7.876378255923 	 10.621612776009 	 17.413616475445 	
C	 23.125780785923 	  4.438057436009 	  7.311192515445 	
C	 22.557236655923 	  4.438060246009 	 17.441749235445 	
C	 23.125749685923 	 10.621619196009 	  7.311189685445 	
C	 22.557205555923 	 10.621622006009 	 17.441746405445 	
C	  8.723551137037 	  4.827614479619 	  2.196357344997 	
C	  8.155007007037 	  4.827617289619 	 12.326914064997 	
C	  8.723520037037 	 11.011176239619 	  2.196354514997 	
C	  8.154975907037 	 11.011179049619 	 12.326911234997 	
C	 23.404378437037 	  4.827623709619 	  2.224487274997 	
C	 22.835834307037 	  4.827626519619 	 12.355043994997 	
C	 23.404347337037 	 11.011185469619 	  2.224484444997 	
C	 22.835803207037 	 11.011188279619 	 12.355041164997 	
C	  5.623286331198 	  1.738510576643 	  2.927477347076 	
C	  5.054742201198 	  1.738513386643 	 13.058034067076 	
C	  5.623255231198 	  7.922072336643 	  2.927474517076 	
C	  5.054711101198 	  7.922075146643 	 13.058031237076 	
C	 20.304113631198 	  1.738519806643 	  2.955607277076 	
C	 19.735569501198 	  1.738522616643 	 13.086163997076 	
C	 20.304082531198 	  7.922081566643 	  2.955604447076 	
C	 19.735538401198 	  7.922084376643 	 13.086161167076 	
H	  6.065931618983 	  0.456849965761 	  7.916164878289 	
H	  5.497387488983 	  0.456852775761 	 18.046721598289 	
H	  6.065900518983 	  6.640411725761 	  7.916162048289 	
H	  5.497356388983 	  6.640414535761 	 18.046718768289 	
H	 20.746758918983 	  0.456859195761 	  7.944294808289 	
H	 20.178214788983 	  0.456862005761 	 18.074851528289 	
H	 20.746727818983 	  6.640420955761 	  7.944291978289 	
H	 20.178183688983 	  6.640423765761 	 18.074848698289 	
H	  7.723357976612 	  3.545321595889 	  7.381515963710 	
H	  7.154813846612 	  3.545324405889 	 17.512072683710 	
H	  7.723326876612 	  9.728883355889 	  7.381513133710 	
H	  7.154782746612 	  9.728886165889 	 17.512069853710 	
H	 22.404185276612 	  3.545330825889 	  7.409645893710 	
H	 21.835641146612 	  3.545333635889 	 17.540202613710 	
H	 22.404154176612 	  9.728892585889 	  7.409643063710 	
H	 21.835610046612 	  9.728895395889 	 17.540199783710 	
H	  8.002307601530 	  5.719708007367 	  2.294374891905 	
H	  7.433763471530 	  5.719710817367 	 12.424931611905 	
H	  8.002276501530 	 11.903269767367 	  2.294372061905 	
H	  7.433732371530 	 11.903272577367 	 12.424928781905 	
H	 22.683134901530 	  5.719717237367 	  2.322504821905 	
H	 22.114590771530 	  5.719720047367 	 12.453061541905 	
H	 22.683103801530 	 11.903278997367 	  2.322501991905 	
H	 22.114559671530 	 11.903281807367 	 12.453058711905 	
H	  6.344881786452 	  2.631237213279 	  2.829023939904 	
H	  5.776337656452 	  2.631240023279 	 12.959580659904 	
H	  6.344850686452 	  8.814798973279 	  2.829021109904 	
H	  5.776306556452 	  8.814801783279 	 12.959577829904 	
H	 21.025709086452 	  2.631246443279 	  2.857153869904 	
H	 20.457164956452 	  2.631249253279 	 12.987710589904 	
H	 21.025677986452 	  8.814808203279 	  2.857151039904 	
H	 20.457133856452 	  8.814811013279 	 12.987707759904 	
C	  2.001386295559 	  2.454473684675 	  6.492056116609 	
C	  1.432842165559 	  2.454476494675 	 16.622612836609 	
C	  2.001355195559 	  8.638035444675 	  6.492053286609 	
C	  1.432811065559 	  8.638038254675 	 16.622610006609 	
C	 16.682213595559 	  2.454482914675 	  6.520186046609 	
C	 16.113669465559 	  2.454485724675 	 16.650742766609 	
C	 16.682182495559 	  8.638044674675 	  6.520183216609 	
C	 16.113638365559 	  8.638047484675 	 16.650739936609 	
C	 11.793712180448 	  5.540893905240 	  8.810375675804 	
C	 11.225168050448 	  5.540896715240 	 18.940932395804 	
C	 11.793681080448 	 11.724455665240 	  8.810372845804 	
C	 11.225136950448 	 11.724458475240 	 18.940929565804 	
C	 26.474539480448 	  5.540903135240 	  8.838505605804 	
C	 25.905995350448 	  5.540905945240 	 18.969062325804 	
C	 26.474508380448 	 11.724464895240 	  8.838502775804 	
C	 25.905964250448 	 11.724467705240 	 18.969059495804 	
C	 12.066852928491 	  3.722084603152 	  3.718483742120 	
C	 11.498308798491 	  3.722087413152 	 13.849040462120 	
C	 12.066821828491 	  9.905646363152 	  3.718480912120 	
C	 11.498277698491 	  9.905649173152 	 13.849037632120 	
C	 26.747680228491 	  3.722093833152 	  3.746613672120 	
C	 26.179136098491 	  3.722096643152 	 13.877170392120 	
C	 26.747649128491 	  9.905655593152 	  3.746610842120 	
C	 26.179104998491 	  9.905658403152 	 13.877167562120 	
C	  2.274527805537 	  0.635664651533 	  1.400164164271 	
C	  1.705983675537 	  0.635667461533 	 11.530720884271 	
C	  2.274496705537 	  6.819226411533 	  1.400161334271 	
C	  1.705952575537 	  6.819229221533 	 11.530718054271 	
C	 16.955355105537 	  0.635673881533 	  1.428294094271 	
C	 16.386810975537 	  0.635676691533 	 11.558850814271 	
C	 16.955324005537 	  6.819235641533 	  1.428291264271 	
C	 16.386779875537 	  6.819238451533 	 11.558847984271 	
C	  2.260541142785 	  3.063139451625 	  5.315425972084 	
C	  1.691997012785 	  3.063142261625 	 15.445982692084 	
C	  2.260510042785 	  9.246701211625 	  5.315423142084 	
C	  1.691965912785 	  9.246704021625 	 15.445979862084 	
C	 16.941368442785 	  3.063148681625 	  5.343555902084 	
C	 16.372824312785 	  3.063151491625 	 15.474112622084 	
C	 16.941337342785 	  9.246710441625 	  5.343553072084 	
C	 16.372793212785 	  9.246713251625 	 15.474109792084 	
C	 11.527811706883 	 -0.020737994120 	  9.908180283301 	
C	 10.959267576883 	 -0.020735184120 	 20.038737003301 	
C	 11.527780606883 	  6.162823765880 	  9.908177453301 	
C	 10.959236476883 	  6.162826575880 	 20.038734173301 	
C	 26.208639006883 	 -0.020728764120 	  9.936310213301 	
C	 25.640094876883 	 -0.020725954120 	 20.066866933301 	
C	 26.208607906883 	  6.162832995880 	  9.936307383301 	
C	 25.640063776883 	  6.162835805880 	 20.066864103301 	
C	 11.807697776759 	  3.113419107221 	  4.895114398602 	
C	 11.239153646759 	  3.113421917221 	 15.025671118602 	
C	 11.807666676759 	  9.296980867221 	  4.895111568602 	
C	 11.239122546759 	  9.296983677221 	 15.025668288602 	
C	 26.488525076759 	  3.113428337221 	  4.923244328602 	
C	 25.919980946759 	  3.113431147221 	 15.053801048602 	
C	 26.488493976759 	  9.296990097221 	  4.923241498602 	
C	 25.919949846759 	  9.296992907221 	 15.053798218602 	
C	  2.540428308343 	  6.197296837107 	  0.302359455573 	
C	  1.971884178343 	  6.197299647107 	 10.432916175573 	
C	  2.540397208343 	 12.380858597107 	  0.302356625573 	
C	  1.971853078343 	 12.380861407107 	 10.432913345573 	
C	 17.221255608343 	  6.197306067107 	  0.330489385573 	
C	 16.652711478343 	  6.197308877107 	 10.461046105573 	
C	 17.221224508343 	 12.380867827107 	  0.330486555573 	
C	 16.652680378343 	 12.380870637107 	 10.461043275573 	
H	  2.664976804434 	  4.128437695746 	  5.381429429794 	
H	  2.096432674434 	  4.128440505746 	 15.511986149794 	
H	  2.664945704434 	 10.311999455746 	  5.381426599794 	
H	  2.096401574434 	 10.312002265746 	 15.511983319794 	
H	 17.345804104434 	  4.128446925746 	  5.409559359794 	
H	 16.777259974434 	  4.128449735746 	 15.540116079794 	
H	 17.345773004434 	 10.312008685746 	  5.409556529794 	
H	 16.777228874434 	 10.312011495746 	 15.540113249794 	
H	 11.120845479392 	  1.033491592076 	  9.919011820062 	
H	 10.552301349392 	  1.033494402076 	 20.049568540062 	
H	 11.120814379392 	  7.217053352076 	  9.919008990062 	
H	 10.552270249392 	  7.217056162076 	 20.049565710062 	
H	 25.801672779392 	  1.033500822076 	  9.947141750062 	
H	 25.233128649392 	  1.033503632076 	 20.077698470062 	
H	 25.801641679392 	  7.217062582076 	  9.947138920062 	
H	 25.233097549392 	  7.217065392076 	 20.077695640062 	
H	 11.403262331366 	  2.048120839884 	  4.829111192165 	
H	 10.834718201366 	  2.048123649884 	 14.959667912165 	
H	 11.403231231366 	  8.231682599884 	  4.829108362165 	
H	 10.834687101366 	  8.231685409884 	 14.959665082165 	
H	 26.084089631366 	  2.048130069884 	  4.857241122165 	
H	 25.515545501366 	  2.048132879884 	 14.987797842165 	
H	 26.084058531366 	  8.231691829884 	  4.857238292165 	
H	 25.515514401366 	  8.231694639884 	 14.987795012165 	
H	  2.947394592877 	  5.143067268622 	  0.291527709587 	
H	  2.378850462877 	  5.143070078622 	 10.422084429587 	
H	  2.947363492877 	 11.326629028622 	  0.291524879587 	
H	  2.378819362877 	 11.326631838622 	 10.422081599587 	
H	 17.628221892877 	  5.143076498622 	  0.319657639587 	
H	 17.059677762877 	  5.143079308622 	 10.450214359587 	
H	 17.628190792877 	 11.326638258622 	  0.319654809587 	
H	 17.059646662877 	 11.326641068622 	 10.450211529587 	
H	  1.410002633184 	  3.170664655314 	  4.580806414757 	
H	  0.841458503184 	  3.170667465314 	 14.711363134757 	
H	  1.409971533184 	  9.354226415314 	  4.580803584757 	
H	  0.841427403184 	  9.354229225314 	 14.711360304757 	
H	 16.090829933184 	  3.170673885314 	  4.608936344757 	
H	 15.522285803184 	  3.170676695314 	 14.739493064757 	
H	 16.090798833184 	  9.354235645314 	  4.608933514757 	
H	 15.522254703184 	  9.354238455314 	 14.739490234757 	
H	 12.982409100307 	  0.088669891621 	  0.577543275109 	
H	 12.413864970307 	  0.088672701621 	 10.708099995109 	
H	 12.982378000307 	  6.272231651621 	  0.577540445109 	
H	 12.413833870307 	  6.272234461621 	 10.708097165109 	
H	 27.663236400307 	  0.088679121621 	  0.605673205109 	
H	 27.094692270307 	  0.088681931621 	 10.736229925109 	
H	 27.663205300307 	  6.272240881621 	  0.605670375109 	
H	 27.094661170307 	  6.272243691621 	 10.736227095109 	
H	 12.658236271361 	  3.005894333656 	  5.629734011157 	
H	 12.089692141361 	  3.005897143656 	 15.760290731157 	
H	 12.658205171361 	  9.189456093656 	  5.629731181157 	
H	 12.089661041361 	  9.189458903656 	 15.760287901157 	
H	 27.339063571361 	  3.005903563656 	  5.657863941157 	
H	 26.770519441361 	  3.005906373656 	 15.788420661157 	
H	 27.339032471361 	  9.189465323656 	  5.657861111157 	
H	 26.770488341361 	  9.189468133656 	 15.788417831157 	
H	  1.085831011981 	  6.087888967163 	  9.632996354517 	
H	  0.517286881981 	  6.087891777163 	 19.763553074517 	
H	  1.085799911981 	 12.271450727163 	  9.632993524517 	
H	  0.517255781981 	 12.271453537163 	 19.763550244517 	
H	 15.766658311981 	  6.087898197163 	  9.661126284517 	
H	 15.198114181981 	  6.087901007163 	 19.791683004517 	
H	 15.766627211981 	 12.271459957163 	  9.661123454517 	
H	 15.198083081981 	 12.271462767163 	 19.791680174517 	
H	  3.075712283776 	  2.593357459210 	  4.668405885329 	
H	  2.507168153776 	  2.593360269210 	 14.798962605329 	
H	  3.075681183776 	  8.776919219210 	  4.668403055329 	
H	  2.507137053776 	  8.776922029210 	 14.798959775329 	
H	 17.756539583776 	  2.593366689210 	  4.696535815329 	
H	 17.187995453776 	  2.593369499210 	 14.827092535329 	
H	 17.756508483776 	  8.776928449210 	  4.696532985329 	
H	 17.187964353776 	  8.776931259210 	 14.827089705329 	
H	 11.235212851279 	  5.675398678768 	  0.479156447337 	
H	 10.666668721279 	  5.675401488768 	 10.609713167337 	
H	 11.235181751279 	 11.858960438768 	  0.479153617337 	
H	 10.666637621279 	 11.858963248768 	 10.609710337337 	
H	 25.916040151279 	  5.675407908768 	  0.507286377337 	
H	 25.347496021279 	  5.675410718768 	 10.637843097337 	
H	 25.916009051279 	 11.858969668768 	  0.507283547337 	
H	 25.347464921279 	 11.858972478768 	 10.637840267337 	
H	 10.992526584659 	  3.583201348327 	  5.542134108554 	
H	 10.423982454659 	  3.583204158327 	 15.672690828554 	
H	 10.992495484659 	  9.766763108327 	  5.542131278554 	
H	 10.423951354659 	  9.766765918327 	 15.672687998554 	
H	 25.673353884659 	  3.583210578327 	  5.570264038554 	
H	 25.104809754659 	  3.583213388327 	 15.700820758554 	
H	 25.673322784659 	  9.766772338327 	  5.570261208554 	
H	 25.104778654659 	  9.766775148327 	 15.700817928554 	
H	  2.833027225240 	  0.501160294605 	  9.731383430050 	
H	  2.264483095240 	  0.501163104605 	 19.861940150050 	
H	  2.832996125240 	  6.684722054605 	  9.731380600050 	
H	  2.264451995240 	  6.684724864605 	 19.861937320050 	
H	 17.513854525240 	  0.501169524605 	  9.759513360050 	
H	 16.945310395240 	  0.501172334605 	 19.890070080050 	
H	 17.513823425240 	  6.684731284605 	  9.759510530050 	
H	 16.945279295240 	  6.684734094605 	 19.890067250050 	
C	  1.028570386570 	  3.130514589407 	  7.128220355203 	
C	  0.460026256570 	  3.130517399407 	 17.258777075203 	
C	  1.028539286570 	  9.314076349407 	  7.128217525203 	
C	  0.459995156570 	  9.314079159407 	 17.258774245203 	
C	 15.709397686570 	  3.130523819407 	  7.156350285203 	
C	 15.140853556570 	  3.130526629407 	 17.286907005203 	
C	 15.709366586570 	  9.314085579407 	  7.156347455203 	
C	 15.140822456570 	  9.314088389407 	 17.286904175203 	
C	 12.758194771430 	  0.049106537353 	  8.199214092109 	
C	 12.189650641430 	  0.049109347353 	 18.329770812109 	
C	 12.758163671430 	  6.232668297353 	  8.199211262109 	
C	 12.189619541430 	  6.232671107353 	 18.329767982109 	
C	 27.439022071430 	  0.049115767353 	  8.227344022109 	
C	 26.870477941430 	  0.049118577353 	 18.357900742109 	
C	 27.438990971430 	  6.232677527353 	  8.227341192109 	
C	 26.870446841430 	  6.232680337353 	 18.357897912109 	
C	 13.039669047642 	  3.046043292197 	  3.082319665173 	
C	 12.471124917642 	  3.046046102197 	 13.212876385173 	
C	 13.039637947642 	  9.229605052197 	  3.082316835173 	
C	 12.471093817642 	  9.229607862197 	 13.212873555173 	
C	 27.720496347642 	  3.046052522197 	  3.110449595173 	
C	 27.151952217642 	  3.046055332197 	 13.241006315173 	
C	 27.720465247642 	  9.229614282197 	  3.110446765173 	
C	 27.151921117642 	  9.229617092197 	 13.241003485173 	
C	  1.310045171883 	  6.127451768738 	  2.011325569137 	
C	  0.741501041883 	  6.127454578738 	 12.141882289137 	
C	  1.310014071883 	 12.311013528738 	  2.011322739137 	
C	  0.741469941883 	 12.311016338738 	 12.141879459137 	
C	 15.990872471883 	  6.127460998738 	  2.039455499137 	
C	 15.422328341883 	  6.127463808738 	 12.170012219137 	
C	 15.990841371883 	 12.311022758738 	  2.039452669137 	
C	 15.422297241883 	 12.311025568738 	 12.170009389137 	
H	  1.210273137351 	  4.232182590794 	  7.365542760361 	
H	  0.641729007351 	  4.232185400794 	 17.496099480361 	
H	  1.210242037351 	 10.415744350794 	  7.365539930361 	
H	  0.641697907351 	 10.415747160794 	 17.496096650361 	
H	 15.891100437351 	  4.232191820794 	  7.393672690361 	
H	 15.322556307351 	  4.232194630794 	 17.524229410361 	
H	 15.891069337351 	 10.415753580794 	  7.393669860361 	
H	 15.322525207351 	 10.415756390794 	 17.524226580361 	
H	 12.584131254241 	  1.136088166987 	  7.930476986830 	
H	 12.015587124241 	  1.136090976987 	 18.061033706830 	
H	 12.584100154241 	  7.319649926987 	  7.930474156830 	
H	 12.015556024241 	  7.319652736987 	 18.061030876830 	
H	 27.264958554241 	  1.136097396987 	  7.958606916830 	
H	 26.696414424241 	  1.136100206987 	 18.089163636830 	
H	 27.264927454241 	  7.319659156987 	  7.958604086830 	
H	 26.696383324241 	  7.319661966987 	 18.089160806830 	
H	 12.857966168884 	  1.944375313715 	  2.844997544603 	
H	 12.289422038884 	  1.944378123715 	 12.975554264603 	
H	 12.857935068884 	  8.127937073715 	  2.844994714603 	
H	 12.289390938884 	  8.127939883715 	 12.975551434603 	
H	 27.538793468884 	  1.944384543715 	  2.873127474603 	
H	 26.970249338884 	  1.944387353715 	 13.003684194603 	
H	 27.538762368884 	  8.127946303715 	  2.873124644603 	
H	 26.970218238884 	  8.127949113715 	 13.003681364603 	
H	  1.484108883824 	  5.040470084931 	  2.280062354248 	
H	  0.915564753824 	  5.040472894931 	 12.410619074248 	
H	  1.484077783824 	 11.224031844931 	  2.280059524248 	
H	  0.915533653824 	 11.224034654931 	 12.410616244248 	
H	 16.164936183824 	  5.040479314931 	  2.308192284248 	
H	 15.596392053824 	  5.040482124931 	 12.438749004248 	
H	 16.164905083824 	 11.224041074931 	  2.308189454248 	
H	 15.596360953824 	 11.224043884931 	 12.438746174248 	
H	  0.735885266081 	  2.770659471079 	  8.168171893681 	
H	  0.167341136081 	  2.770662281079 	 18.298728613681 	
H	  0.735854166081 	  8.954221231079 	  8.168169063681 	
H	  0.167310036081 	  8.954224041079 	 18.298725783681 	
H	 15.416712566081 	  2.770668701079 	  8.196301823681 	
H	 14.848168436081 	  2.770671511079 	 18.326858543681 	
H	 15.416681466081 	  8.954230461079 	  8.196298993681 	
H	 14.848137336081 	  8.954233271079 	 18.326855713681 	
H	 13.055169363008 	  5.859889346802 	  7.116702476578 	
H	 12.486625233008 	  5.859892156802 	 17.247259196578 	
H	 13.055138263008 	 12.043451106802 	  7.116699646578 	
H	 12.486594133008 	 12.043453916802 	 17.247256366578 	
H	 27.735996663008 	  5.859898576802 	  7.144832406578 	
H	 27.167452533008 	  5.859901386802 	 17.275389126578 	
H	 27.735965563008 	 12.043460336802 	  7.144829576578 	
H	 27.167421433008 	 12.043463146802 	 17.275386296578 	
H	 13.332354487375 	  3.405898292816 	  2.042368231809 	
H	 12.763810357375 	  3.405901102816 	 12.172924951809 	
H	 13.332323387375 	  9.589460052816 	  2.042365401809 	
H	 12.763779257375 	  9.589462862816 	 12.172922121809 	
H	 28.013181787375 	  3.405907522816 	  2.070498161809 	
H	 27.444637657375 	  3.405910332816 	 12.201054881809 	
H	 28.013150687375 	  9.589469282816 	  2.070495331809 	
H	 27.444606557375 	  9.589472092816 	 12.201052051809 	
H	  1.013070560993 	  0.316668648933 	  3.093837207525 	
H	  0.444526430993 	  0.316671458933 	 13.224393927525 	
H	  1.013039460993 	  6.500230408933 	  3.093834377525 	
H	  0.444495330993 	  6.500233218933 	 13.224391097525 	
H	 15.693897860993 	  0.316677878933 	  3.121967137525 	
H	 15.125353730993 	  0.316680688933 	 13.252523857525 	
H	 15.693866760993 	  6.500239638933 	  3.121964307525 	
H	 15.125322630993 	  6.500242448933 	 13.252521027525 	
H	  0.037793938859 	  3.168712502104 	  6.588289060203 	
H	 -0.530750191141 	  3.168715312104 	 16.718845780203 	
H	  0.037762838859 	  9.352274262104 	  6.588286230203 	
H	 -0.530781291141 	  9.352277072104 	 16.718842950203 	
H	 14.718621238859 	  3.168721732104 	  6.616418990203 	
H	 14.150077108859 	  3.168724542104 	 16.746975710203 	
H	 14.718590138859 	  9.352283492104 	  6.616416160203 	
H	 14.150046008859 	  9.352286302104 	 16.746972880203 	
H	 13.736920312890 	  6.254861685908 	  8.701545238321 	
H	 13.168376182890 	  6.254864495908 	 18.832101958321 	
H	 13.736889212890 	 12.438423445908 	  8.701542408321 	
H	 13.168345082890 	 12.438426255908 	 18.832099128321 	
H	 28.417747612890 	  6.254870915908 	  8.729675168321 	
H	 27.849203482890 	  6.254873725908 	 18.860231888321 	
H	 28.417716512890 	 12.438432675908 	  8.729672338321 	
H	 27.849172382890 	 12.438435485908 	 18.860229058321 	
H	 14.030445284502 	  3.007845478818 	  3.622251328873 	
H	 13.461901154502 	  3.007848288818 	 13.752808048873 	
H	 14.030414184502 	  9.191407238818 	  3.622248498873 	
H	 13.461870054502 	  9.191410048818 	 13.752805218873 	
H	 28.711272584502 	  3.007854708818 	  3.650381258873 	
H	 28.142728454502 	  3.007857518818 	 13.780937978873 	
H	 28.711241484502 	  9.191416468818 	  3.650378428873 	
H	 28.142697354502 	  9.191419278818 	 13.780935148873 	
H	  0.331319667742 	 -0.078303473941 	  1.508994381022 	
H	 -0.237224462258 	 -0.078300663941 	 11.639551101022 	
H	  0.331288567742 	  6.105258286059 	  1.508991551022 	
H	 -0.237255562258 	  6.105261096059 	 11.639548271022 	
H	 15.012146967742 	 -0.078294243941 	  1.537124311022 	
H	 14.443602837742 	 -0.078291433941 	 11.667681031022 	
H	 15.012115867742 	  6.105267516059 	  1.537121481022 	
H	 14.443571737742 	  6.105270326059 	 11.667678201022 	
C	  1.551907930019 	  1.214391921034 	  6.247198777311 	
C	  0.983363800019 	  1.214394731034 	 16.377755497311 	
C	  1.551876830019 	  7.397953681034 	  6.247195947311 	
C	  0.983332700019 	  7.397956491034 	 16.377752667311 	
C	 16.232735230019 	  1.214401151034 	  6.275328707311 	
C	 15.664191100019 	  1.214403961034 	 16.405885427311 	
C	 16.232704130019 	  7.397962911034 	  6.275325877311 	
C	 15.664160000019 	  7.397965721034 	 16.405882597311 	
C	 12.236859021861 	  4.305899898619 	  9.050721752976 	
C	 11.668314891861 	  4.305902708619 	 19.181278472976 	
C	 12.236827921861 	 10.489461658619 	  9.050718922976 	
C	 11.668283791861 	 10.489464468619 	 19.181275642976 	
C	 26.917686321861 	  4.305909128619 	  9.078851682976 	
C	 26.349142191861 	  4.305911938619 	 19.209408402976 	
C	 26.917655221861 	 10.489470888619 	  9.078848852976 	
C	 26.349111091861 	 10.489473698619 	 19.209405572976 	
C	 12.516331416534 	  4.962166974134 	  3.963340730243 	
C	 11.947787286534 	  4.962169784134 	 14.093897450243 	
C	 12.516300316534 	 11.145728734134 	  3.963337900243 	
C	 11.947756186534 	 11.145731544134 	 14.093894620243 	
C	 27.197158716534 	  4.962176204134 	  3.991470660243 	
C	 26.628614586534 	  4.962179014134 	 14.122027380243 	
C	 27.197127616534 	 11.145737964134 	  3.991467830243 	
C	 26.628583486534 	 11.145740774134 	 14.122024550243 	
C	  1.831380668067 	  1.870658620491 	  1.159818282573 	
C	  1.262836538067 	  1.870661430491 	 11.290375002573 	
C	  1.831349568067 	  8.054220380491 	  1.159815452573 	
C	  1.262805438067 	  8.054223190491 	 11.290372172573 	
C	 16.512207968067 	  1.870667850491 	  1.187948212573 	
C	 15.943663838067 	  1.870670660491 	 11.318504932573 	
C	 16.512176868067 	  8.054229610491 	  1.187945382573 	
C	 15.943632738067 	  8.054232420491 	 11.318502102573 	
H	  0.561468361587 	  1.132421146353 	  5.713331601524 	
H	 -0.007075768413 	  1.132423956353 	 15.843888321524 	
H	  0.561437261587 	  7.315982906353 	  5.713328771524 	
H	 -0.007106868413 	  7.315985716353 	 15.843885491524 	
H	 15.242295661587 	  1.132430376353 	  5.741461531524 	
H	 14.673751531587 	  1.132433186353 	 15.872018251524 	
H	 15.242264561587 	  7.315992136353 	  5.741458701524 	
H	 14.673720431587 	  7.315994946353 	 15.872015421524 	
H	 13.226985154007 	  4.221906850323 	  9.584606206011 	
H	 12.658441024007 	  4.221909660323 	 19.715162926011 	
H	 13.226954054007 	 10.405468610323 	  9.584603376011 	
H	 12.658409924007 	 10.405471420323 	 19.715160096011 	
H	 27.907812454007 	  4.221916080323 	  9.612736136011 	
H	 27.339268324007 	  4.221918890323 	 19.743292856011 	
H	 27.907781354007 	 10.405477840323 	  9.612733306011 	
H	 27.339237224007 	 10.405480650323 	 19.743290026011 	
H	 13.506770938571 	  5.044137499299 	  4.497207992983 	
H	 12.938226808571 	  5.044140309299 	 14.627764712983 	
H	 13.506739838571 	 11.227699259299 	  4.497205162983 	
H	 12.938195708571 	 11.227702069299 	 14.627761882983 	
H	 28.187598238571 	  5.044146729299 	  4.525337922983 	
H	 27.619054108571 	  5.044149539299 	 14.655894642983 	
H	 28.187567138571 	 11.227708489299 	  4.525335092983 	
H	 27.619023008571 	 11.227711299299 	 14.655891812983 	
H	  0.841254552004 	  1.954651616018 	  0.625933803742 	
H	  0.272710422004 	  1.954654426018 	 10.756490523742 	
H	  0.841223452004 	  8.138213376018 	  0.625930973742 	
H	  0.272679322004 	  8.138216186018 	 10.756487693742 	
H	 15.522081852004 	  1.954660846018 	  0.654063733742 	
H	 14.953537722004 	  1.954663656018 	 10.784620453742 	
H	 15.522050752004 	  8.138222606018 	  0.654060903742 	
H	 14.953506622004 	  8.138225416018 	 10.784617623742 	
H	  1.397062109724 	  0.533829700981 	  7.151154513308 	
H	  0.828517979724 	  0.533832510981 	 17.281711233308 	
H	  1.397031009724 	  6.717391460981 	  7.151151683308 	
H	  0.828486879724 	  6.717394270981 	 17.281708403308 	
H	 16.077889409724 	  0.533838930981 	  7.179284443308 	
H	 15.509345279724 	  0.533841740981 	 17.309841163308 	
H	 16.077858309724 	  6.717400690981 	  7.179281613308 	
H	 15.509314179724 	  6.717403500981 	 17.309838333308 	
H	 12.392061150928 	  3.623467806365 	  8.147031706473 	
H	 11.823517020928 	  3.623470616365 	 18.277588426473 	
H	 12.392030050928 	  9.807029566365 	  8.147028876473 	
H	 11.823485920928 	  9.807032376365 	 18.277585596473 	
H	 27.072888450928 	  3.623477036365 	  8.175161636473 	
H	 26.504344320928 	  3.623479846365 	 18.305718356473 	
H	 27.072857350928 	  9.807038796365 	  8.175158806473 	
H	 26.504313220928 	  9.807041606365 	 18.305715526473 	
H	 12.671177345849 	  5.642728650248 	  3.059384683661 	
H	 12.102633215849 	  5.642731460248 	 13.189941403661 	
H	 12.671146245849 	 11.826290410248 	  3.059381853661 	
H	 12.102602115849 	 11.826293220248 	 13.189938573661 	
H	 27.352004645849 	  5.642737880248 	  3.087514613661 	
H	 26.783460515849 	  5.642740690248 	 13.218071333661 	
H	 27.351973545849 	 11.826299640248 	  3.087511783661 	
H	 26.783429415849 	 11.826302450248 	 13.218068503661 	
H	  1.676178428578 	  2.553090526539 	  2.063508454924 	
H	  1.107634298578 	  2.553093336539 	 12.194065174924 	
H	  1.676147328578 	  8.736652286539 	  2.063505624924 	
H	  1.107603198578 	  8.736655096539 	 12.194062344924 	
H	 16.357005728578 	  2.553099756539 	  2.091638384924 	
H	 15.788461598578 	  2.553102566539 	 12.222195104924 	
H	 16.356974628578 	  8.736661516539 	  2.091635554924 	
H	 15.788430498578 	  8.736664326539 	 12.222192274924 	
H	  2.209710717107 	  0.532129413257 	  5.611011855101 	
H	  1.641166587107 	  0.532132223257 	 15.741568575101 	
H	  2.209679617107 	  6.715691173257 	  5.611009025101 	
H	  1.641135487107 	  6.715693983257 	 15.741565745101 	
H	 16.890538017107 	  0.532138643257 	  5.639141785101 	
H	 16.321993887107 	  0.532141453257 	 15.769698505101 	
H	 16.890506917107 	  6.715700403257 	  5.639138955101 	
H	 16.321962787107 	  6.715703213257 	 15.769695675101 	
H	 11.579640495080 	  3.621779044539 	  9.686758900631 	
H	 11.011096365080 	  3.621781854539 	 19.817315620631 	
H	 11.579609395080 	  9.805340804539 	  9.686756070631 	
H	 11.011065265080 	  9.805343614539 	 19.817312790631 	
H	 26.260467795080 	  3.621788274539 	  9.714888830631 	
H	 25.691923665080 	  3.621791084539 	 19.845445550631 	
H	 26.260436695080 	  9.805350034539 	  9.714886000631 	
H	 25.691892565080 	  9.805352844539 	 19.845442720631 	
H	 11.858528599606 	  5.644429442832 	  4.599527514998 	
H	 11.289984469606 	  5.644432252832 	 14.730084234998 	
H	 11.858497499606 	 11.827991202832 	  4.599524684998 	
H	 11.289953369606 	 11.827994012832 	 14.730081404998 	
H	 26.539355899606 	  5.644438672832 	  4.627657444998 	
H	 25.970811769606 	  5.644441482832 	 14.758214164998 	
H	 26.539324799606 	 11.828000432832 	  4.627654614998 	
H	 25.970780669606 	 11.828003242832 	 14.758211334998 	
H	  2.488599194560 	  2.554779724600 	  0.523781400217 	
H	  1.920055064560 	  2.554782534600 	 10.654338120217 	
H	  2.488568094560 	  8.738341484600 	  0.523778570217 	
H	  1.920023964560 	  8.738344294600 	 10.654335290217 	
H	 17.169426494560 	  2.554788954600 	  0.551911330217 	
H	 16.600882364560 	  2.554791764600 	 10.682468050217 	
H	 17.169395394560 	  8.738350714600 	  0.551908500217 	
H	 16.600851264560 	  8.738353524600 	 10.682465220217 	
768 
Energy: -9.2298378389310002e+01 
S	  8.681360879329 	  1.540331275628 	  0.059838696796 	
S	  8.112816749329 	  1.540334085628 	 10.190395416796 	
S	  8.681329779329 	  7.723893035628 	  0.059835866796 	
S	  8.112785649329 	  7.723895845628 	 10.190392586796 	
S	 23.362188179329 	  1.540340505628 	  0.087968626796 	
S	 22.793644049329 	  1.540343315628 	 10.218525346796 	
S	 23.362157079329 	  7.723902265628 	  0.087965796796 	
S	 22.793612949329 	  7.723905075628 	 10.218522516796 	
S	  5.603211367111 	  4.623596168893 	  5.100914970322 	
S	  5.034667237111 	  4.623598978893 	 15.231471690322 	
S	  5.603180267111 	 10.807157928893 	  5.100912140322 	
S	  5.034636137111 	 10.807160738893 	 15.231468860322 	
S	 20.284038667111 	  4.623605398893 	  5.129044900322 	
S	 19.715494537111 	  4.623608208893 	 15.259601620322 	
S	 20.284007567111 	 10.807167158893 	  5.129042070322 	
S	 19.715463437111 	 10.807169968893 	 15.259598790322 	
S	  5.332047500943 	  4.627487015564 	 10.215303870337 	
S	  4.763503370943 	  4.627489825564 	 20.345860590337 	
S	  5.332016400943 	 10.811048775564 	 10.215301040337 	
S	  4.763472270943 	 10.811051585564 	 20.345857760337 	
S	 20.012874800943 	  4.627496245564 	 10.243433800337 	
S	 19.444330670943 	  4.627499055564 	 20.373990520337 	
S	 20.012843700943 	 10.811058005564 	 10.243430970337 	
S	 19.444299570943 	 10.811060815564 	 20.373987690337 	
S	  8.410197513026 	  1.544222714676 	  5.174227767004 	
S	  7.841653383026 	  1.544225524676 	 15.304784487004 	
S	  8.410166413026 	  7.727784474676 	  5.174224937004 	
S	  7.841622283026 	  7.727787284676 	 15.304781657004 	
S	 23.091024813026 	  1.544231944676 	  5.202357697004 	
S	 22.522480683026 	  1.544234754676 	 15.332914417004 	
S	 23.090993713026 	  7.727793704676 	  5.202354867004 	
S	 22.522449583026 	  7.727796514676 	 15.332911587004 	
C	  6.716804476309 	  2.559202416701 	  9.892052508290 	
C	  6.148260346309 	  2.559205226701 	 20.022609228290 	
C	  6.716773376309 	  8.742764176701 	  9.892049678290 	
C	  6.148229246309 	  8.742766986701 	 20.022606398290 	
C	 21.397631776309 	  2.559211646701 	  9.920182438290 	
C	 20.829087646309 	  2.559214456701 	 20.050739158290 	
C	 21.397600676309 	  8.742773406701 	  9.920179608290 	
C	 20.829056546309 	  8.742776216701 	 20.050736328290 	
C	  7.024996634088 	  5.609289573096 	  5.519510624647 	
C	  6.456452504088 	  5.609292383096 	 15.650067344647 	
C	  7.024965534088 	 11.792851333096 	  5.519507794647 	
C	  6.456421404088 	 11.792854143096 	 15.650064514647 	
C	 21.705823934088 	  5.609298803096 	  5.547640554647 	
C	 21.137279804088 	  5.609301613096 	 15.678197274647 	
C	 21.705792834088 	 11.792860563096 	  5.547637724647 	
C	 21.137248704088 	 11.792863373096 	 15.678194444647 	
C	  7.296603943399 	  3.608615827689 	  0.383090053094 	
C	  6.728059813399 	  3.608618637689 	 10.513646773094 	
C	  7.296572843399 	  9.792177587689 	  0.383087223094 	
C	  6.728028713399 	  9.792180397689 	 10.513643943094 	
C	 21.977431243399 	  3.608625057689 	  0.411219983094 	
C	 21.408887113399 	  3.608627867689 	 10.541776703094 	
C	 21.977400143399 	  9.792186817689 	  0.411217153094 	
C	 21.408856013399 	  9.792189627689 	 10.541773873094 	
C	  6.988412106770 	  0.558529415413 	  4.755632080980 	
C	  6.419867976770 	  0.558532225413 	 14.886188800980 	
C	  6.988381006770 	  6.742091175413 	  4.755629250980 	
C	  6.419836876770 	  6.742093985413 	 14.886185970980 	
C	 21.669239406770 	  0.558538645413 	  4.783762010980 	
C	 21.100695276770 	  0.558541455413 	 14.914318730980 	
C	 21.669208306770 	  6.742100405413 	  4.783759180980 	
C	 21.100664176770 	  6.742103215413 	 14.914315900980 	
C	  5.661348466685 	  2.343356276117 	  8.961019809128 	
C	  5.092804336685 	  2.343359086117 	 19.091576529128 	
C	  5.661317366685 	  8.526918036117 	  8.961016979128 	
C	  5.092773236685 	  8.526920846117 	 19.091573699128 	
C	 20.342175766685 	  2.343365506117 	  8.989149739128 	
C	 19.773631636685 	  2.343368316117 	 19.119706459128 	
C	 20.342144666685 	  8.526927266117 	  8.989146909128 	
C	 19.773600536685 	  8.526930076117 	 19.119703629128 	
C	  8.084777074426 	  5.427670291996 	  6.428116090676 	
C	  7.516232944426 	  5.427673101996 	 16.558672810676 	
C	  8.084745974426 	 11.611232051996 	  6.428113260676 	
C	  7.516201844426 	 11.611234861996 	 16.558669980676 	
C	 22.765604374426 	  5.427679521996 	  6.456246020676 	
C	 22.197060244426 	  5.427682331996 	 16.586802740676 	
C	 22.765573274426 	 11.611241281996 	  6.456243190676 	
C	 22.197029144426 	 11.611244091996 	 16.586799910676 	
C	  8.352059770091 	  3.824462001851 	  1.314122614918 	
C	  7.783515640091 	  3.824464811851 	 11.444679334918 	
C	  8.352028670091 	 10.008023761851 	  1.314119784918 	
C	  7.783484540091 	 10.008026571851 	 11.444676504918 	
C	 23.032887070091 	  3.824471231851 	  1.342252544918 	
C	 22.464342940091 	  3.824474041851 	 11.472809264918 	
C	 23.032855970091 	 10.008032991851 	  1.342249714918 	
C	 22.464311840091 	 10.008035801851 	 11.472806434918 	
C	  5.928631597590 	  0.740148674390 	  3.847026560988 	
C	  5.360087467590 	  0.740151484390 	 13.977583280988 	
C	  5.928600497590 	  6.923710434390 	  3.847023730988 	
C	  5.360056367590 	  6.923713244390 	 13.977580450988 	
C	 20.609458897590 	  0.740157904390 	  3.875156490988 	
C	 20.040914767590 	  0.740160714390 	 14.005713210988 	
C	 20.609427797590 	  6.923719664390 	  3.875153660988 	
C	 20.040883667590 	  6.923722474390 	 14.005710380988 	
C	  4.769839716761 	  3.399655259147 	  9.000288321092 	
C	  4.201295586761 	  3.399658069147 	 19.130845041092 	
C	  4.769808616761 	  9.583217019147 	  9.000285491092 	
C	  4.201264486761 	  9.583219829147 	 19.130842211092 	
C	 19.450667016761 	  3.399664489147 	  9.028418251092 	
C	 18.882122886761 	  3.399667299147 	 19.158974971092 	
C	 19.450635916761 	  9.583226249147 	  9.028415421092 	
C	 18.882091786761 	  9.583229059147 	 19.158972141092 	
C	  8.965050731154 	  0.314432870245 	  6.390248829521 	
C	  8.396506601154 	  0.314435680245 	 16.520805549521 	
C	  8.965019631154 	  6.497994630245 	  6.390245999521 	
C	  8.396475501154 	  6.497997440245 	 16.520802719521 	
C	 23.645878031154 	  0.314442100245 	  6.418378759521 	
C	 23.077333901154 	  0.314444910245 	 16.548935479521 	
C	 23.645846931154 	  6.498003860245 	  6.418375929521 	
C	 23.077302801154 	  6.498006670245 	 16.548932649521 	
C	  9.243568515268 	  2.768163092716 	  1.274854197974 	
C	  8.675024385268 	  2.768165902716 	 11.405410917974 	
C	  9.243537415268 	  8.951724852716 	  1.274851367974 	
C	  8.674993285268 	  8.951727662716 	 11.405408087974 	
C	 23.924395815268 	  2.768172322716 	  1.302984127974 	
C	 23.355851685268 	  2.768175132716 	 11.433540847974 	
C	 23.924364715268 	  8.951734082716 	  1.302981297974 	
C	 23.355820585268 	  8.951736892716 	 11.433538017974 	
C	  5.048357972783 	  5.853386037748 	  3.884893874683 	
C	  4.479813842783 	  5.853388847748 	 14.015450594683 	
C	  5.048326872783 	 12.036947797748 	  3.884891044683 	
C	  4.479782742783 	 12.036950607748 	 14.015447764683 	
C	 19.729185272783 	  5.853395267748 	  3.913023804683 	
C	 19.160641142783 	  5.853398077748 	 14.043580524683 	
C	 19.729154172783 	 12.036957027748 	  3.913020974683 	
C	 19.160610042783 	 12.036959837748 	 14.043577694683 	
C	  3.682687053240 	  3.443141371425 	  8.260723595967 	
C	  3.114142923240 	  3.443144181425 	 18.391280315967 	
C	  3.682655953240 	  9.626703131425 	  8.260720765967 	
C	  3.114111823240 	  9.626705941425 	 18.391277485967 	
C	 18.363514353240 	  3.443150601425 	  8.288853525967 	
C	 17.794970223240 	  3.443153411425 	 18.419410245967 	
C	 18.363483253240 	  9.626712361425 	  8.288850695967 	
C	 17.794939123240 	  9.626715171425 	 18.419407415967 	
C	 10.056167516129 	  0.365238724675 	  7.126994162417 	
C	  9.487623386129 	  0.365241534675 	 17.257550882417 	
C	 10.056136416129 	  6.548800484675 	  7.126991332417 	
C	  9.487592286129 	  6.548803294675 	 17.257548052417 	
C	 24.736994816129 	  0.365247954675 	  7.155124092417 	
C	 24.168450686129 	  0.365250764675 	 17.285680812417 	
C	 24.736963716129 	  6.548809714675 	  7.155121262417 	
C	 24.168419586129 	  6.548812524675 	 17.285677982417 	
C	 10.330721217226 	  2.724677060358 	  2.014419076753 	
C	  9.762177087226 	  2.724679870358 	 12.144975796753 	
C	 10.330690117226 	  8.908238820358 	  2.014416246753 	
C	  9.762145987226 	  8.908241630358 	 12.144972966753 	
C	 25.011548517226 	  2.724686290358 	  2.042549006753 	
C	 24.443004387226 	  2.724689100358 	 12.173105726753 	
C	 25.011517417226 	  8.908248050358 	  2.042546176753 	
C	 24.442973287226 	  8.908250860358 	 12.173102896753 	
C	  3.957241112387 	  5.802580167847 	  3.148148633058 	
C	  3.388696982387 	  5.802582977847 	 13.278705353058 	
C	  3.957210012387 	 11.986141927847 	  3.148145803058 	
C	  3.388665882387 	 11.986144737847 	 13.278702523058 	
C	 18.638068412387 	  5.802589397847 	  3.176278563058 	
C	 18.069524282387 	  5.802592207847 	 13.306835283058 	
C	 18.638037312387 	 11.986151157847 	  3.176275733058 	
C	 18.069493182387 	 11.986153967847 	 13.306832453058 	
H	  2.983432870834 	  4.363565348853 	  8.344065141777 	
H	  2.414888740834 	  4.363568158853 	 18.474621861777 	
H	  2.983401770834 	 10.547127108853 	  8.344062311777 	
H	  2.414857640834 	 10.547129918853 	 18.474619031777 	
H	 17.664260170834 	  4.363574578853 	  8.372195071777 	
H	 17.095716040834 	  4.363577388853 	 18.502751791777 	
H	 17.664229070834 	 10.547136338853 	  8.372192241777 	
H	 17.095684940834 	 10.547139148853 	 18.502748961777 	
H	 10.757298944447 	  1.278126849530 	  7.046711399140 	
H	 10.188754814447 	  1.278129659530 	 17.177268119140 	
H	 10.757267844447 	  7.461688609530 	  7.046708569140 	
H	 10.188723714447 	  7.461691419530 	 17.177265289140 	
H	 25.438126244447 	  1.278136079530 	  7.074841329140 	
H	 24.869582114447 	  1.278138889530 	 17.205398049140 	
H	 25.438095144447 	  7.461697839530 	  7.074838499140 	
H	 24.869551014447 	  7.461700649530 	 17.205395219140 	
H	 11.029975365559 	  1.804253054281 	  1.931077475607 	
H	 10.461431235559 	  1.804255864281 	 12.061634195607 	
H	 11.029944265559 	  7.987814814281 	  1.931074645607 	
H	 10.461400135559 	  7.987817624281 	 12.061631365607 	
H	 25.710802665559 	  1.804262284281 	  1.959207405607 	
H	 25.142258535559 	  1.804265094281 	 12.089764125607 	
H	 25.710771565559 	  7.987824044281 	  1.959204575607 	
H	 25.142227435559 	  7.987826854281 	 12.089761295607 	
H	  3.256109803569 	  4.889691944047 	  3.228431444115 	
H	  2.687565673569 	  4.889694754047 	 13.358988164115 	
H	  3.256078703569 	 11.073253704047 	  3.228428614115 	
H	  2.687534573569 	 11.073256514047 	 13.358985334115 	
H	 17.936937103569 	  4.889701174047 	  3.256561374115 	
H	 17.368392973569 	  4.889703984047 	 13.387118094115 	
H	 17.936906003569 	 11.073262934047 	  3.256558544115 	
H	 17.368361873569 	 11.073265744047 	 13.387115264115 	
C	  3.356056451824 	  2.461304203800 	  7.417963400770 	
C	  2.787512321824 	  2.461307013800 	 17.548520120770 	
C	  3.356025351824 	  8.644865963800 	  7.417960570770 	
C	  2.787481221824 	  8.644868773800 	 17.548517290770 	
C	 18.036883751824 	  2.461313433800 	  7.446093330770 	
C	 17.468339621824 	  2.461316243800 	 17.576650050770 	
C	 18.036852651824 	  8.644875193800 	  7.446090500770 	
C	 17.468308521824 	  8.644878003800 	 17.576647220770 	
C	 10.386208492629 	  5.538948391148 	  7.973621024309 	
C	  9.817664362629 	  5.538951201148 	 18.104177744309 	
C	 10.386177392629 	 11.722510151148 	  7.973618194309 	
C	  9.817633262629 	 11.722512961148 	 18.104174914309 	
C	 25.067035792629 	  5.538957621148 	  8.001750954309 	
C	 24.498491662629 	  5.538960431148 	 18.132307674309 	
C	 25.067004692629 	 11.722519381148 	  8.001748124309 	
C	 24.498460562629 	 11.722522191148 	 18.132304844309 	
C	 10.657351653488 	  3.706514172238 	  2.857179181582 	
C	 10.088807523488 	  3.706516982238 	 12.987735901582 	
C	 10.657320553488 	  9.890075932238 	  2.857176351582 	
C	 10.088776423488 	  9.890078742238 	 12.987733071582 	
C	 25.338178953488 	  3.706523402238 	  2.885309111582 	
C	 24.769634823488 	  3.706526212238 	 13.015865831582 	
C	 25.338147853488 	  9.890085162238 	  2.885306281582 	
C	 24.769603723488 	  9.890087972238 	 13.015863001582 	
C	  3.627200159371 	  0.628870476271 	  2.301521746394 	
C	  3.058656029371 	  0.628873286271 	 12.432078466394 	
C	  3.627169059371 	  6.812432236271 	  2.301518916394 	
C	  3.058624929371 	  6.812435046271 	 12.432075636394 	
C	 18.308027459371 	  0.628879706271 	  2.329651676394 	
C	 17.739483329371 	  0.628882516271 	 12.460208396394 	
C	 18.307996359371 	  6.812441466271 	  2.329648846394 	
C	 17.739452229371 	  6.812444276271 	 12.460205566394 	
C	  4.251021413536 	  1.430944037170 	  7.351502225752 	
C	  3.682477283536 	  1.430946847170 	 17.482058945752 	
C	  4.250990313536 	  7.614505797170 	  7.351499395752 	
C	  3.682446183536 	  7.614508607170 	 17.482056115752 	
C	 18.931848713536 	  1.430953267170 	  7.379632155752 	
C	 18.363304583536 	  1.430956077170 	 17.510188875752 	
C	 18.931817613536 	  7.614515027170 	  7.379629325752 	
C	 18.363273483536 	  7.614517837170 	 17.510186045752 	
C	  9.490150118750 	  4.516038180854 	  8.037652341733 	
C	  8.921605988750 	  4.516040990854 	 18.168209061733 	
C	  9.490119018750 	 10.699599940854 	  8.037649511733 	
C	  8.921574888750 	 10.699602750854 	 18.168206231733 	
C	 24.170977418750 	  4.516047410854 	  8.065782271733 	
C	 23.602433288750 	  4.516050220854 	 18.196338991733 	
C	 24.170946318750 	 10.699609170854 	  8.065779441733 	
C	 23.602402188750 	 10.699611980854 	 18.196336161733 	
C	  9.762386612582 	  4.736874312645 	  2.923640424923 	
C	  9.193842482582 	  4.736877122645 	 13.054197144923 	
C	  9.762355512582 	 10.920436072645 	  2.923637594923 	
C	  9.193811382582 	 10.920438882645 	 13.054194314923 	
C	 24.443213912582 	  4.736883542645 	  2.951770354923 	
C	 23.874669782582 	  4.736886352645 	 13.082327074923 	
C	 24.443182812582 	 10.920445302645 	  2.951767524923 	
C	 23.874638682582 	 10.920448112645 	 13.082324244923 	
C	  4.523258371841 	  1.651780630557 	  2.237490356300 	
C	  3.954714241841 	  1.651783440557 	 12.368047076300 	
C	  4.523227271841 	  7.835342390557 	  2.237487526300 	
C	  3.954683141841 	  7.835345200557 	 12.368044246300 	
C	 19.204085671841 	  1.651789860557 	  2.265620286300 	
C	 18.635541541841 	  1.651792670557 	 12.396177006300 	
C	 19.204054571841 	  7.835351620557 	  2.265617456300 	
C	 18.635510441841 	  7.835354430557 	 12.396174176300 	
H	  4.022686436378 	  0.572712880199 	  6.611083344240 	
H	  3.454142306378 	  0.572715690199 	 16.741640064240 	
H	  4.022655336378 	  6.756274640199 	  6.611080514240 	
H	  3.454111206378 	  6.756277450199 	 16.741637234240 	
H	 18.703513736378 	  0.572722110199 	  6.639213274240 	
H	 18.134969606378 	  0.572724920199 	 16.769769994240 	
H	 18.703482636378 	  6.756283870199 	  6.639210444240 	
H	 18.134938506378 	  6.756286680199 	 16.769767164240 	
H	  9.718113380526 	  3.657063855830 	  8.778400099279 	
H	  9.149569250526 	  3.657066665830 	 18.908956819279 	
H	  9.718082280526 	  9.840625615830 	  8.778397269279 	
H	  9.149538150526 	  9.840628425830 	 18.908953989279 	
H	 24.398940680526 	  3.657073085830 	  8.806530029279 	
H	 23.830396550526 	  3.657075895830 	 18.937086749279 	
H	 24.398909580526 	  9.840634845830 	  8.806527199279 	
H	 23.830365450526 	  9.840637655830 	 18.937083919279 	
H	  9.990721596731 	  5.595105446692 	  3.664059311011 	
H	  9.422177466731 	  5.595108256692 	 13.794616031011 	
H	  9.990690496731 	 11.778667206692 	  3.664056481011 	
H	  9.422146366731 	 11.778670016692 	 13.794613201011 	
H	 24.671548896731 	  5.595114676692 	  3.692189241011 	
H	 24.103004766731 	  5.595117486692 	 13.822745961011 	
H	 24.671517796731 	 11.778676436692 	  3.692186411011 	
H	 24.102973666731 	 11.778679246692 	 13.822743131011 	
H	  4.295295064691 	  2.510754998114 	  1.496742657116 	
H	  3.726750934691 	  2.510757808114 	 11.627299377116 	
H	  4.295263964691 	  8.694316758114 	  1.496739827116 	
H	  3.726719834691 	  8.694319568114 	 11.627296547116 	
H	 18.976122364691 	  2.510764228114 	  1.524872587116 	
H	 18.407578234691 	  2.510767038114 	 11.655429307116 	
H	 18.976091264691 	  8.694325988114 	  1.524869757116 	
H	 18.407547134691 	  8.694328798114 	 11.655426477116 	
C	  5.319832070742 	  1.368788997548 	  8.057510577188 	
C	  4.751287940742 	  1.368791807548 	 18.188067297188 	
C	  5.319800970742 	  7.552350757548 	  8.057507747188 	
C	  4.751256840742 	  7.552353567548 	 18.188064467188 	
C	 20.000659370742 	  1.368798227548 	  8.085640507188 	
C	 19.432115240742 	  1.368801037548 	 18.216197227188 	
C	 20.000628270742 	  7.552359987548 	  8.085637677188 	
C	 19.432084140742 	  7.552362797548 	 18.216194397188 	
C	  8.421277416491 	  4.453610796806 	  7.331468931492 	
C	  7.852733286491 	  4.453613606806 	 17.462025651492 	
C	  8.421246316491 	 10.637172556806 	  7.331466101492 	
C	  7.852702186491 	 10.637175366806 	 17.462022821492 	
C	 23.102104716491 	  4.453620026806 	  7.359598861492 	
C	 22.533560586491 	  4.453622836806 	 17.490155581492 	
C	 23.102073616491 	 10.637181786806 	  7.359596031492 	
C	 22.533529486491 	 10.637184596806 	 17.490152751492 	
C	  8.693576052184 	  4.799029316821 	  2.217631912301 	
C	  8.125031922184 	  4.799032126821 	 12.348188632301 	
C	  8.693544952184 	 10.982591076821 	  2.217629082301 	
C	  8.125000822184 	 10.982593886821 	 12.348185802301 	
C	 23.374403352184 	  4.799038546821 	  2.245761842301 	
C	 22.805859222184 	  4.799041356821 	 12.376318562301 	
C	 23.374372252184 	 10.982600306821 	  2.245759012301 	
C	 22.805828122184 	 10.982603116821 	 12.376315732301 	
C	  5.592131216745 	  1.714208128061 	  2.943673787625 	
C	  5.023587086745 	  1.714210938061 	 13.074230507625 	
C	  5.592100116745 	  7.897769888061 	  2.943670957625 	
C	  5.023555986745 	  7.897772698061 	 13.074227677625 	
C	 20.272958516745 	  1.714217358061 	  2.971803717625 	
C	 19.704414386745 	  1.714220168061 	 13.102360437625 	
C	 20.272927416745 	  7.897779118061 	  2.971800887625 	
C	 19.704383286745 	  7.897781928061 	 13.102357607625 	
H	  6.038535904921 	  0.467624238621 	  7.960821600260 	
H	  5.469991774921 	  0.467627048621 	 18.091378320260 	
H	  6.038504804921 	  6.651185998621 	  7.960818770260 	
H	  5.469960674921 	  6.651188808621 	 18.091375490260 	
H	 20.719363204921 	  0.467633468621 	  7.988951530260 	
H	 20.150819074921 	  0.467636278621 	 18.119508250260 	
H	 20.719332104921 	  6.651195228621 	  7.988948700260 	
H	 20.150787974921 	  6.651198038621 	 18.119505420260 	
H	  7.702276065706 	  3.551718286642 	  7.428717534456 	
H	  7.133731935706 	  3.551721096642 	 17.559274254456 	
H	  7.702244965706 	  9.735280046642 	  7.428714704456 	
H	  7.133700835706 	  9.735282856642 	 17.559271424456 	
H	 22.383103365706 	  3.551727516642 	  7.456847464456 	
H	 21.814559235706 	  3.551730326642 	 17.587404184456 	
H	 22.383072265706 	  9.735289276642 	  7.456844634456 	
H	 21.814528135706 	  9.735292086642 	 17.587401354456 	
H	  7.974872133954 	  5.700193983994 	  2.314320902811 	
H	  7.406328003954 	  5.700196793994 	 12.444877622811 	
H	  7.974841033954 	 11.883755743994 	  2.314318072811 	
H	  7.406296903954 	 11.883758553994 	 12.444874792811 	
H	 22.655699433954 	  5.700203213994 	  2.342450832811 	
H	 22.087155303954 	  5.700206023994 	 12.473007552811 	
H	 22.655668333954 	 11.883764973994 	  2.342448002811 	
H	 22.087124203954 	 11.883767783994 	 12.473004722811 	
H	  6.311132512225 	  2.616100656089 	  2.846425133140 	
H	  5.742588382225 	  2.616103466089 	 12.976981853140 	
H	  6.311101412225 	  8.799662416089 	  2.846422303140 	
H	  5.742557282225 	  8.799665226089 	 12.976979023140 	
H	 20.991959812225 	  2.616109886089 	  2.874555063140 	
H	 20.423415682225 	  2.616112696089 	 13.005111783140 	
H	 20.991928712225 	  8.799671646089 	  2.874552233140 	
H	 20.423384582225 	  8.799674456089 	 13.005108953140 	
C	  1.975831142177 	  2.503690584599 	  6.500749932254 	
C	  1.407287012177 	  2.503693394599 	 16.631306652254 	
C	  1.975800042177 	  8.687252344599 	  6.500747102254 	
C	  1.407255912177 	  8.687255154599 	 16.631303822254 	
C	 16.656658442177 	  2.503699814599 	  6.528879862254 	
C	 16.088114312177 	  2.503702624599 	 16.659436582254 	
C	 16.656627342177 	  8.687261574599 	  6.528877032254 	
C	 16.088083212177 	  8.687264384599 	 16.659433752254 	
C	 11.750496817613 	  5.563239915308 	  8.879737867146 	
C	 11.181952687613 	  5.563242725308 	 19.010294587146 	
C	 11.750465717613 	 11.746801675308 	  8.879735037146 	
C	 11.181921587613 	 11.746804485308 	 19.010291757146 	
C	 26.431324117613 	  5.563249145308 	  8.907867797146 	
C	 25.862779987613 	  5.563251955308 	 19.038424517146 	
C	 26.431293017613 	 11.746810905308 	  8.907864967146 	
C	 25.862748887613 	 11.746813715308 	 19.038421687146 	
C	 12.037576809782 	  3.664127983522 	  3.774392685547 	
C	 11.469032679782 	  3.664130793522 	 13.904949405547 	
C	 12.037545709782 	  9.847689743522 	  3.774389855547 	
C	 11.469001579782 	  9.847692553522 	 13.904946575547 	
C	 26.718404109782 	  3.664137213522 	  3.802522615547 	
C	 26.149859979782 	  3.664140023522 	 13.933079335547 	
C	 26.718373009782 	  9.847698973522 	  3.802519785547 	
C	 26.149828879782 	  9.847701783522 	 13.933076505547 	
C	  2.262911833849 	  0.604578814855 	  1.395404919636 	
C	  1.694367703849 	  0.604581624855 	 11.525961639636 	
C	  2.262880733849 	  6.788140574855 	  1.395402089636 	
C	  1.694336603849 	  6.788143384855 	 11.525958809636 	
C	 16.943739133849 	  0.604588044855 	  1.423534849636 	
C	 16.375195003849 	  0.604590854855 	 11.554091569636 	
C	 16.943708033849 	  6.788149804855 	  1.423532019636 	
C	 16.375163903849 	  6.788152614855 	 11.554088739636 	
C	  2.215432991619 	  2.959004039461 	  5.386959191244 	
C	  1.646888861619 	  2.959006849461 	 15.517515911244 	
C	  2.215401891619 	  9.142565799461 	  5.386956361244 	
C	  1.646857761619 	  9.142568609461 	 15.517513081244 	
C	 16.896260291619 	  2.959013269461 	  5.415089121244 	
C	 16.327716161619 	  2.959016079461 	 15.545645841244 	
C	 16.896229191619 	  9.142575029461 	  5.415086291244 	
C	 16.327685061619 	  9.142577839461 	 15.545643011244 	
C	 11.519883788676 	 -0.114445472080 	  9.945820452976 	
C	 10.951339658676 	 -0.114442662080 	 20.076377172976 	
C	 11.519852688676 	  6.069116287920 	  9.945817622976 	
C	 10.951308558676 	  6.069119097920 	 20.076374342976 	
C	 26.200711088676 	 -0.114436242080 	  9.973950382976 	
C	 25.632166958676 	 -0.114433432080 	 20.104507102976 	
C	 26.200679988676 	  6.069125517920 	  9.973947552976 	
C	 25.632135858676 	  6.069128327920 	 20.104504272976 	
C	 11.797974501294 	  3.208814543155 	  4.888184131381 	
C	 11.229430371294 	  3.208817353155 	 15.018740851381 	
C	 11.797943401294 	  9.392376303155 	  4.888181301381 	
C	 11.229399271294 	  9.392379113155 	 15.018738021381 	
C	 26.478801801294 	  3.208823773155 	  4.916314061381 	
C	 25.910257671294 	  3.208826583155 	 15.046870781381 	
C	 26.478770701294 	  9.392385533155 	  4.916311231381 	
C	 25.910226571294 	  9.392388343155 	 15.046867951381 	
C	  2.493524847349 	  6.282264472281 	  0.329322262664 	
C	  1.924980717349 	  6.282267282281 	 10.459878982664 	
C	  2.493493747349 	 12.465826232281 	  0.329319432664 	
C	  1.924949617349 	 12.465829042281 	 10.459876152664 	
C	 17.174352147349 	  6.282273702281 	  0.357452192664 	
C	 16.605808017349 	  6.282276512281 	 10.488008912664 	
C	 17.174321047349 	 12.465835462281 	  0.357449362664 	
C	 16.605776917349 	 12.465838272281 	 10.488006082664 	
H	  2.732055614993 	  3.988175574950 	  5.330909608942 	
H	  2.163511484993 	  3.988178384950 	 15.461466328942 	
H	  2.732024514993 	 10.171737334950 	  5.330906778942 	
H	  2.163480384993 	 10.171740144950 	 15.461463498942 	
H	 17.412882914993 	  3.988184804950 	  5.359039538942 	
H	 16.844338784993 	  3.988187614950 	 15.489596258942 	
H	 17.412851814993 	 10.171746564950 	  5.359036708942 	
H	 16.844307684993 	 10.171749374950 	 15.489593428942 	
H	 11.006778484870 	  0.892132050066 	 10.061807136050 	
H	 10.438234354870 	  0.892134860066 	 20.192363856050 	
H	 11.006747384870 	  7.075693810066 	 10.061804306050 	
H	 10.438203254870 	  7.075696620066 	 20.192361026050 	
H	 25.687605784870 	  0.892141280066 	 10.089937066050 	
H	 25.119061654870 	  0.892144090066 	 20.220493786050 	
H	 25.687574684870 	  7.075703040066 	 10.089934236050 	
H	 25.119030554870 	  7.075705850066 	 20.220490956050 	
H	 11.281352306507 	  2.179642717827 	  4.944233675607 	
H	 10.712808176507 	  2.179645527827 	 15.074790395607 	
H	 11.281321206507 	  8.363204477827 	  4.944230845607 	
H	 10.712777076507 	  8.363207287827 	 15.074787565607 	
H	 25.962179606507 	  2.179651947827 	  4.972363605607 	
H	 25.393635476507 	  2.179654757827 	 15.102920325607 	
H	 25.962148506507 	  8.363213707827 	  4.972360775607 	
H	 25.393604376507 	  8.363216517827 	 15.102917495607 	
H	  3.006630180103 	  5.275687002815 	  0.213335321818 	
H	  2.438086050103 	  5.275689812815 	 10.343892041818 	
H	  3.006599080103 	 11.459248762815 	  0.213332491818 	
H	  2.438054950103 	 11.459251572815 	 10.343889211818 	
H	 17.687457480103 	  5.275696232815 	  0.241465251818 	
H	 17.118913350103 	  5.275699042815 	 10.372021971818 	
H	 17.687426380103 	 11.459257992815 	  0.241462421818 	
H	 17.118882250103 	 11.459260802815 	 10.372019141818 	
H	  1.405859167346 	  3.094236960746 	  4.599621166685 	
H	  0.837315037346 	  3.094239770746 	 14.730177886685 	
H	  1.405828067346 	  9.277798720746 	  4.599618336685 	
H	  0.837283937346 	  9.277801530746 	 14.730175056685 	
H	 16.086686467346 	  3.094246190746 	  4.627751096685 	
H	 15.518142337346 	  3.094249000746 	 14.758307816685 	
H	 16.086655367346 	  9.277807950746 	  4.627748266685 	
H	 15.518111237346 	  9.277810760746 	 14.758304986685 	
H	 12.926142574220 	  0.019080650251 	  0.602106460895 	
H	 12.357598444220 	  0.019083460251 	 10.732663180895 	
H	 12.926111474220 	  6.202642410251 	  0.602103630895 	
H	 12.357567344220 	  6.202645220251 	 10.732660350895 	
H	 27.606969874220 	  0.019089880251 	  0.630236390895 	
H	 27.038425744220 	  0.019092690251 	 10.760793110895 	
H	 27.606938774220 	  6.202651640251 	  0.630233560895 	
H	 27.038394644220 	  6.202654450251 	 10.760790280895 	
H	 12.607548453138 	  3.073582127584 	  5.675522076267 	
H	 12.039004323138 	  3.073584937584 	 15.806078796267 	
H	 12.607517353138 	  9.257143887584 	  5.675519246267 	
H	 12.038973223138 	  9.257146697584 	 15.806075966267 	
H	 27.288375753138 	  3.073591357584 	  5.703652006267 	
H	 26.719831623138 	  3.073594167584 	 15.834208726267 	
H	 27.288344653138 	  9.257153117584 	  5.703649176267 	
H	 26.719800523138 	  9.257155927584 	 15.834205896267 	
H	  1.087266119020 	  6.148738381861 	  9.673036196862 	
H	  0.518721989020 	  6.148741191861 	 19.803592916862 	
H	  1.087235019020 	 12.332300141861 	  9.673033366862 	
H	  0.518690889020 	 12.332302951861 	 19.803590086862 	
H	 15.768093419020 	  6.148747611861 	  9.701166126862 	
H	 15.199549289020 	  6.148750421861 	 19.831722846862 	
H	 15.768062319020 	 12.332309371861 	  9.701163296862 	
H	 15.199518189020 	 12.332312181861 	 19.831720016862 	
H	  3.018112503427 	  2.434737258823 	  4.744859965824 	
H	  2.449568373427 	  2.434740068823 	 14.875416685824 	
H	  3.018081403427 	  8.618299018823 	  4.744857135824 	
H	  2.449537273427 	  8.618301828823 	 14.875413855824 	
H	 17.698939803427 	  2.434746488823 	  4.772989895824 	
H	 17.130395673427 	  2.434749298823 	 14.903546615824 	
H	 17.698908703427 	  8.618308248823 	  4.772987065824 	
H	 17.130364573427 	  8.618311058823 	 14.903543785824 	
H	 11.228263111679 	  5.517053991016 	  0.443674838851 	
H	 10.659718981679 	  5.517056801016 	 10.574231558851 	
H	 11.228232011679 	 11.700615751016 	  0.443672008851 	
H	 10.659687881679 	 11.700618561016 	 10.574228728851 	
H	 25.909090411679 	  5.517063221016 	  0.471804768851 	
H	 25.340546281679 	  5.517066031016 	 10.602361488851 	
H	 25.909059311679 	 11.700624981016 	  0.471801938851 	
H	 25.340515181679 	 11.700627791016 	 10.602358658851 	
H	 10.995294844370 	  3.733081664511 	  5.530282994276 	
H	 10.426750714370 	  3.733084474511 	 15.660839714276 	
H	 10.995263744370 	  9.916643424511 	  5.530280164276 	
H	 10.426719614370 	  9.916646234511 	 15.660836884276 	
H	 25.676122144370 	  3.733090894511 	  5.558412924276 	
H	 25.107578014370 	  3.733093704511 	 15.688969644276 	
H	 25.676091044370 	  9.916652654511 	  5.558410094276 	
H	 25.107546914370 	  9.916655464511 	 15.688966814276 	
H	  2.785145588719 	  0.650765133253 	  9.831468019227 	
H	  2.216601458719 	  0.650767943253 	 19.962024739227 	
H	  2.785114488719 	  6.834326893253 	  9.831465189227 	
H	  2.216570358719 	  6.834329703253 	 19.962021909227 	
H	 17.465972888719 	  0.650774363253 	  9.859597949227 	
H	 16.897428758719 	  0.650777173253 	 19.990154669227 	
H	 17.465941788719 	  6.834336123253 	  9.859595119227 	
H	 16.897397658719 	  6.834338933253 	 19.990151839227 	
C	  1.127762995535 	  3.207886776983 	  7.024866332626 	
C	  0.559218865535 	  3.207889586983 	 17.155423052626 	
C	  1.127731895535 	  9.391448536983 	  7.024863502626 	
C	  0.559187765535 	  9.391451346983 	 17.155420222626 	
C	 15.808590295535 	  3.207896006983 	  7.052996262626 	
C	 15.240046165535 	  3.207898816983 	 17.183552982626 	
C	 15.808559195535 	  9.391457766983 	  7.052993432626 	
C	 15.240015065535 	  9.391460576983 	 17.183550152626 	
C	 12.640308333099 	  0.143981802905 	  8.368982254107 	
C	 12.071764203099 	  0.143984612905 	 18.499538974107 	
C	 12.640277233099 	  6.327543562905 	  8.368979424107 	
C	 12.071733103099 	  6.327546372905 	 18.499536144107 	
C	 27.321135633099 	  0.143991032905 	  8.397112184107 	
C	 26.752591503099 	  0.143993842905 	 18.527668904107 	
C	 27.321104533099 	  6.327552792905 	  8.397109354107 	
C	 26.752560403099 	  6.327555602905 	 18.527666074107 	
C	 12.885645379519 	  2.959931313183 	  3.250276199902 	
C	 12.317101249519 	  2.959934123183 	 13.380832919902 	
C	 12.885614279519 	  9.143493073183 	  3.250273369902 	
C	 12.317070149519 	  9.143495883183 	 13.380830089902 	
C	 27.566472679519 	  2.959940543183 	  3.278406129902 	
C	 26.997928549519 	  2.959943353183 	 13.408962849902 	
C	 27.566441579519 	  9.143502303183 	  3.278403299902 	
C	 26.997897449519 	  9.143505113183 	 13.408960019902 	
C	  1.373100301987 	  6.023836700743 	  1.906160374946 	
C	  0.804556171987 	  6.023839510743 	 12.036717094946 	
C	  1.373069201987 	 12.207398460743 	  1.906157544946 	
C	  0.804525071987 	 12.207401270743 	 12.036714264946 	
C	 16.053927601987 	  6.023845930743 	  1.934290304946 	
C	 15.485383471987 	  6.023848740743 	 12.064847024946 	
C	 16.053896501987 	 12.207407690743 	  1.934287474946 	
C	 15.485352371987 	 12.207410500743 	 12.064844194946 	
H	  1.359222912906 	  4.320319860829 	  7.238515723113 	
H	  0.790678782906 	  4.320322670829 	 17.369072443113 	
H	  1.359191812906 	 10.503881620829 	  7.238512893113 	
H	  0.790647682906 	 10.503884430829 	 17.369069613113 	
H	 16.040050212906 	  4.320329090829 	  7.266645653113 	
H	 15.471506082906 	  4.320331900829 	 17.397202373113 	
H	 16.040019112906 	 10.503890850829 	  7.266642823113 	
H	 15.471474982906 	 10.503893660829 	 17.397199543113 	
H	 12.386603318710 	  1.230723197884 	  8.148117112770 	
H	 11.818059188710 	  1.230726007884 	 18.278673832770 	
H	 12.386572218710 	  7.414284957884 	  8.148114282770 	
H	 11.818028088710 	  7.414287767884 	 18.278671002770 	
H	 27.067430618710 	  1.230732427884 	  8.176247042770 	
H	 26.498886488710 	  1.230735237884 	 18.306803762770 	
H	 27.067399518710 	  7.414294187884 	  8.176244212770 	
H	 26.498855388710 	  7.414296997884 	 18.306800932770 	
H	 12.654185354350 	  1.847498208870 	  3.036627101494 	
H	 12.085641224350 	  1.847501018870 	 13.167183821494 	
H	 12.654154254350 	  8.031059968870 	  3.036624271494 	
H	 12.085610124350 	  8.031062778870 	 13.167180991494 	
H	 27.335012654350 	  1.847507438870 	  3.064757031494 	
H	 26.766468524350 	  1.847510248870 	 13.195313751494 	
H	 27.334981554350 	  8.031069198870 	  3.064754201494 	
H	 26.766437424350 	  8.031072008870 	 13.195310921494 	
H	  1.626805475718 	  4.937095277709 	  2.127025162438 	
H	  1.058261345718 	  4.937098087709 	 12.257581882438 	
H	  1.626774375718 	 11.120657037709 	  2.127022332438 	
H	  1.058230245718 	 11.120659847709 	 12.257579052438 	
H	 16.307632775718 	  4.937104507709 	  2.155155092438 	
H	 15.739088645718 	  4.937107317709 	 12.285711812438 	
H	 16.307601675718 	 11.120666267709 	  2.155152262438 	
H	 15.739057545718 	 11.120669077709 	 12.285708982438 	
H	  0.806710575940 	  2.989029578412 	  8.111761757404 	
H	  0.238166445940 	  2.989032388412 	 18.242318477404 	
H	  0.806679475940 	  9.172591338412 	  8.111758927404 	
H	  0.238135345940 	  9.172594148412 	 18.242315647404 	
H	 15.487537875940 	  2.989038808412 	  8.139891687404 	
H	 14.918993745940 	  2.989041618412 	 18.270448407404 	
H	 15.487506775940 	  9.172600568412 	  8.139888857404 	
H	 14.918962645940 	  9.172603378412 	 18.270445577404 	
H	 12.933126853949 	  6.073674626156 	  7.277871343899 	
H	 12.364582723949 	  6.073677436156 	 17.408428063899 	
H	 12.933095753949 	 12.257236386156 	  7.277868513899 	
H	 12.364551623949 	 12.257239196156 	 17.408425233899 	
H	 27.613954153949 	  6.073683856156 	  7.306001273899 	
H	 27.045410023949 	  6.073686666156 	 17.436557993899 	
H	 27.613923053949 	 12.257245616156 	  7.305998443899 	
H	 27.045378923949 	 12.257248426156 	 17.436555163899 	
H	 13.206698187614 	  3.178788679059 	  2.163380966398 	
H	 12.638154057614 	  3.178791489059 	 12.293937686398 	
H	 13.206667087614 	  9.362350439059 	  2.163378136398 	
H	 12.638122957614 	  9.362353249059 	 12.293934856398 	
H	 27.887525487614 	  3.178797909059 	  2.191510896398 	
H	 27.318981357614 	  3.178800719059 	 12.322067616398 	
H	 27.887494387614 	  9.362359669059 	  2.191508066398 	
H	 27.318950257614 	  9.362362479059 	 12.322064786398 	
H	  1.080281838001 	  0.094143608792 	  2.997271322128 	
H	  0.511737708001 	  0.094146418792 	 13.127828042128 	
H	  1.080250738001 	  6.277705368792 	  2.997268492128 	
H	  0.511706608001 	  6.277708178792 	 13.127825212128 	
H	 15.761109138001 	  0.094152838792 	  3.025401252128 	
H	 15.192565008001 	  0.094155648792 	 13.155957972128 	
H	 15.761078038001 	  6.277714598792 	  3.025398422128 	
H	 15.192533908001 	  6.277717408792 	 13.155955142128 	
H	  0.121563629644 	  3.298951893437 	  6.505469912975 	
H	 -0.446980500356 	  3.298954703437 	 16.636026632975 	
H	  0.121532529644 	  9.482513653437 	  6.505467082975 	
H	 -0.447011600356 	  9.482516463437 	 16.636023802975 	
H	 14.802390929644 	  3.298961123437 	  6.533599842975 	
H	 14.233846799644 	  3.298963933437 	 16.664156562975 	
H	 14.802359829644 	  9.482522883437 	  6.533597012975 	
H	 14.233815699644 	  9.482525693437 	 16.664153732975 	
H	 13.603717800389 	  6.377490233188 	  8.875279193433 	
H	 13.035173670389 	  6.377493043188 	 19.005835913433 	
H	 13.603686700389 	 12.561051993188 	  8.875276363433 	
H	 13.035142570389 	 12.561054803188 	 19.005833083433 	
H	 28.284545100389 	  6.377499463188 	  8.903409123433 	
H	 27.716000970389 	  6.377502273188 	 19.033965843433 	
H	 28.284514000389 	 12.561061223188 	  8.903406293433 	
H	 27.715969870389 	 12.561064033188 	 19.033963013433 	
H	 13.891844501072 	  2.868866383860 	  3.769673090612 	
H	 13.323300371072 	  2.868869193860 	 13.900229810612 	
H	 13.891813401072 	  9.052428143860 	  3.769670260612 	
H	 13.323269271072 	  9.052430953860 	 13.900226980612 	
H	 28.572671801072 	  2.868875613860 	  3.797803020612 	
H	 28.004127671072 	  2.868878423860 	 13.928359740612 	
H	 28.572640701072 	  9.052437373860 	  3.797800190612 	
H	 28.004096571072 	  9.052440183860 	 13.928356910612 	
H	  0.409690829584 	 -0.209671815210 	  1.399863459768 	
H	 -0.158853300416 	 -0.209669005210 	 11.530420179768 	
H	  0.409659729584 	  5.973889944790 	  1.399860629768 	
H	 -0.158884400416 	  5.973892754790 	 11.530417349768 	
H	 15.090518129584 	 -0.209662585210 	  1.427993389768 	
H	 14.521973999584 	 -0.209659775210 	 11.558550109768 	
H	 15.090487029584 	  5.973899174790 	  1.427990559768 	
H	 14.521942899584 	  5.973901984790 	 11.558547279768 	
C	  1.493408356944 	  1.394787577561 	  6.359851514452 	
C	  0.924864226944 	  1.394790387561 	 16.490408234452 	
C	  1.493377256944 	  7.578349337561 	  6.359848684452 	
C	  0.924833126944 	  7.578352147561 	 16.490405404452 	
C	 16.174235656944 	  1.394796807561 	  6.387981444452 	
C	 15.605691526944 	  1.394799617561 	 16.518538164452 	
C	 16.174204556944 	  7.578358567561 	  6.387978614452 	
C	 15.605660426944 	  7.578361377561 	 16.518535334452 	
C	 12.246484848715 	  4.483812219599 	  9.030345710033 	
C	 11.677940718715 	  4.483815029599 	 19.160902430033 	
C	 12.246453748715 	 10.667373979599 	  9.030342880033 	
C	 11.677909618715 	 10.667376789599 	 19.160899600033 	
C	 26.927312148715 	  4.483821449599 	  9.058475640033 	
C	 26.358768018715 	  4.483824259599 	 19.189032360033 	
C	 26.927281048715 	 10.667383209599 	  9.058472810033 	
C	 26.358736918715 	 10.667386019599 	 19.189029530033 	
C	 12.519999730176 	  4.773031886353 	  3.915290812695 	
C	 11.951455600176 	  4.773034696353 	 14.045847532695 	
C	 12.519968630176 	 10.956593646353 	  3.915287982695 	
C	 11.951424500176 	 10.956596456353 	 14.045844702695 	
C	 27.200827030176 	  4.773041116353 	  3.943420742695 	
C	 26.632282900176 	  4.773043926353 	 14.073977462695 	
C	 27.200795930176 	 10.956602876353 	  3.943417912695 	
C	 26.632251800176 	 10.956605686353 	 14.073974632695 	
C	  1.766923568225 	  1.684006437017 	  1.244797284565 	
C	  1.198379438225 	  1.684009247017 	 11.375354004565 	
C	  1.766892468225 	  7.867568197017 	  1.244794454565 	
C	  1.198348338225 	  7.867571007017 	 11.375351174565 	
C	 16.447750868225 	  1.684015667017 	  1.272927214565 	
C	 15.879206738225 	  1.684018477017 	 11.403483934565 	
C	 16.447719768225 	  7.867577427017 	  1.272924384565 	
C	 15.879175638225 	  7.867580237017 	 11.403481104565 	
H	  0.497983606976 	  1.259545460159 	  5.830485251822 	
H	 -0.070560523024 	  1.259548270159 	 15.961041971822 	
H	  0.497952506976 	  7.443107220159 	  5.830482421822 	
H	 -0.070591623024 	  7.443110030159 	 15.961039141822 	
H	 15.178810906976 	  1.259554690159 	  5.858615181822 	
H	 14.610266776976 	  1.259557500159 	 15.989171901822 	
H	 15.178779806976 	  7.443116450159 	  5.858612351822 	
H	 14.610235676976 	  7.443119260159 	 15.989169071822 	
H	 13.241832087327 	  4.344836705982 	  9.559188167431 	
H	 12.673287957327 	  4.344839515982 	 19.689744887431 	
H	 13.241800987327 	 10.528398465982 	  9.559185337431 	
H	 12.673256857327 	 10.528401275982 	 19.689742057431 	
H	 27.922659387327 	  4.344845935982 	  9.587318097431 	
H	 27.354115257327 	  4.344848745982 	 19.717874817431 	
H	 27.922628287327 	 10.528407695982 	  9.587315267431 	
H	 27.354084157327 	 10.528410505982 	 19.717871987431 	
H	 13.515424434968 	  4.908273640692 	  4.444657222303 	
H	 12.946880304968 	  4.908276450692 	 14.575213942303 	
H	 13.515393334968 	 11.091835400692 	  4.444654392303 	
H	 12.946849204968 	 11.091838210692 	 14.575211112303 	
H	 28.196251734968 	  4.908282870692 	  4.472787152303 	
H	 27.627707604968 	  4.908285680692 	 14.603343872303 	
H	 28.196220634968 	 11.091844630692 	  4.472784322303 	
H	 27.627676504968 	 11.091847440692 	 14.603341042303 	
H	  0.771576318269 	  1.822981899914 	  0.715954857142 	
H	  0.203032188269 	  1.822984709914 	 10.846511577142 	
H	  0.771545218269 	  8.006543659914 	  0.715952027142 	
H	  0.203001088269 	  8.006546469914 	 10.846508747142 	
H	 15.452403618269 	  1.822991129914 	  0.744084787142 	
H	 14.883859488269 	  1.822993939914 	 10.874641507142 	
H	 15.452372518269 	  8.006552889914 	  0.744081957142 	
H	 14.883828388269 	  8.006555699914 	 10.874638677142 	
H	  1.322576287026 	  0.748578288374 	  7.304107825778 	
H	  0.754032157026 	  0.748581098374 	 17.434664545778 	
H	  1.322545187026 	  6.932140048374 	  7.304104995778 	
H	  0.754001057026 	  6.932142858374 	 17.434661715778 	
H	 16.003403587026 	  0.748587518374 	  7.332237755778 	
H	 15.434859457026 	  0.748590328374 	 17.462794475778 	
H	 16.003372487026 	  6.932149278374 	  7.332234925778 	
H	 15.434828357026 	  6.932152088374 	 17.462791645778 	
H	 12.417989627095 	  3.834009834930 	  8.086167385649 	
H	 11.849445497095 	  3.834012644930 	 18.216724105649 	
H	 12.417958527095 	 10.017571594930 	  8.086164555649 	
H	 11.849414397095 	 10.017574404930 	 18.216721275649 	
H	 27.098816927095 	  3.834019064930 	  8.114297315649 	
H	 26.530272797095 	  3.834021874930 	 18.244854035649 	
H	 27.098785827095 	 10.017580824930 	  8.114294485649 	
H	 26.530241697095 	 10.017583634930 	 18.244851205649 	
H	 12.690831921382 	  5.419240675952 	  2.971034200980 	
H	 12.122287791382 	  5.419243485952 	 13.101590920980 	
H	 12.690800821382 	 11.602802435952 	  2.971031370980 	
H	 12.122256691382 	 11.602805245952 	 13.101588090980 	
H	 27.371659221382 	  5.419249905952 	  2.999164130980 	
H	 26.803115091382 	  5.419252715952 	 13.129720850980 	
H	 27.371628121382 	 11.602811665952 	  2.999161300980 	
H	 26.803083991382 	 11.602814475952 	 13.129718020980 	
H	  1.595418711212 	  2.333808620408 	  2.188975723102 	
H	  1.026874581212 	  2.333811430408 	 12.319532443102 	
H	  1.595387611212 	  8.517370380408 	  2.188972893102 	
H	  1.026843481212 	  8.517373190408 	 12.319529613102 	
H	 16.276246011212 	  2.333817850408 	  2.217105653102 	
H	 15.707701881212 	  2.333820660408 	 12.347662373102 	
H	 16.276214911212 	  8.517379610408 	  2.217102823102 	
H	 15.707670781212 	  8.517382420408 	 12.347659543102 	
H	  2.106083013690 	  0.583362543135 	  5.815543537706 	
H	  1.537538883690 	  0.583365353135 	 15.946100257706 	
H	  2.106051913690 	  6.766924303135 	  5.815540707706 	
H	  1.537507783690 	  6.766927113135 	 15.946097427706 	
H	 16.786910313690 	  0.583371773135 	  5.843673467706 	
H	 16.218366183690 	  0.583374583135 	 15.974230187706 	
H	 16.786879213690 	  6.766933533135 	  5.843670637706 	
H	 16.218335083690 	  6.766936343135 	 15.974227357706 	
H	 11.634906528335 	  3.669023996202 	  9.574160031814 	
H	 11.066362398335 	  3.669026806202 	 19.704716751814 	
H	 11.634875428335 	  9.852585756202 	  9.574157201814 	
H	 11.066331298335 	  9.852588566202 	 19.704713921814 	
H	 26.315733828335 	  3.669033226202 	  9.602289961814 	
H	 25.747189698335 	  3.669036036202 	 19.732846681814 	
H	 26.315702728335 	  9.852594986202 	  9.602287131814 	
H	 25.747158598335 	  9.852597796202 	 19.732843851814 	
H	 11.907324853428 	  5.584456716334 	  4.459599028391 	
H	 11.338780723428 	  5.584459526334 	 14.590155748391 	
H	 11.907293753428 	 11.768018476334 	  4.459596198391 	
H	 11.338749623428 	 11.768021286334 	 14.590152918391 	
H	 26.588152153428 	  5.584465946334 	  4.487728958391 	
H	 26.019608023428 	  5.584468756334 	 14.618285678391 	
H	 26.588121053428 	 11.768027706334 	  4.487726128391 	
H	 26.019576923428 	 11.768030516334 	 14.618282848391 	
H	  2.378501854639 	  2.498794895053 	  0.700983294154 	
H	  1.809957724639 	  2.498797705053 	 10.831540014154 	
H	  2.378470754639 	  8.682356655053 	  0.700980464154 	
H	  1.809926624639 	  8.682359465053 	 10.831537184154 	
H	 17.059329154639 	  2.498804125053 	  0.729113224154 	
H	 16.490785024639 	  2.498806935053 	 10.859669944154 	
H	 17.059298054639 	  8.682365885053 	  0.729110394154 	
H	 16.490753924639 	  8.682368695053 	 10.859667114154 	
768 
Energy: -9.5736947487180004e+01 
S	  8.633717571039 	  1.524809213250 	  0.069338643205 	
S	  8.065173441039 	  1.524812023250 	 10.199895363205 	
S	  8.633686471039 	  7.708370973250 	  0.069335813205 	
S	  8.065142341039 	  7.708373783250 	 10.199892533205 	
S	 23.314544871039 	  1.524818443250 	  0.097468573205 	
S	 22.746000741039 	  1.524821253250 	 10.228025293205 	
S	 23.314513771039 	  7.708380203250 	  0.097465743205 	
S	 22.745969641039 	  7.708383013250 	 10.228022463205 	
S	  5.588776960043 	  4.603545010197 	  5.129264223910 	
S	  5.020232830043 	  4.603547820197 	 15.259820943910 	
S	  5.588745860043 	 10.787106770197 	  5.129261393910 	
S	  5.020201730043 	 10.787109580197 	 15.259818113910 	
S	 20.269604260043 	  4.603554240197 	  5.157394153910 	
S	 19.701060130043 	  4.603557050197 	 15.287950873910 	
S	 20.269573160043 	 10.787116000197 	  5.157391323910 	
S	 19.701029030043 	 10.787118810197 	 15.287948043910 	
S	  5.324075239238 	  4.634144261612 	 10.271330871437 	
S	  4.755531109238 	  4.634147071612 	 20.401887591437 	
S	  5.324044139238 	 10.817706021612 	 10.271328041437 	
S	  4.755500009238 	 10.817708831612 	 20.401884761437 	
S	 20.004902539238 	  4.634153491612 	 10.299460801437 	
S	 19.436358409238 	  4.634156301612 	 20.430017521437 	
S	 20.004871439238 	 10.817715251612 	 10.299457971437 	
S	 19.436327309238 	 10.817718061612 	 20.430014691437 	
S	  8.369016470773 	  1.555408976257 	  5.211405381712 	
S	  7.800472340773 	  1.555411786257 	 15.341962101712 	
S	  8.368985370773 	  7.738970736257 	  5.211402551712 	
S	  7.800441240773 	  7.738973546257 	 15.341959271712 	
S	 23.049843770773 	  1.555418206257 	  5.239535311712 	
S	 22.481299640773 	  1.555421016257 	 15.370092031712 	
S	 23.049812670773 	  7.738979966257 	  5.239532481712 	
S	 22.481268540773 	  7.738982776257 	 15.370089201712 	
C	  6.693466552930 	  2.555440241057 	  9.950446262856 	
C	  6.124922422930 	  2.555443051057 	 20.081002982856 	
C	  6.693435452930 	  8.739002001057 	  9.950443432856 	
C	  6.124891322930 	  8.739004811057 	 20.081000152856 	
C	 21.374293852930 	  2.555449471057 	  9.978576192856 	
C	 20.805749722930 	  2.555452281057 	 20.109132912856 	
C	 21.374262752930 	  8.739011231057 	  9.978573362856 	
C	 20.805718622930 	  8.739014041057 	 20.109130082856 	
C	  6.999012745972 	  5.605496880194 	  5.550846245743 	
C	  6.430468615972 	  5.605499690194 	 15.681402965743 	
C	  6.998981645972 	 11.789058640194 	  5.550843415743 	
C	  6.430437515972 	 11.789061450194 	 15.681400135743 	
C	 21.679840045972 	  5.605506110194 	  5.578976175743 	
C	 21.111295915972 	  5.605508920194 	 15.709532895743 	
C	 21.679808945972 	 11.789067870194 	  5.578973345743 	
C	 21.111264815972 	 11.789070680194 	 15.709530065743 	
C	  7.264326291711 	  3.603513191974 	  0.390223222300 	
C	  6.695782161711 	  3.603516001974 	 10.520779942300 	
C	  7.264295191711 	  9.787074951974 	  0.390220392300 	
C	  6.695751061711 	  9.787077761974 	 10.520777112300 	
C	 21.945153591711 	  3.603522421974 	  0.418353152300 	
C	 21.376609461711 	  3.603525231974 	 10.548909872300 	
C	 21.945122491711 	  9.787084181974 	  0.418350322300 	
C	 21.376578361711 	  9.787086991974 	 10.548907042300 	
C	  6.958780543393 	  0.553457204360 	  4.789823309426 	
C	  6.390236413393 	  0.553460014360 	 14.920380029426 	
C	  6.958749443393 	  6.737018964360 	  4.789820479426 	
C	  6.390205313393 	  6.737021774360 	 14.920377199426 	
C	 21.639607843393 	  0.553466434360 	  4.817953239426 	
C	 21.071063713393 	  0.553469244360 	 14.948509959426 	
C	 21.639576743393 	  6.737028194360 	  4.817950409426 	
C	 21.071032613393 	  6.737031004360 	 14.948507129426 	
C	  5.643233453671 	  2.351715288115 	  9.011970879769 	
C	  5.074689323671 	  2.351718098115 	 19.142527599769 	
C	  5.643202353671 	  8.535277048115 	  9.011968049769 	
C	  5.074658223671 	  8.535279858115 	 19.142524769769 	
C	 20.324060753671 	  2.351724518115 	  9.040100809769 	
C	 19.755516623671 	  2.351727328115 	 19.170657529769 	
C	 20.324029653671 	  8.535286278115 	  9.040097979769 	
C	 19.755485523671 	  8.535289088115 	 19.170654699769 	
C	  8.053871393702 	  5.431845180184 	  6.470384083892 	
C	  7.485327263702 	  5.431847990184 	 16.600940803892 	
C	  8.053840293702 	 11.615406940184 	  6.470381253892 	
C	  7.485296163702 	 11.615409750184 	 16.600937973892 	
C	 22.734698693702 	  5.431854410184 	  6.498514013892 	
C	 22.166154563702 	  5.431857220184 	 16.629070733892 	
C	 22.734667593702 	 11.615416170184 	  6.498511183892 	
C	 22.166123463702 	 11.615418980184 	 16.629067903892 	
C	  8.314559228703 	  3.807238184977 	  1.328698481975 	
C	  7.746015098703 	  3.807240994977 	 11.459255201975 	
C	  8.314528128703 	  9.990799944977 	  1.328695651975 	
C	  7.745983998703 	  9.990802754977 	 11.459252371975 	
C	 22.995386528703 	  3.807247414977 	  1.356828411975 	
C	 22.426842398703 	  3.807250224977 	 11.487385131975 	
C	 22.995355428703 	  9.990809174977 	  1.356825581975 	
C	 22.426811298703 	  9.990811984977 	 11.487382301975 	
C	  5.903921802836 	  0.727108891233 	  3.870285459374 	
C	  5.335377672836 	  0.727111701233 	 14.000842179374 	
C	  5.903890702836 	  6.910670651233 	  3.870282629374 	
C	  5.335346572836 	  6.910673461233 	 14.000839349374 	
C	 20.584749102836 	  0.727118121233 	  3.898415389374 	
C	 20.016204972836 	  0.727120931233 	 14.028972109374 	
C	 20.584718002836 	  6.910679881233 	  3.898412559374 	
C	 20.016173872836 	  6.910682691233 	 14.028969279374 	
C	  4.760334665860 	  3.414945004298 	  9.048962042458 	
C	  4.191790535860 	  3.414947814298 	 19.179518762458 	
C	  4.760303565860 	  9.598506764298 	  9.048959212458 	
C	  4.191759435860 	  9.598509574298 	 19.179515932458 	
C	 19.441161965860 	  3.414954234298 	  9.077091972458 	
C	 18.872617835860 	  3.414957044298 	 19.207648692458 	
C	 19.441130865860 	  9.598515994298 	  9.077089142458 	
C	 18.872586735860 	  9.598518804298 	 19.207645862458 	
C	  8.925533685778 	  0.333981357776 	  6.434772598856 	
C	  8.356989555778 	  0.333984167776 	 16.565329318856 	
C	  8.925502585778 	  6.517543117776 	  6.434769768856 	
C	  8.356958455778 	  6.517545927776 	 16.565326488856 	
C	 23.606360985778 	  0.333990587776 	  6.462902528856 	
C	 23.037816855778 	  0.333993397776 	 16.593459248856 	
C	 23.606329885778 	  6.517552347776 	  6.462899698856 	
C	 23.037785755778 	  6.517555157776 	 16.593456418856 	
C	  9.197458010751 	  2.744008523502 	  1.291707403233 	
C	  8.628913880751 	  2.744011333502 	 11.422264123233 	
C	  9.197426910751 	  8.927570283502 	  1.291704573233 	
C	  8.628882780751 	  8.927573093502 	 11.422261293233 	
C	 23.878285310751 	  2.744017753502 	  1.319837333233 	
C	 23.309741180751 	  2.744020563502 	 11.450394053233 	
C	 23.878254210751 	  8.927579513502 	  1.319834503233 	
C	 23.309710080751 	  8.927582323502 	 11.450391223233 	
C	  5.032259553458 	  5.824972663566 	  3.905897019782 	
C	  4.463715423458 	  5.824975473566 	 14.036453739782 	
C	  5.032228453458 	 12.008534423566 	  3.905894189782 	
C	  4.463684323458 	 12.008537233566 	 14.036450909782 	
C	 19.713086853458 	  5.824981893566 	  3.934026949782 	
C	 19.144542723458 	  5.824984703566 	 14.064583669782 	
C	 19.713055753458 	 12.008543653566 	  3.934024119782 	
C	 19.144511623458 	 12.008546463566 	 14.064580839782 	
C	  3.680190722251 	  3.470999806790 	  8.301447253233 	
C	  3.111646592251 	  3.471002616790 	 18.432003973233 	
C	  3.680159622251 	  9.654561566790 	  8.301444423233 	
C	  3.111615492251 	  9.654564376790 	 18.432001143233 	
C	 18.361018022251 	  3.471009036790 	  8.329577183233 	
C	 17.792473892251 	  3.471011846790 	 18.460133903233 	
C	 18.360986922251 	  9.654570796790 	  8.329574353233 	
C	 17.792442792251 	  9.654573606790 	 18.460131073233 	
C	 10.009868181733 	  0.396301091832 	  7.180576566816 	
C	  9.441324051733 	  0.396303901832 	 17.311133286816 	
C	 10.009837081733 	  6.579862851832 	  7.180573736816 	
C	  9.441292951733 	  6.579865661832 	 17.311130456816 	
C	 24.690695481733 	  0.396310321832 	  7.208706496816 	
C	 24.122151351733 	  0.396313131832 	 17.339263216816 	
C	 24.690664381733 	  6.579872081832 	  7.208703666816 	
C	 24.122120251733 	  6.579874891832 	 17.339260386816 	
C	 10.277601987194 	  2.687953814627 	  2.039222355331 	
C	  9.709057857194 	  2.687956624627 	 12.169779075331 	
C	 10.277570887194 	  8.871515574627 	  2.039219525331 	
C	  9.709026757194 	  8.871518384627 	 12.169776245331 	
C	 24.958429287194 	  2.687963044627 	  2.067352285331 	
C	 24.389885157194 	  2.687965854627 	 12.197909005331 	
C	 24.958398187194 	  8.871524804627 	  2.067349455331 	
C	 24.389854057194 	  8.871527614627 	 12.197906175331 	
C	  3.947924923300 	  5.762652929516 	  3.160093195275 	
C	  3.379380793300 	  5.762655739516 	 13.290649915275 	
C	  3.947893823300 	 11.946214689516 	  3.160090365275 	
C	  3.379349693300 	 11.946217499516 	 13.290647085275 	
C	 18.628752223300 	  5.762662159516 	  3.188223125275 	
C	 18.060208093300 	  5.762664969516 	 13.318779845275 	
C	 18.628721123300 	 11.946223919516 	  3.188220295275 	
C	 18.060176993300 	 11.946226729516 	 13.318777015275 	
H	  2.988239240653 	  4.396879959902 	  8.382764554849 	
H	  2.419695110653 	  4.396882769902 	 18.513321274849 	
H	  2.988208140653 	 10.580441719902 	  8.382761724849 	
H	  2.419664010653 	 10.580444529902 	 18.513318444849 	
H	 17.669066540653 	  4.396889189902 	  8.410894484849 	
H	 17.100522410653 	  4.396891999902 	 18.541451204849 	
H	 17.669035440653 	 10.580450949902 	  8.410891654849 	
H	 17.100491310653 	 10.580453759902 	 18.541448374849 	
H	 10.703558156740 	  1.316059057224 	  7.101142158083 	
H	 10.135014026740 	  1.316061867224 	 17.231698878083 	
H	 10.703527056740 	  7.499620817224 	  7.101139328083 	
H	 10.134982926740 	  7.499623627224 	 17.231696048083 	
H	 25.384385456740 	  1.316068287224 	  7.129272088083 	
H	 24.815841326740 	  1.316071097224 	 17.259828808083 	
H	 25.384354356740 	  7.499630047224 	  7.129269258083 	
H	 24.815810226740 	  7.499632857224 	 17.259825978083 	
H	 10.969553429118 	  1.762073618724 	  1.957905037241 	
H	 10.401009299118 	  1.762076428724 	 12.088461757241 	
H	 10.969522329118 	  7.945635378724 	  1.957902207241 	
H	 10.400978199118 	  7.945638188724 	 12.088458927241 	
H	 25.650380729118 	  1.762082848724 	  1.986034967241 	
H	 25.081836599118 	  1.762085658724 	 12.116591687241 	
H	 25.650349629118 	  7.945644608724 	  1.986032137241 	
H	 25.081805499118 	  7.945647418724 	 12.116588857241 	
H	  3.254235073774 	  4.842894867723 	  3.239527678587 	
H	  2.685690943774 	  4.842897677723 	 13.370084398587 	
H	  3.254203973774 	 11.026456627723 	  3.239524848587 	
H	  2.685659843774 	 11.026459437723 	 13.370081568587 	
H	 17.935062373774 	  4.842904097723 	  3.267657608587 	
H	 17.366518243774 	  4.842906907723 	 13.398214328587 	
H	 17.935031273774 	 11.026465857723 	  3.267654778587 	
H	 17.366487143774 	 11.026468667723 	 13.398211498587 	
C	  3.352514538508 	  2.497007467305 	  7.450778988075 	
C	  2.783970408508 	  2.497010277305 	 17.581335708075 	
C	  3.352483438508 	  8.680569227305 	  7.450776158075 	
C	  2.783939308508 	  8.680572037305 	 17.581332878075 	
C	 18.033341838508 	  2.497016697305 	  7.478908918075 	
C	 17.464797708508 	  2.497019507305 	 17.609465638075 	
C	 18.033310738508 	  8.680578457305 	  7.478906088075 	
C	 17.464766608508 	  8.680581267305 	 17.609462808075 	
C	 10.340601247943 	  5.571162029993 	  8.033091711531 	
C	  9.772057117943 	  5.571164839993 	 18.163648431531 	
C	 10.340570147943 	 11.754723789993 	  8.033088881531 	
C	  9.772026017943 	 11.754726599993 	 18.163645601531 	
C	 25.021428547943 	  5.571171259993 	  8.061221641531 	
C	 24.452884417943 	  5.571174069993 	 18.191778361531 	
C	 25.021397447943 	 11.754733019993 	  8.061218811531 	
C	 24.452853317943 	 11.754735829993 	 18.191775531531 	
C	 10.605278004094 	  3.661946123770 	  2.889890497032 	
C	 10.036733874094 	  3.661948933770 	 13.020447217032 	
C	 10.605246904094 	  9.845507883770 	  2.889887667032 	
C	 10.036702774094 	  9.845510693770 	 13.020444387032 	
C	 25.286105304094 	  3.661955353770 	  2.918020427032 	
C	 24.717561174094 	  3.661958163770 	 13.048577147032 	
C	 25.286074204094 	  9.845517113770 	  2.918017597032 	
C	 24.717530074094 	  9.845519923770 	 13.048574317032 	
C	  3.617191820717 	  0.587791983463 	  2.307578067419 	
C	  3.048647690717 	  0.587794793463 	 12.438134787419 	
C	  3.617160720717 	  6.771353743463 	  2.307575237419 	
C	  3.048616590717 	  6.771356553463 	 12.438131957419 	
C	 18.298019120717 	  0.587801213463 	  2.335707997419 	
C	 17.729474990717 	  0.587804023463 	 12.466264717419 	
C	 18.297988020717 	  6.771362973463 	  2.335705167419 	
C	 17.729443890717 	  6.771365783463 	 12.466261887419 	
C	  4.238920934576 	  1.459152609038 	  7.387300420568 	
C	  3.670376804576 	  1.459155419038 	 17.517857140568 	
C	  4.238889834576 	  7.642714369038 	  7.387297590568 	
C	  3.670345704576 	  7.642717179038 	 17.517854310568 	
C	 18.919748234576 	  1.459161839038 	  7.415430350568 	
C	 18.351204104576 	  1.459164649038 	 17.545987070568 	
C	 18.919717134576 	  7.642723599038 	  7.415427520568 	
C	 18.351173004576 	  7.642726409038 	 17.545984240568 	
C	  9.453098906703 	  4.539640202576 	  8.094867140242 	
C	  8.884554776703 	  4.539643012576 	 18.225423860242 	
C	  9.453067806703 	 10.723201962576 	  8.094864310242 	
C	  8.884523676703 	 10.723204772576 	 18.225421030242 	
C	 24.133926206703 	  4.539649432576 	  8.122997070242 	
C	 23.565382076703 	  4.539652242576 	 18.253553790242 	
C	 24.133895106703 	 10.723211192576 	  8.122994240242 	
C	 23.565350976703 	 10.723214002576 	 18.253550960242 	
C	  9.718871563195 	  4.699800967788 	  2.953369106825 	
C	  9.150327433195 	  4.699803777788 	 13.083925826825 	
C	  9.718840463195 	 10.883362727788 	  2.953366276825 	
C	  9.150296333195 	 10.883365537788 	 13.083922996825 	
C	 24.399698863195 	  4.699810197788 	  2.981499036825 	
C	 23.831154733195 	  4.699813007788 	 13.112055756825 	
C	 24.399667763195 	 10.883371957788 	  2.981496206825 	
C	 23.831123633195 	 10.883374767788 	 13.112052926825 	
C	  4.504694015912 	  1.619313749244 	  2.245802525533 	
C	  3.936149885912 	  1.619316559244 	 12.376359245533 	
C	  4.504662915912 	  7.802875509244 	  2.245799695533 	
C	  3.936118785912 	  7.802878319244 	 12.376356415533 	
C	 19.185521315912 	  1.619322979244 	  2.273932455533 	
C	 18.616977185912 	  1.619325789244 	 12.404489175533 	
C	 19.185490215912 	  7.802884739244 	  2.273929625533 	
C	 18.616946085912 	  7.802887549244 	 12.404486345533 	
H	  4.010068539087 	  0.606477623249 	  6.641182804031 	
H	  3.441524409087 	  0.606480433249 	 16.771739524031 	
H	  4.010037439087 	  6.790039383249 	  6.641179974031 	
H	  3.441493309087 	  6.790042193249 	 16.771736694031 	
H	 18.690895839087 	  0.606486853249 	  6.669312734031 	
H	 18.122351709087 	  0.606489663249 	 16.799869454031 	
H	 18.690864739087 	  6.790048613249 	  6.669309904031 	
H	 18.122320609087 	  6.790051423249 	 16.799866624031 	
H	  9.681657780799 	  3.686469853716 	  8.841541224065 	
H	  9.113113650799 	  3.686472663716 	 18.972097944065 	
H	  9.681626680799 	  9.870031613716 	  8.841538394065 	
H	  9.113082550799 	  9.870034423716 	 18.972095114065 	
H	 24.362485080799 	  3.686479083716 	  8.869671154065 	
H	 23.793940950799 	  3.686481893716 	 19.000227874065 	
H	 24.362453980799 	  9.870040843716 	  8.869668324065 	
H	 23.793909850799 	  9.870043653716 	 19.000225044065 	
H	  9.947723986244 	  5.552475960652 	  3.699486694789 	
H	  9.379179856244 	  5.552478770652 	 13.830043414789 	
H	  9.947692886244 	 11.736037720652 	  3.699483864789 	
H	  9.379148756244 	 11.736040530652 	 13.830040584789 	
H	 24.628551286244 	  5.552485190652 	  3.727616624789 	
H	 24.060007156244 	  5.552488000652 	 13.858173344789 	
H	 24.628520186244 	 11.736046950652 	  3.727613794789 	
H	 24.059976056244 	 11.736049760652 	 13.858170514789 	
H	  4.276135051693 	  2.472484155650 	  1.499128528982 	
H	  3.707590921693 	  2.472486965650 	 11.629685248982 	
H	  4.276103951693 	  8.656045915650 	  1.499125698982 	
H	  3.707559821693 	  8.656048725650 	 11.629682418982 	
H	 18.956962351693 	  2.472493385650 	  1.527258458982 	
H	 18.388418221693 	  2.472496195650 	 11.657815178982 	
H	 18.956931251693 	  8.656055145650 	  1.527255628982 	
H	 18.388387121693 	  8.656057955650 	 11.657812348982 	
C	  5.300127622671 	  1.383766940243 	  8.101599424809 	
C	  4.731583492671 	  1.383769750243 	 18.232156144809 	
C	  5.300096522671 	  7.567328700243 	  8.101596594809 	
C	  4.731552392671 	  7.567331510243 	 18.232153314809 	
C	 19.980954922671 	  1.383776170243 	  8.129729354809 	
C	 19.412410792671 	  1.383778980243 	 18.260286074809 	
C	 19.980923822671 	  7.567337930243 	  8.129726524809 	
C	 19.412379692671 	  7.567340740243 	 18.260283244809 	
C	  8.391770746207 	  4.464100976722 	  7.380541680681 	
C	  7.823226616207 	  4.464103786722 	 17.511098400681 	
C	  8.391739646207 	 10.647662736722 	  7.380538850681 	
C	  7.823195516207 	 10.647665546722 	 17.511095570681 	
C	 23.072598046207 	  4.464110206722 	  7.408671610681 	
C	 22.504053916207 	  4.464113016722 	 17.539228330681 	
C	 23.072566946207 	 10.647671966722 	  7.408668780681 	
C	 22.504022816207 	 10.647674776722 	 17.539225500681 	
C	  8.657664960610 	  4.775186588766 	  2.239069960555 	
C	  8.089120830610 	  4.775189398766 	 12.369626680555 	
C	  8.657633860610 	 10.958748348766 	  2.239067130555 	
C	  8.089089730610 	 10.958751158766 	 12.369623850555 	
C	 23.338492260610 	  4.775195818766 	  2.267199890555 	
C	 22.769948130610 	  4.775198628766 	 12.397756610555 	
C	 23.338461160610 	 10.958757578766 	  2.267197060555 	
C	 22.769917030610 	 10.958760388766 	 12.397753780555 	
C	  5.566022354248 	  1.694853068685 	  2.960127947813 	
C	  4.997478224248 	  1.694855878685 	 13.090684667813 	
C	  5.565991254248 	  7.878414828685 	  2.960125117813 	
C	  4.997447124248 	  7.878417638685 	 13.090681837813 	
C	 20.246849654248 	  1.694862298685 	  2.988257877813 	
C	 19.678305524248 	  1.694865108685 	 13.118814597813 	
C	 20.246818554248 	  7.878424058685 	  2.988255047813 	
C	 19.678274424248 	  7.878426868685 	 13.118811767813 	
H	  6.012046618243 	  0.477090221323 	  8.006130422546 	
H	  5.443502488243 	  0.477093031323 	 18.136687142546 	
H	  6.012015518243 	  6.660651981323 	  8.006127592546 	
H	  5.443471388243 	  6.660654791323 	 18.136684312546 	
H	 20.692873918243 	  0.477099451323 	  8.034260352546 	
H	 20.124329788243 	  0.477102261323 	 18.164817072546 	
H	 20.692842818243 	  6.660661211323 	  8.034257522546 	
H	 20.124298688243 	  6.660664021323 	 18.164814242546 	
H	  7.679608669997 	  3.556744974449 	  7.476577327052 	
H	  7.111064539997 	  3.556747784449 	 17.607134047052 	
H	  7.679577569997 	  9.740306734449 	  7.476574497052 	
H	  7.111033439997 	  9.740309544449 	 17.607131217052 	
H	 22.360435969997 	  3.556754204449 	  7.504707257052 	
H	 21.791891839997 	  3.556757014449 	 17.635263977052 	
H	 22.360404869997 	  9.740315964449 	  7.504704427052 	
H	 21.791860739997 	  9.740318774449 	 17.635261147052 	
H	  7.945745892488 	  5.681863233280 	  2.334538937486 	
H	  7.377201762488 	  5.681866043280 	 12.465095657486 	
H	  7.945714792488 	 11.865424993280 	  2.334536107486 	
H	  7.377170662488 	 11.865427803280 	 12.465092827486 	
H	 22.626573192488 	  5.681872463280 	  2.362668867486 	
H	 22.058029062488 	  5.681875273280 	 12.493225587486 	
H	 22.626542092488 	 11.865434223280 	  2.362666037486 	
H	 22.057997962488 	 11.865437033280 	 12.493222757486 	
H	  6.278184379658 	  2.602209082855 	  2.864092228401 	
H	  5.709640249658 	  2.602211892855 	 12.994648948401 	
H	  6.278153279658 	  8.785770842855 	  2.864089398401 	
H	  5.709609149658 	  8.785773652855 	 12.994646118401 	
H	 20.959011679658 	  2.602218312855 	  2.892222158401 	
H	 20.390467549658 	  2.602221122855 	 13.022778878401 	
H	 20.958980579658 	  8.785780072855 	  2.892219328401 	
H	 20.390436449658 	  8.785782882854 	 13.022776048401 	
C	  1.972490461171 	  2.553915738746 	  6.522975356100 	
C	  1.403946331171 	  2.553918548746 	 16.653532076100 	
C	  1.972459361171 	  8.737477498746 	  6.522972526100 	
C	  1.403915231171 	  8.737480308746 	 16.653529246100 	
C	 16.653317761171 	  2.553924968746 	  6.551105286100 	
C	 16.084773631171 	  2.553927778746 	 16.681662006100 	
C	 16.653286661171 	  8.737486728746 	  6.551102456100 	
C	 16.084742531171 	  8.737489538746 	 16.681659176100 	
C	 11.678262421366 	  5.592738796578 	  8.932759142101 	
C	 11.109718291366 	  5.592741606578 	 19.063315862101 	
C	 11.678231321366 	 11.776300556578 	  8.932756312101 	
C	 11.109687191366 	 11.776303366578 	 19.063313032101 	
C	 26.359089721366 	  5.592748026578 	  8.960889072101 	
C	 25.790545591366 	  5.592750836578 	 19.091445792101 	
C	 26.359058621366 	 11.776309786578 	  8.960886242101 	
C	 25.790514491366 	 11.776312596578 	 19.091442962101 	
C	 11.985302146157 	  3.605038118485 	  3.817694366870 	
C	 11.416758016157 	  3.605040928485 	 13.948251086870 	
C	 11.985271046157 	  9.788599878485 	  3.817691536870 	
C	 11.416726916157 	  9.788602688485 	 13.948248256870 	
C	 26.666129446157 	  3.605047348485 	  3.845824296870 	
C	 26.097585316157 	  3.605050158485 	 13.976381016870 	
C	 26.666098346157 	  9.788609108485 	  3.845821466870 	
C	 26.097554216157 	  9.788611918485 	 13.976378186870 	
C	  2.279530550451 	  0.566215074500 	  1.407910719052 	
C	  1.710986420451 	  0.566217884500 	 11.538467439052 	
C	  2.279499450451 	  6.749776834500 	  1.407907889052 	
C	  1.710955320451 	  6.749779644500 	 11.538464609052 	
C	 16.960357850451 	  0.566224304500 	  1.436040649052 	
C	 16.391813720451 	  0.566227114500 	 11.566597369052 	
C	 16.960326750451 	  6.749786064500 	  1.436037819052 	
C	 16.391782620451 	  6.749788874500 	 11.566594539052 	
C	  2.183449609411 	  2.876540924312 	  5.441296426029 	
C	  1.614905479411 	  2.876543734312 	 15.571853146029 	
C	  2.183418509411 	  9.060102684312 	  5.441293596029 	
C	  1.614874379411 	  9.060105494312 	 15.571850316029 	
C	 16.864276909411 	  2.876550154312 	  5.469426356029 	
C	 16.295732779411 	  2.876552964312 	 15.599983076029 	
C	 16.864245809411 	  9.060111914312 	  5.469423526029 	
C	 16.295701679411 	  9.060114724312 	 15.599980246029 	
C	 11.505109098594 	 -0.186977514297 	  9.998908431488 	
C	 10.936564968594 	 -0.186974704297 	 20.129465151488 	
C	 11.505077998594 	  5.996584245703 	  9.998905601488 	
C	 10.936533868594 	  5.996587055703 	 20.129462321488 	
C	 26.185936398594 	 -0.186968284297 	 10.027038361488 	
C	 25.617392268594 	 -0.186965474297 	 20.157595081488 	
C	 26.185905298594 	  5.996593475703 	 10.027035531488 	
C	 25.617361168594 	  5.996596285703 	 20.157592251488 	
C	 11.774342110942 	  3.282412729349 	  4.899373938959 	
C	 11.205797980942 	  3.282415539349 	 15.029930658959 	
C	 11.774311010942 	  9.465974489349 	  4.899371108959 	
C	 11.205766880942 	  9.465977299349 	 15.029927828959 	
C	 26.455169410942 	  3.282421959349 	  4.927503868959 	
C	 25.886625280942 	  3.282424769349 	 15.058060588959 	
C	 26.455138310942 	  9.465983719349 	  4.927501038959 	
C	 25.886594180942 	  9.465986529349 	 15.058057758959 	
C	  2.452683817736 	  6.345931644858 	  0.341761389440 	
C	  1.884139687736 	  6.345934454858 	 10.472318109440 	
C	  2.452652717736 	 12.529493404858 	  0.341758559440 	
C	  1.884108587736 	 12.529496214858 	 10.472315279440 	
C	 17.133511117736 	  6.345940874858 	  0.369891319440 	
C	 16.564966987736 	  6.345943684858 	 10.500448039440 	
C	 17.133480017736 	 12.529502634858 	  0.369888489440 	
C	 16.564935887736 	 12.529505444858 	 10.500445209440 	
H	  2.798684708100 	  3.814715823101 	  5.265774083009 	
H	  2.230140578100 	  3.814718633101 	 15.396330803009 	
H	  2.798653608100 	  9.998277583101 	  5.265771253009 	
H	  2.230109478100 	  9.998280393101 	 15.396327973009 	
H	 17.479512008100 	  3.814725053101 	  5.293904013009 	
H	 16.910967878100 	  3.814727863101 	 15.424460733009 	
H	 17.479480908100 	  9.998286813101 	  5.293901183009 	
H	 16.910936778100 	  9.998289623101 	 15.424457903009 	
H	 10.893190539628 	  0.725265291624 	 10.219083882543 	
H	 10.324646409628 	  0.725268101624 	 20.349640602543 	
H	 10.893159439628 	  6.908827051624 	 10.219081052543 	
H	 10.324615309628 	  6.908829861624 	 20.349637772543 	
H	 25.574017839628 	  0.725274521624 	 10.247213812543 	
H	 25.005473709628 	  0.725277331624 	 20.377770532543 	
H	 25.573986739628 	  6.908836281624 	 10.247210982543 	
H	 25.005442609628 	  6.908839091624 	 20.377767702543 	
H	 11.159107664197 	  2.344236857326 	  5.074895759107 	
H	 10.590563534197 	  2.344239667326 	 15.205452479107 	
H	 11.159076564197 	  8.527798617326 	  5.074892929107 	
H	 10.590532434197 	  8.527801427326 	 15.205449649107 	
H	 25.839934964197 	  2.344246087326 	  5.103025689107 	
H	 25.271390834197 	  2.344248897326 	 15.233582409107 	
H	 25.839903864197 	  8.527807847326 	  5.103022859107 	
H	 25.271359734197 	  8.527810657326 	 15.233579579107 	
H	  3.064602374121 	  5.433688942026 	  0.121585629888 	
H	  2.496058244121 	  5.433691752026 	 10.252142349888 	
H	  3.064571274121 	 11.617250702026 	  0.121582799888 	
H	  2.496027144121 	 11.617253512026 	 10.252139519888 	
H	 17.745429674121 	  5.433698172026 	  0.149715559888 	
H	 17.176885544121 	  5.433700982026 	 10.280272279888 	
H	 17.745398574121 	 11.617259932026 	  0.149712729888 	
H	 17.176854444121 	 11.617262742026 	 10.280269449888 	
H	  1.406158190662 	  3.017124585374 	  4.622241177091 	
H	  0.837614060662 	  3.017127395374 	 14.752797897091 	
H	  1.406127090662 	  9.200686345374 	  4.622238347091 	
H	  0.837582960662 	  9.200689155374 	 14.752795067091 	
H	 16.086985490662 	  3.017133815374 	  4.650371107091 	
H	 15.518441360662 	  3.017136625374 	 14.780927827091 	
H	 16.086954390662 	  9.200695575374 	  4.650368277091 	
H	 15.518410260662 	  9.200698385374 	 14.780924997091 	
H	 12.863593146846 	 -0.052583997662 	  0.623285126428 	
H	 12.295049016846 	 -0.052581187662 	 10.753841846428 	
H	 12.863562046846 	  6.130977762338 	  0.623282296428 	
H	 12.295017916846 	  6.130980572338 	 10.753839016428 	
H	 27.544420446846 	 -0.052574767662 	  0.651415056428 	
H	 26.975876316846 	 -0.052571957662 	 10.781971776428 	
H	 27.544389346846 	  6.130986992338 	  0.651412226428 	
H	 26.975845216846 	  6.130989802338 	 10.781968946428 	
H	 12.551633849276 	  3.141829575682 	  5.718429042870 	
H	 11.983089719276 	  3.141832385682 	 15.848985762870 	
H	 12.551602749276 	  9.325391335682 	  5.718426212870 	
H	 11.983058619276 	  9.325394145682 	 15.848982932870 	
H	 27.232461149276 	  3.141838805682 	  5.746558972870 	
H	 26.663917019276 	  3.141841615682 	 15.877115692870 	
H	 27.232430049276 	  9.325400565682 	  5.746556142870 	
H	 26.663885919276 	  9.325403375682 	 15.877112862870 	
H	  1.094199773695 	  6.211538183867 	  9.717384686724 	
H	  0.525655643695 	  6.211540993867 	 19.847941406724 	
H	  1.094168673695 	 12.395099943867 	  9.717381856724 	
H	  0.525624543695 	 12.395102753867 	 19.847938576724 	
H	 15.775027073695 	  6.211547413867 	  9.745514616724 	
H	 15.206482943695 	  6.211550223867 	 19.876071336724 	
H	 15.774995973695 	 12.395109173867 	  9.745511786724 	
H	 15.206451843695 	 12.395111983867 	 19.876068506724 	
H	  2.948036850525 	  2.297725689405 	  4.830002954020 	
H	  2.379492720525 	  2.297728499405 	 14.960559674020 	
H	  2.948005750525 	  8.481287449405 	  4.830000124020 	
H	  2.379461620525 	  8.481290259405 	 14.960556844020 	
H	 17.628864150525 	  2.297734919405 	  4.858132884020 	
H	 17.060320020525 	  2.297737729405 	 14.988689604020 	
H	 17.628833050525 	  8.481296679405 	  4.858130054020 	
H	 17.060288920525 	  8.481299489405 	 14.988686774020 	
H	 11.227490289380 	  5.367028832288 	  0.407460062101 	
H	 10.658946159380 	  5.367031642288 	 10.538016782101 	
H	 11.227459189380 	 11.550590592288 	  0.407457232101 	
H	 10.658915059380 	 11.550593402288 	 10.538013952101 	
H	 25.908317589380 	  5.367038062288 	  0.435589992101 	
H	 25.339773459380 	  5.367040872288 	 10.566146712101 	
H	 25.908286489380 	 11.550599822288 	  0.435587162101 	
H	 25.339742359380 	 11.550602632288 	 10.566143882101 	
H	 11.009754601146 	  3.861228726086 	  5.510667072959 	
H	 10.441210471146 	  3.861231536086 	 15.641223792959 	
H	 11.009723501146 	 10.044790486086 	  5.510664242959 	
H	 10.441179371146 	 10.044793296086 	 15.641220962959 	
H	 25.690581901146 	  3.861237956086 	  5.538797002959 	
H	 25.122037771146 	  3.861240766086 	 15.669353722959 	
H	 25.690550801146 	 10.044799716086 	  5.538794172959 	
H	 25.122006671146 	 10.044802526086 	 15.669350892959 	
H	  2.730302684709 	  0.791925418833 	  9.933209905984 	
H	  2.161758554709 	  0.791928228833 	 20.063766625984 	
H	  2.730271584709 	  6.975487178833 	  9.933207075984 	
H	  2.161727454709 	  6.975489988833 	 20.063763795984 	
H	 17.411129984709 	  0.791934648833 	  9.961339835984 	
H	 16.842585854709 	  0.791937458833 	 20.091896555984 	
H	 17.411098884709 	  6.975496408833 	  9.961337005984 	
H	 16.842554754709 	  6.975499218833 	 20.091893725984 	
C	  1.207430184069 	  3.300121219599 	  6.944236529138 	
C	  0.638886054069 	  3.300124029599 	 17.074793249138 	
C	  1.207399084069 	  9.483682979599 	  6.944233699138 	
C	  0.638854954069 	  9.483685789599 	 17.074790419138 	
C	 15.888257484069 	  3.300130449599 	  6.972366459138 	
C	 15.319713354069 	  3.300133259599 	 17.102923179138 	
C	 15.888226384069 	  9.483692209599 	  6.972363629138 	
C	 15.319682254069 	  9.483695019599 	 17.102920349138 	
C	 12.540431854607 	  0.258292970263 	  8.523791728484 	
C	 11.971887724607 	  0.258295780263 	 18.654348448484 	
C	 12.540400754607 	  6.441854730263 	  8.523788898484 	
C	 11.971856624607 	  6.441857540263 	 18.654345618484 	
C	 27.221259154607 	  0.258302200263 	  8.551921658484 	
C	 26.652715024607 	  0.258305010263 	 18.682478378484 	
C	 27.221228054607 	  6.441863960263 	  8.551918828484 	
C	 26.652683924607 	  6.441866770263 	 18.682475548484 	
C	 12.750362678134 	  2.858832161041 	  3.396432760538 	
C	 12.181818548134 	  2.858834971041 	 13.526989480538 	
C	 12.750331578134 	  9.042393921041 	  3.396429930538 	
C	 12.181787448134 	  9.042396731041 	 13.526986650538 	
C	 27.431189978134 	  2.858841391041 	  3.424562690538 	
C	 26.862645848134 	  2.858844201041 	 13.555119410538 	
C	 27.431158878134 	  9.042403151041 	  3.424559860538 	
C	 26.862614748134 	  9.042405961041 	 13.555116580538 	
C	  1.417361136363 	  5.900660704704 	  1.816877979765 	
C	  0.848817006363 	  5.900663514704 	 11.947434699765 	
C	  1.417330036363 	 12.084222464704 	  1.816875149765 	
C	  0.848785906363 	 12.084225274704 	 11.947431869765 	
C	 16.098188436363 	  5.900669934704 	  1.845007909765 	
C	 15.529644306363 	  5.900672744704 	 11.975564629765 	
C	 16.098157336363 	 12.084231694704 	  1.845005079765 	
C	 15.529613206363 	 12.084234504704 	 11.975561799765 	
H	  1.503126015860 	  4.395943520936 	  7.111481237032 	
H	  0.934581885860 	  4.395946330936 	 17.242037957032 	
H	  1.503094915860 	 10.579505280936 	  7.111478407032 	
H	  0.934550785860 	 10.579508090936 	 17.242035127032 	
H	 16.183953315860 	  4.395952750936 	  7.139611167032 	
H	 15.615409185860 	  4.395955560936 	 17.270167887032 	
H	 16.183922215860 	 10.579514510936 	  7.139608337032 	
H	 15.615378085860 	 10.579517320936 	 17.270165057032 	
H	 12.190724383205 	  1.318527451146 	  8.367525617338 	
H	 11.622180253205 	  1.318530261146 	 18.498082337338 	
H	 12.190693283205 	  7.502089211146 	  8.367522787338 	
H	 11.622149153205 	  7.502092021146 	 18.498079507338 	
H	 26.871551683205 	  1.318536681146 	  8.395655547338 	
H	 26.303007553205 	  1.318539491146 	 18.526212267338 	
H	 26.871520583205 	  7.502098441146 	  8.395652717338 	
H	 26.302976453205 	  7.502101251146 	 18.526209437338 	
H	 12.454666767813 	  1.763009592963 	  3.229188308399 	
H	 11.886122637813 	  1.763012402963 	 13.359745028399 	
H	 12.454635667813 	  7.946571352963 	  3.229185478399 	
H	 11.886091537813 	  7.946574162963 	 13.359742198399 	
H	 27.135494067813 	  1.763018822963 	  3.257318238399 	
H	 26.566949937813 	  1.763021632963 	 13.387874958399 	
H	 27.135462967813 	  7.946580582963 	  3.257315408399 	
H	 26.566918837813 	  7.946583392963 	 13.387872128399 	
H	  1.767068720634 	  4.840426227114 	  1.973143720979 	
H	  1.198524590634 	  4.840429037114 	 12.103700440979 	
H	  1.767037620634 	 11.023987987114 	  1.973140890979 	
H	  1.198493490634 	 11.023990797114 	 12.103697610979 	
H	 16.447896020634 	  4.840435457114 	  2.001273650979 	
H	 15.879351890634 	  4.840438267114 	 12.131830370979 	
H	 16.447864920634 	 11.023997217114 	  2.001270820979 	
H	 15.879320790634 	 11.024000027114 	 12.131827540979 	
H	  0.881846095707 	  3.221208765472 	  8.043417043054 	
H	  0.313301965707 	  3.221211575472 	 18.173973763054 	
H	  0.881814995707 	  9.404770525472 	  8.043414213054 	
H	  0.313270865707 	  9.404773335472 	 18.173970933054 	
H	 15.562673395707 	  3.221217995472 	  8.071546973054 	
H	 14.994129265707 	  3.221220805472 	 18.202103693054 	
H	 15.562642295707 	  9.404779755472 	  8.071544143054 	
H	 14.994098165707 	  9.404782565472 	 18.202100863054 	
H	 12.807622364077 	  6.295281462348 	  7.443251069980 	
H	 12.239078234077 	  6.295284272348 	 17.573807789980 	
H	 12.807591264077 	 12.478843222348 	  7.443248239980 	
H	 12.239047134077 	 12.478846032348 	 17.573804959980 	
H	 27.488449664077 	  6.295290692348 	  7.471380999980 	
H	 26.919905534077 	  6.295293502348 	 17.601937719980 	
H	 27.488418564077 	 12.478852452348 	  7.471378169980 	
H	 26.919874434077 	 12.478855262348 	 17.601934889980 	
H	 13.075947368573 	  2.937745088369 	  2.297252280598 	
H	 12.507403238573 	  2.937747898369 	 12.427809000598 	
H	 13.075916268573 	  9.121306848369 	  2.297249450598 	
H	 12.507372138573 	  9.121309658369 	 12.427806170598 	
H	 27.756774668573 	  2.937754318369 	  2.325382210598 	
H	 27.188230538573 	  2.937757128369 	 12.455938930598 	
H	 27.756743568573 	  9.121316078369 	  2.325379380598 	
H	 27.188199438573 	  9.121318888369 	 12.455936100598 	
H	  1.150170748629 	 -0.136327998397 	  2.897418711502 	
H	  0.581626618629 	 -0.136325188397 	 13.027975431502 	
H	  1.150139648629 	  6.047233761603 	  2.897415881502 	
H	  0.581595518629 	  6.047236571603 	 13.027972601502 	
H	 15.830998048629 	 -0.136318768397 	  2.925548641502 	
H	 15.262453918629 	 -0.136315958397 	 13.056105361502 	
H	 15.830966948629 	  6.047242991603 	  2.925545811502 	
H	 15.262422818629 	  6.047245801603 	 13.056102531502 	
H	  0.207517630677 	  3.430719886635 	  6.422875592735 	
H	 -0.361026499323 	  3.430722696635 	 16.553432312735 	
H	  0.207486530677 	  9.614281646635 	  6.422872762735 	
H	 -0.361057599323 	  9.614284456635 	 16.553429482735 	
H	 14.888344930677 	  3.430729116635 	  6.451005522735 	
H	 14.319800800677 	  3.430731926635 	 16.581562242735 	
H	 14.888313830677 	  9.614290876635 	  6.451002692735 	
H	 14.319769700677 	  9.614293686635 	 16.581559412735 	
H	 13.473025116947 	  6.504195146508 	  9.052838025686 	
H	 12.904480986947 	  6.504197956508 	 19.183394745686 	
H	 13.472994016947 	 12.687756906508 	  9.052835195686 	
H	 12.904449886947 	 12.687759716508 	 19.183391915686 	
H	 28.153852416947 	  6.504204376508 	  9.080967955686 	
H	 27.585308286947 	  6.504207186508 	 19.211524675686 	
H	 28.153821316947 	 12.687766136508 	  9.080965125686 	
H	 27.585277186947 	 12.687768946508 	 19.211521845686 	
H	 13.750275074336 	  2.728233664873 	  3.917794157316 	
H	 13.181730944336 	  2.728236474873 	 14.048350877316 	
H	 13.750243974336 	  8.911795424873 	  3.917791327316 	
H	 13.181699844336 	  8.911798234873 	 14.048348047316 	
H	 28.431102374336 	  2.728242894873 	  3.945924087316 	
H	 27.862558244336 	  2.728245704873 	 14.076480807316 	
H	 28.431071274336 	  8.911804654873 	  3.945921257316 	
H	 27.862527144336 	  8.911807464873 	 14.076477977316 	
H	  0.484767815600 	 -0.345241541940 	  1.287831789865 	
H	 -0.083776314400 	 -0.345238731940 	 11.418388509865 	
H	  0.484736715600 	  5.838320218060 	  1.287828959865 	
H	 -0.083807414400 	  5.838323028060 	 11.418385679865 	
H	 15.165595115600 	 -0.345232311940 	  1.315961719865 	
H	 14.597050985600 	 -0.345229501940 	 11.446518439865 	
H	 15.165564015600 	  5.838329448060 	  1.315958889865 	
H	 14.597019885600 	  5.838332258060 	 11.446515609865 	
C	  1.436395126193 	  1.543461856835 	  6.463601154267 	
C	  0.867850996193 	  1.543464666835 	 16.594157874267 	
C	  1.436364026193 	  7.727023616835 	  6.463598324267 	
C	  0.867819896193 	  7.727026426835 	 16.594155044267 	
C	 16.117222426193 	  1.543471086835 	  6.491731084267 	
C	 15.548678296193 	  1.543473896835 	 16.622287804267 	
C	 16.117191326193 	  7.727032846835 	  6.491728254267 	
C	 15.548647196193 	  7.727035656835 	 16.622284974267 	
C	 12.255630555142 	  4.625720416777 	  9.020558740255 	
C	 11.687086425142 	  4.625723226777 	 19.151115460255 	
C	 12.255599455142 	 10.809282176777 	  9.020555910255 	
C	 11.687055325142 	 10.809284986777 	 19.151112630255 	
C	 26.936457855142 	  4.625729646777 	  9.048688670255 	
C	 26.367913725142 	  4.625732456777 	 19.179245390255 	
C	 26.936426755142 	 10.809291406777 	  9.048685840255 	
C	 26.367882625142 	 10.809294216777 	 19.179242560255 	
C	 12.521397326888 	  4.615493007209 	  3.877068060588 	
C	 11.952853196888 	  4.615495817209 	 14.007624780588 	
C	 12.521366226888 	 10.799054767209 	  3.877065230588 	
C	 11.952822096888 	 10.799057577209 	 14.007621950588 	
C	 27.202224626888 	  4.615502237209 	  3.905197990588 	
C	 26.633680496888 	  4.615505047209 	 14.035754710588 	
C	 27.202193526888 	 10.799063997209 	  3.905195160588 	
C	 26.633649396888 	 10.799066807209 	 14.035751880588 	
C	  1.702162234641 	  1.533233357030 	  1.320111352257 	
C	  1.133618104641 	  1.533236167030 	 11.450668072257 	
C	  1.702131134641 	  7.716795117030 	  1.320108522257 	
C	  1.133587004641 	  7.716797927030 	 11.450665242257 	
C	 16.382989534641 	  1.533242587030 	  1.348241282257 	
C	 15.814445404641 	  1.533245397030 	 11.478798002257 	
C	 16.382958434641 	  7.716804347030 	  1.348238452257 	
C	 15.814414304641 	  7.716807157030 	 11.478795172257 	
H	  0.436549734988 	  1.387710001341 	  5.949954625261 	
H	 -0.131994395012 	  1.387712811341 	 16.080511345261 	
H	  0.436518634988 	  7.571271761341 	  5.949951795261 	
H	 -0.132025495012 	  7.571274571341 	 16.080508515261 	
H	 15.117377034988 	  1.387719231341 	  5.978084555261 	
H	 14.548832904988 	  1.387722041341 	 16.108641275261 	
H	 15.117345934988 	  7.571280991341 	  5.978081725261 	
H	 14.548801804988 	  7.571283801341 	 16.108638445261 	
H	 13.254155520747 	  4.468526606251 	  9.533222870587 	
H	 12.685611390747 	  4.468529416251 	 19.663779590587 	
H	 13.254124420747 	 10.652088366251 	  9.533220040587 	
H	 12.685580290747 	 10.652091176251 	 19.663776760587 	
H	 27.934982820747 	  4.468535836251 	  9.561352800587 	
H	 27.366438690747 	  4.468538646251 	 19.691909520587 	
H	 27.934951720747 	 10.652097596251 	  9.561349970587 	
H	 27.366407590747 	 10.652100406251 	 19.691906690587 	
H	 13.521242722873 	  4.771244532888 	  4.390714863508 	
H	 12.952698592873 	  4.771247342888 	 14.521271583508 	
H	 13.521211622873 	 10.954806292888 	  4.390712033508 	
H	 12.952667492873 	 10.954809102888 	 14.521268753508 	
H	 28.202070022873 	  4.771253762888 	  4.418844793508 	
H	 27.633525892873 	  4.771256572888 	 14.549401513508 	
H	 28.202038922873 	 10.954815522888 	  4.418841963508 	
H	 27.633494792873 	 10.954818332888 	 14.549398683508 	
H	  0.703637239363 	  1.690427117416 	  0.807447297038 	
H	  0.135093109363 	  1.690429927416 	 10.938004017038 	
H	  0.703606139363 	  7.873988877416 	  0.807444467038 	
H	  0.135062009363 	  7.873991687416 	 10.938001187038 	
H	 15.384464539363 	  1.690436347416 	  0.835577227038 	
H	 14.815920409363 	  1.690439157416 	 10.966133947038 	
H	 15.384433439363 	  7.873998107416 	  0.835574397038 	
H	 14.815889309363 	  7.874000917416 	 10.966131117038 	
H	  1.251529105028 	  0.969807385029 	  7.438213556392 	
H	  0.682984975028 	  0.969810195029 	 17.568770276392 	
H	  1.251498005028 	  7.153369145029 	  7.438210726392 	
H	  0.682953875028 	  7.153371955029 	 17.568767446392 	
H	 15.932356405028 	  0.969816615029 	  7.466343486392 	
H	 15.363812275028 	  0.969819425029 	 17.596900206392 	
H	 15.932325305028 	  7.153378375029 	  7.466340656392 	
H	 15.363781175028 	  7.153381185029 	 17.596897376392 	
H	 12.439852560714 	  4.050587744866 	  8.045290919524 	
H	 11.871308430714 	  4.050590554866 	 18.175847639524 	
H	 12.439821460714 	 10.234149504866 	  8.045288089524 	
H	 11.871277330714 	 10.234152314866 	 18.175844809524 	
H	 27.120679860714 	  4.050596974866 	  8.073420849524 	
H	 26.552135730714 	  4.050599784866 	 18.203977569524 	
H	 27.120648760714 	 10.234158734866 	  8.073418019524 	
H	 26.552104630714 	 10.234161544866 	 18.203974739524 	
H	 12.706263570521 	  5.189147107308 	  2.902455171371 	
H	 12.137719440521 	  5.189149917308 	 13.033011891371 	
H	 12.706232470521 	 11.372708867308 	  2.902452341371 	
H	 12.137688340521 	 11.372711677308 	 13.033009061371 	
H	 27.387090870521 	  5.189156337308 	  2.930585101371 	
H	 26.818546740521 	  5.189159147308 	 13.061141821371 	
H	 27.387059770521 	 11.372718097308 	  2.930582271371 	
H	 26.818515640521 	 11.372720907308 	 13.061138991371 	
H	  1.517940198573 	  2.108365829032 	  2.295379239912 	
H	  0.949396068573 	  2.108368639032 	 12.425935959912 	
H	  1.517909098573 	  8.291927589032 	  2.295376409912 	
H	  0.949364968573 	  8.291930399032 	 12.425933129912 	
H	 16.198767498573 	  2.108375059032 	  2.323509169912 	
H	 15.630223368573 	  2.108377869032 	 12.454065889912 	
H	 16.198736398573 	  8.291936819032 	  2.323506339912 	
H	 15.630192268573 	  8.291939629032 	 12.454063059912 	
H	  1.981551867036 	  0.639251739335 	  6.043241395178 	
H	  1.413007737036 	  0.639254549335 	 16.173798115178 	
H	  1.981520767036 	  6.822813499335 	  6.043238565178 	
H	  1.412976637036 	  6.822816309335 	 16.173795285178 	
H	 16.662379167036 	  0.639260969335 	  6.071371325178 	
H	 16.093835037036 	  0.639263779335 	 16.201928045178 	
H	 16.662348067036 	  6.822822729335 	  6.071368495178 	
H	 16.093803937036 	  6.822825539335 	 16.201925215178 	
H	 11.710024592257 	  3.720736333665 	  9.439640575757 	
H	 11.141480462257 	  3.720739143665 	 19.570197295757 	
H	 11.709993492257 	  9.904298093665 	  9.439637745757 	
H	 11.141449362257 	  9.904300903665 	 19.570194465757 	
H	 26.390851892257 	  3.720745563665 	  9.467770505757 	
H	 25.822307762257 	  3.720748373665 	 19.598327225757 	
H	 26.390820792257 	  9.904307323665 	  9.467767675757 	
H	 25.822276662257 	  9.904310133665 	 19.598324395757 	
H	 11.976240016587 	  5.519702871156 	  4.297428739747 	
H	 11.407695886587 	  5.519705681156 	 14.427985459747 	
H	 11.976208916587 	 11.703264631156 	  4.297425909747 	
H	 11.407664786587 	 11.703267441156 	 14.427982629747 	
H	 26.657067316587 	  5.519712101156 	  4.325558669747 	
H	 26.088523186587 	  5.519714911156 	 14.456115389747 	
H	 26.657036216587 	 11.703273861156 	  4.325555839747 	
H	 26.088492086587 	 11.703276671156 	 14.456112559747 	
H	  2.247768125197 	  2.438217646477 	  0.901029916679 	
H	  1.679223995197 	  2.438220456477 	 11.031586636679 	
H	  2.247737025197 	  8.621779406477 	  0.901027086679 	
H	  1.679192895197 	  8.621782216477 	 11.031583806679 	
H	 16.928595425197 	  2.438226876477 	  0.929159846679 	
H	 16.360051295197 	  2.438229686477 	 11.059716566679 	
H	 16.928564325197 	  8.621788636477 	  0.929157016679 	
H	 16.360020195197 	  8.621791446477 	 11.059713736679 	
768 
Energy: -9.8198622276359998e+01 
S	  8.585867113643 	  1.509322172974 	  0.078870106463 	
S	  8.017322983643 	  1.509324982974 	 10.209426826463 	
S	  8.585836013643 	  7.692883932974 	  0.078867276463 	
S	  8.017291883643 	  7.692886742974 	 10.209423996463 	
S	 23.266694413643 	  1.509331402974 	  0.107000036463 	
S	 22.698150283643 	  1.509334212974 	 10.237556756463 	
S	 23.266663313643 	  7.692893162974 	  0.106997206463 	
S	 22.698119183643 	  7.692895972974 	 10.237553926463 	
S	  5.574354637184 	  4.583471354298 	  5.157651741598 	
S	  5.005810507184 	  4.583474164298 	 15.288208461598 	
S	  5.574323537184 	 10.767033114298 	  5.157648911598 	
S	  5.005779407184 	 10.767035924298 	 15.288205631598 	
S	 20.255181937184 	  4.583480584298 	  5.185781671598 	
S	 19.686637807184 	  4.583483394298 	 15.316338391598 	
S	 20.255150837184 	 10.767042344298 	  5.185778841598 	
S	 19.686606707184 	 10.767045154298 	 15.316335561598 	
S	  5.316181323492 	  4.640745954942 	 10.327478113221 	
S	  4.747637193492 	  4.640748764942 	 20.458034833221 	
S	  5.316150223492 	 10.824307714942 	 10.327475283221 	
S	  4.747606093492 	 10.824310524942 	 20.458032003221 	
S	 19.997008623492 	  4.640755184942 	 10.355608043221 	
S	 19.428464493492 	  4.640757994942 	 20.486164763221 	
S	 19.996977523492 	 10.824316944942 	 10.355605213221 	
S	 19.428433393492 	 10.824319754942 	 20.486161933221 	
S	  8.327694541507 	  1.566597204479 	  5.248696489647 	
S	  7.759150411507 	  1.566600014479 	 15.379253209647 	
S	  8.327663441507 	  7.750158964479 	  5.248693659647 	
S	  7.759119311507 	  7.750161774479 	 15.379250379647 	
S	 23.008521841507 	  1.566606434479 	  5.276826419647 	
S	 22.439977711507 	  1.566609244479 	 15.407383139647 	
S	 23.008490741507 	  7.750168194479 	  5.276823589647 	
S	 22.439946611507 	  7.750171004479 	 15.407380309647 	
C	  6.670057589862 	  2.552014665044 	 10.009175259802 	
C	  6.101513459862 	  2.552017475044 	 20.139731979802 	
C	  6.670026489862 	  8.735576425044 	 10.009172429802 	
C	  6.101482359862 	  8.735579235044 	 20.139729149802 	
C	 21.350884889862 	  2.552023895044 	 10.037305189802 	
C	 20.782340759862 	  2.552026705044 	 20.167861909802 	
C	 21.350853789862 	  8.735585655044 	 10.037302359802 	
C	 20.782309659862 	  8.735588465044 	 20.167859079802 	
C	  6.972949308222 	  5.601835925319 	  5.582168210925 	
C	  6.404405178222 	  5.601838735319 	 15.712724930925 	
C	  6.972918208222 	 11.785397685319 	  5.582165380925 	
C	  6.404374078222 	 11.785400495319 	 15.712722100925 	
C	 21.653776608222 	  5.601845155319 	  5.610298140925 	
C	 21.085232478222 	  5.601847965319 	 15.740854860925 	
C	 21.653745508222 	 11.785406915319 	  5.610295310925 	
C	 21.085201378222 	 11.785409725319 	 15.740852030925 	
C	  7.231990876574 	  3.598053426257 	  0.397172906499 	
C	  6.663446746574 	  3.598056236257 	 10.527729626499 	
C	  7.231959776574 	  9.781615186257 	  0.397170076499 	
C	  6.663415646574 	  9.781617996257 	 10.527726796499 	
C	 21.912818176574 	  3.598062656257 	  0.425302836499 	
C	 21.344274046574 	  3.598065466257 	 10.555859556499 	
C	 21.912787076574 	  9.781624416257 	  0.425300006499 	
C	 21.344242946574 	  9.781627226257 	 10.555856726499 	
C	  6.929099726520 	  0.548232724535 	  4.824179950808 	
C	  6.360555596520 	  0.548235534535 	 14.954736670808 	
C	  6.929068626520 	  6.731794484535 	  4.824177120808 	
C	  6.360524496520 	  6.731797294535 	 14.954733840808 	
C	 21.609927026520 	  0.548241954535 	  4.852309880808 	
C	 21.041382896520 	  0.548244764535 	 14.982866600808 	
C	 21.609895926520 	  6.731803714535 	  4.852307050808 	
C	 21.041351796520 	  6.731806524535 	 14.982863770808 	
C	  5.625045413005 	  2.360093899647 	  9.063017624591 	
C	  5.056501283005 	  2.360096709647 	 19.193574344591 	
C	  5.625014313005 	  8.543655659647 	  9.063014794591 	
C	  5.056470183005 	  8.543658469647 	 19.193571514591 	
C	 20.305872713005 	  2.360103129647 	  9.091147554591 	
C	 19.737328583005 	  2.360105939647 	 19.221704274591 	
C	 20.305841613005 	  8.543664889647 	  9.091144724591 	
C	 19.737297483005 	  8.543667699647 	 19.221701444591 	
C	  8.023173649618 	  5.436372448467 	  6.512756125312 	
C	  7.454629519618 	  5.436375258467 	 16.643312845312 	
C	  8.023142549618 	 11.619934208467 	  6.512753295312 	
C	  7.454598419618 	 11.619937018467 	 16.643310015312 	
C	 22.704000949618 	  5.436381678467 	  6.540886055312 	
C	 22.135456819618 	  5.436384488467 	 16.671442775312 	
C	 22.703969849618 	 11.619943438467 	  6.540883225312 	
C	 22.135425719618 	 11.619946248467 	 16.671439945312 	
C	  8.277002911851 	  3.789974238133 	  1.343330432531 	
C	  7.708458781851 	  3.789977048133 	 11.473887152531 	
C	  8.276971811851 	  9.973535998133 	  1.343327602531 	
C	  7.708427681851 	  9.973538808133 	 11.473884322531 	
C	 22.957830211851 	  3.789983468133 	  1.371460362531 	
C	 22.389286081851 	  3.789986278133 	 11.502017082531 	
C	 22.957799111851 	  9.973545228133 	  1.371457532531 	
C	 22.389254981851 	  9.973548038133 	 11.502014252531 	
C	  5.878875267806 	  0.713696196561 	  3.893592067158 	
C	  5.310331137806 	  0.713699006561 	 14.024148787158 	
C	  5.878844167806 	  6.897257956561 	  3.893589237158 	
C	  5.310300037806 	  6.897260766561 	 14.024145957158 	
C	 20.559702567806 	  0.713705426561 	  3.921721997158 	
C	 19.991158437806 	  0.713708236561 	 14.052278717158 	
C	 20.559671467806 	  6.897267186561 	  3.921719167158 	
C	 19.991127337806 	  6.897269996561 	 14.052275887158 	
C	  4.750847700642 	  3.430252467966 	  9.097756525293 	
C	  4.182303570642 	  3.430255277966 	 19.228313245293 	
C	  4.750816600642 	  9.613814227966 	  9.097753695293 	
C	  4.182272470642 	  9.613817037966 	 19.228310415293 	
C	 19.431675000642 	  3.430261697966 	  9.125886455293 	
C	 18.863130870642 	  3.430264507966 	 19.256443175293 	
C	 19.431643900642 	  9.613823457966 	  9.125883625293 	
C	 18.863099770642 	  9.613826267966 	 19.256440345293 	
C	  8.885501103091 	  0.353198160521 	  6.479387661356 	
C	  8.316956973091 	  0.353200970521 	 16.609944381356 	
C	  8.885470003091 	  6.536759920521 	  6.479384831356 	
C	  8.316925873091 	  6.536762730521 	 16.609941551356 	
C	 23.566328403091 	  0.353207390521 	  6.507517591356 	
C	 22.997784273091 	  0.353210200521 	 16.638074311356 	
C	 23.566297303091 	  6.536769150521 	  6.507514761356 	
C	 22.997753173091 	  6.536771960521 	 16.638071481356 	
C	  9.151200617331 	  2.719815705215 	  1.308591604462 	
C	  8.582656487331 	  2.719818515215 	 11.439148324462 	
C	  9.151169517331 	  8.903377465215 	  1.308588774462 	
C	  8.582625387331 	  8.903380275215 	 11.439145494462 	
C	 23.832027917331 	  2.719824935215 	  1.336721534462 	
C	 23.263483787331 	  2.719827745215 	 11.467278254462 	
C	 23.831996817331 	  8.903386695215 	  1.336718704462 	
C	 23.263452687331 	  8.903389505215 	 11.467275424462 	
C	  5.016547868833 	  5.796870444275 	  3.926960628759 	
C	  4.448003738833 	  5.796873254275 	 14.057517348759 	
C	  5.016516768833 	 11.980432204275 	  3.926957798759 	
C	  4.447972638833 	 11.980435014275 	 14.057514518759 	
C	 19.697375168833 	  5.796879674275 	  3.955090558759 	
C	 19.128831038833 	  5.796882484275 	 14.085647278759 	
C	 19.697344068833 	 11.980441434275 	  3.955087728759 	
C	 19.128799938833 	 11.980444244275 	 14.085644448759 	
C	  3.677748322010 	  3.498904983320 	  8.342248953614 	
C	  3.109204192010 	  3.498907793320 	 18.472805673614 	
C	  3.677717222010 	  9.682466743320 	  8.342246123614 	
C	  3.109173092010 	  9.682469553320 	 18.472802843614 	
C	 18.358575622010 	  3.498914213320 	  8.370378883614 	
C	 17.790031492010 	  3.498917023320 	 18.500935603614 	
C	 18.358544522010 	  9.682475973320 	  8.370376053614 	
C	 17.790000392010 	  9.682478783320 	 18.500932773614 	
C	  9.963701454497 	  0.427366757664 	  7.234549608044 	
C	  9.395157324497 	  0.427369567664 	 17.365106328044 	
C	  9.963670354497 	  6.610928517664 	  7.234546778044 	
C	  9.395126224497 	  6.610931327664 	 17.365103498044 	
C	 24.644528754497 	  0.427375987664 	  7.262679538044 	
C	 24.075984624497 	  0.427378797664 	 17.393236258044 	
C	 24.644497654497 	  6.610937747664 	  7.262676708044 	
C	 24.075953524497 	  6.610940557664 	 17.393233428044 	
C	 10.224300023538 	  2.651163297426 	  2.064099348389 	
C	  9.655755893538 	  2.651166107426 	 12.194656068389 	
C	 10.224268923538 	  8.834725057426 	  2.064096518389 	
C	  9.655724793538 	  8.834727867426 	 12.194653238389 	
C	 24.905127323538 	  2.651172527426 	  2.092229278389 	
C	 24.336583193538 	  2.651175337426 	 12.222785998389 	
C	 24.905096223538 	  8.834734287426 	  2.092226448389 	
C	 24.336552093538 	  8.834737097426 	 12.222783168389 	
C	  3.938347323783 	  5.722701861639 	  3.171798878506 	
C	  3.369803193783 	  5.722704671639 	 13.302355598506 	
C	  3.938316223783 	 11.906263621639 	  3.171796048506 	
C	  3.369772093783 	 11.906266431639 	 13.302352768506 	
C	 18.619174623783 	  5.722711091639 	  3.199928808506 	
C	 18.050630493783 	  5.722713901639 	 13.330485528506 	
C	 18.619143523783 	 11.906272851639 	  3.199925978506 	
C	 18.050599393783 	 11.906275661639 	 13.330482698506 	
H	  2.993469641864 	  4.430414938422 	  8.422019858087 	
H	  2.424925511864 	  4.430417748422 	 18.552576578087 	
H	  2.993438541864 	 10.613976698422 	  8.422017028087 	
H	  2.424894411864 	 10.613979508422 	 18.552573748087 	
H	 17.674296941864 	  4.430424168422 	  8.450149788087 	
H	 17.105752811864 	  4.430426978422 	 18.580706508087 	
H	 17.674265841864 	 10.613985928422 	  8.450146958087 	
H	 17.105721711864 	 10.613988738422 	 18.580703678087 	
H	 10.649172465869 	  1.354344637144 	  7.155034816571 	
H	 10.080628335869 	  1.354347447144 	 17.285591536571 	
H	 10.649141365869 	  7.537906397144 	  7.155031986571 	
H	 10.080597235869 	  7.537909207144 	 17.285588706571 	
H	 25.329999765869 	  1.354353867144 	  7.183164746571 	
H	 24.761455635869 	  1.354356677144 	 17.313721466571 	
H	 25.329968665869 	  7.537915627144 	  7.183161916571 	
H	 24.761424535869 	  7.537918437144 	 17.313718636571 	
H	 10.908578656696 	  1.719653284644 	  1.984328467508 	
H	 10.340034526696 	  1.719656094644 	 12.114885187508 	
H	 10.908547556696 	  7.903215044644 	  1.984325637508 	
H	 10.340003426696 	  7.903217854644 	 12.114882357508 	
H	 25.589405956696 	  1.719662514644 	  2.012458397508 	
H	 25.020861826696 	  1.719665324644 	 12.143015117508 	
H	 25.589374856696 	  7.903224274644 	  2.012455567508 	
H	 25.020830726696 	  7.903227084644 	 12.143012287508 	
H	  3.252876441067 	  4.795723889414 	  3.251313769186 	
H	  2.684332311067 	  4.795726699414 	 13.381870489186 	
H	  3.252845341067 	 10.979285649414 	  3.251310939186 	
H	  2.684301211067 	 10.979288459414 	 13.381867659186 	
H	 17.933703741067 	  4.795733119414 	  3.279443699186 	
H	 17.365159611067 	  4.795735929414 	 13.410000419186 	
H	 17.933672641067 	 10.979294879414 	  3.279440869186 	
H	 17.365128511067 	 10.979297689414 	 13.409997589186 	
C	  3.348467789413 	  2.532849286424 	  7.483361446134 	
C	  2.779923659413 	  2.532852096424 	 17.613918166134 	
C	  3.348436689413 	  8.716411046424 	  7.483358616134 	
C	  2.779892559413 	  8.716413856424 	 17.613915336134 	
C	 18.029295089413 	  2.532858516424 	  7.511491376134 	
C	 17.460750959413 	  2.532861326424 	 17.642048096134 	
C	 18.029263989413 	  8.716420276424 	  7.511488546134 	
C	 17.460719859413 	  8.716423086424 	 17.642045266134 	
C	 10.295300463742 	  5.603786009645 	  8.092792076618 	
C	  9.726756333742 	  5.603788819645 	 18.223348796618 	
C	 10.295269363742 	 11.787347769645 	  8.092789246618 	
C	  9.726725233742 	 11.787350579645 	 18.223345966618 	
C	 24.976127763742 	  5.603795239645 	  8.120922006618 	
C	 24.407583633742 	  5.603798049645 	 18.251478726618 	
C	 24.976096663742 	 11.787356999645 	  8.120919176618 	
C	 24.407552533742 	 11.787359809645 	 18.251475896618 	
C	 10.553580376152 	  3.617218989977 	  2.922986692376 	
C	  9.985036246152 	  3.617221799977 	 13.053543412376 	
C	 10.553549276152 	  9.800780749977 	  2.922983862376 	
C	  9.985005146152 	  9.800783559977 	 13.053540582376 	
C	 25.234407676152 	  3.617228219977 	  2.951116622376 	
C	 24.665863546152 	  3.617231029977 	 13.081673342376 	
C	 25.234376576152 	  9.800789979977 	  2.951113792376 	
C	 24.665832446152 	  9.800792789977 	 13.081670512376 	
C	  3.606748218485 	  0.546282618837 	  2.313556468568 	
C	  3.038204088485 	  0.546285428837 	 12.444113188568 	
C	  3.606717118485 	  6.729844378837 	  2.313553638568 	
C	  3.038172988485 	  6.729847188837 	 12.444110358568 	
C	 18.287575518485 	  0.546291848837 	  2.341686398568 	
C	 17.719031388485 	  0.546294658837 	 12.472243118568 	
C	 18.287544418485 	  6.729853608837 	  2.341683568568 	
C	 17.719000288485 	  6.729856418837 	 12.472240288568 	
C	  4.226681827207 	  1.487145337958 	  7.423568763238 	
C	  3.658137697207 	  1.487148147958 	 17.554125483238 	
C	  4.226650727207 	  7.670707097958 	  7.423565933238 	
C	  3.658106597207 	  7.670709907958 	 17.554122653238 	
C	 18.907509127207 	  1.487154567958 	  7.451698693238 	
C	 18.338964997207 	  1.487157377958 	 17.582255413238 	
C	 18.907478027207 	  7.670716327958 	  7.451695863238 	
C	 18.338933897207 	  7.670719137958 	 17.582252583238 	
C	  9.416115870720 	  4.563143402171 	  8.152044273110 	
C	  8.847571740720 	  4.563146212171 	 18.282600993110 	
C	  9.416084770720 	 10.746705162171 	  8.152041443110 	
C	  8.847540640720 	 10.746707972171 	 18.282598163110 	
C	 24.096943170720 	  4.563152632171 	  8.180174203110 	
C	 23.528399040720 	  4.563155442171 	 18.310730923110 	
C	 24.096912070720 	 10.746714392171 	  8.180171373110 	
C	 23.528367940720 	 10.746717202171 	 18.310728093110 	
C	  9.675366338633 	  4.662922935230 	  2.982779397499 	
C	  9.106822208633 	  4.662925745230 	 13.113336117499 	
C	  9.675335238633 	 10.846484695230 	  2.982776567499 	
C	  9.106791108633 	 10.846487505230 	 13.113333287499 	
C	 24.356193638633 	  4.662932165230 	  3.010909327499 	
C	 23.787649508633 	  4.662934975230 	 13.141466047499 	
C	 24.356162538633 	 10.846493925230 	  3.010906497499 	
C	 23.787618408633 	 10.846496735230 	 13.141463217499 	
C	  4.485932681370 	  1.586925159446 	  2.254304118563 	
C	  3.917388551370 	  1.586927969446 	 12.384860838563 	
C	  4.485901581370 	  7.770486919446 	  2.254301288563 	
C	  3.917357451370 	  7.770489729446 	 12.384858008563 	
C	 19.166759981370 	  1.586934389446 	  2.282434048563 	
C	 18.598215851370 	  1.586937199446 	 12.412990768563 	
C	 19.166728881370 	  7.770496149446 	  2.282431218563 	
C	 18.598184751370 	  7.770498959446 	 12.412987938563 	
H	  3.998089108513 	  0.640302743057 	  6.671170687641 	
H	  3.429544978513 	  0.640305553057 	 16.801727407641 	
H	  3.998058008513 	  6.823864503057 	  6.671167857641 	
H	  3.429513878513 	  6.823867313057 	 16.801724577641 	
H	 18.678916408513 	  0.640311973057 	  6.699300617641 	
H	 18.110372278513 	  0.640314783057 	 16.829857337641 	
H	 18.678885308513 	  6.823873733057 	  6.699297787641 	
H	 18.110341178513 	  6.823876543057 	 16.829854507641 	
H	  9.644444775181 	  3.715909654465 	  8.905088294675 	
H	  9.075900645181 	  3.715912464465 	 19.035645014675 	
H	  9.644413675181 	  9.899471414465 	  8.905085464675 	
H	  9.075869545181 	  9.899474224465 	 19.035642184675 	
H	 24.325272075181 	  3.715918884465 	  8.933218224675 	
H	 23.756727945181 	  3.715921694465 	 19.063774944675 	
H	 24.325240975181 	  9.899480644465 	  8.933215394675 	
H	 23.756696845181 	  9.899483454465 	 19.063772114675 	
H	  9.903959106835 	  5.509765567004 	  3.735177411763 	
H	  9.335414976835 	  5.509768377004 	 13.865734131763 	
H	  9.903928006835 	 11.693327327004 	  3.735174581763 	
H	  9.335383876835 	 11.693330137004 	 13.865731301763 	
H	 24.584786406835 	  5.509774797004 	  3.763307341763 	
H	 24.016242276835 	  5.509777607004 	 13.893864061763 	
H	 24.584755306835 	 11.693336557004 	  3.763304511763 	
H	 24.016211176835 	 11.693339367004 	 13.893861231763 	
H	  4.257603641332 	  2.434158979770 	  1.501260212034 	
H	  3.689059511332 	  2.434161789770 	 11.631816932033 	
H	  4.257572541332 	  8.617720739770 	  1.501257382034 	
H	  3.689028411332 	  8.617723549770 	 11.631814102034 	
H	 18.938430941332 	  2.434168209770 	  1.529390142034 	
H	 18.369886811332 	  2.434171019770 	 11.659946862034 	
H	 18.938399841332 	  8.617729969770 	  1.529387312034 	
H	 18.369855711332 	  8.617732779770 	 11.659944032034 	
C	  5.280392922913 	  1.398790266841 	  8.145829475359 	
C	  4.711848792913 	  1.398793076841 	 18.276386195359 	
C	  5.280361822913 	  7.582352026841 	  8.145826645359 	
C	  4.711817692913 	  7.582354836841 	 18.276383365359 	
C	 19.961220222913 	  1.398799496841 	  8.173959405359 	
C	 19.392676092913 	  1.398802306841 	 18.304516125359 	
C	 19.961189122913 	  7.582361256841 	  8.173956575359 	
C	 19.392644992913 	  7.582364066841 	 18.304513295359 	
C	  8.362214757578 	  4.474634093877 	  7.429706081883 	
C	  7.793670627578 	  4.474636903877 	 17.560262801883 	
C	  8.362183657578 	 10.658195853877 	  7.429703251883 	
C	  7.793639527578 	 10.658198663877 	 17.560259971883 	
C	 23.043042057578 	  4.474643323877 	  7.457836011883 	
C	 22.474497927578 	  4.474646133877 	 17.588392731883 	
C	 23.043010957578 	 10.658205083877 	  7.457833181883 	
C	 22.474466827578 	 10.658207893877 	 17.588389901883 	
C	  8.621655317596 	  4.751277946496 	  2.260518563306 	
C	  8.053111187596 	  4.751280756496 	 12.391075283306 	
C	  8.621624217596 	 10.934839706496 	  2.260515733306 	
C	  8.053080087596 	 10.934842516496 	 12.391072453306 	
C	 23.302482617596 	  4.751287176496 	  2.288648493306 	
C	 22.733938487596 	  4.751289986496 	 12.419205213306 	
C	 23.302451517596 	 10.934848936496 	  2.288645663306 	
C	 22.733907387596 	 10.934851746496 	 12.419202383306 	
C	  5.539834006524 	  1.675434541351 	  2.976642212964 	
C	  4.971289876524 	  1.675437351351 	 13.107198932964 	
C	  5.539802906524 	  7.858996301351 	  2.976639382964 	
C	  4.971258776524 	  7.858999111351 	 13.107196102964 	
C	 20.220661306524 	  1.675443771351 	  3.004772142964 	
C	 19.652117176524 	  1.675446581351 	 13.135328862964 	
C	 20.220630206524 	  7.859005531351 	  3.004769312964 	
C	 19.652086076524 	  7.859008341351 	 13.135326032964 	
H	  5.985486161016 	  0.486603194713 	  8.051543493492 	
H	  5.416942031016 	  0.486606004713 	 18.182100213492 	
H	  5.985455061016 	  6.670164954713 	  8.051540663492 	
H	  5.416910931016 	  6.670167764713 	 18.182097383492 	
H	 20.666313461016 	  0.486612424713 	  8.079673423492 	
H	 20.097769331016 	  0.486615234713 	 18.210230143492 	
H	 20.666282361016 	  6.670174184713 	  8.079670593492 	
H	 20.097738231016 	  6.670176994713 	 18.210227313492 	
H	  7.656909823457 	  3.561813959238 	  7.524546933436 	
H	  7.088365693457 	  3.561816769238 	 17.655103653436 	
H	  7.656878723457 	  9.745375719238 	  7.524544103436 	
H	  7.088334593457 	  9.745378529238 	 17.655100823436 	
H	 22.337737123457 	  3.561823189238 	  7.552676863436 	
H	 21.769192993457 	  3.561825999238 	 17.683233583436 	
H	 22.337706023457 	  9.745384949238 	  7.552674033436 	
H	 21.769161893457 	  9.745387759238 	 17.683230753436 	
H	  7.916562018775 	  5.663464961192 	  2.354804480742 	
H	  7.348017888775 	  5.663467771192 	 12.485361200742 	
H	  7.916530918775 	 11.847026721192 	  2.354801650742 	
H	  7.347986788775 	 11.847029531192 	 12.485358370742 	
H	 22.597389318775 	  5.663474191192 	  2.382934410742 	
H	 22.028845188775 	  5.663477001192 	 12.513491130742 	
H	 22.597358218775 	 11.847035951192 	  2.382931580742 	
H	 22.028814088775 	 11.847038761192 	 12.513488300742 	
H	  6.245138894711 	  2.588254681911 	  2.881801267207 	
H	  5.676594764711 	  2.588257491911 	 13.012357987207 	
H	  6.245107794711 	  8.771816441911 	  2.881798437207 	
H	  5.676563664711 	  8.771819251911 	 13.012355157207 	
H	 20.925966194711 	  2.588263911911 	  2.909931197207 	
H	 20.357422064711 	  2.588266721911 	 13.040487917207 	
H	 20.925935094711 	  8.771825671911 	  2.909928367207 	
H	 20.357390964711 	  8.771828481911 	 13.040485087207 	
C	  1.989764220282 	  2.603795207008 	  6.564533718159 	
C	  1.421220090282 	  2.603798017008 	 16.695090438159 	
C	  1.989733120282 	  8.787356967008 	  6.564530888159 	
C	  1.421188990282 	  8.787359777008 	 16.695087608159 	
C	 16.670591520282 	  2.603804437008 	  6.592663648159 	
C	 16.102047390282 	  2.603807247008 	 16.723220368159 	
C	 16.670560420282 	  8.787366197008 	  6.592660818159 	
C	 16.102016290282 	  8.787369007008 	 16.723217538159 	
C	 11.596032440319 	  5.635165650902 	  8.975890498870 	
C	 11.027488310319 	  5.635168460902 	 19.106447218870 	
C	 11.596001340319 	 11.818727410902 	  8.975887668870 	
C	 11.027457210319 	 11.818730220902 	 19.106444388870 	
C	 26.276859740319 	  5.635174880902 	  9.004020428870 	
C	 25.708315610319 	  5.635177690902 	 19.134577148870 	
C	 26.276828640319 	 11.818736640902 	  9.004017598870 	
C	 25.708284510319 	 11.818739450902 	 19.134574318870 	
C	 11.912284492360 	  3.546273411109 	  3.841815217158 	
C	 11.343740362360 	  3.546276221109 	 13.972371937158 	
C	 11.912253392360 	  9.729835171109 	  3.841812387158 	
C	 11.343709262360 	  9.729837981109 	 13.972369107158 	
C	 26.593111792360 	  3.546282641109 	  3.869945147158 	
C	 26.024567662360 	  3.546285451109 	 14.000501867158 	
C	 26.593080692360 	  9.729844401109 	  3.869942317158 	
C	 26.024536562360 	  9.729847211109 	 14.000499037158 	
C	  2.306016064275 	  0.514902822142 	  1.430458186730 	
C	  1.737471934275 	  0.514905632142 	 11.561014906730 	
C	  2.305984964275 	  6.698464582142 	  1.430455356730 	
C	  1.737440834275 	  6.698467392142 	 11.561012076730 	
C	 16.986843364275 	  0.514912052142 	  1.458588116730 	
C	 16.418299234275 	  0.514914862142 	 11.589144836730 	
C	 16.986812264275 	  6.698473812142 	  1.458585286730 	
C	 16.418268134275 	  6.698476622142 	 11.589142006730 	
C	  2.157315741268 	  2.806767408100 	  5.485128195042 	
C	  1.588771611268 	  2.806770218100 	 15.615684915042 	
C	  2.157284641268 	  8.990329168100 	  5.485125365042 	
C	  1.588740511268 	  8.990331978100 	 15.615682085042 	
C	 16.838143041268 	  2.806776638100 	  5.513258125042 	
C	 16.269598911268 	  2.806779448100 	 15.643814845042 	
C	 16.838111941268 	  8.990338398100 	  5.513255295042 	
C	 16.269567811268 	  8.990341208100 	 15.643812015042 	
C	 11.487204310242 	 -0.264175892905 	 10.046623461148 	
C	 10.918660180242 	 -0.264173082905 	 20.177180181148 	
C	 11.487173210242 	  5.919385867095 	 10.046620631148 	
C	 10.918629080242 	  5.919388677095 	 20.177177351148 	
C	 26.168031610242 	 -0.264166662905 	 10.074753391148 	
C	 25.599487480242 	 -0.264163852905 	 20.205310111148 	
C	 26.168000510242 	  5.919395097095 	 10.074750561148 	
C	 25.599456380242 	  5.919397907095 	 20.205307281148 	
C	 11.744731271343 	  3.343300856298 	  4.921221057662 	
C	 11.176187141343 	  3.343303666298 	 15.051777777662 	
C	 11.744700171343 	  9.526862616298 	  4.921218227662 	
C	 11.176156041343 	  9.526865426298 	 15.051774947662 	
C	 26.425558571343 	  3.343310086298 	  4.949350987662 	
C	 25.857014441343 	  3.343312896298 	 15.079907707662 	
C	 26.425527471343 	  9.526871846298 	  4.949348157662 	
C	 25.856983341343 	  9.526874656298 	 15.079904877662 	
C	  2.414844091071 	  6.414244605459 	  0.359725214388 	
C	  1.846299961071 	  6.414247415459 	 10.490281934388 	
C	  2.414812991071 	 12.597806365459 	  0.359722384388 	
C	  1.846268861071 	 12.597809175459 	 10.490279104388 	
C	 17.095671391071 	  6.414253835459 	  0.387855144388 	
C	 16.527127261071 	  6.414256645459 	 10.518411864388 	
C	 17.095640291071 	 12.597815595459 	  0.387852314388 	
C	 16.527096161071 	 12.597818405459 	 10.518409034388 	
H	  2.861675652620 	  3.620717458769 	  5.191831493016 	
H	  2.293131522620 	  3.620720268769 	 15.322388213016 	
H	  2.861644552620 	  9.804279218769 	  5.191828663016 	
H	  2.293100422620 	  9.804282028769 	 15.322385383016 	
H	 17.542502952620 	  3.620726688769 	  5.219961423016 	
H	 16.973958822620 	  3.620729498769 	 15.350518143016 	
H	 17.542471852620 	  9.804288448769 	  5.219958593016 	
H	 16.973927722620 	  9.804291258769 	 15.350515313016 	
H	 10.786701738360 	  0.543384644417 	 10.379414901837 	
H	 10.218157608360 	  0.543387454417 	 20.509971621837 	
H	 10.786670638360 	  6.726946404417 	 10.379412071837 	
H	 10.218126508360 	  6.726949214417 	 20.509968791837 	
H	 25.467529038360 	  0.543393874417 	 10.407544831837 	
H	 24.898984908360 	  0.543396684417 	 20.538101551837 	
H	 25.467497938360 	  6.726955634417 	 10.407542001837 	
H	 24.898953808360 	  6.726958444417 	 20.538098721837 	
H	 11.040372356334 	  2.529348823029 	  5.214516468272 	
H	 10.471828226334 	  2.529351633029 	 15.345073188272 	
H	 11.040341256334 	  8.712910583029 	  5.214513638272 	
H	 10.471797126334 	  8.712913393029 	 15.345070358272 	
H	 25.721199656334 	  2.529358053029 	  5.242646398272 	
H	 25.152655526334 	  2.529360863029 	 15.373203118272 	
H	 25.721168556334 	  8.712919813029 	  5.242643568272 	
H	 25.152624426334 	  8.712922623029 	 15.373200288272 	
H	  3.115346626508 	  5.606684214513 	  0.026933431755 	
H	  2.546802496508 	  5.606687024513 	 10.157490151755 	
H	  3.115315526508 	 11.790245974513 	  0.026930601755 	
H	  2.546771396508 	 11.790248784513 	 10.157487321755 	
H	 17.796173926508 	  5.606693444513 	  0.055063361755 	
H	 17.227629796508 	  5.606696254513 	 10.185620081755 	
H	 17.796142826508 	 11.790255204513 	  0.055060531755 	
H	 17.227598696508 	 11.790258014513 	 10.185617251755 	
H	  1.408350752870 	  2.940232514987 	  4.645605329649 	
H	  0.839806622870 	  2.940235324987 	 14.776162049649 	
H	  1.408319652870 	  9.123794274987 	  4.645602499649 	
H	  0.839775522870 	  9.123797084987 	 14.776159219649 	
H	 16.089178052870 	  2.940241744987 	  4.673735259649 	
H	 15.520633922870 	  2.940244554987 	 14.804291979649 	
H	 16.089146952870 	  9.123803504987 	  4.673732429649 	
H	 15.520602822870 	  9.123806314987 	 14.804289149649 	
H	 12.796080037051 	 -0.124700744437 	  0.641316667408 	
H	 12.227535907051 	 -0.124697934437 	 10.771873387408 	
H	 12.796048937051 	  6.058861015563 	  0.641313837408 	
H	 12.227504807051 	  6.058863825563 	 10.771870557408 	
H	 27.476907337051 	 -0.124691514437 	  0.669446597408 	
H	 26.908363207051 	 -0.124688704437 	 10.800003317408 	
H	 27.476876237051 	  6.058870245563 	  0.669443767408 	
H	 26.908332107051 	  6.058873055563 	 10.800000487408 	
H	 12.493696888792 	  3.209836192120 	  5.760743611916 	
H	 11.925152758792 	  3.209839002120 	 15.891300331916 	
H	 12.493665788792 	  9.393397952120 	  5.760740781916 	
H	 11.925121658792 	  9.393400762120 	 15.891297501916 	
H	 27.174524188792 	  3.209845422120 	  5.788873541916 	
H	 26.605980058792 	  3.209848232120 	 15.919430261916 	
H	 27.174493088792 	  9.393407182120 	  5.788870711916 	
H	 26.605948958792 	  9.393409992120 	 15.919427431916 	
H	  1.105968302232 	  6.274769552570 	  9.765032053835 	
H	  0.537424172232 	  6.274772362570 	 19.895588773835 	
H	  1.105937202232 	 12.458331312570 	  9.765029223835 	
H	  0.537393072232 	 12.458334122570 	 19.895585943835 	
H	 15.786795602232 	  6.274778782570 	  9.793161983835 	
H	 15.218251472232 	  6.274781592570 	 19.923718703835 	
H	 15.786764502232 	 12.458340542570 	  9.793159153835 	
H	 15.218220372232 	 12.458343352570 	 19.923715873835 	
H	  2.878636850134 	  2.177680464165 	  4.908585359945 	
H	  2.310092720134 	  2.177683274165 	 15.039142079945 	
H	  2.878605750134 	  8.361242224165 	  4.908582529945 	
H	  2.310061620134 	  8.361245034165 	 15.039139249945 	
H	 17.559464150134 	  2.177689694165 	  4.936715289945 	
H	 16.990920020134 	  2.177692504165 	 15.067272009945 	
H	 17.559433050134 	  8.361251454165 	  4.936712459945 	
H	 16.990888920134 	  8.361254264165 	 15.067269179945 	
H	 11.227683955343 	  5.237160457767 	  0.380810090609 	
H	 10.659139825343 	  5.237163267767 	 10.511366810609 	
H	 11.227652855343 	 11.420722217767 	  0.380807260609 	
H	 10.659108725343 	 11.420725027767 	 10.511363980609 	
H	 25.908511255343 	  5.237169687767 	  0.408940020609 	
H	 25.339967125343 	  5.237172497767 	 10.539496740609 	
H	 25.908480155343 	 11.420731447767 	  0.408937190609 	
H	 25.339936025343 	 11.420734257767 	 10.539493910609 	
H	 11.023410089756 	  3.972389134419 	  5.497763246060 	
H	 10.454865959756 	  3.972391944419 	 15.628319966060 	
H	 11.023378989756 	 10.155950894419 	  5.497760416060 	
H	 10.454834859756 	 10.155953704419 	 15.628317136060 	
H	 25.704237389756 	  3.972398364419 	  5.525893176060 	
H	 25.135693259756 	  3.972401174419 	 15.656449896060 	
H	 25.704206289756 	 10.155960124419 	  5.525890346060 	
H	 25.135662159756 	 10.155962934419 	 15.656447066060 	
H	  2.674364482339 	  0.912908429463 	 10.025538744671 	
H	  2.105820352339 	  0.912911239463 	 20.156095464671 	
H	  2.674333382339 	  7.096470189463 	 10.025535914671 	
H	  2.105789252339 	  7.096472999463 	 20.156092634671 	
H	 17.355191782339 	  0.912917659463 	 10.053668674671 	
H	 16.786647652339 	  0.912920469463 	 20.184225394671 	
H	 17.355160682339 	  7.096479419463 	 10.053665844671 	
H	 16.786616552339 	  7.096482229463 	 20.184222564671 	
C	  1.275877237846 	  3.402968125409 	  6.876521720663 	
C	  0.707333107846 	  3.402970935409 	 17.007078440663 	
C	  1.275846137846 	  9.586529885409 	  6.876518890663 	
C	  0.707302007846 	  9.586532695409 	 17.007075610663 	
C	 15.956704537846 	  3.402977355409 	  6.904651650663 	
C	 15.388160407846 	  3.402980165409 	 17.035208370663 	
C	 15.956673437846 	  9.586539115409 	  6.904648820663 	
C	 15.388129307846 	  9.586541925409 	 17.035205540663 	
C	 12.437410208249 	  0.380028100100 	  8.678924780217 	
C	 11.868866078249 	  0.380030910100 	 18.809481500217 	
C	 12.437379108249 	  6.563589860100 	  8.678921950217 	
C	 11.868834978249 	  6.563592670100 	 18.809478670217 	
C	 27.118237508249 	  0.380037330100 	  8.707054710217 	
C	 26.549693378249 	  0.380040140100 	 18.837611430217 	
C	 27.118206408249 	  6.563599090100 	  8.707051880217 	
C	 26.549662278249 	  6.563601900100 	 18.837608600217 	
C	 12.626171262592 	  2.747100014790 	  3.529826060958 	
C	 12.057627132592 	  2.747102824790 	 13.660382780958 	
C	 12.626140162592 	  8.930661774790 	  3.529823230958 	
C	 12.057596032592 	  8.930664584790 	 13.660379950958 	
C	 27.306998562592 	  2.747109244790 	  3.557955990958 	
C	 26.738454432592 	  2.747112054790 	 13.688512710958 	
C	 27.306967462592 	  8.930671004790 	  3.557953160958 	
C	 26.738423332592 	  8.930673814790 	 13.688509880958 	
C	  1.464638329571 	  5.770040228831 	  1.727423774561 	
C	  0.896094199571 	  5.770043038831 	 11.857980494561 	
C	  1.464607229571 	 11.953601988831 	  1.727420944561 	
C	  0.896063099571 	 11.953604798831 	 11.857977664561 	
C	 16.145465629571 	  5.770049458831 	  1.755553704561 	
C	 15.576921499571 	  5.770052268831 	 11.886110424561 	
C	 16.145434529571 	 11.953611218831 	  1.755550874561 	
C	 15.576890399571 	 11.953614028831 	 11.886107594561 	
H	  1.640391318670 	  4.468063110301 	  6.987113979473 	
H	  1.071847188670 	  4.468065920301 	 17.117670699473 	
H	  1.640360218670 	 10.651624870301 	  6.987111149473 	
H	  1.071816088670 	 10.651627680301 	 17.117667869473 	
H	 16.321218618670 	  4.468072340301 	  7.015243909473 	
H	 15.752674488670 	  4.468075150301 	 17.145800629473 	
H	 16.321187518670 	 10.651634100301 	  7.015241079473 	
H	 15.752643388670 	 10.651636910301 	 17.145797799473 	
H	 11.998381912857 	  1.403416802268 	  8.586217677298 	
H	 11.429837782857 	  1.403419612268 	 18.716774397298 	
H	 11.998350812857 	  7.586978562268 	  8.586214847298 	
H	 11.429806682857 	  7.586981372268 	 18.716771567298 	
H	 26.679209212857 	  1.403426032268 	  8.614347607298 	
H	 26.110665082857 	  1.403428842268 	 18.744904327298 	
H	 26.679178112857 	  7.586987792268 	  8.614344777298 	
H	 26.110633982857 	  7.586990602268 	 18.744901497298 	
H	 12.261657118088 	  1.682004593518 	  3.419234132457 	
H	 11.693112988088 	  1.682007403518 	 13.549790852457 	
H	 12.261626018088 	  7.865566353518 	  3.419231302457 	
H	 11.693081888088 	  7.865569163518 	 13.549788022457 	
H	 26.942484418088 	  1.682013823518 	  3.447364062457 	
H	 26.373940288088 	  1.682016633518 	 13.577920782457 	
H	 26.942453318088 	  7.865575583518 	  3.447361232457 	
H	 26.373909188088 	  7.865578393518 	 13.577917952457 	
H	  1.903666704579 	  4.746651544511 	  1.820130487492 	
H	  1.335122574579 	  4.746654354511 	 11.950687207492 	
H	  1.903635604579 	 10.930213304511 	  1.820127657492 	
H	  1.335091474579 	 10.930216114511 	 11.950684377492 	
H	 16.584494004579 	  4.746660774511 	  1.848260417492 	
H	 16.015949874579 	  4.746663584511 	 11.978817137492 	
H	 16.584462904579 	 10.930222534511 	  1.848257587492 	
H	 16.015918774579 	 10.930225344511 	 11.978814307492 	
H	  0.960039574557 	  3.459702744336 	  7.965834691943 	
H	  0.391495444557 	  3.459705554336 	 18.096391411943 	
H	  0.960008474557 	  9.643264504336 	  7.965831861943 	
H	  0.391464344557 	  9.643267314336 	 18.096388581943 	
H	 15.640866874557 	  3.459711974336 	  7.993964621943 	
H	 15.072322744557 	  3.459714784336 	 18.124521341943 	
H	 15.640835774557 	  9.643273734336 	  7.993961791943 	
H	 15.072291644557 	  9.643276544336 	 18.124518511943 	
H	 12.679430540019 	  6.518744805280 	  7.614570738703 	
H	 12.110886410019 	  6.518747615280 	 17.745127458703 	
H	 12.679399440019 	 12.702306565280 	  7.614567908703 	
H	 12.110855310019 	 12.702309375280 	 17.745124628703 	
H	 27.360257840019 	  6.518754035280 	  7.642700668703 	
H	 26.791713710019 	  6.518756845280 	 17.773257388703 	
H	 27.360226740019 	 12.702315795280 	  7.642697838703 	
H	 26.791682610019 	 12.702318605280 	 17.773254558703 	
H	 12.942009808698 	  2.690366230575 	  2.440512951439 	
H	 12.373465678698 	  2.690369040575 	 12.571069671439 	
H	 12.941978708698 	  8.873927990575 	  2.440510121439 	
H	 12.373434578698 	  8.873930800575 	 12.571066841439 	
H	 27.622837108698 	  2.690375460575 	  2.468642881439 	
H	 27.054292978698 	  2.690378270575 	 12.599199601439 	
H	 27.622806008698 	  8.873937220575 	  2.468640051439 	
H	 27.054261878698 	  8.873940030575 	 12.599196771439 	
H	  1.222618186194 	 -0.368676649020 	  2.791777910325 	
H	  0.654074056194 	 -0.368673839020 	 12.922334630325 	
H	  1.222587086194 	  5.814885110980 	  2.791775080325 	
H	  0.654042956194 	  5.814887920980 	 12.922331800325 	
H	 15.903445486194 	 -0.368667419020 	  2.819907840325 	
H	 15.334901356194 	 -0.368664609020 	 12.950464560325 	
H	 15.903414386194 	  5.814894340980 	  2.819905010325 	
H	 15.334870256194 	  5.814897150980 	 12.950461730325 	
H	  0.293936071851 	  3.563142923462 	  6.341568294549 	
H	 -0.274608058149 	  3.563145733462 	 16.472125014549 	
H	  0.293904971851 	  9.746704683462 	  6.341565464549 	
H	 -0.274639158149 	  9.746707493462 	 16.472122184549 	
H	 14.974763371851 	  3.563152153462 	  6.369698224549 	
H	 14.406219241851 	  3.563154963462 	 16.500254944549 	
H	 14.974732271851 	  9.746713913462 	  6.369695394549 	
H	 14.406188141851 	  9.746716723462 	 16.500252114549 	
H	 13.342717493393 	  6.632516926564 	  9.230262266186 	
H	 12.774173363393 	  6.632519736564 	 19.360818986186 	
H	 13.342686393393 	 12.816078686564 	  9.230259436186 	
H	 12.774142263393 	 12.816081496564 	 19.360816156186 	
H	 28.023544793393 	  6.632526156564 	  9.258392196186 	
H	 27.455000663393 	  6.632528966564 	 19.388948916186 	
H	 28.023513693393 	 12.816087916564 	  9.258389366186 	
H	 27.454969563393 	 12.816090726564 	 19.388946086186 	
H	 13.608112382894 	  2.586925373274 	  4.064779952265 	
H	 13.039568252894 	  2.586928183274 	 14.195336672265 	
H	 13.608081282894 	  8.770487133274 	  4.064777122265 	
H	 13.039537152894 	  8.770489943274 	 14.195333842265 	
H	 28.288939682894 	  2.586934603274 	  4.092909882265 	
H	 27.720395552894 	  2.586937413274 	 14.223466602265 	
H	 28.288908582894 	  8.770496363274 	  4.092907052265 	
H	 27.720364452894 	  8.770499173274 	 14.223463772265 	
H	  0.559330937034 	 -0.482448664595 	  1.176086469910 	
H	 -0.009213192966 	 -0.482445854595 	 11.306643189910 	
H	  0.559299837034 	  5.701113095405 	  1.176083639910 	
H	 -0.009244292966 	  5.701115905405 	 11.306640359910 	
H	 15.240158237034 	 -0.482439434595 	  1.204216399910 	
H	 14.671614107034 	 -0.482436624595 	 11.334773119910 	
H	 15.240127137034 	  5.701122325405 	  1.204213569910 	
H	 14.671583007034 	  5.701125135405 	 11.334770289910 	
C	  1.379062562043 	  1.674476030003 	  6.562994442781 	
C	  0.810518432043 	  1.674478840003 	 16.693551162781 	
C	  1.379031462043 	  7.858037790003 	  6.562991612781 	
C	  0.810487332043 	  7.858040600003 	 16.693548332781 	
C	 16.059889862043 	  1.674485260003 	  6.591124372781 	
C	 15.491345732043 	  1.674488070003 	 16.721681092781 	
C	 16.059858762043 	  7.858047020003 	  6.591121542781 	
C	 15.491314632043 	  7.858049830003 	 16.721678262781 	
C	 12.264539139396 	  4.752179008664 	  9.015400027007 	
C	 11.695995009396 	  4.752181818664 	 19.145956747007 	
C	 12.264508039396 	 10.935740768664 	  9.015397197007 	
C	 11.695963909396 	 10.935743578664 	 19.145953917007 	
C	 26.945366439396 	  4.752188238664 	  9.043529957007 	
C	 26.376822309396 	  4.752191048664 	 19.174086677007 	
C	 26.945335339396 	 10.935749998664 	  9.043527127007 	
C	 26.376791209396 	 10.935752808664 	 19.174083847007 	
C	 12.522985428948 	  4.475593787867 	  3.843353333419 	
C	 11.954441298948 	  4.475596597867 	 13.973910053419 	
C	 12.522954328948 	 10.659155547867 	  3.843350503419 	
C	 11.954410198948 	 10.659158357867 	 13.973907223419 	
C	 27.203812728948 	  4.475603017867 	  3.871483263419 	
C	 26.635268598948 	  4.475605827867 	 14.002039983419 	
C	 27.203781628948 	 10.659164777867 	  3.871480433419 	
C	 26.635237498948 	 10.659167587867 	 14.002037153419 	
C	  1.637509215241 	  1.397889346044 	  1.390948922628 	
C	  1.068965085241 	  1.397892156044 	 11.521505642628 	
C	  1.637478115241 	  7.581451106044 	  1.390946092628 	
C	  1.068933985241 	  7.581453916044 	 11.521502812628 	
C	 16.318336515241 	  1.397898576044 	  1.419078852628 	
C	 15.749792385241 	  1.397901386044 	 11.549635572628 	
C	 16.318305415241 	  7.581460336044 	  1.419076022628 	
C	 15.749761285241 	  7.581463146044 	 11.549632742628 	
H	  0.375971064060 	  1.514702101086 	  6.069849914032 	
H	 -0.192573065940 	  1.514704911086 	 16.200406634032 	
H	  0.375939964060 	  7.698263861086 	  6.069847084032 	
H	 -0.192604165940 	  7.698266671086 	 16.200403804032 	
H	 15.056798364060 	  1.514711331086 	  6.097979844032 	
H	 14.488254234060 	  1.514714141086 	 16.228536564032 	
H	 15.056767264060 	  7.698273091086 	  6.097977014032 	
H	 14.488223134060 	  7.698275901086 	 16.228533734032 	
H	 13.265946714034 	  4.590862897913 	  9.507125894342 	
H	 12.697402584034 	  4.590865707913 	 19.637682614342 	
H	 13.265915614034 	 10.774424657913 	  9.507123064342 	
H	 12.697371484034 	 10.774427467913 	 19.637679784342 	
H	 27.946774014034 	  4.590872127913 	  9.535255824342 	
H	 27.378229884034 	  4.590874937913 	 19.665812544342 	
H	 27.946742914034 	 10.774433887913 	  9.535252994342 	
H	 27.378198784034 	 10.774436697913 	 19.665809714342 	
H	 13.526076975504 	  4.635367328516 	  4.336498327464 	
H	 12.957532845504 	  4.635370138516 	 14.467055047464 	
H	 13.526045875504 	 10.818929088516 	  4.336495497464 	
H	 12.957501745504 	 10.818931898516 	 14.467052217464 	
H	 28.206904275504 	  4.635376558516 	  4.364628257464 	
H	 27.638360145504 	  4.635379368516 	 14.495184977464 	
H	 28.206873175504 	 10.818938318516 	  4.364625427464 	
H	 27.638329045504 	 10.818941128516 	 14.495182147464 	
H	  0.636101595480 	  1.559205412721 	  0.899223173139 	
H	  0.067557465480 	  1.559208222721 	 11.029779893139 	
H	  0.636070495480 	  7.742767172721 	  0.899220343139 	
H	  0.067526365480 	  7.742769982721 	 11.029777063139 	
H	 15.316928895480 	  1.559214642721 	  0.927353103139 	
H	 14.748384765480 	  1.559217452721 	 11.057909823139 	
H	 15.316897795480 	  7.742776402721 	  0.927350273139 	
H	 14.748353665480 	  7.742779212721 	 11.057906993139 	
H	  1.181169884373 	  1.185909472841 	  7.560893601920 	
H	  0.612625754373 	  1.185912282841 	 17.691450321920 	
H	  1.181138784373 	  7.369471232841 	  7.560890771920 	
H	  0.612594654373 	  7.369474042841 	 17.691447491920 	
H	 15.861997184373 	  1.185918702841 	  7.589023531920 	
H	 15.293453054373 	  1.185921512841 	 17.719580251920 	
H	 15.861966084373 	  7.369480462841 	  7.589020701920 	
H	 15.293421954373 	  7.369483272841 	 17.719577421920 	
H	 12.460967332306 	  4.262087501941 	  8.015905674864 	
H	 11.892423202306 	  4.262090311941 	 18.146462394864 	
H	 12.460936232306 	 10.445649261941 	  8.015902844864 	
H	 11.892392102306 	 10.445652071941 	 18.146459564864 	
H	 27.141794632306 	  4.262096731941 	  8.044035604864 	
H	 26.573250502306 	  4.262099541941 	 18.174592324864 	
H	 27.141763532306 	 10.445658491941 	  8.044032774864 	
H	 26.573219402306 	 10.445661301941 	 18.174589494864 	
H	 12.720878463009 	  4.964159810443 	  2.845453509382 	
H	 12.152334333009 	  4.964162620443 	 12.976010229382 	
H	 12.720847363009 	 11.147721570443 	  2.845450679382 	
H	 12.152303233009 	 11.147724380443 	 12.976007399382 	
H	 27.401705763009 	  4.964169040443 	  2.873583439382 	
H	 26.833161633009 	  4.964171850443 	 13.004140159382 	
H	 27.401674663009 	 11.147730800443 	  2.873580609382 	
H	 26.833130533009 	 11.147733610443 	 13.004137329382 	
H	  1.441081043138 	  1.887980689277 	  2.390443295469 	
H	  0.872536913138 	  1.887983499277 	 12.521000015469 	
H	  1.441049943138 	  8.071542449277 	  2.390440465469 	
H	  0.872505813138 	  8.071545259277 	 12.520997185469 	
H	 16.121908343138 	  1.887989919277 	  2.418573225469 	
H	 15.553364213138 	  1.887992729277 	 12.549129945469 	
H	 16.121877243138 	  8.071551679277 	  2.418570395469 	
H	 15.553333113138 	  8.071554489277 	 12.549127115469 	
H	  1.844824743477 	  0.698020949571 	  6.284796021644 	
H	  1.276280613477 	  0.698023759571 	 16.415352741644 	
H	  1.844793643477 	  6.881582709571 	  6.284793191644 	
H	  1.276249513477 	  6.881585519571 	 16.415349911644 	
H	 16.525652043477 	  0.698030179571 	  6.312925951644 	
H	 15.957107913477 	  0.698032989571 	 16.443482671644 	
H	 16.525620943477 	  6.881591939571 	  6.312923121644 	
H	 15.957076813477 	  6.881594749571 	 16.443479841644 	
H	 11.797157484106 	  3.774928340076 	  9.291838633805 	
H	 11.228613354106 	  3.774931150076 	 19.422395353805 	
H	 11.797126384106 	  9.958490100076 	  9.291835803805 	
H	 11.228582254106 	  9.958492910076 	 19.422392523805 	
H	 26.477984784106 	  3.774937570076 	  9.319968563805 	
H	 25.909440654106 	  3.774940380076 	 19.450525283805 	
H	 26.477953684106 	  9.958499330076 	  9.319965733805 	
H	 25.909409554106 	  9.958502140076 	 19.450522453805 	
H	 12.057222234813 	  5.452048438447 	  4.121553618485 	
H	 11.488678104813 	  5.452051248447 	 14.252110338485 	
H	 12.057191134813 	 11.635610198447 	  4.121550788485 	
H	 11.488647004813 	 11.635613008447 	 14.252107508485 	
H	 26.738049534813 	  5.452057668447 	  4.149683548485 	
H	 26.169505404813 	  5.452060478447 	 14.280240268485 	
H	 26.738018434813 	 11.635619428447 	  4.149680718485 	
H	 26.169474304813 	 11.635622238447 	 14.280237438485 	
H	  2.104890761477 	  2.375140182638 	  1.114510785984 	
H	  1.536346631477 	  2.375142992638 	 11.245067505984 	
H	  2.104859661477 	  8.558701942638 	  1.114507955984 	
H	  1.536315531477 	  8.558704752638 	 11.245064675984 	
H	 16.785718061477 	  2.375149412638 	  1.142640715984 	
H	 16.217173931477 	  2.375152222638 	 11.273197435984 	
H	 16.785686961477 	  8.558711172638 	  1.142637885984 	
H	 16.217142831477 	  8.558713982638 	 11.273194605984 	
768 
Energy: -9.9967564642710002e+01 
S	  8.537762018848 	  1.493748829406 	  0.088430480255 	
S	  7.969217888848 	  1.493751639406 	 10.218987200255 	
S	  8.537730918848 	  7.677310589406 	  0.088427650255 	
S	  7.969186788848 	  7.677313399406 	 10.218984370255 	
S	 23.218589318848 	  1.493758059406 	  0.116560410255 	
S	 22.650045188848 	  1.493760869406 	 10.247117130255 	
S	 23.218558218848 	  7.677319819406 	  0.116557580255 	
S	 22.650014088848 	  7.677322629406 	 10.247114300255 	
S	  5.559914117497 	  4.563375464990 	  5.186177061846 	
S	  4.991369987497 	  4.563378274990 	 15.316733781846 	
S	  5.559883017497 	 10.746937224990 	  5.186174231846 	
S	  4.991338887497 	 10.746940034990 	 15.316730951846 	
S	 20.240741417497 	  4.563384694990 	  5.214306991846 	
S	 19.672197287497 	  4.563387504990 	 15.344863711846 	
S	 20.240710317497 	 10.746946454990 	  5.214304161846 	
S	 19.672166187497 	 10.746949264990 	 15.344860881846 	
S	  5.308247712764 	  4.647387036518 	 10.383943230497 	
S	  4.739703582764 	  4.647389846518 	 20.514499950497 	
S	  5.308216612764 	 10.830948796518 	 10.383940400497 	
S	  4.739672482764 	 10.830951606518 	 20.514497120497 	
S	 19.989075012764 	  4.647396266518 	 10.412073160497 	
S	 19.420530882764 	  4.647399076518 	 20.542629880497 	
S	 19.989043912764 	 10.830958026518 	 10.412070330497 	
S	 19.420499782764 	 10.830960836518 	 20.542627050497 	
S	  8.286096477526 	  1.577760750919 	  5.286196580625 	
S	  7.717552347526 	  1.577763560919 	 15.416753300625 	
S	  8.286065377526 	  7.761322510919 	  5.286193750625 	
S	  7.717521247526 	  7.761325320919 	 15.416750470625 	
S	 22.966923777526 	  1.577769980919 	  5.314326510625 	
S	 22.398379647526 	  1.577772790919 	 15.444883230625 	
S	 22.966892677526 	  7.761331740919 	  5.314323680625 	
S	 22.398348547526 	  7.761334550919 	 15.444880400625 	
C	  6.646449872815 	  2.548484572031 	 10.068417905326 	
C	  6.077905742815 	  2.548487382031 	 20.198974625326 	
C	  6.646418772815 	  8.732046332031 	 10.068415075326 	
C	  6.077874642815 	  8.732049142031 	 20.198971795326 	
C	 21.327277172815 	  2.548493802031 	 10.096547835326 	
C	 20.758733042815 	  2.548496612031 	 20.227104555326 	
C	 21.327246072815 	  8.732055562031 	 10.096545005326 	
C	 20.758701942815 	  8.732058372031 	 20.227101725326 	
C	  6.946944628123 	  5.593371542764 	  5.617670331829 	
C	  6.378400498123 	  5.593374352764 	 15.748227051829 	
C	  6.946913528123 	 11.776933302764 	  5.617667501829 	
C	  6.378369398123 	 11.776936112764 	 15.748224221829 	
C	 21.627771928123 	  5.593380772764 	  5.645800261829 	
C	 21.059227798123 	  5.593383582764 	 15.776356981829 	
C	 21.627740828123 	 11.776942532764 	  5.645797431829 	
C	 21.059196698123 	 11.776945342764 	 15.776354151829 	
C	  7.199559883082 	  3.592651262746 	  0.403955727923 	
C	  6.631015753082 	  3.592654072746 	 10.534512447923 	
C	  7.199528783082 	  9.776213022746 	  0.403952897923 	
C	  6.630984653082 	  9.776215832746 	 10.534509617923 	
C	 21.880387183082 	  3.592660492746 	  0.432085657923 	
C	 21.311843053082 	  3.592663302746 	 10.562642377923 	
C	 21.880356083082 	  9.776222252746 	  0.432082827923 	
C	 21.311811953082 	  9.776225062746 	 10.562639547923 	
C	  6.899065820081 	  0.547764756943 	  4.854703221688 	
C	  6.330521690081 	  0.547767566943 	 14.985259941688 	
C	  6.899034720081 	  6.731326516943 	  4.854700391688 	
C	  6.330490590081 	  6.731329326943 	 14.985257111688 	
C	 21.579893120081 	  0.547773986943 	  4.882833151688 	
C	 21.011348990081 	  0.547776796943 	 15.013389871688 	
C	 21.579862020081 	  6.731335746943 	  4.882830321688 	
C	 21.011317890081 	  6.731338556943 	 15.013387041688 	
C	  5.606742220131 	  2.368491526331 	  9.114318630426 	
C	  5.038198090131 	  2.368494336331 	 19.244875350426 	
C	  5.606711120131 	  8.552053286331 	  9.114315800426 	
C	  5.038166990131 	  8.552056096331 	 19.244872520426 	
C	 20.287569520131 	  2.368500756331 	  9.142448560426 	
C	 19.719025390131 	  2.368503566331 	 19.273005280426 	
C	 20.287538420131 	  8.552062516331 	  9.142445730426 	
C	 19.718994290131 	  8.552065326331 	 19.273002450426 	
C	  7.991778186589 	  5.439921594652 	  6.555285978767 	
C	  7.423234056589 	  5.439924404652 	 16.685842698767 	
C	  7.991747086589 	 11.623483354652 	  6.555283148767 	
C	  7.423202956589 	 11.623486164652 	 16.685839868767 	
C	 22.672605486589 	  5.439930824652 	  6.583415908767 	
C	 22.104061356589 	  5.439933634652 	 16.713972628767 	
C	 22.672574386589 	 11.623492584652 	  6.583413078767 	
C	 22.104030256589 	 11.623495394652 	 16.713969798767 	
C	  8.239267414964 	  3.772644361261 	  1.358054908221 	
C	  7.670723284964 	  3.772647171261 	 11.488611628221 	
C	  8.239236314964 	  9.956206121261 	  1.358052078221 	
C	  7.670692184964 	  9.956208931261 	 11.488608798221 	
C	 22.920094714964 	  3.772653591261 	  1.386184838221 	
C	 22.351550584964 	  3.772656401261 	 11.516741558221 	
C	 22.920063614964 	  9.956215351261 	  1.386182008221 	
C	 22.351519484964 	  9.956218161261 	 11.516738728221 	
C	  5.854232120401 	  0.701214709076 	  3.917087648658 	
C	  5.285687990401 	  0.701217519076 	 14.047644368658 	
C	  5.854201020401 	  6.884776469076 	  3.917084818658 	
C	  5.285656890401 	  6.884779279076 	 14.047641538658 	
C	 20.535059420401 	  0.701223939076 	  3.945217578658 	
C	 19.966515290401 	  0.701226749076 	 14.075774298658 	
C	 20.535028320401 	  6.884785699076 	  3.945214748658 	
C	 19.966484190401 	  6.884788509076 	 14.075771468658 	
C	  4.741353063727 	  3.445659937998 	  9.146883001509 	
C	  4.172808933727 	  3.445662747998 	 19.277439721509 	
C	  4.741321963727 	  9.629221697998 	  9.146880171509 	
C	  4.172777833727 	  9.629224507998 	 19.277436891509 	
C	 19.422180363727 	  3.445669167998 	  9.175012931509 	
C	 18.853636233727 	  3.445671977998 	 19.305569651509 	
C	 19.422149263727 	  9.629230927998 	  9.175010101509 	
C	 18.853605133727 	  9.629233737998 	 19.305566821509 	
C	  8.845635511645 	  0.373399042058 	  6.524101066365 	
C	  8.277091381645 	  0.373401852058 	 16.654657786365 	
C	  8.845604411645 	  6.556960802058 	  6.524098236365 	
C	  8.277060281645 	  6.556963612058 	 16.654654956365 	
C	 23.526462811645 	  0.373408272058 	  6.552230996365 	
C	 22.957918681645 	  0.373411082058 	 16.682787716365 	
C	 23.526431711645 	  6.556970032058 	  6.552228166365 	
C	 22.957887581645 	  6.556972842058 	 16.682784886365 	
C	  9.104656563290 	  2.695475965549 	  1.325490598196 	
C	  8.536112433290 	  2.695478775549 	 11.456047318196 	
C	  9.104625463290 	  8.879037725549 	  1.325487768196 	
C	  8.536081333290 	  8.879040535549 	 11.456044488196 	
C	 23.785483863290 	  2.695485195549 	  1.353620528196 	
C	 23.216939733290 	  2.695488005549 	 11.484177248196 	
C	 23.785452763290 	  8.879046955549 	  1.353617698196 	
C	 23.216908633290 	  8.879049765549 	 11.484174418196 	
C	  5.000374860234 	  5.767737230456 	  3.948272680711 	
C	  4.431830730234 	  5.767740040456 	 14.078829400711 	
C	  5.000343760234 	 11.951298990456 	  3.948269850711 	
C	  4.431799630234 	 11.951301800456 	 14.078826570711 	
C	 19.681202160234 	  5.767746460456 	  3.976402610711 	
C	 19.112658030234 	  5.767749270456 	 14.106959330711 	
C	 19.681171060234 	 11.951308220456 	  3.976399780711 	
C	 19.112626930234 	 11.951311030456 	 14.106956500711 	
C	  3.675300226783 	  3.527051925268 	  8.383288672483 	
C	  3.106756096783 	  3.527054735268 	 18.513845392483 	
C	  3.675269126783 	  9.710613685268 	  8.383285842483 	
C	  3.106724996783 	  9.710616495268 	 18.513842562483 	
C	 18.356127526783 	  3.527061155268 	  8.411418602483 	
C	 17.787583396783 	  3.527063965268 	 18.541975322483 	
C	 18.356096426783 	  9.710622915268 	  8.411415772483 	
C	 17.787552296783 	  9.710625725268 	 18.541972492483 	
C	  9.916602811887 	  0.460157296109 	  7.287524172830 	
C	  9.348058681887 	  0.460160106109 	 17.418080892830 	
C	  9.916571711887 	  6.643719056109 	  7.287521342830 	
C	  9.348027581887 	  6.643721866109 	 17.418078062830 	
C	 24.597430111887 	  0.460166526109 	  7.315654102830 	
C	 24.028885981887 	  0.460169336109 	 17.446210822830 	
C	 24.597399011887 	  6.643728286109 	  7.315651272830 	
C	 24.028854881887 	  6.643731096109 	 17.446207992830 	
C	 10.170709422811 	  2.614084100448 	  2.089085109220 	
C	  9.602165292811 	  2.614086910448 	 12.219641829220 	
C	 10.170678322811 	  8.797645860448 	  2.089082279220 	
C	  9.602134192811 	  8.797648670448 	 12.219638999220 	
C	 24.851536722811 	  2.614093330448 	  2.117215039220 	
C	 24.282992592811 	  2.614096140448 	 12.247771759220 	
C	 24.851505622811 	  8.797655090448 	  2.117212209220 	
C	 24.282961492811 	  8.797657900448 	 12.247768929220 	
C	  3.929407307900 	  5.680979005250 	  3.184849825097 	
C	  3.360863177900 	  5.680981815250 	 13.315406545097 	
C	  3.929376207900 	 11.864540765250 	  3.184846995097 	
C	  3.360832077900 	 11.864543575250 	 13.315403715097 	
C	 18.610234607900 	  5.680988235250 	  3.212979755097 	
C	 18.041690477900 	  5.680991045250 	 13.343536475097 	
C	 18.610203507900 	 11.864549995250 	  3.212976925097 	
C	 18.041659377900 	 11.864552805250 	 13.343533645097 	
H	  2.998852143054 	  4.464112566775 	  8.461825775313 	
H	  2.430308013054 	  4.464115376775 	 18.592382495313 	
H	  2.998821043054 	 10.647674326775 	  8.461822945313 	
H	  2.430276913054 	 10.647677136775 	 18.592379665313 	
H	 17.679679443054 	  4.464121796775 	  8.489955705313 	
H	 17.111135313054 	  4.464124606775 	 18.620512425313 	
H	 17.679648343054 	 10.647683556775 	  8.489952875313 	
H	 17.111104213054 	 10.647686366775 	 18.620509595313 	
H	 10.594374320596 	  1.392553819591 	  7.209144463067 	
H	 10.025830190596 	  1.392556629591 	 17.339701183067 	
H	 10.594343220596 	  7.576115579591 	  7.209141633067 	
H	 10.025799090596 	  7.576118389591 	 17.339698353067 	
H	 25.275201620596 	  1.392563049591 	  7.237274393067 	
H	 24.706657490596 	  1.392565859591 	 17.367831113067 	
H	 25.275170520596 	  7.576124809591 	  7.237271563067 	
H	 24.706626390596 	  7.576127619591 	 17.367828283067 	
H	 10.847157449324 	  1.677023386061 	  2.010548069727 	
H	 10.278613319324 	  1.677026196061 	 12.141104789727 	
H	 10.847126349324 	  7.860585146061 	  2.010545239727 	
H	 10.278582219324 	  7.860587956061 	 12.141101959727 	
H	 25.527984749324 	  1.677032616061 	  2.038677999727 	
H	 24.959440619324 	  1.677035426061 	 12.169234719727 	
H	 25.527953649324 	  7.860594376061 	  2.038675169727 	
H	 24.959409519324 	  7.860597186061 	 12.169231889727 	
H	  3.251635928846 	  4.748582393736 	  3.263229655356 	
H	  2.683091798846 	  4.748585203736 	 13.393786375356 	
H	  3.251604828846 	 10.932144153736 	  3.263226825356 	
H	  2.683060698846 	 10.932146963736 	 13.393783545356 	
H	 17.932463228846 	  4.748591623736 	  3.291359585356 	
H	 17.363919098846 	  4.748594433736 	 13.421916305356 	
H	 17.932432128846 	 10.932153383736 	  3.291356755356 	
H	 17.363887998846 	 10.932156193736 	 13.421913475356 	
C	  3.344385743195 	  2.568934702146 	  7.516100435654 	
C	  2.775841613195 	  2.568937512146 	 17.646657155654 	
C	  3.344354643195 	  8.752496462146 	  7.516097605654 	
C	  2.775810513195 	  8.752499272146 	 17.646654325654 	
C	 18.025213043195 	  2.568943932146 	  7.544230365654 	
C	 17.456668913195 	  2.568946742146 	 17.674787085654 	
C	 18.025181943195 	  8.752505692146 	  7.544227535654 	
C	 17.456637813195 	  8.752508502146 	 17.674784255654 	
C	 10.250365763216 	  5.635079081948 	  8.154106435918 	
C	  9.681821633216 	  5.635081891948 	 18.284663155918 	
C	 10.250334663216 	 11.818640841948 	  8.154103605918 	
C	  9.681790533216 	 11.818643651948 	 18.284660325918 	
C	 24.931193063216 	  5.635088311948 	  8.182236365918 	
C	 24.362648933216 	  5.635091121948 	 18.312793085918 	
C	 24.931161963216 	 11.818650071948 	  8.182233535918 	
C	 24.362617833216 	 11.818652881948 	 18.312790255918 	
C	 10.501623709189 	  3.572201345244 	  2.956273139379 	
C	  9.933079579189 	  3.572204155244 	 13.086829859379 	
C	 10.501592609189 	  9.755763105244 	  2.956270309379 	
C	  9.933048479189 	  9.755765915244 	 13.086827029379 	
C	 25.182451009189 	  3.572210575244 	  2.984403069379 	
C	 24.613906879189 	  3.572213385244 	 13.114959789379 	
C	 25.182419909189 	  9.755772335244 	  2.984400239379 	
C	 24.613875779189 	  9.755775145244 	 13.114956959379 	
C	  3.595644199430 	  0.506057246644 	  2.318267661302 	
C	  3.027100069430 	  0.506060056644 	 12.448824381302 	
C	  3.595613099430 	  6.689619006644 	  2.318264831302 	
C	  3.027068969430 	  6.689621816644 	 12.448821551302 	
C	 18.276471499430 	  0.506066476644 	  2.346397591302 	
C	 17.707927369430 	  0.506069286644 	 12.476954311302 	
C	 18.276440399430 	  6.689628236644 	  2.346394761302 	
C	 17.707896269430 	  6.689631046644 	 12.476951481302 	
C	  4.214591521953 	  1.515123989227 	  7.459988607383 	
C	  3.646047391953 	  1.515126799227 	 17.590545327383 	
C	  4.214560421953 	  7.698685749227 	  7.459985777383 	
C	  3.646016291953 	  7.698688559227 	 17.590542497383 	
C	 18.895418821953 	  1.515133219227 	  7.488118537383 	
C	 18.326874691953 	  1.515136029227 	 17.618675257383 	
C	 18.895387721953 	  7.698694979227 	  7.488115707383 	
C	 18.326843591953 	  7.698697789227 	 17.618672427383 	
C	  9.378873290087 	  4.586793131032 	  8.209568221663 	
C	  8.810329160087 	  4.586795941032 	 18.340124941663 	
C	  9.378842190087 	 10.770354891032 	  8.209565391663 	
C	  8.810298060087 	 10.770357701032 	 18.340122111663 	
C	 24.059700590087 	  4.586802361032 	  8.237698151663 	
C	 23.491156460087 	  4.586805171032 	 18.368254871663 	
C	 24.059669490087 	 10.770364121032 	  8.237695321663 	
C	 23.491125360087 	 10.770366931032 	 18.368252041663 	
C	  9.631417979391 	  4.626012065451 	  3.012384971753 	
C	  9.062873849391 	  4.626014875451 	 13.142941691753 	
C	  9.631386879391 	 10.809573825451 	  3.012382141753 	
C	  9.062842749391 	 10.809576635451 	 13.142938861753 	
C	 24.312245279391 	  4.626021295451 	  3.040514901753 	
C	 23.743701149391 	  4.626024105451 	 13.171071621753 	
C	 24.312214179391 	 10.809583055451 	  3.040512071753 	
C	 23.743670049391 	 10.809585865451 	 13.171068791753 	
C	  4.467136559500 	  1.554343125265 	  2.262805682394 	
C	  3.898592429500 	  1.554345935265 	 12.393362402394 	
C	  4.467105459500 	  7.737904885265 	  2.262802852394 	
C	  3.898561329500 	  7.737907695265 	 12.393359572394 	
C	 19.147963859500 	  1.554352355265 	  2.290935612394 	
C	 18.579419729500 	  1.554355165265 	 12.421492332394 	
C	 19.147932759500 	  7.737914115265 	  2.290932782394 	
C	 18.579388629500 	  7.737916925265 	 12.421489502394 	
H	  3.985427102699 	  0.674366105394 	  6.701093539442 	
H	  3.416882972699 	  0.674368915394 	 16.831650259442 	
H	  3.985396002699 	  6.857927865394 	  6.701090709442 	
H	  3.416851872699 	  6.857930675394 	 16.831647429442 	
H	 18.666254402699 	  0.674375335394 	  6.729223469442 	
H	 18.097710272699 	  0.674378145394 	 16.859780189442 	
H	 18.666223302699 	  6.857937095394 	  6.729220639442 	
H	 18.097679172699 	  6.857939905394 	 16.859777359442 	
H	  9.607595385589 	  3.745654407145 	  8.969046723092 	
H	  9.039051255589 	  3.745657217145 	 19.099603443092 	
H	  9.607564285589 	  9.929216167145 	  8.969043893092 	
H	  9.039020155589 	  9.929218977145 	 19.099600613092 	
H	 24.288422685589 	  3.745663637145 	  8.997176653092 	
H	 23.719878555589 	  3.745666447145 	 19.127733373092 	
H	 24.288391585589 	  9.929225397145 	  8.997173823092 	
H	 23.719847455589 	  9.929228207145 	 19.127730543092 	
H	  9.860582470072 	  5.466770016490 	  3.771279945608 	
H	  9.292038340072 	  5.466772826490 	 13.901836665608 	
H	  9.860551370072 	 11.650331776490 	  3.771277115608 	
H	  9.292007240072 	 11.650334586490 	 13.901833835608 	
H	 24.541409770072 	  5.466779246490 	  3.799409875608 	
H	 23.972865640072 	  5.466782056490 	 13.929966595608 	
H	 24.541378670072 	 11.650341006490 	  3.799407045608 	
H	 23.972834540072 	 11.650343816490 	 13.929963765608 	
H	  4.238414282242 	  2.395481936807 	  1.503327322725 	
H	  3.669870152242 	  2.395484746807 	 11.633884042725 	
H	  4.238383182242 	  8.579043696807 	  1.503324492725 	
H	  3.669839052242 	  8.579046506807 	 11.633881212725 	
H	 18.919241582242 	  2.395491166807 	  1.531457252725 	
H	 18.350697452242 	  2.395493976807 	 11.662013972725 	
H	 18.919210482242 	  8.579052926807 	  1.531454422725 	
H	 18.350666352242 	  8.579055736807 	 11.662011142725 	
C	  5.260631737578 	  1.413827843849 	  8.190319827223 	
C	  4.692087607578 	  1.413830653849 	 18.320876547223 	
C	  5.260600637578 	  7.597389603849 	  8.190316997223 	
C	  4.692056507578 	  7.597392413849 	 18.320873717223 	
C	 19.941459037578 	  1.413837073849 	  8.218449757223 	
C	 19.372914907578 	  1.413839883849 	 18.349006477223 	
C	 19.941427937578 	  7.597398833849 	  8.218446927223 	
C	 19.372883807578 	  7.597401643849 	 18.349003647223 	
C	  8.332482930752 	  4.485261883780 	  7.479040721318 	
C	  7.763938800752 	  4.485264693780 	 17.609597441318 	
C	  8.332451830752 	 10.668823643780 	  7.479037891318 	
C	  7.763907700752 	 10.668826453780 	 17.609594611318 	
C	 23.013310230752 	  4.485271113780 	  7.507170651318 	
C	 22.444766100752 	  4.485273923780 	 17.637727371318 	
C	 23.013279130752 	 10.668832873780 	  7.507167821318 	
C	 22.444735000752 	 10.668835683780 	 17.637724541318 	
C	  8.585377827951 	  4.727308139149 	  2.282053650484 	
C	  8.016833697951 	  4.727310949149 	 12.412610370484 	
C	  8.585346727951 	 10.910869899149 	  2.282050820484 	
C	  8.016802597951 	 10.910872709149 	 12.412607540484 	
C	 23.266205127951 	  4.727317369149 	  2.310183580484 	
C	 22.697660997951 	  4.727320179149 	 12.440740300484 	
C	 23.266174027951 	 10.910879129149 	  2.310180750484 	
C	 22.697629897951 	 10.910881939149 	 12.440737470484 	
C	  5.513527164416 	  1.655874425842 	  2.993333025258 	
C	  4.944983034416 	  1.655877235842 	 13.123889745258 	
C	  5.513496064416 	  7.839436185842 	  2.993330195258 	
C	  4.944951934416 	  7.839438995842 	 13.123886915258 	
C	 20.194354464416 	  1.655883655842 	  3.021462955258 	
C	 19.625810334416 	  1.655886465842 	 13.152019675258 	
C	 20.194323364416 	  7.839445415842 	  3.021460125258 	
C	 19.625779234416 	  7.839448225842 	 13.152016845258 	
H	  5.958789317092 	  0.496187947873 	  8.097193457606 	
H	  5.390245187092 	  0.496190757873 	 18.227750177606 	
H	  5.958758217092 	  6.679749707873 	  8.097190627606 	
H	  5.390214087092 	  6.679752517873 	 18.227747347606 	
H	 20.639616617092 	  0.496197177873 	  8.125323387606 	
H	 20.071072487092 	  0.496199987873 	 18.255880107606 	
H	 20.639585517092 	  6.679758937873 	  8.125320557606 	
H	 20.071041387092 	  6.679761747873 	 18.255877277606 	
H	  7.634111647195 	  3.566952094800 	  7.572762425491 	
H	  7.065567517195 	  3.566954904800 	 17.703319145491 	
H	  7.634080547195 	  9.750513854800 	  7.572759595491 	
H	  7.065536417195 	  9.750516664800 	 17.703316315491 	
H	 22.314938947195 	  3.566961324800 	  7.600892355491 	
H	 21.746394817195 	  3.566964134800 	 17.731449075491 	
H	 22.314907847195 	  9.750523084800 	  7.600889525491 	
H	 21.746363717195 	  9.750525894800 	 17.731446245491 	
H	  7.887220199878 	  5.644947994379 	  2.375179916337 	
H	  7.318676069878 	  5.644950804379 	 12.505736636337 	
H	  7.887189099878 	 11.828509754379 	  2.375177086337 	
H	  7.318644969878 	 11.828512564379 	 12.505733806337 	
H	 22.568047499878 	  5.644957224379 	  2.403309846337 	
H	 21.999503369878 	  5.644960034379 	 12.533866566337 	
H	 22.568016399878 	 11.828518984379 	  2.403307016337 	
H	 21.999472269878 	 11.828521794379 	 12.533863736337 	
H	  6.211898407246 	  2.574184214835 	  2.899611206008 	
H	  5.643354277246 	  2.574187024835 	 13.030167926008 	
H	  6.211867307246 	  8.757745974835 	  2.899608376008 	
H	  5.643323177246 	  8.757748784835 	 13.030165096008 	
H	 20.892725707246 	  2.574193444835 	  2.927741136008 	
H	 20.324181577246 	  2.574196254835 	 13.058297856008 	
H	 20.892694607246 	  8.757755204835 	  2.927738306008 	
H	 20.324150477246 	  8.757758014835 	 13.058295026008 	
C	  2.008778977479 	  2.654370908147 	  6.610338817276 	
C	  1.440234847479 	  2.654373718147 	 16.740895537276 	
C	  2.008747877479 	  8.837932668147 	  6.610335987276 	
C	  1.440203747479 	  8.837935478147 	 16.740892707276 	
C	 16.689606277479 	  2.654380138147 	  6.638468747276 	
C	 16.121062147479 	  2.654382948147 	 16.769025467276 	
C	 16.689575177479 	  8.837941898147 	  6.638465917276 	
C	 16.121031047479 	  8.837944708147 	 16.769022637276 	
C	 11.517917932575 	  5.678869129924 	  9.022486990725 	
C	 10.949373802575 	  5.678871939924 	 19.153043710725 	
C	 11.517886832575 	 11.862430889924 	  9.022484160725 	
C	 10.949342702575 	 11.862433699924 	 19.153040880725 	
C	 26.198745232575 	  5.678878359924 	  9.050616920725 	
C	 25.630201102575 	  5.678881169924 	 19.181173640725 	
C	 26.198714132575 	 11.862440119924 	  9.050614090725 	
C	 25.630170002575 	 11.862442929924 	 19.181170810725 	
C	 11.837231443004 	  3.486765576841 	  3.862036189838 	
C	 11.268687313004 	  3.486768386841 	 13.992592909838 	
C	 11.837200343004 	  9.670327336841 	  3.862033359838 	
C	 11.268656213004 	  9.670330146841 	 13.992590079838 	
C	 26.518058743004 	  3.486774806841 	  3.890166119838 	
C	 25.949514613004 	  3.486777616841 	 14.020722839838 	
C	 26.518027643004 	  9.670336566841 	  3.890163289838 	
C	 25.949483513004 	  9.670339376841 	 14.020720009838 	
C	  2.328091766142 	  0.462267014846 	  1.449887417687 	
C	  1.759547636142 	  0.462269824846 	 11.580444137687 	
C	  2.328060666142 	  6.645828774846 	  1.449884587687 	
C	  1.759516536142 	  6.645831584846 	 11.580441307687 	
C	 17.008919066142 	  0.462276244846 	  1.478017347687 	
C	 16.440374936142 	  0.462279054846 	 11.608574067687 	
C	 17.008887966142 	  6.645838004846 	  1.478014517687 	
C	 16.440343836142 	  6.645840814846 	 11.608571237687 	
C	  2.140645062007 	  2.744867571941 	  5.523475183350 	
C	  1.572100932007 	  2.744870381941 	 15.654031903350 	
C	  2.140613962007 	  8.928429331941 	  5.523472353350 	
C	  1.572069832007 	  8.928432141941 	 15.654029073350 	
C	 16.821472362007 	  2.744876801941 	  5.551605113350 	
C	 16.252928232007 	  2.744879611941 	 15.682161833350 	
C	 16.821441262007 	  8.928438561941 	  5.551602283350 	
C	 16.252897132007 	  8.928441371941 	 15.682159003350 	
C	 11.460544255529 	 -0.346690136412 	 10.085906167625 	
C	 10.892000125529 	 -0.346687326412 	 20.216462887625 	
C	 11.460513155529 	  5.836871623588 	 10.085903337625 	
C	 10.891969025529 	  5.836874433588 	 20.216460057625 	
C	 26.141371555529 	 -0.346680906412 	 10.114036097625 	
C	 25.572827425529 	 -0.346678096412 	 20.244592817625 	
C	 26.141340455529 	  5.836880853588 	 10.114033267625 	
C	 25.572796325529 	  5.836883663588 	 20.244589987625 	
C	 11.705363082246 	  3.396268429056 	  4.948900037799 	
C	 11.136818952246 	  3.396271239056 	 15.079456757799 	
C	 11.705331982246 	  9.579830189056 	  4.948897207799 	
C	 11.136787852246 	  9.579832999056 	 15.079453927799 	
C	 26.386190382246 	  3.396277659056 	  4.977029967799 	
C	 25.817646252246 	  3.396280469056 	 15.107586687799 	
C	 26.386159282246 	  9.579839419056 	  4.977027137799 	
C	 25.817615152246 	  9.579842229056 	 15.107583857799 	
C	  2.385465304164 	  6.487826186316 	  0.386468067200 	
C	  1.816921174164 	  6.487828996316 	 10.517024787200 	
C	  2.385434204164 	 12.671387946316 	  0.386465237200 	
C	  1.816890074164 	 12.671390756316 	 10.517021957200 	
C	 17.066292604164 	  6.487835416316 	  0.414597997200 	
C	 16.497748474164 	  6.487838226316 	 10.545154717200 	
C	 17.066261504164 	 12.671397176316 	  0.414595167200 	
C	 16.497717374164 	 12.671399986316 	 10.545151887200 	
H	  2.915509701699 	  3.423602170126 	  5.123048159836 	
H	  2.346965571699 	  3.423604980126 	 15.253604879836 	
H	  2.915478601699 	  9.607163930126 	  5.123045329836 	
H	  2.346934471699 	  9.607166740126 	 15.253602049836 	
H	 17.596337001699 	  3.423611400126 	  5.151178089836 	
H	 17.027792871699 	  3.423614210126 	 15.281734809836 	
H	 17.596305901699 	  9.607173160126 	  5.151175259836 	
H	 17.027761771699 	  9.607175970126 	 15.281731979836 	
H	 10.702272316972 	  0.357377336708 	 10.530888278058 	
H	 10.133728186972 	  0.357380146708 	 20.661444998058 	
H	 10.702241216972 	  6.540939096708 	 10.530885448058 	
H	 10.133697086972 	  6.540941906708 	 20.661442168058 	
H	 25.383099616972 	  0.357386566708 	 10.559018208058 	
H	 24.814555486972 	  0.357389376708 	 20.689574928058 	
H	 25.383068516972 	  6.540948326708 	 10.559015378058 	
H	 24.814524386972 	  6.540951136708 	 20.689572098058 	
H	 10.930499343431 	  2.717530470401 	  5.349324584529 	
H	 10.361955213431 	  2.717533280401 	 15.479881304529 	
H	 10.930468243431 	  8.901092230401 	  5.349321754529 	
H	 10.361924113431 	  8.901095040401 	 15.479878474529 	
H	 25.611326643431 	  2.717539700401 	  5.377454514529 	
H	 25.042782513431 	  2.717542510401 	 15.508011234529 	
H	 25.611295543431 	  8.901101460401 	  5.377451684529 	
H	 25.042751413431 	  8.901104270401 	 15.508008404529 	
H	  3.143737198587 	  5.783759331659 	 -0.058514401792 	
H	  2.575193068587 	  5.783762141659 	 10.072042318208 	
H	  3.143706098587 	 11.967321091659 	 -0.058517231792 	
H	  2.575161968587 	 11.967323901659 	 10.072039488208 	
H	 17.824564498587 	  5.783768561659 	 -0.030384471792 	
H	 17.256020368587 	  5.783771371659 	 10.100172248208 	
H	 17.824533398587 	 11.967330321659 	 -0.030387301792 	
H	 17.255989268587 	 11.967333131659 	 10.100169418208 	
H	  1.410411993550 	  2.863447135200 	  4.668286896873 	
H	  0.841867863550 	  2.863449945200 	 14.798843616873 	
H	  1.410380893550 	  9.047008895200 	  4.668284066873 	
H	  0.841836763550 	  9.047011705200 	 14.798840786873 	
H	 16.091239293550 	  2.863456365200 	  4.696416826873 	
H	 15.522695163550 	  2.863459175200 	 14.826973546873 	
H	 16.091208193550 	  9.047018125200 	  4.696413996873 	
H	 15.522664063550 	  9.047020935200 	 14.826970716873 	
H	 12.720328526902 	 -0.198102051968 	  0.652532436727 	
H	 12.151784396902 	 -0.198099241968 	 10.783089156727 	
H	 12.720297426902 	  5.985459708032 	  0.652529606727 	
H	 12.151753296902 	  5.985462518032 	 10.783086326727 	
H	 27.401155826902 	 -0.198092821968 	  0.680662366727 	
H	 26.832611696902 	 -0.198090011968 	 10.811219086727 	
H	 27.401124726902 	  5.985468938032 	  0.680659536727 	
H	 26.832580596902 	  5.985471748032 	 10.811216256727 	
H	 12.435596990674 	  3.277689190865 	  5.804087624354 	
H	 11.867052860674 	  3.277692000865 	 15.934644344354 	
H	 12.435565890674 	  9.461250950865 	  5.804084794354 	
H	 11.867021760674 	  9.461253760865 	 15.934641514354 	
H	 27.116424290674 	  3.277698420865 	  5.832217554354 	
H	 26.547880160674 	  3.277701230865 	 15.962774274354 	
H	 27.116393190674 	  9.461260180865 	  5.832214724354 	
H	 26.547849060674 	  9.461262990865 	 15.962771444354 	
H	  1.125680892418 	  6.339238574637 	  9.819841968148 	
H	  0.557136762418 	  6.339241384637 	 19.950398688148 	
H	  1.125649792418 	 12.522800334637 	  9.819839138148 	
H	  0.557105662418 	 12.522803144637 	 19.950395858148 	
H	 15.806508192418 	  6.339247804637 	  9.847971898148 	
H	 15.237964062418 	  6.339250614637 	 19.978528618148 	
H	 15.806477092418 	 12.522809564637 	  9.847969068148 	
H	 15.237932962418 	 12.522812374637 	 19.978525788148 	
H	  2.811723978127 	  2.049869405861 	  4.981215223488 	
H	  2.243179848127 	  2.049872215861 	 15.111771943488 	
H	  2.811692878127 	  8.233431165861 	  4.981212393488 	
H	  2.243148748127 	  8.233433975861 	 15.111769113488 	
H	 17.492551278127 	  2.049878635861 	  5.009345153488 	
H	 16.924007148127 	  2.049881445861 	 15.139901873488 	
H	 17.492520178127 	  8.233440395861 	  5.009342323488 	
H	 16.923976048127 	  8.233443205861 	 15.139899043488 	
H	 11.221920800440 	  5.112075090641 	  0.373303080678 	
H	 10.653376670440 	  5.112077900641 	 10.503859800678 	
H	 11.221889700440 	 11.295636850641 	  0.373300250678 	
H	 10.653345570440 	 11.295639660641 	 10.503856970678 	
H	 25.902748100440 	  5.112084320641 	  0.401433010678 	
H	 25.334203970440 	  5.112087130641 	 10.531989730678 	
H	 25.902717000440 	 11.295646080641 	  0.401430180678 	
H	 25.334172870440 	 11.295648890641 	 10.531986900678 	
H	 11.034284121374 	  4.091268643551 	  5.491158470132 	
H	 10.465739991374 	  4.091271453551 	 15.621715190132 	
H	 11.034253021374 	 10.274830403551 	  5.491155640132 	
H	 10.465708891374 	 10.274833213551 	 15.621712360132 	
H	 25.715111421374 	  4.091277873551 	  5.519288400132 	
H	 25.146567291374 	  4.091280683551 	 15.649845120132 	
H	 25.715080321374 	 10.274839633551 	  5.519285570132 	
H	 25.146536191374 	 10.274842443551 	 15.649842290132 	
H	  2.624088734651 	  1.029061741605 	 10.099071445058 	
H	  2.055544604651 	  1.029064551605 	 20.229628165058 	
H	  2.624057634651 	  7.212623501605 	 10.099068615058 	
H	  2.055513504651 	  7.212626311605 	 20.229625335058 	
H	 17.304916034651 	  1.029070971605 	 10.127201375058 	
H	 16.736371904651 	  1.029073781605 	 20.257758095058 	
H	 17.304884934651 	  7.212632731605 	 10.127198545058 	
H	 16.736340804651 	  7.212635541605 	 20.257755265058 	
C	  1.341852912665 	  3.511336049996 	  6.814842949158 	
C	  0.773308782665 	  3.511338859996 	 16.945399669158 	
C	  1.341821812665 	  9.694897809996 	  6.814840119158 	
C	  0.773277682665 	  9.694900619996 	 16.945396839158 	
C	 16.022680212665 	  3.511345279996 	  6.842972879158 	
C	 15.454136082665 	  3.511348089996 	 16.973529599158 	
C	 16.022649112665 	  9.694907039996 	  6.842970049158 	
C	 15.454104982665 	  9.694909849996 	 16.973526769158 	
C	 12.332950392114 	  0.509391113385 	  8.832819068766 	
C	 11.764406262114 	  0.509393923385 	 18.963375788766 	
C	 12.332919292114 	  6.692952873385 	  8.832816238766 	
C	 11.764375162114 	  6.692955683385 	 18.963372958766 	
C	 27.013777692114 	  0.509400343385 	  8.860948998766 	
C	 26.445233562114 	  0.509403153385 	 18.991505718766 	
C	 27.013746592114 	  6.692962103385 	  8.860946168766 	
C	 26.445202462114 	  6.692964913385 	 18.991502888766 	
C	 12.504156927224 	  2.629799880876 	  3.657530089912 	
C	 11.935612797224 	  2.629802690876 	 13.788086809912 	
C	 12.504125827224 	  8.813361640876 	  3.657527259912 	
C	 11.935581697224 	  8.813364450876 	 13.788083979912 	
C	 27.184984227224 	  2.629809110876 	  3.685660019912 	
C	 26.616440097224 	  2.629811920876 	 13.816216739912 	
C	 27.184953127224 	  8.813370870876 	  3.685657189912 	
C	 26.616408997224 	  8.813373680876 	 13.816213909912 	
C	  1.513059378080 	  5.631744972940 	  1.639555121395 	
C	  0.944515248080 	  5.631747782940 	 11.770111841395 	
C	  1.513028278080 	 11.815306732940 	  1.639552291395 	
C	  0.944484148080 	 11.815309542940 	 11.770109011395 	
C	 16.193886678080 	  5.631754202940 	  1.667685051395 	
C	 15.625342548080 	  5.631757012940 	 11.798241771395 	
C	 16.193855578080 	 11.815315962940 	  1.667682221395 	
C	 15.625311448080 	 11.815318772940 	 11.798238941395 	
H	  1.778693455233 	  4.544012307428 	  6.858501804209 	
H	  1.210149325233 	  4.544015117428 	 16.989058524209 	
H	  1.778662355233 	 10.727574067428 	  6.858498974209 	
H	  1.210118225233 	 10.727576877428 	 16.989055694209 	
H	 16.459520755233 	  4.544021537428 	  6.886631734209 	
H	 15.890976625233 	  4.544024347428 	 17.017188454209 	
H	 16.459489655233 	 10.727583297428 	  6.886628904209 	
H	 15.890945525233 	 10.727586107428 	 17.017185624209 	
H	 11.804976030793 	  1.488516650497 	  8.809834718812 	
H	 11.236431900793 	  1.488519460497 	 18.940391438812 	
H	 11.804944930793 	  7.672078410497 	  8.809831888812 	
H	 11.236400800793 	  7.672081220497 	 18.940388608812 	
H	 26.485803330793 	  1.488525880497 	  8.837964648812 	
H	 25.917259200793 	  1.488528690497 	 18.968521368812 	
H	 26.485772230793 	  7.672087640497 	  8.837961818812 	
H	 25.917228100793 	  7.672090450497 	 18.968518538812 	
H	 12.067316355824 	  1.597123163155 	  3.613871602344 	
H	 11.498772225824 	  1.597125973155 	 13.744428322344 	
H	 12.067285255824 	  7.780684923155 	  3.613868772344 	
H	 11.498741125824 	  7.780687733155 	 13.744425492344 	
H	 26.748143655824 	  1.597132393155 	  3.642001532344 	
H	 26.179599525824 	  1.597135203155 	 13.772558252344 	
H	 26.748112555824 	  7.780694153155 	  3.641998702344 	
H	 26.179568425824 	  7.780696963155 	 13.772555422344 	
H	  2.041033775419 	  4.652619454360 	  1.662539060576 	
H	  1.472489645419 	  4.652622264360 	 11.793095780576 	
H	  2.041002675419 	 10.836181214360 	  1.662536230576 	
H	  1.472458545419 	 10.836184024360 	 11.793092950576 	
H	 16.721861075419 	  4.652628684360 	  1.690668990576 	
H	 16.153316945419 	  4.652631494360 	 11.821225710576 	
H	 16.721829975419 	 10.836190444360 	  1.690666160576 	
H	 16.153285845419 	 10.836193254360 	 11.821222880576 	
H	  1.039444945189 	  3.695524298745 	  7.885359125230 	
H	  0.470900815189 	  3.695527108745 	 18.015915845230 	
H	  1.039413845189 	  9.879086058745 	  7.885356295230 	
H	  0.470869715189 	  9.879088868745 	 18.015913015230 	
H	 15.720272245189 	  3.695533528745 	  7.913489055230 	
H	 15.151728115189 	  3.695536338745 	 18.044045775230 	
H	 15.720241145189 	  9.879095288745 	  7.913486225230 	
H	 15.151697015189 	  9.879098098745 	 18.044042945230 	
H	 12.549235144912 	  6.739357634402 	  7.790710101755 	
H	 11.980691014912 	  6.739360444402 	 17.921266821755 	
H	 12.549204044912 	 12.922919394402 	  7.790707271755 	
H	 11.980659914912 	 12.922922204402 	 17.921263991755 	
H	 27.230062444912 	  6.739366864402 	  7.818840031755 	
H	 26.661518314912 	  6.739369674402 	 17.949396751755 	
H	 27.230031344912 	 12.922928624402 	  7.818837201755 	
H	 26.661487214912 	 12.922931434402 	 17.949393921755 	
H	 12.806566038027 	  2.445612810672 	  2.587013636957 	
H	 12.238021908027 	  2.445615620672 	 12.717570356957 	
H	 12.806534938027 	  8.629174570672 	  2.587010806957 	
H	 12.237990808027 	  8.629177380672 	 12.717567526957 	
H	 27.487393338027 	  2.445622040672 	  2.615143566957 	
H	 26.918849208027 	  2.445624850672 	 12.745700286957 	
H	 27.487362238027 	  8.629183800672 	  2.615140736957 	
H	 26.918818108027 	  8.629186610672 	 12.745697456957 	
H	  1.296774855780 	 -0.598221709464 	  2.681664206461 	
H	  0.728230725780 	 -0.598218899464 	 12.812220926461 	
H	  1.296743755780 	  5.585340050536 	  2.681661376461 	
H	  0.728199625780 	  5.585342860536 	 12.812218096461 	
H	 15.977602155780 	 -0.598212479464 	  2.709794136461 	
H	 15.409058025780 	 -0.598209669464 	 12.840350856461 	
H	 15.977571055780 	  5.585349280536 	  2.709791306461 	
H	 15.409026925780 	  5.585352090536 	 12.840348026461 	
H	  0.380224833331 	  3.697150101390 	  6.260844710206 	
H	 -0.188319296669 	  3.697152911390 	 16.391401430206 	
H	  0.380193733331 	  9.880711861390 	  6.260841880206 	
H	 -0.188350396669 	  9.880714671390 	 16.391398600206 	
H	 15.061052133331 	  3.697159331390 	  6.288974640206 	
H	 14.492508003331 	  3.697162141390 	 16.419531360206 	
H	 15.061021033331 	  9.880721091390 	  6.288971810206 	
H	 14.492476903331 	  9.880723901390 	 16.419528530206 	
H	 13.210036489329 	  6.761886787095 	  9.406399779967 	
H	 12.641492359329 	  6.761889597095 	 19.536956499967 	
H	 13.210005389329 	 12.945448547095 	  9.406396949967 	
H	 12.641461259329 	 12.945451357095 	 19.536953669967 	
H	 27.890863789329 	  6.761896017095 	  9.434529709967 	
H	 27.322319659329 	  6.761898827095 	 19.565086429967 	
H	 27.890832689329 	 12.945457777095 	  9.434526879967 	
H	 27.322288559329 	 12.945460587095 	 19.565083599967 	
H	 13.465785018778 	  2.443986032668 	  4.211528811300 	
H	 12.897240888778 	  2.443988842668 	 14.342085531300 	
H	 13.465753918778 	  8.627547792668 	  4.211525981300 	
H	 12.897209788778 	  8.627550602668 	 14.342082701300 	
H	 28.146612318778 	  2.443995262668 	  4.239658741300 	
H	 27.578068188778 	  2.443998072668 	 14.370215461300 	
H	 28.146581218778 	  8.627557022668 	  4.239655911300 	
H	 27.578037088778 	  8.627559832668 	 14.370212631300 	
H	  0.635973101465 	 -0.620750782640 	  1.065974660018 	
H	  0.067428971465 	 -0.620747972640 	 11.196531380018 	
H	  0.635942001465 	  5.562810977360 	  1.065971830018 	
H	  0.067397871465 	  5.562813787360 	 11.196528550018 	
H	 15.316800401465 	 -0.620741552640 	  1.094104590018 	
H	 14.748256271465 	 -0.620738742640 	 11.224661310018 	
H	 15.316769301465 	  5.562820207360 	  1.094101760018 	
H	 14.748225171465 	  5.562823017360 	 11.224658480018 	
C	  1.323993831283 	  1.794310255168 	  6.662049211857 	
C	  0.755449701283 	  1.794313065168 	 16.792605931857 	
C	  1.323962731283 	  7.977872015168 	  6.662046381857 	
C	  0.755418601283 	  7.977874825168 	 16.792603101857 	
C	 16.004821131283 	  1.794319485168 	  6.690179141857 	
C	 15.436277001283 	  1.794322295168 	 16.820735861857 	
C	 16.004790031283 	  7.977881245168 	  6.690176311857 	
C	 15.436245901283 	  7.977884055168 	 16.820733031857 	
C	 12.268377396063 	  4.870550678340 	  9.012074983936 	
C	 11.699833266063 	  4.870553488340 	 19.142631703936 	
C	 12.268346296063 	 11.054112438340 	  9.012072153936 	
C	 11.699802166063 	 11.054115248340 	 19.142628873936 	
C	 26.949204696063 	  4.870559908340 	  9.040204913936 	
C	 26.380660566063 	  4.870562718340 	 19.170761633936 	
C	 26.949173596063 	 11.054121668340 	  9.040202083936 	
C	 26.380629466063 	 11.054124478340 	 19.170758803936 	
C	 12.522015586766 	  4.346827567003 	  3.810323714121 	
C	 11.953471456766 	  4.346830377003 	 13.940880434121 	
C	 12.521984486766 	 10.530389327003 	  3.810320884121 	
C	 11.953440356766 	 10.530392137003 	 13.940877604121 	
C	 27.202842886766 	  4.346836797003 	  3.838453644121 	
C	 26.634298756766 	  4.346839607003 	 13.969010364121 	
C	 27.202811786766 	 10.530398557003 	  3.838450814121 	
C	 26.634267656766 	 10.530401367003 	 13.969007534121 	
C	  1.577632190777 	  1.270585354520 	  1.460299609302 	
C	  1.009088060777 	  1.270588164520 	 11.590856329302 	
C	  1.577601090777 	  7.454147114520 	  1.460296779302 	
C	  1.009056960777 	  7.454149924520 	 11.590853499302 	
C	 16.258459490777 	  1.270594584520 	  1.488429539302 	
C	 15.689915360777 	  1.270597394520 	 11.618986259302 	
C	 16.258428390777 	  7.454156344520 	  1.488426709302 	
C	 15.689884260777 	  7.454159154520 	 11.618983429302 	
H	  0.314111033188 	  1.641103896679 	  6.189866014793 	
H	 -0.254433096812 	  1.641106706679 	 16.320422734793 	
H	  0.314079933188 	  7.824665656679 	  6.189863184793 	
H	 -0.254464196812 	  7.824668466679 	 16.320419904793 	
H	 14.994938333188 	  1.641113126679 	  6.217995944793 	
H	 14.426394203188 	  1.641115936679 	 16.348552664793 	
H	 14.994907233188 	  7.824674886679 	  6.217993114793 	
H	 14.426363103188 	  7.824677696679 	 16.348549834793 	
H	 13.278372559679 	  4.712631418420 	  9.481271940587 	
H	 12.709828429679 	  4.712634228420 	 19.611828660587 	
H	 13.278341459679 	 10.896193178420 	  9.481269110587 	
H	 12.709797329679 	 10.896195988420 	 19.611825830587 	
H	 27.959199859679 	  4.712640648420 	  9.509401870587 	
H	 27.390655729679 	  4.712643458420 	 19.639958590587 	
H	 27.959168759679 	 10.896202408420 	  9.509399040587 	
H	 27.390624629679 	 10.896205218420 	 19.639955760587 	
H	 13.531898270589 	  4.500033509204 	  4.282507765730 	
H	 12.963354140589 	  4.500036319204 	 14.413064485730 	
H	 13.531867170589 	 10.683595269204 	  4.282504935730 	
H	 12.963323040589 	 10.683598079204 	 14.413061655730 	
H	 28.212725570589 	  4.500042739204 	  4.310637695730 	
H	 27.644181440589 	  4.500045549204 	 14.441194415730 	
H	 28.212694470589 	 10.683604499204 	  4.310634865730 	
H	 27.644150340589 	 10.683607309204 	 14.441191585730 	
H	  0.567636965601 	  1.428504563625 	  0.991102813230 	
H	 -0.000907164399 	  1.428507373625 	 11.121659533230 	
H	  0.567605865601 	  7.612066323625 	  0.991099983230 	
H	 -0.000938264399 	  7.612069133625 	 11.121656703230 	
H	 15.248464265601 	  1.428513793625 	  1.019232743230 	
H	 14.679920135601 	  1.428516603625 	 11.149789463230 	
H	 15.248433165601 	  7.612075553625 	  1.019229913230 	
H	 14.679889035601 	  7.612078363625 	 11.149786633230 	
H	  1.107345059580 	  1.402590224299 	  7.689706713396 	
H	  0.538800929580 	  1.402593034299 	 17.820263433396 	
H	  1.107313959580 	  7.586151984299 	  7.689703883396 	
H	  0.538769829580 	  7.586154794299 	 17.820260603396 	
H	 15.788172359580 	  1.402599454299 	  7.717836643396 	
H	 15.219628229580 	  1.402602264299 	 17.848393363396 	
H	 15.788141259580 	  7.586161214299 	  7.717833813396 	
H	 15.219597129580 	  7.586164024299 	 17.848390533396 	
H	 12.484930202686 	  4.474668588296 	  7.981815374666 	
H	 11.916386072686 	  4.474671398296 	 18.112372094666 	
H	 12.484899102686 	 10.658230348296 	  7.981812544666 	
H	 11.916354972686 	 10.658233158296 	 18.112369264666 	
H	 27.165757502686 	  4.474677818296 	  8.009945304666 	
H	 26.597213372686 	  4.474680628296 	 18.140502024666 	
H	 27.165726402686 	 10.658239578296 	  8.009942474666 	
H	 26.597182272686 	 10.658242388296 	 18.140499194666 	
H	 12.738664584430 	  4.738546917459 	  2.782665696613 	
H	 12.170120454430 	  4.738549727459 	 12.913222416613 	
H	 12.738633484430 	 10.922108677459 	  2.782662866613 	
H	 12.170089354430 	 10.922111487459 	 12.913219586613 	
H	 27.419491884430 	  4.738556147459 	  2.810795626613 	
H	 26.850947754430 	  4.738558957459 	 12.941352346613 	
H	 27.419460784430 	 10.922117907459 	  2.810792796613 	
H	 26.850916654430 	 10.922120717459 	 12.941349516613 	
H	  1.361079444331 	  1.666467305960 	  2.490559218961 	
H	  0.792535314331 	  1.666470115960 	 12.621115938961 	
H	  1.361048344331 	  7.850029065960 	  2.490556388961 	
H	  0.792504214331 	  7.850031875960 	 12.621113108961 	
H	 16.041906744331 	  1.666476535960 	  2.518689148961 	
H	 15.473362614331 	  1.666479345960 	 12.649245868961 	
H	 16.041875644331 	  7.850038295960 	  2.518686318961 	
H	 15.473331514331 	  7.850041105960 	 12.649243038961 	
H	  1.706562729230 	  0.765221506780 	  6.525085011139 	
H	  1.138018599230 	  0.765224316780 	 16.655641731139 	
H	  1.706531629230 	  6.948783266780 	  6.525082181139 	
H	  1.137987499230 	  6.948786076780 	 16.655638901139 	
H	 16.387390029230 	  0.765230736780 	  6.553214941139 	
H	 15.818845899230 	  0.765233546780 	 16.683771661139 	
H	 16.387358929230 	  6.948792496780 	  6.553212111139 	
H	 15.818814799230 	  6.948795306780 	 16.683768831139 	
H	 11.885859254366 	  3.838580447040 	  9.145509279971 	
H	 11.317315124366 	  3.838583257040 	 19.276065999971 	
H	 11.885828154366 	 10.022142207040 	  9.145506449971 	
H	 11.317284024366 	 10.022145017040 	 19.276063169971 	
H	 26.566686554366 	  3.838589677040 	  9.173639209971 	
H	 25.998142424366 	  3.838592487040 	 19.304195929971 	
H	 26.566655454366 	 10.022151437040 	  9.173636379971 	
H	 25.998111324366 	 10.022154247040 	 19.304193099971 	
H	 12.139444827313 	  5.375915924528 	  3.947291022460 	
H	 11.570900697313 	  5.375918734528 	 14.077847742460 	
H	 12.139413727313 	 11.559477684528 	  3.947288192460 	
H	 11.570869597313 	 11.559480494528 	 14.077844912460 	
H	 26.820272127313 	  5.375925154528 	  3.975420952460 	
H	 26.251727997313 	  5.375927964528 	 14.105977672460 	
H	 26.820241027313 	 11.559486914528 	  3.975418122460 	
H	 26.251696897313 	 11.559489724528 	 14.105974842460 	
H	  1.960150192571 	  2.302555689472 	  1.326865837438 	
H	  1.391606062571 	  2.302558499472 	 11.457422557438 	
H	  1.960119092571 	  8.486117449472 	  1.326863007438 	
H	  1.391574962571 	  8.486120259472 	 11.457419727438 	
H	 16.640977492571 	  2.302564919472 	  1.354995767438 	
H	 16.072433362571 	  2.302567729472 	 11.485552487438 	
H	 16.640946392571 	  8.486126679472 	  1.354992937438 	
H	 16.072402262571 	  8.486129489472 	 11.485549657438 	
768 
Energy: -9.9637039750590006e+01 
S	  8.489362497611 	  1.477994039377 	  0.098125766188 	
S	  7.920818367611 	  1.477996849377 	 10.228682486188 	
S	  8.489331397611 	  7.661555799377 	  0.098122936188 	
S	  7.920787267611 	  7.661558609377 	 10.228679656188 	
S	 23.170189797611 	  1.478003269377 	  0.126255696188 	
S	 22.601645667611 	  1.478006079377 	 10.256812416188 	
S	 23.170158697611 	  7.661565029377 	  0.126252866188 	
S	 22.601614567611 	  7.661567839377 	 10.256809586188 	
S	  5.545382974344 	  4.543107123814 	  5.214901989844 	
S	  4.976838844344 	  4.543109933814 	 15.345458709844 	
S	  5.545351874344 	 10.726668883814 	  5.214899159844 	
S	  4.976807744344 	 10.726671693814 	 15.345455879844 	
S	 20.226210274344 	  4.543116353814 	  5.243031919844 	
S	 19.657666144344 	  4.543119163814 	 15.373588639844 	
S	 20.226179174344 	 10.726678113814 	  5.243029089844 	
S	 19.657635044344 	 10.726680923814 	 15.373585809844 	
S	  5.300205624868 	  4.654145343892 	 10.440748141606 	
S	  4.731661494868 	  4.654148153892 	 20.571304861606 	
S	  5.300174524868 	 10.837707103892 	 10.440745311606 	
S	  4.731630394868 	 10.837709913892 	 20.571302031606 	
S	 19.981032924868 	  4.654154573892 	 10.468878071606 	
S	 19.412488794868 	  4.654157383892 	 20.599434791606 	
S	 19.981001824868 	 10.837716333892 	 10.468875241606 	
S	 19.412457694868 	 10.837719143892 	 20.599431961606 	
S	  8.244186133979 	  1.589032528119 	  5.323971769303 	
S	  7.675642003979 	  1.589035338119 	 15.454528489303 	
S	  8.244155033979 	  7.772594288119 	  5.323968939303 	
S	  7.675610903979 	  7.772597098119 	 15.454525659303 	
S	 22.925013433979 	  1.589041758119 	  5.352101699303 	
S	 22.356469303979 	  1.589044568119 	 15.482658419303 	
S	 22.924982333979 	  7.772603518119 	  5.352098869303 	
S	 22.356438203979 	  7.772606328119 	 15.482655589303 	
C	  6.622834079226 	  2.545141927225 	 10.127855341881 	
C	  6.054289949226 	  2.545144737225 	 20.258412061881 	
C	  6.622802979226 	  8.728703687225 	 10.127852511881 	
C	  6.054258849226 	  8.728706497225 	 20.258409231881 	
C	 21.303661379226 	  2.545151157225 	 10.155985271881 	
C	 20.735117249226 	  2.545153967225 	 20.286541991881 	
C	 21.303630279226 	  8.728712917225 	 10.155982441881 	
C	 20.735086149226 	  8.728715727225 	 20.286539161881 	
C	  6.920784683144 	  5.584572477179 	  5.653841989485 	
C	  6.352240553144 	  5.584575287179 	 15.784398709485 	
C	  6.920753583144 	 11.768134237179 	  5.653839159485 	
C	  6.352209453144 	 11.768137047179 	 15.784395879485 	
C	 21.601611983144 	  5.584581707179 	  5.681971919485 	
C	 21.033067853144 	  5.584584517179 	 15.812528639485 	
C	 21.601580883144 	 11.768143467179 	  5.681969089485 	
C	 21.033036753144 	 11.768146277179 	 15.812525809485 	
C	  7.166734062583 	  3.586997430578 	  0.411018463983 	
C	  6.598189932583 	  3.587000240578 	 10.541575183983 	
C	  7.166702962583 	  9.770559190578 	  0.411015633983 	
C	  6.598158832583 	  9.770562000578 	 10.541572353983 	
C	 21.847561362583 	  3.587006660578 	  0.439148393983 	
C	 21.279017232583 	  3.587009470578 	 10.569705113983 	
C	 21.847530262583 	  9.770568420578 	  0.439145563983 	
C	 21.278986132583 	  9.770571230578 	 10.569702283983 	
C	  6.868784275598 	  0.547567251113 	  4.885031660771 	
C	  6.300240145598 	  0.547570061113 	 15.015588380771 	
C	  6.868753175598 	  6.731129011113 	  4.885028830771 	
C	  6.300209045598 	  6.731131821113 	 15.015585550771 	
C	 21.549611575598 	  0.547576481113 	  4.913161590771 	
C	 20.981067445598 	  0.547579291113 	 15.043718310771 	
C	 21.549580475598 	  6.731138241113 	  4.913158760771 	
C	 20.981036345598 	  6.731141051113 	 15.043715480771 	
C	  5.588304729119 	  2.376947841883 	  9.165973918578 	
C	  5.019760599119 	  2.376950651883 	 19.296530638578 	
C	  5.588273629119 	  8.560509601883 	  9.165971088578 	
C	  5.019729499119 	  8.560512411883 	 19.296527808578 	
C	 20.269132029119 	  2.376957071883 	  9.194103848578 	
C	 19.700587899119 	  2.376959881883 	 19.324660568578 	
C	 20.269100929119 	  8.560518831883 	  9.194101018578 	
C	 19.700556799119 	  8.560521641883 	 19.324657738578 	
C	  7.960051516761 	  5.443425335069 	  6.598147046779 	
C	  7.391507386761 	  5.443428145069 	 16.728703766779 	
C	  7.960020416761 	 11.626987095069 	  6.598144216779 	
C	  7.391476286761 	 11.626989905069 	 16.728700936779 	
C	 22.640878816761 	  5.443434565069 	  6.626276976779 	
C	 22.072334686761 	  5.443437375069 	 16.756833696779 	
C	 22.640847716761 	 11.626996325069 	  6.626274146779 	
C	 22.072303586761 	 11.626999135069 	 16.756830866779 	
C	  8.201263312792 	  3.755191575054 	  1.372899807664 	
C	  7.632719182791 	  3.755194385054 	 11.503456527664 	
C	  8.201232212792 	  9.938753335054 	  1.372896977664 	
C	  7.632688082792 	  9.938756145054 	 11.503453697664 	
C	 22.882090612792 	  3.755200805054 	  1.401029737664 	
C	 22.313546482792 	  3.755203615054 	 11.531586457664 	
C	 22.882059512791 	  9.938762565054 	  1.401026907664 	
C	 22.313515382792 	  9.938765375054 	 11.531583627664 	
C	  5.829517277640 	  0.688714406779 	  3.940726721231 	
C	  5.260973147640 	  0.688717216779 	 14.071283441231 	
C	  5.829486177640 	  6.872276166779 	  3.940723891231 	
C	  5.260942047640 	  6.872278976779 	 14.071280611231 	
C	 20.510344577640 	  0.688723636779 	  3.968856651231 	
C	 19.941800447640 	  0.688726446779 	 14.099413371231 	
C	 20.510313477640 	  6.872285396779 	  3.968853821231 	
C	 19.941769347640 	  6.872288206779 	 14.099410541231 	
C	  4.731816768737 	  3.461169391497 	  9.196479780022 	
C	  4.163272638737 	  3.461172201497 	 19.327036500022 	
C	  4.731785668737 	  9.644731151497 	  9.196476950022 	
C	  4.163241538737 	  9.644733961497 	 19.327033670022 	
C	 19.412644068737 	  3.461178621497 	  9.224609710022 	
C	 18.844099938737 	  3.461181431497 	 19.355166430022 	
C	 19.412612968737 	  9.644740381497 	  9.224606880022 	
C	 18.844068838737 	  9.644743191497 	 19.355163600022 	
C	  8.805555220470 	  0.393828856017 	  6.569070439221 	
C	  8.237011090470 	  0.393831666017 	 16.699627159221 	
C	  8.805524120470 	  6.577390616017 	  6.569067609221 	
C	  8.236979990470 	  6.577393426017 	 16.699624329221 	
C	 23.486382520470 	  0.393838086017 	  6.597200369221 	
C	 22.917838390470 	  0.393840896017 	 16.727757089221 	
C	 23.486351420470 	  6.577399846017 	  6.597197539221 	
C	 22.917807290470 	  6.577402656017 	 16.727754259221 	
C	  9.057751263792 	  2.670970021725 	  1.342393995313 	
C	  8.489207133792 	  2.670972831725 	 11.472950715313 	
C	  9.057720163792 	  8.854531781725 	  1.342391165313 	
C	  8.489176033792 	  8.854534591725 	 11.472947885313 	
C	 23.738578563792 	  2.670979251725 	  1.370523925313 	
C	 23.170034433792 	  2.670982061725 	 11.501080645313 	
C	 23.738547463792 	  8.854541011725 	  1.370521095313 	
C	 23.170003333792 	  8.854543821725 	 11.501077815313 	
C	  4.984013647471 	  5.738310862555 	  3.969803470197 	
C	  4.415469517471 	  5.738313672555 	 14.100360190197 	
C	  4.983982547471 	 11.921872622555 	  3.969800640197 	
C	  4.415438417471 	 11.921875432555 	 14.100357360197 	
C	 19.664840947471 	  5.738320092555 	  3.997933400197 	
C	 19.096296817471 	  5.738322902555 	 14.128490120197 	
C	 19.664809847471 	 11.921881852555 	  3.997930570197 	
C	 19.096265717471 	 11.921884662555 	 14.128487290197 	
C	  3.672784806434 	  3.555583073365 	  8.424684163822 	
C	  3.104240676434 	  3.555585883365 	 18.555240883822 	
C	  3.672753706434 	  9.739144833365 	  8.424681333822 	
C	  3.104209576434 	  9.739147643365 	 18.555238053822 	
C	 18.353612106434 	  3.555592303365 	  8.452814093822 	
C	 17.785067976434 	  3.555595113365 	 18.583370813822 	
C	 18.353581006434 	  9.739154063365 	  8.452811263822 	
C	 17.785036876434 	  9.739156873365 	 18.583367983822 	
C	  9.869138356192 	  0.493489892126 	  7.340583682618 	
C	  9.300594226192 	  0.493492702126 	 17.471140402618 	
C	  9.869107256192 	  6.677051652126 	  7.340580852618 	
C	  9.300563126192 	  6.677054462126 	 17.471137572618 	
C	 24.549965656192 	  0.493499122126 	  7.368713612618 	
C	 23.981421526192 	  0.493501932126 	 17.499270332618 	
C	 24.549934556192 	  6.677060882126 	  7.368710782618 	
C	 23.981390426192 	  6.677063692126 	 17.499267502618 	
C	 10.116783244650 	  2.576556477028 	  2.114189804004 	
C	  9.548239114650 	  2.576559287028 	 12.244746524004 	
C	 10.116752144650 	  8.760118237028 	  2.114186974004 	
C	  9.548208014650 	  8.760121047028 	 12.244743694004 	
C	 24.797610544650 	  2.576565707028 	  2.142319734004 	
C	 24.229066414650 	  2.576568517028 	 12.272876454004 	
C	 24.797579444650 	  8.760127467028 	  2.142316904004 	
C	 24.229035314650 	  8.760130277028 	 12.272873624004 	
C	  3.920430202492 	  5.638649870362 	  3.198290533083 	
C	  3.351886072492 	  5.638652680362 	 13.328847253083 	
C	  3.920399102492 	 11.822211630362 	  3.198287703083 	
C	  3.351854972492 	 11.822214440362 	 13.328844423083 	
C	 18.601257502492 	  5.638659100362 	  3.226420463083 	
C	 18.032713372492 	  5.638661910362 	 13.356977183083 	
C	 18.601226402492 	 11.822220860362 	  3.226417633083 	
C	 18.032682272492 	 11.822223670362 	 13.356974353083 	
H	  3.004118001619 	  4.498130244718 	  8.502405764293 	
H	  2.435573871619 	  4.498133054718 	 18.632962484293 	
H	  3.004086901619 	 10.681692004718 	  8.502402934293 	
H	  2.435542771619 	 10.681694814718 	 18.632959654293 	
H	 17.684945301619 	  4.498139474718 	  8.530535694293 	
H	 17.116401171619 	  4.498142284718 	 18.661092414293 	
H	 17.684914201619 	 10.681701234718 	  8.530532864293 	
H	 17.116370071619 	 10.681704044718 	 18.661089584293 	
H	 10.539225703316 	  1.431142142318 	  7.263113553835 	
H	  9.970681573316 	  1.431144952318 	 17.393670273835 	
H	 10.539194603316 	  7.614703902318 	  7.263110723835 	
H	  9.970650473316 	  7.614706712318 	 17.393667443835 	
H	 25.220053003316 	  1.431151372318 	  7.291243483835 	
H	 24.651508873316 	  1.431154182318 	 17.421800203835 	
H	 25.220021903316 	  7.614713132318 	  7.291240653835 	
H	 24.651477773316 	  7.614715942318 	 17.421797373835 	
H	 10.785449979866 	  1.634009218405 	  2.036468304930 	
H	 10.216905849866 	  1.634012028405 	 12.167025024930 	
H	 10.785418879866 	  7.817570978405 	  2.036465474930 	
H	 10.216874749866 	  7.817573788405 	 12.167022194930 	
H	 25.466277279866 	  1.634018448405 	  2.064598234930 	
H	 24.897733149866 	  1.634021258405 	 12.195154954930 	
H	 25.466246179866 	  7.817580208405 	  2.064595404930 	
H	 24.897702049866 	  7.817583018405 	 12.195152124930 	
H	  3.250342984777 	  4.700997538026 	  3.275760801155 	
H	  2.681798854777 	  4.701000348026 	 13.406317521155 	
H	  3.250311884777 	 10.884559298026 	  3.275757971155 	
H	  2.681767754777 	 10.884562108026 	 13.406314691155 	
H	 17.931170284777 	  4.701006768026 	  3.303890731155 	
H	 17.362626154777 	  4.701009578026 	 13.434447451155 	
H	 17.931139184777 	 10.884568528026 	  3.303887901155 	
H	 17.362595054777 	 10.884571338026 	 13.434444621155 	
C	  3.341179112593 	  2.605216297829 	  7.549610239452 	
C	  2.772634982593 	  2.605219107829 	 17.680166959452 	
C	  3.341148012593 	  8.788778057829 	  7.549607409452 	
C	  2.772603882593 	  8.788780867829 	 17.680164129452 	
C	 18.022006412593 	  2.605225527829 	  7.577740169452 	
C	 17.453462282593 	  2.605228337829 	 17.708296889452 	
C	 18.021975312593 	  8.788787287829 	  7.577737339452 	
C	 17.453431182593 	  8.788790097829 	 17.708294059452 	
C	 10.203820302134 	  5.666502973177 	  8.215234966009 	
C	  9.635276172134 	  5.666505783177 	 18.345791686009 	
C	 10.203789202134 	 11.850064733177 	  8.215232136009 	
C	  9.635245072134 	 11.850067543177 	 18.345788856009 	
C	 24.884647602134 	  5.666512203177 	  8.243364896009 	
C	 24.316103472134 	  5.666515013177 	 18.373921616009 	
C	 24.884616502134 	 11.850073963177 	  8.243362066009 	
C	 24.316072372134 	 11.850076773177 	 18.373918786009 	
C	 10.448388748797 	  3.526923297732 	  2.989263492656 	
C	  9.879844618797 	  3.526926107732 	 13.119820212656 	
C	 10.448357648797 	  9.710485057732 	  2.989260662656 	
C	  9.879813518797 	  9.710487867732 	 13.119817382656 	
C	 25.129216048797 	  3.526932527732 	  3.017393422656 	
C	 24.560671918797 	  3.526935337732 	 13.147950142656 	
C	 25.129184948797 	  9.710494287732 	  3.017390592656 	
C	 24.560640818797 	  9.710497097732 	 13.147947312656 	
C	  3.585748037091 	  0.465636834700 	  2.323639389150 	
C	  3.017203907091 	  0.465639644700 	 12.454196109150 	
C	  3.585716937091 	  6.649198594700 	  2.323636559150 	
C	  3.017172807091 	  6.649201404700 	 12.454193279150 	
C	 18.266575337091 	  0.465646064700 	  2.351769319150 	
C	 17.698031207091 	  0.465648874700 	 12.482326039150 	
C	 18.266544237091 	  6.649207824700 	  2.351766489150 	
C	 17.698000107091 	  6.649210634700 	 12.482323209150 	
C	  4.202197518533 	  1.543208271640 	  7.496479543091 	
C	  3.633653388533 	  1.543211081640 	 17.627036263091 	
C	  4.202166418533 	  7.726770031640 	  7.496476713091 	
C	  3.633622288533 	  7.726772841640 	 17.627033433091 	
C	 18.883024818533 	  1.543217501640 	  7.524609473091 	
C	 18.314480688533 	  1.543220311640 	 17.655166193091 	
C	 18.882993718533 	  7.726779261640 	  7.524606643091 	
C	 18.314449588533 	  7.726782071640 	 17.655163363091 	
C	  9.341453922276 	  4.610447349778 	  8.267611640730 	
C	  8.772909792276 	  4.610450159778 	 18.398168360730 	
C	  9.341422822276 	 10.794009109778 	  8.267608810730 	
C	  8.772878692276 	 10.794011919778 	 18.398165530730 	
C	 24.022281222276 	  4.610456579778 	  8.295741570730 	
C	 23.453737092276 	  4.610459389778 	 18.426298290730 	
C	 24.022250122276 	 10.794018339778 	  8.295738740730 	
C	 23.453705992276 	 10.794021149778 	 18.426295460730 	
C	  9.587370414451 	  4.588931344476 	  3.042394159068 	
C	  9.018826284451 	  4.588934154476 	 13.172950879068 	
C	  9.587339314451 	 10.772493104476 	  3.042391329068 	
C	  9.018795184451 	 10.772495914476 	 13.172948049068 	
C	 24.268197714451 	  4.588940574476 	  3.070524089068 	
C	 23.699653584451 	  4.588943384476 	 13.201080809068 	
C	 24.268166614451 	 10.772502334476 	  3.070521259068 	
C	 23.699622484451 	 10.772505144476 	 13.201077979068 	
C	  4.448114321674 	  1.521692380344 	  2.271262482265 	
C	  3.879570191674 	  1.521695190344 	 12.401819202265 	
C	  4.448083221674 	  7.705254140344 	  2.271259652265 	
C	  3.879539091674 	  7.705256950344 	 12.401816372265 	
C	 19.128941621674 	  1.521701610344 	  2.299392412265 	
C	 18.560397491674 	  1.521704420344 	 12.429949132265 	
C	 19.128910521674 	  7.705263370344 	  2.299389582265 	
C	 18.560366391674 	  7.705266180344 	 12.429946302265 	
H	  3.971981798223 	  0.708964598320 	  6.730731363650 	
H	  3.403437668223 	  0.708967408320 	 16.861288083650 	
H	  3.971950698223 	  6.892526358320 	  6.730728533650 	
H	  3.403406568223 	  6.892529168320 	 16.861285253650 	
H	 18.652809098223 	  0.708973828320 	  6.758861293650 	
H	 18.084264968223 	  0.708976638320 	 16.889418013650 	
H	 18.652777998223 	  6.892535588320 	  6.758858463650 	
H	 18.084233868223 	  6.892538398320 	 16.889415183650 	
H	  9.571021701328 	  3.775748824162 	  9.034007125948 	
H	  9.002477571328 	  3.775751634162 	 19.164563845948 	
H	  9.570990601328 	  9.959310584162 	  9.034004295948 	
H	  9.002446471328 	  9.959313394162 	 19.164561015948 	
H	 24.251849001328 	  3.775758054162 	  9.062137055948 	
H	 23.683304871328 	  3.775760864162 	 19.192693775948 	
H	 24.251817901328 	  9.959319814162 	  9.062134225948 	
H	 23.683273771328 	  9.959322624162 	 19.192690945948 	
H	  9.817586225026 	  5.423175116140 	  3.808142211611 	
H	  9.249042095026 	  5.423177926140 	 13.938698931611 	
H	  9.817555125026 	 11.606736876140 	  3.808139381611 	
H	  9.249010995026 	 11.606739686140 	 13.938696101611 	
H	 24.498413525026 	  5.423184346140 	  3.836272141611 	
H	 23.929869395026 	  5.423187156140 	 13.966828861611 	
H	 24.498382425026 	 11.606746106140 	  3.836269311611 	
H	 23.929838295026 	 11.606748916140 	 13.966826031611 	
H	  4.218546312831 	  2.356391008719 	  1.504867164881 	
H	  3.650002182831 	  2.356393818719 	 11.635423884881 	
H	  4.218515212831 	  8.539952768719 	  1.504864334881 	
H	  3.649971082831 	  8.539955578719 	 11.635421054881 	
H	 18.899373612831 	  2.356400238719 	  1.532997094881 	
H	 18.330829482831 	  2.356403048719 	 11.663553814881 	
H	 18.899342512831 	  8.539961998719 	  1.532994264881 	
H	 18.330798382831 	  8.539964808719 	 11.663550984881 	
C	  5.240831392456 	  1.428930615174 	  8.235183760146 	
C	  4.672287262456 	  1.428933425174 	 18.365740480146 	
C	  5.240800292456 	  7.612492375174 	  8.235180930146 	
C	  4.672256162456 	  7.612495185174 	 18.365737650146 	
C	 19.921658692456 	  1.428939845174 	  8.263313690146 	
C	 19.353114562456 	  1.428942655174 	 18.393870410146 	
C	 19.921627592456 	  7.612501605174 	  8.263310860146 	
C	 19.353083462456 	  7.612504415174 	 18.393867580146 	
C	  8.302442285318 	  4.495908949735 	  7.528693310151 	
C	  7.733898155318 	  4.495911759735 	 17.659250030151 	
C	  8.302411185318 	 10.679470709735 	  7.528690480151 	
C	  7.733867055318 	 10.679473519735 	 17.659247200151 	
C	 22.983269585318 	  4.495918179735 	  7.556823240151 	
C	 22.414725455318 	  4.495920989735 	 17.687379960151 	
C	 22.983238485318 	 10.679479939735 	  7.556820410151 	
C	 22.414694355318 	 10.679482749735 	 17.687377130151 	
C	  8.548736594718 	  4.703208917198 	  2.303689862199 	
C	  7.980192464718 	  4.703211727198 	 12.434246582199 	
C	  8.548705494718 	 10.886770677198 	  2.303687032199 	
C	  7.980161364718 	 10.886773487198 	 12.434243752199 	
C	 23.229563894718 	  4.703218147198 	  2.331819792199 	
C	 22.661019764718 	  4.703220957198 	 12.462376512199 	
C	 23.229532794718 	 10.886779907198 	  2.331816962199 	
C	 22.660988664718 	 10.886782717198 	 12.462373682199 	
C	  5.487126237183 	  1.636230813069 	  3.010180593384 	
C	  4.918582107183 	  1.636233623069 	 13.140737313384 	
C	  5.487095137183 	  7.819792573069 	  3.010177763384 	
C	  4.918551007183 	  7.819795383069 	 13.140734483384 	
C	 20.167953537183 	  1.636240043069 	  3.038310523384 	
C	 19.599409407183 	  1.636242853069 	 13.168867243384 	
C	 20.167922437183 	  7.819801803069 	  3.038307693384 	
C	 19.599378307183 	  7.819804613069 	 13.168864413384 	
H	  5.931895717436 	  0.505857793166 	  8.143177156594 	
H	  5.363351587436 	  0.505860603166 	 18.273733876594 	
H	  5.931864617436 	  6.689419553166 	  8.143174326594 	
H	  5.363320487436 	  6.689422363166 	 18.273731046594 	
H	 20.612723017436 	  0.505867023166 	  8.171307086594 	
H	 20.044178887436 	  0.505869833166 	 18.301863806594 	
H	 20.612691917436 	  6.689428783166 	  8.171304256594 	
H	 20.044147787436 	  6.689431593166 	 18.301860976594 	
H	  7.611152975239 	  3.572140016404 	  7.621319262129 	
H	  7.042608845239 	  3.572142826404 	 17.751875982129 	
H	  7.611121875239 	  9.755701776404 	  7.621316432129 	
H	  7.042577745239 	  9.755704586404 	 17.751873152129 	
H	 22.291980275239 	  3.572149246404 	  7.649449192129 	
H	 21.723436145239 	  3.572152056404 	 17.780005912129 	
H	 22.291949175239 	  9.755711006404 	  7.649446362129 	
H	 21.723405045239 	  9.755713816404 	 17.780003082129 	
H	  7.857672233685 	  5.626281714935 	  2.395696322293 	
H	  7.289128103685 	  5.626284524935 	 12.526253042293 	
H	  7.857641133685 	 11.809843474935 	  2.395693492293 	
H	  7.289097003685 	 11.809846284935 	 12.526250212293 	
H	 22.538499533685 	  5.626290944935 	  2.423826252293 	
H	 21.969955403685 	  5.626293754935 	 12.554382972293 	
H	 22.538468433685 	 11.809852704935 	  2.423823422293 	
H	 21.969924303685 	 11.809855514935 	 12.554380142293 	
H	  6.178415512131 	  2.559999740586 	  2.917554505690 	
H	  5.609871382131 	  2.560002550586 	 13.048111225690 	
H	  6.178384412131 	  8.743561500586 	  2.917551675690 	
H	  5.609840282131 	  8.743564310586 	 13.048108395690 	
H	 20.859242812131 	  2.560008970586 	  2.945684435690 	
H	 20.290698682131 	  2.560011780586 	 13.076241155690 	
H	 20.859211712131 	  8.743570730586 	  2.945681605690 	
H	 20.290667582131 	  8.743573540586 	 13.076238325690 	
C	  2.010402778895 	  2.704396381068 	  6.637274485252 	
C	  1.441858648895 	  2.704399191068 	 16.767831205252 	
C	  2.010371678895 	  8.887958141068 	  6.637271655252 	
C	  1.441827548895 	  8.887960951068 	 16.767828375252 	
C	 16.691230078895 	  2.704405611068 	  6.665404415252 	
C	 16.122685948895 	  2.704408421068 	 16.795961135252 	
C	 16.691198978895 	  8.887967371068 	  6.665401585252 	
C	 16.122654848895 	  8.887970181068 	 16.795958305252 	
C	 11.463954716574 	  5.715206556381 	  9.096527315121 	
C	 10.895410586574 	  5.715209366381 	 19.227084035121 	
C	 11.463923616574 	 11.898768316381 	  9.096524485121 	
C	 10.895379486574 	 11.898771126381 	 19.227081205121 	
C	 26.144782016574 	  5.715215786381 	  9.124657245121 	
C	 25.576237886574 	  5.715218596381 	 19.255213965121 	
C	 26.144750916574 	 11.898777546381 	  9.124654415121 	
C	 25.576206786574 	 11.898780356381 	 19.255211135121 	
C	 11.779166033169 	  3.427743712121 	  3.901600649513 	
C	 11.210621903169 	  3.427746522121 	 14.032157369513 	
C	 11.779134933169 	  9.611305472121 	  3.901597819513 	
C	 11.210590803169 	  9.611308282121 	 14.032154539513 	
C	 26.459993333169 	  3.427752942121 	  3.929730579513 	
C	 25.891449203169 	  3.427755752121 	 14.060287299513 	
C	 26.459962233169 	  9.611314702121 	  3.929727749513 	
C	 25.891418103169 	  9.611317512121 	 14.060284469513 	
C	  2.325613283068 	  0.416933089548 	  1.442347395963 	
C	  1.757069153068 	  0.416935899548 	 11.572904115963 	
C	  2.325582183068 	  6.600494849548 	  1.442344565963 	
C	  1.757038053068 	  6.600497659548 	 11.572901285963 	
C	 17.006440583068 	  0.416942319548 	  1.470477325963 	
C	 16.437896453068 	  0.416945129548 	 11.601034045963 	
C	 17.006409483068 	  6.600504079548 	  1.470474495963 	
C	 16.437865353068 	  6.600506889548 	 11.601031215963 	
C	  2.139289655892 	  2.683371413407 	  5.546483275428 	
C	  1.570745525892 	  2.683374223407 	 15.677039995428 	
C	  2.139258555892 	  8.866933173407 	  5.546480445428 	
C	  1.570714425892 	  8.866935983407 	 15.677037165428 	
C	 16.820116955892 	  2.683380643407 	  5.574613205428 	
C	 16.251572825892 	  2.683383453407 	 15.705169925428 	
C	 16.820085855892 	  8.866942403407 	  5.574610375428 	
C	 16.251541725892 	  8.866945213407 	 15.705167095428 	
C	 11.424728199618 	 -0.404527728624 	 10.136839900149 	
C	 10.856184069618 	 -0.404524918624 	 20.267396620149 	
C	 11.424697099618 	  5.779034031376 	 10.136837070149 	
C	 10.856152969618 	  5.779036841376 	 20.267393790149 	
C	 26.105555499618 	 -0.404518498624 	 10.164969830149 	
C	 25.537011369618 	 -0.404515688624 	 20.295526550149 	
C	 26.105524399618 	  5.779043261376 	 10.164967000149 	
C	 25.536980269618 	  5.779046071376 	 20.295523720149 	
C	 11.650276830381 	  3.448768145058 	  4.992392123264 	
C	 11.081732700381 	  3.448770955058 	 15.122948843264 	
C	 11.650245730381 	  9.632329905058 	  4.992389293264 	
C	 11.081701600381 	  9.632332715058 	 15.122946013264 	
C	 26.331104130381 	  3.448777375058 	  5.020522053264 	
C	 25.762560000381 	  3.448780185058 	 15.151078773264 	
C	 26.331073030381 	  9.632339135058 	  5.020519223264 	
C	 25.762528900381 	  9.632341945058 	 15.151075943264 	
C	  2.364839771044 	  6.536667191251 	  0.402034574733 	
C	  1.796295641044 	  6.536670001251 	 10.532591294733 	
C	  2.364808671044 	 12.720228951251 	  0.402031744733 	
C	  1.796264541044 	 12.720231761251 	 10.532588464733 	
C	 17.045667071044 	  6.536676421251 	  0.430164504733 	
C	 16.477122941044 	  6.536679231251 	 10.560721224733 	
C	 17.045635971044 	 12.720238181251 	  0.430161674733 	
C	 16.477091841044 	 12.720240991251 	 10.560718394733 	
H	  2.962744408970 	  3.253549339317 	  5.078830699452 	
H	  2.394200278970 	  3.253552149317 	 15.209387419452 	
H	  2.962713308970 	  9.437111099317 	  5.078827869452 	
H	  2.394169178970 	  9.437113909317 	 15.209384589452 	
H	 17.643571708970 	  3.253558569317 	  5.106960629452 	
H	 17.075027578970 	  3.253561379317 	 15.237517349452 	
H	 17.643540608970 	  9.437120329317 	  5.106957799452 	
H	 17.074996478970 	  9.437123139317 	 15.237514519452 	
H	 10.611287322668 	  0.198066359554 	 10.666490818456 	
H	 10.042743192668 	  0.198069169554 	 20.797047538456 	
H	 10.611256222668 	  6.381628119554 	 10.666487988456 	
H	 10.042712092668 	  6.381630929554 	 20.797044708456 	
H	 25.292114622668 	  0.198075589554 	 10.694620748456 	
H	 24.723570492668 	  0.198078399554 	 20.825177468456 	
H	 25.292083522668 	  6.381637349554 	 10.694617918456 	
H	 24.723539392668 	  6.381640159554 	 20.825174638456 	
H	 10.826822749719 	  2.878586331698 	  5.460042383353 	
H	 10.258278619719 	  2.878589141698 	 15.590599103353 	
H	 10.826791649719 	  9.062148091698 	  5.460039553353 	
H	 10.258247519719 	  9.062150901698 	 15.590596273353 	
H	 25.507650049719 	  2.878595561698 	  5.488172313353 	
H	 24.939105919719 	  2.878598371698 	 15.618729033353 	
H	 25.507618949719 	  9.062157321698 	  5.488169483353 	
H	 24.939074819719 	  9.062160131698 	 15.618726203353 	
H	  3.178280390246 	  5.934073869537 	 -0.127616618596 	
H	  2.609736260246 	  5.934076679537 	 10.002940101404 	
H	  3.178249290246 	 12.117635629537 	 -0.127619448596 	
H	  2.609705160246 	 12.117638439537 	 10.002937271404 	
H	 17.859107690246 	  5.934083099537 	 -0.099486688596 	
H	 17.290563560246 	  5.934085909537 	 10.031070031404 	
H	 17.859076590246 	 12.117644859537 	 -0.099489518596 	
H	 17.290532460246 	 12.117647669537 	 10.031067201404 	
H	  1.410020190553 	  2.786541209955 	  4.688285604908 	
H	  0.841476060553 	  2.786544019955 	 14.818842324908 	
H	  1.409989090553 	  8.970102969955 	  4.688282774908 	
H	  0.841444960553 	  8.970105779955 	 14.818839494908 	
H	 16.090847490553 	  2.786550439955 	  4.716415534908 	
H	 15.522303360553 	  2.786553249955 	 14.846972254908 	
H	 16.090816390553 	  8.970112199955 	  4.716412704908 	
H	 15.522272260553 	  8.970115009955 	 14.846969424908 	
H	 12.653179543674 	 -0.272310731698 	  0.668910271385 	
H	 12.084635413674 	 -0.272307921698 	 10.799466991385 	
H	 12.653148443674 	  5.911251028302 	  0.668907441385 	
H	 12.084604313674 	  5.911253838302 	 10.799464161385 	
H	 27.334006843674 	 -0.272301501698 	  0.697040201385 	
H	 26.765462713674 	 -0.272298691698 	 10.827596921385 	
H	 27.333975743674 	  5.911260258302 	  0.697037371385 	
H	 26.765431613674 	  5.911263068302 	 10.827594091385 	
H	 12.379547113280 	  3.345598530172 	  5.850589094455 	
H	 11.811002983280 	  3.345601340172 	 15.981145814455 	
H	 12.379516013280 	  9.529160290172 	  5.850586264455 	
H	 11.810971883280 	  9.529163100172 	 15.981142984455 	
H	 27.060374413280 	  3.345607760172 	  5.878719024455 	
H	 26.491830283280 	  3.345610570172 	 16.009275744455 	
H	 27.060343313280 	  9.529169520172 	  5.878716194455 	
H	 26.491799183280 	  9.529172330172 	 16.009272914455 	
H	  1.136388042744 	  6.404450740169 	  9.869964519719 	
H	  0.567843912744 	  6.404453550169 	 20.000521239719 	
H	  1.136356942744 	 12.588012500169 	  9.869961689719 	
H	  0.567812812744 	 12.588015310169 	 20.000518409719 	
H	 15.817215342744 	  6.404459970169 	  9.898094449719 	
H	 15.248671212744 	  6.404462780169 	 20.028651169719 	
H	 15.817184242744 	 12.588021730169 	  9.898091619719 	
H	 15.248640112744 	 12.588024540169 	 20.028648339719 	
H	  2.740190662010 	  1.888330570205 	  5.063556291199 	
H	  2.171646532010 	  1.888333380205 	 15.194113011199 	
H	  2.740159562010 	  8.071892330205 	  5.063553461199 	
H	  2.171615432010 	  8.071895140205 	 15.194110181199 	
H	 17.421017962010 	  1.888339800205 	  5.091686221199 	
H	 16.852473832010 	  1.888342610205 	 15.222242941199 	
H	 17.420986862010 	  8.071901560205 	  5.091683391199 	
H	 16.852442732010 	  8.071904370205 	 15.222240111199 	
H	 11.218008022058 	  4.939626260026 	  0.343893365138 	
H	 10.649463892058 	  4.939629070026 	 10.474450085138 	
H	 11.217976922058 	 11.123188020026 	  0.343890535138 	
H	 10.649432792058 	 11.123190830026 	 10.474447255138 	
H	 25.898835322058 	  4.939635490026 	  0.372023295138 	
H	 25.330291192058 	  4.939638300026 	 10.502580015138 	
H	 25.898804222058 	 11.123197250026 	  0.372020465138 	
H	 25.330260092058 	 11.123200060026 	 10.502577185138 	
H	 11.049375700244 	  4.243810657076 	  5.475317527363 	
H	 10.480831570244 	  4.243813467076 	 15.605874247363 	
H	 11.049344600244 	 10.427372417076 	  5.475314697363 	
H	 10.480800470244 	 10.427375227076 	 15.605871417363 	
H	 25.730203000244 	  4.243819887076 	  5.503447457363 	
H	 25.161658870244 	  4.243822697076 	 15.634004177363 	
H	 25.730171900244 	 10.427381647076 	  5.503444627363 	
H	 25.161627770244 	 10.427384457076 	 15.634001347363 	
H	  2.571559621301 	  1.192514023317 	 10.194981627953 	
H	  2.003015491301 	  1.192516833317 	 20.325538347953 	
H	  2.571528521301 	  7.376075783317 	 10.194978797953 	
H	  2.002984391301 	  7.376078593317 	 20.325535517953 	
H	 17.252386921301 	  1.192523253317 	 10.223111557953 	
H	 16.683842791301 	  1.192526063317 	 20.353668277953 	
H	 17.252355821301 	  7.376085013317 	 10.223108727953 	
H	 16.683811691301 	  7.376087823317 	 20.353665447953 	
C	  1.410110233097 	  3.624297633241 	  6.759527930588 	
C	  0.841566103097 	  3.624300443241 	 16.890084650588 	
C	  1.410079133097 	  9.807859393241 	  6.759525100588 	
C	  0.841535003097 	  9.807862203241 	 16.890081820588 	
C	 16.090937533097 	  3.624306863241 	  6.787657860588 	
C	 15.522393403097 	  3.624309673241 	 16.918214580588 	
C	 16.090906433097 	  9.807868623241 	  6.787655030588 	
C	 15.522362303097 	  9.807871433241 	 16.918211750588 	
C	 12.217643164067 	  0.645534415539 	  8.984167038337 	
C	 11.649099034067 	  0.645537225539 	 19.114723758337 	
C	 12.217612064067 	  6.829096175539 	  8.984164208337 	
C	 11.649067934067 	  6.829098985539 	 19.114720928337 	
C	 26.898470464067 	  0.645543645539 	  9.012296968337 	
C	 26.329926334067 	  0.645546455539 	 19.142853688337 	
C	 26.898439364067 	  6.829105405539 	  9.012294138337 	
C	 26.329895234067 	  6.829108215539 	 19.142850858337 	
C	 12.379458099897 	  2.507841883185 	  3.779345148992 	
C	 11.810913969897 	  2.507844693185 	 13.909901868992 	
C	 12.379426999897 	  8.691403643185 	  3.779342318992 	
C	 11.810882869897 	  8.691406453185 	 13.909899038992 	
C	 27.060285399897 	  2.507851113185 	  3.807475078992 	
C	 26.491741269897 	  2.507853923185 	 13.938031798992 	
C	 27.060254299897 	  8.691412873185 	  3.807472248992 	
C	 26.491710169897 	  8.691415683185 	 13.938028968992 	
C	  1.571924899266 	  5.486605195446 	  1.554707506244 	
C	  1.003380769266 	  5.486608005446 	 11.685264226244 	
C	  1.571893799266 	 11.670166955446 	  1.554704676244 	
C	  1.003349669266 	 11.670169765446 	 11.685261396244 	
C	 16.252752199266 	  5.486614425446 	  1.582837436244 	
C	 15.684208069266 	  5.486617235446 	 11.713394156244 	
C	 16.252721099266 	 11.670176185446 	  1.582834606244 	
C	 15.684176969266 	 11.670178995446 	 11.713391326244 	
H	  1.924434044452 	  4.620620506205 	  6.718555988438 	
H	  1.355889914452 	  4.620623316205 	 16.849112708438 	
H	  1.924402944452 	 10.804182266205 	  6.718553158438 	
H	  1.355858814452 	 10.804185076205 	 16.849109878438 	
H	 16.605261344452 	  4.620629736205 	  6.746685918438 	
H	 16.036717214452 	  4.620632546205 	 16.877242638438 	
H	 16.605230244452 	 10.804191496205 	  6.746683088438 	
H	 16.036686114452 	 10.804194306205 	 16.877239808438 	
H	 11.605890260675 	  1.571853823165 	  9.045580887260 	
H	 11.037346130675 	  1.571856633165 	 19.176137607260 	
H	 11.605859160675 	  7.755415583165 	  9.045578057260 	
H	 11.037315030675 	  7.755418393165 	 19.176134777260 	
H	 26.286717560675 	  1.571863053165 	  9.073710817260 	
H	 25.718173430675 	  1.571865863165 	 19.204267537260 	
H	 26.286686460675 	  7.755424813165 	  9.073707987260 	
H	 25.718142330675 	  7.755427623165 	 19.204264707260 	
H	 11.865134363977 	  1.511518506644 	  3.820317234686 	
H	 11.296590233977 	  1.511521316644 	 13.950873954686 	
H	 11.865103263977 	  7.695080266644 	  3.820314404686 	
H	 11.296559133977 	  7.695083076644 	 13.950871124686 	
H	 26.545961663977 	  1.511527736644 	  3.848447164686 	
H	 25.977417533977 	  1.511530546644 	 13.979003884686 	
H	 26.545930563977 	  7.695089496644 	  3.848444334686 	
H	 25.977386433977 	  7.695092306644 	 13.979001054686 	
H	  2.183677828062 	  4.560285831810 	  1.493293212112 	
H	  1.615133698062 	  4.560288641810 	 11.623849932112 	
H	  2.183646728062 	 10.743847591810 	  1.493290382112 	
H	  1.615102598062 	 10.743850401810 	 11.623847102112 	
H	 16.864505128062 	  4.560295061810 	  1.521423142112 	
H	 16.295960998062 	  4.560297871810 	 11.651979862112 	
H	 16.864474028062 	 10.743856821810 	  1.521420312112 	
H	 16.295929898062 	 10.743859631810 	 11.651977032112 	
H	  1.117007028637 	  3.923314632294 	  7.806809736312 	
H	  0.548462898637 	  3.923317442294 	 17.937366456312 	
H	  1.116975928637 	 10.106876392294 	  7.806806906312 	
H	  0.548431798637 	 10.106879202294 	 17.937363626312 	
H	 15.797834328637 	  3.923323862294 	  7.834939666312 	
H	 15.229290198637 	  3.923326672294 	 17.965496386312 	
H	 15.797803228637 	 10.106885622294 	  7.834936836312 	
H	 15.229259098637 	 10.106888432294 	 17.965493556312 	
H	 12.421710224823 	  6.955172877253 	  7.964644406728 	
H	 11.853166094823 	  6.955175687253 	 18.095201126728 	
H	 12.421679124823 	 13.138734637253 	  7.964641576728 	
H	 11.853134994823 	 13.138737447253 	 18.095198296728 	
H	 27.102537524823 	  6.955182107253 	  7.992774336728 	
H	 26.533993394823 	  6.955184917253 	 18.123331056728 	
H	 27.102506424823 	 13.138743867253 	  7.992771506728 	
H	 26.533962294823 	 13.138746677253 	 18.123328226728 	
H	 12.672562619167 	  2.208826225563 	  2.732062918594 	
H	 12.104018489167 	  2.208829035563 	 12.862619638594 	
H	 12.672531519167 	  8.392387985563 	  2.732060088594 	
H	 12.103987389167 	  8.392390795563 	 12.862616808594 	
H	 27.353389919167 	  2.208835455563 	  2.760192848594 	
H	 26.784845789167 	  2.208838265563 	 12.890749568594 	
H	 27.353358819167 	  8.392397215563 	  2.760190018594 	
H	 26.784814689167 	  8.392400025563 	 12.890746738594 	
H	  1.367858145688 	 -0.823033428487 	  2.574230275186 	
H	  0.799314015688 	 -0.823030618487 	 12.704786995186 	
H	  1.367827045688 	  5.360528331513 	  2.574227445186 	
H	  0.799282915688 	  5.360531141513 	 12.704784165186 	
H	 16.048685445688 	 -0.823024198487 	  2.602360205186 	
H	 15.480141315688 	 -0.823021388487 	 12.732916925186 	
H	 16.048654345688 	  5.360537561513 	  2.602357375186 	
H	 15.480110215688 	  5.360540371513 	 12.732914095186 	
H	  0.467676356046 	  3.833178167656 	  6.181049754851 	
H	 -0.100867773954 	  3.833180977656 	 16.311606474851 	
H	  0.467645256046 	 10.016739927656 	  6.181046924851 	
H	 -0.100898873954 	 10.016742737656 	 16.311603644851 	
H	 15.148503656046 	  3.833187397656 	  6.209179684851 	
H	 14.579959526046 	  3.833190207656 	 16.339736404851 	
H	 15.148472556046 	 10.016749157656 	  6.209176854851 	
H	 14.579928426046 	 10.016751967656 	 16.339733574851 	
H	 13.074241874070 	  6.892981545914 	  9.581557374341 	
H	 12.505697744070 	  6.892984355914 	 19.712114094341 	
H	 13.074210774070 	 13.076543305914 	  9.581554544341 	
H	 12.505666644070 	 13.076546115914 	 19.712111264341 	
H	 27.755069174070 	  6.892990775914 	  9.609687304341 	
H	 27.186525044070 	  6.892993585914 	 19.740244024341 	
H	 27.755038074070 	 13.076552535914 	  9.609684474341 	
H	 27.186493944070 	 13.076555345914 	 19.740241194341 	
H	 13.321892013535 	  2.298961585381 	  4.357823762976 	
H	 12.753347883535 	  2.298964395381 	 14.488380482976 	
H	 13.321860913535 	  8.482523345381 	  4.357820932976 	
H	 12.753316783535 	  8.482526155381 	 14.488377652976 	
H	 28.002719313535 	  2.298970815381 	  4.385953692976 	
H	 27.434175183535 	  2.298973625381 	 14.516510412976 	
H	 28.002688213535 	  8.482532575381 	  4.385950862976 	
H	 27.434144083535 	  8.482535385381 	 14.516507582976 	
H	  0.715325972417 	 -0.760842016878 	  0.957317476050 	
H	  0.146781842417 	 -0.760839206878 	 11.087874196050 	
H	  0.715294872417 	  5.422719743122 	  0.957314646050 	
H	  0.146750742417 	  5.422722553122 	 11.087871366050 	
H	 15.396153272417 	 -0.760832786878 	  0.985447406050 	
H	 14.827609142417 	 -0.760829976878 	 11.116004126050 	
H	 15.396122172417 	  5.422728973122 	  0.985444576050 	
H	 14.827578042417 	  5.422731783122 	 11.116001296050 	
C	  1.268263801628 	  1.902625879563 	  6.772869397250 	
C	  0.699719671628 	  1.902628689563 	 16.903426117250 	
C	  1.268232701628 	  8.086187639563 	  6.772866567250 	
C	  0.699688571628 	  8.086190449563 	 16.903423287250 	
C	 15.949091101628 	  1.902635109563 	  6.800999327250 	
C	 15.380546971628 	  1.902637919563 	 16.931556047250 	
C	 15.949060001628 	  8.086196869563 	  6.800996497250 	
C	 15.380515871628 	  8.086199679563 	 16.931553217250 	
C	 12.274234955700 	  4.973640034956 	  8.996040121380 	
C	 11.705690825700 	  4.973642844956 	 19.126596841380 	
C	 12.274203855700 	 11.157201794956 	  8.996037291380 	
C	 11.705659725700 	 11.157204604956 	 19.126594011380 	
C	 26.955062255700 	  4.973649264956 	  9.024170051380 	
C	 26.386518125700 	  4.973652074956 	 19.154726771380 	
C	 26.955031155700 	 11.157211024956 	  9.024167221380 	
C	 26.386487025700 	 11.157213834956 	 19.154723941380 	
C	 12.521303958220 	  4.229515573232 	  3.766003771458 	
C	 11.952759828220 	  4.229518383232 	 13.896560491458 	
C	 12.521272858220 	 10.413077333232 	  3.766000941458 	
C	 11.952728728220 	 10.413080143232 	 13.896557661458 	
C	 27.202131258220 	  4.229524803232 	  3.794133701458 	
C	 26.633587128220 	  4.229527613232 	 13.924690421458 	
C	 27.202100158220 	 10.413086563232 	  3.794130871458 	
C	 26.633556028220 	 10.413089373232 	 13.924687591458 	
C	  1.515332953443 	  1.158499460673 	  1.542834838229 	
C	  0.946788823443 	  1.158502270673 	 11.673391558229 	
C	  1.515301853443 	  7.342061220673 	  1.542832008229 	
C	  0.946757723443 	  7.342064030673 	 11.673388728229 	
C	 16.196160253443 	  1.158508690673 	  1.570964768229 	
C	 15.627616123443 	  1.158511500673 	 11.701521488229 	
C	 16.196129153443 	  7.342070450673 	  1.570961938229 	
C	 15.627585023443 	  7.342073260673 	 11.701518658229 	
H	  0.250669365619 	  1.767551849027 	  6.310723821627 	
H	 -0.317874764381 	  1.767554659027 	 16.441280541627 	
H	  0.250638265619 	  7.951113609027 	  6.310720991627 	
H	 -0.317905864381 	  7.951116419027 	 16.441277711627 	
H	 14.931496665619 	  1.767561079027 	  6.338853751627 	
H	 14.362952535619 	  1.767563889027 	 16.469410471627 	
H	 14.931465565619 	  7.951122839027 	  6.338850921627 	
H	 14.362921435619 	  7.951125649027 	 16.469407641627 	
H	 13.292027511458 	  4.834279358556 	  9.455110777115 	
H	 12.723483381458 	  4.834282168556 	 19.585667497115 	
H	 13.291996411458 	 11.017841118556 	  9.455107947115 	
H	 12.723452281458 	 11.017843928556 	 19.585664667115 	
H	 27.972854811458 	  4.834288588556 	  9.483240707115 	
H	 27.404310681458 	  4.834291398556 	 19.613797427115 	
H	 27.972823711458 	 11.017850348556 	  9.483237877115 	
H	 27.404279581458 	 11.017853158556 	 19.613794597115 	
H	 13.538898268806 	  4.364589316938 	  4.228150199676 	
H	 12.970354138806 	  4.364592126938 	 14.358706919676 	
H	 13.538867168806 	 10.548151076938 	  4.228147369676 	
H	 12.970323038806 	 10.548153886938 	 14.358704089676 	
H	 28.219725568806 	  4.364598546938 	  4.256280129676 	
H	 27.651181438806 	  4.364601356938 	 14.386836849676 	
H	 28.219694468806 	 10.548160306938 	  4.256277299676 	
H	 27.651150338806 	 10.548163116938 	 14.386834019676 	
H	  0.497540324732 	  1.297860073791 	  1.083764369694 	
H	 -0.071003805268 	  1.297862883791 	 11.214321089694 	
H	  0.497509224732 	  7.481421833791 	  1.083761539694 	
H	 -0.071034905268 	  7.481424643791 	 11.214318259694 	
H	 15.178367624732 	  1.297869303791 	  1.111894299694 	
H	 14.609823494732 	  1.297872113791 	 11.242451019694 	
H	 15.178336524732 	  7.481431063791 	  1.111891469694 	
H	 14.609792394732 	  7.481433873791 	 11.242448189694 	
H	  1.027330278946 	  1.633700687303 	  7.833920569599 	
H	  0.458786148946 	  1.633703497303 	 17.964477289599 	
H	  1.027299178946 	  7.817262447303 	  7.833917739599 	
H	  0.458755048946 	  7.817265257303 	 17.964474459599 	
H	 15.708157578946 	  1.633709917303 	  7.862050499599 	
H	 15.139613448946 	  1.633712727303 	 17.992607219599 	
H	 15.708126478946 	  7.817271677303 	  7.862047669599 	
H	 15.139582348946 	  7.817274487303 	 17.992604389599 	
H	 12.515245475407 	  4.700858196159 	  7.932271475975 	
H	 11.946701345407 	  4.700861006159 	 18.062828195975 	
H	 12.515214375407 	 10.884419956159 	  7.932268645975 	
H	 11.946670245407 	 10.884422766159 	 18.062825365975 	
H	 27.196072775407 	  4.700867426159 	  7.960401405975 	
H	 26.627528645407 	  4.700870236159 	 18.090958125975 	
H	 27.196041675407 	 10.884429186159 	  7.960398575975 	
H	 26.627497545407 	 10.884431996159 	 18.090955295975 	
H	 12.762237628490 	  4.498440334363 	  2.704952206040 	
H	 12.193693498490 	  4.498443144363 	 12.835508926040 	
H	 12.762206528490 	 10.682002094363 	  2.704949376040 	
H	 12.193662398490 	 10.682004904363 	 12.835506096040 	
H	 27.443064928490 	  4.498449564363 	  2.733082136040 	
H	 26.874520798490 	  4.498452374363 	 12.863638856040 	
H	 27.443033828490 	 10.682011324363 	  2.733079306040 	
H	 26.874489698490 	 10.682014134363 	 12.863636026040 	
H	  1.274322529223 	  1.431281146078 	  2.606603470262 	
H	  0.705778399223 	  1.431283956078 	 12.737160190262 	
H	  1.274291429223 	  7.614842906078 	  2.606600640262 	
H	  0.705747299223 	  7.614845716078 	 12.737157360262 	
H	 15.955149829223 	  1.431290376078 	  2.634733400262 	
H	 15.386605699223 	  1.431293186078 	 12.765290120262 	
H	 15.955118729223 	  7.614852136078 	  2.634730570262 	
H	 15.386574599223 	  7.614854946078 	 12.765287290262 	
H	  1.583378854082 	  0.842010632862 	  6.743903736167 	
H	  1.014834724082 	  0.842013442862 	 16.874460456167 	
H	  1.583347754082 	  7.025572392862 	  6.743900906167 	
H	  1.014803624082 	  7.025575202862 	 16.874457626167 	
H	 16.264206154082 	  0.842019862862 	  6.772033666167 	
H	 15.695662024082 	  0.842022672862 	 16.902590386167 	
H	 16.264175054082 	  7.025581622862 	  6.772030836167 	
H	 15.695630924082 	  7.025584432862 	 16.902587556167 	
H	 11.959130529668 	  3.910842002594 	  9.021310380945 	
H	 11.390586399668 	  3.910844812594 	 19.151867100945 	
H	 11.959099429668 	 10.094403762594 	  9.021307550945 	
H	 11.390555299668 	 10.094406572594 	 19.151864270945 	
H	 26.639957829668 	  3.910851232594 	  9.049440310945 	
H	 26.071413699668 	  3.910854042594 	 19.179997030945 	
H	 26.639926729668 	 10.094412992594 	  9.049437480945 	
H	 26.071382599668 	 10.094415802594 	 19.179994200945 	
H	 12.206186951346 	  5.290130823894 	  3.794972734040 	
H	 11.637642821346 	  5.290133633894 	 13.925529454040 	
H	 12.206155851346 	 11.473692583894 	  3.794969904040 	
H	 11.637611721346 	 11.473695393894 	 13.925526624040 	
H	 26.887014251346 	  5.290140053894 	  3.823102664040 	
H	 26.318470121346 	  5.290142863894 	 13.953659384040 	
H	 26.886983151346 	 11.473701813894 	  3.823099834040 	
H	 26.318439021346 	 11.473704623894 	 13.953656554040 	
H	  1.830437243734 	  2.221297538914 	  1.517565102502 	
H	  1.261893113734 	  2.221300348914 	 11.648121822502 	
H	  1.830406143734 	  8.404859298914 	  1.517562272502 	
H	  1.261862013734 	  8.404862108914 	 11.648118992502 	
H	 16.511264543734 	  2.221306768914 	  1.545695032502 	
H	 15.942720413734 	  2.221309578914 	 11.676251752502 	
H	 16.511233443734 	  8.404868528914 	  1.545692202502 	
H	 15.942689313734 	  8.404871338914 	 11.676248922502 	
768 
Energy: -9.7388132002589998e+01 
S	  8.441415155685 	  1.462399264360 	  0.107663005573 	
S	  7.872871025685 	  1.462402074360 	 10.238219725573 	
S	  8.441384055685 	  7.645961024360 	  0.107660175573 	
S	  7.872839925685 	  7.645963834360 	 10.238216895573 	
S	 23.122242455685 	  1.462408494360 	  0.135792935573 	
S	 22.553698325685 	  1.462411304360 	 10.266349655573 	
S	 23.122211355685 	  7.645970254360 	  0.135790105573 	
S	 22.553667225685 	  7.645973064360 	 10.266346825573 	
S	  5.531122661917 	  4.522982878296 	  5.243374377050 	
S	  4.962578531917 	  4.522985688296 	 15.373931097050 	
S	  5.531091561917 	 10.706544638296 	  5.243371547050 	
S	  4.962547431917 	 10.706547448296 	 15.373928267050 	
S	 20.211949961917 	  4.522992108296 	  5.271504307050 	
S	 19.643405831917 	  4.522994918296 	 15.402061027050 	
S	 20.211918861917 	 10.706553868296 	  5.271501477050 	
S	 19.643374731917 	 10.706556678296 	 15.402058197050 	
S	  5.292426666368 	  4.660857652534 	 10.496868313712 	
S	  4.723882536368 	  4.660860462534 	 20.627425033712 	
S	  5.292395566368 	 10.844419412534 	 10.496865483712 	
S	  4.723851436368 	 10.844422222534 	 20.627422203712 	
S	 19.973253966368 	  4.660866882534 	 10.524998243712 	
S	 19.404709836368 	  4.660869692534 	 20.655554963712 	
S	 19.973222866368 	 10.844428642534 	 10.524995413712 	
S	 19.404678736368 	 10.844431452534 	 20.655552133712 	
S	  8.202720266451 	  1.600274226927 	  5.361156714266 	
S	  7.634176136451 	  1.600277036927 	 15.491713434266 	
S	  8.202689166451 	  7.783835986927 	  5.361153884266 	
S	  7.634145036451 	  7.783838796927 	 15.491710604266 	
S	 22.883547566451 	  1.600283456927 	  5.389286644266 	
S	 22.315003436451 	  1.600286266927 	 15.519843364266 	
S	 22.883516466451 	  7.783845216927 	  5.389283814266 	
S	 22.314972336451 	  7.783848026927 	 15.519840534266 	
C	  6.599867417907 	  2.542166795396 	 10.186133295812 	
C	  6.031323287907 	  2.542169605396 	 20.316690015812 	
C	  6.599836317907 	  8.725728555396 	 10.186130465812 	
C	  6.031292187907 	  8.725731365396 	 20.316687185812 	
C	 21.280694717907 	  2.542176025396 	 10.214263225812 	
C	 20.712150587907 	  2.542178835396 	 20.344819945812 	
C	 21.280663617907 	  8.725737785396 	 10.214260395812 	
C	 20.712119487907 	  8.725740595396 	 20.344817115812 	
C	  6.894696068395 	  5.579509989842 	  5.686595015437 	
C	  6.326151938395 	  5.579512799842 	 15.817151735437 	
C	  6.894664968395 	 11.763071749842 	  5.686592185437 	
C	  6.326120838395 	 11.763074559842 	 15.817148905437 	
C	 21.575523368395 	  5.579519219842 	  5.714724945437 	
C	 21.006979238395 	  5.579522029842 	 15.845281665437 	
C	 21.575492268395 	 11.763080979842 	  5.714722115437 	
C	 21.006948138395 	 11.763083789842 	 15.845278835437 	
C	  7.133974418675 	  3.581090101751 	  0.418397897301 	
C	  6.565430288675 	  3.581092911751 	 10.548954617301 	
C	  7.133943318675 	  9.764651861751 	  0.418395067301 	
C	  6.565399188675 	  9.764654671751 	 10.548951787301 	
C	 21.814801718675 	  3.581099331751 	  0.446527827301 	
C	 21.246257588675 	  3.581102141751 	 10.577084547301 	
C	 21.814770618675 	  9.764661091751 	  0.446524997301 	
C	 21.246226488675 	  9.764663901751 	 10.577081717301 	
C	  6.839146707935 	  0.543747184418 	  4.917935947009 	
C	  6.270602577935 	  0.543749994418 	 15.048492667009 	
C	  6.839115607935 	  6.727308944418 	  4.917933117009 	
C	  6.270571477935 	  6.727311754418 	 15.048489837009 	
C	 21.519974007935 	  0.543756414418 	  4.946065877009 	
C	 20.951429877935 	  0.543759224418 	 15.076622597009 	
C	 21.519942907935 	  6.727318174418 	  4.946063047009 	
C	 20.951398777935 	  6.727320984418 	 15.076619767009 	
C	  5.570101472391 	  2.385302082861 	  9.216950856709 	
C	  5.001557342391 	  2.385304892861 	 19.347507576709 	
C	  5.570070372391 	  8.568863842861 	  9.216948026709 	
C	  5.001526242391 	  8.568866652861 	 19.347504746709 	
C	 20.250928772391 	  2.385311312861 	  9.245080786709 	
C	 19.682384642391 	  2.385314122861 	 19.375637506709 	
C	 20.250897672391 	  8.568873072861 	  9.245077956709 	
C	 19.682353542391 	  8.568875882861 	 19.375634676709 	
C	  7.929632972837 	  5.448331781553 	  6.640602386940 	
C	  7.361088842837 	  5.448334591553 	 16.771159106940 	
C	  7.929601872837 	 11.631893541553 	  6.640599556940 	
C	  7.361057742837 	 11.631896351553 	 16.771156276940 	
C	 22.610460272837 	  5.448341011553 	  6.668732316940 	
C	 22.041916142837 	  5.448343821553 	 16.799289036940 	
C	 22.610429172837 	 11.631902771553 	  6.668729486940 	
C	 22.041885042837 	 11.631905581553 	 16.799286206940 	
C	  8.163740284955 	  3.737954879686 	  1.387580271909 	
C	  7.595196154955 	  3.737957689686 	 11.518136991909 	
C	  8.163709184955 	  9.921516639686 	  1.387577441909 	
C	  7.595165054955 	  9.921519449686 	 11.518134161909 	
C	 22.844567584955 	  3.737964109686 	  1.415710201909 	
C	 22.276023454955 	  3.737966919686 	 11.546266921909 	
C	 22.844536484955 	  9.921525869686 	  1.415707371909 	
C	 22.275992354955 	  9.921528679686 	 11.546264091909 	
C	  5.804209615117 	  0.674925414139 	  3.963928737279 	
C	  5.235665485117 	  0.674928224139 	 14.094485457279 	
C	  5.804178515117 	  6.858487174139 	  3.963925907279 	
C	  5.235634385117 	  6.858489984139 	 14.094482627279 	
C	 20.485036915117 	  0.674934644139 	  3.992058667279 	
C	 19.916492785117 	  0.674937454139 	 14.122615387279 	
C	 20.485005815117 	  6.858496404139 	  3.992055837279 	
C	 19.916461685117 	  6.858499214139 	 14.122612557279 	
C	  4.722446536664 	  3.476493503226 	  9.245479518610 	
C	  4.153902406664 	  3.476496313226 	 19.376036238610 	
C	  4.722415436664 	  9.660055263226 	  9.245476688610 	
C	  4.153871306664 	  9.660058073226 	 19.376033408610 	
C	 19.403273836664 	  3.476502733226 	  9.273609448610 	
C	 18.834729706664 	  3.476505543226 	 19.404166168610 	
C	 19.403242736664 	  9.660064493226 	  9.273606618610 	
C	 18.834698606664 	  9.660067303226 	 19.404163338610 	
C	  8.765171741755 	  0.412635124893 	  6.613311342589 	
C	  8.196627611755 	  0.412637934893 	 16.743868062589 	
C	  8.765140641755 	  6.596196884893 	  6.613308512589 	
C	  8.196596511755 	  6.596199694893 	 16.743865232589 	
C	 23.445999041755 	  0.412644354893 	  6.641441272589 	
C	 22.877454911755 	  0.412647164893 	 16.771997992589 	
C	 23.445967941755 	  6.596206114893 	  6.641438442589 	
C	 22.877423811755 	  6.596208924893 	 16.771995162589 	
C	  9.011395209893 	  2.646763436013 	  1.359051646984 	
C	  8.442851079893 	  2.646766246013 	 11.489608366984 	
C	  9.011364109893 	  8.830325196013 	  1.359048816984 	
C	  8.442819979893 	  8.830328006013 	 11.489605536984 	
C	 23.692222509893 	  2.646772666013 	  1.387181576984 	
C	 23.123678379893 	  2.646775476013 	 11.517738296984 	
C	 23.692191409893 	  8.830334426013 	  1.387178746984 	
C	 23.123647279893 	  8.830337236013 	 11.517735466984 	
C	  4.968670930835 	  5.710622058483 	  3.991219943589 	
C	  4.400126800835 	  5.710624868483 	 14.121776663589 	
C	  4.968639830835 	 11.894183818483 	  3.991217113589 	
C	  4.400095700835 	 11.894186628483 	 14.121773833589 	
C	 19.649498230835 	  5.710631288483 	  4.019349873589 	
C	 19.080954100835 	  5.710634098483 	 14.149906593589 	
C	 19.649467130835 	 11.894193048483 	  4.019347043589 	
C	 19.080923000835 	 11.894195858483 	 14.149903763589 	
C	  3.670377757729 	  3.583724058476 	  8.465593086006 	
C	  3.101833627729 	  3.583726868476 	 18.596149806006 	
C	  3.670346657729 	  9.767285818476 	  8.465590256006 	
C	  3.101802527729 	  9.767288628476 	 18.596146976006 	
C	 18.351205057729 	  3.583733288476 	  8.493723016006 	
C	 17.782660927729 	  3.583736098476 	 18.624279736006 	
C	 18.351173957729 	  9.767295048476 	  8.493720186006 	
C	 17.782629827729 	  9.767297858476 	 18.624276906006 	
C	  9.822716924632 	  0.525205486516 	  7.393719932815 	
C	  9.254172794632 	  0.525208296516 	 17.524276652815 	
C	  9.822685824632 	  6.708767246516 	  7.393717102815 	
C	  9.254141694632 	  6.708770056516 	 17.524273822815 	
C	 24.503544224632 	  0.525214716516 	  7.421849862815 	
C	 23.935000094632 	  0.525217526516 	 17.552406582815 	
C	 24.503513124632 	  6.708776476516 	  7.421847032815 	
C	 23.934968994632 	  6.708779286516 	 17.552403752815 	
C	 10.063464004202 	  2.539533033296 	  2.138938283236 	
C	  9.494919874202 	  2.539535843296 	 12.269495003236 	
C	 10.063432904202 	  8.723094793296 	  2.138935453236 	
C	  9.494888774202 	  8.723097603296 	 12.269492173236 	
C	 24.744291304202 	  2.539542263296 	  2.167068213236 	
C	 24.175747174202 	  2.539545073296 	 12.297624933236 	
C	 24.744260204202 	  8.723104023296 	  2.167065383236 	
C	 24.175716074202 	  8.723106833296 	 12.297622103236 	
C	  3.911125380478 	  5.598051754385 	  3.210811714273 	
C	  3.342581250478 	  5.598054564385 	 13.341368434273 	
C	  3.911094280478 	 11.781613514385 	  3.210808884273 	
C	  3.342550150478 	 11.781616324385 	 13.341365604273 	
C	 18.591952680478 	  5.598060984385 	  3.238941644273 	
C	 18.023408550478 	  5.598063794385 	 13.369498364273 	
C	 18.591921580478 	 11.781622744385 	  3.238938814273 	
C	 18.023377450478 	 11.781625554385 	 13.369495534273 	
H	  3.009352062783 	  4.531622139942 	  8.542189675830 	
H	  2.440807932783 	  4.531624949942 	 18.672746395830 	
H	  3.009320962783 	 10.715183899942 	  8.542186845830 	
H	  2.440776832783 	 10.715186709942 	 18.672743565830 	
H	 17.690179362783 	  4.531631369942 	  8.570319605830 	
H	 17.121635232783 	  4.531634179942 	 18.700876325830 	
H	 17.690148262783 	 10.715193129942 	  8.570316775830 	
H	 17.121604132783 	 10.715195939942 	 18.700873495830 	
H	 10.484688804307 	  1.469114070660 	  7.316552270730 	
H	  9.916144674307 	  1.469116880660 	 17.447108990730 	
H	 10.484657704307 	  7.652675830660 	  7.316549440730 	
H	  9.916113574307 	  7.652678640660 	 17.447106160730 	
H	 25.165516104307 	  1.469123300660 	  7.344682200730 	
H	 24.596971974307 	  1.469126110660 	 17.475238920730 	
H	 25.165485004307 	  7.652685060660 	  7.344679370730 	
H	 24.596940874307 	  7.652687870660 	 17.475236090730 	
H	 10.724489617019 	  1.591634852358 	  2.062341831072 	
H	 10.155945487019 	  1.591637662358 	 12.192898551072 	
H	 10.724458517019 	  7.775196612358 	  2.062339001072 	
H	 10.155914387019 	  7.775199422358 	 12.192895721072 	
H	 25.405316917019 	  1.591644082358 	  2.090471761072 	
H	 24.836772787019 	  1.591646892358 	 12.221028481072 	
H	 25.405285817019 	  7.775205842358 	  2.090468931072 	
H	 24.836741687019 	  7.775208652358 	 12.221025651072 	
H	  3.249153630550 	  4.654143092960 	  3.287979535888 	
H	  2.680609500550 	  4.654145902960 	 13.418536255888 	
H	  3.249122530550 	 10.837704852960 	  3.287976705888 	
H	  2.680578400550 	 10.837707662960 	 13.418533425888 	
H	 17.929980930550 	  4.654152322960 	  3.316109465888 	
H	 17.361436800550 	  4.654155132960 	 13.446666185888 	
H	 17.929949830550 	 10.837714082960 	  3.316106635888 	
H	 17.361405700550 	 10.837716892960 	 13.446663355888 	
C	  3.338874833401 	  2.640957242796 	  7.583232586087 	
C	  2.770330703401 	  2.640960052796 	 17.713789306087 	
C	  3.338843733401 	  8.824519002796 	  7.583229756087 	
C	  2.770299603401 	  8.824521812796 	 17.713786476087 	
C	 18.019702133401 	  2.640966472796 	  7.611362516087 	
C	 17.451158003401 	  2.640969282796 	 17.741919236087 	
C	 18.019671033401 	  8.824528232796 	  7.611359686087 	
C	 17.451126903401 	  8.824531042796 	 17.741916406087 	
C	 10.156025897423 	  5.698769320492 	  8.273856254275 	
C	  9.587481767423 	  5.698772130492 	 18.404412974275 	
C	 10.155994797423 	 11.882331080492 	  8.273853424275 	
C	  9.587450667423 	 11.882333890492 	 18.404410144275 	
C	 24.836853197423 	  5.698778550492 	  8.301986184275 	
C	 24.268309067423 	  5.698781360492 	 18.432542904275 	
C	 24.836822097423 	 11.882340310492 	  8.301983354275 	
C	 24.268277967423 	 11.882343120492 	 18.432540074275 	
C	 10.394966769363 	  3.482299913254 	  3.021298532472 	
C	  9.826422639363 	  3.482302723254 	 13.151855252472 	
C	 10.394935669363 	  9.665861673254 	  3.021295702472 	
C	  9.826391539363 	  9.665864483254 	 13.151852422472 	
C	 25.075794069363 	  3.482309143254 	  3.049428462472 	
C	 24.507249939363 	  3.482311953254 	 13.179985182472 	
C	 25.075762969363 	  9.665870903254 	  3.049425632472 	
C	 24.507218839363 	  9.665873713254 	 13.179982352472 	
C	  3.577816126989 	  0.424487982607 	  2.330675571896 	
C	  3.009271996989 	  0.424490792607 	 12.461232291896 	
C	  3.577785026989 	  6.608049742607 	  2.330672741896 	
C	  3.009240896989 	  6.608052552607 	 12.461229461896 	
C	 18.258643426989 	  0.424497212607 	  2.358805501896 	
C	 17.690099296989 	  0.424500022607 	 12.489362221896 	
C	 18.258612326989 	  6.608058972607 	  2.358802671896 	
C	 17.690068196989 	  6.608061782607 	 12.489359391896 	
C	  4.189708224331 	  1.570810963740 	  7.532294958048 	
C	  3.621164094331 	  1.570813773740 	 17.662851678048 	
C	  4.189677124331 	  7.754372723740 	  7.532292128048 	
C	  3.621132994331 	  7.754375533740 	 17.662848848048 	
C	 18.870535524331 	  1.570820193740 	  7.560424888048 	
C	 18.301991394331 	  1.570823003740 	 17.690981608048 	
C	 18.870504424331 	  7.754381953740 	  7.560422058048 	
C	 18.301960294331 	  7.754384763740 	 17.690978778048 	
C	  9.304676963797 	  4.633491816136 	  8.325221744414 	
C	  8.736132833797 	  4.633494626136 	 18.455778464414 	
C	  9.304645863797 	 10.817053576136 	  8.325218914414 	
C	  8.736101733797 	 10.817056386136 	 18.455775634414 	
C	 23.985504263797 	  4.633501046136 	  8.353351674414 	
C	 23.416960133797 	  4.633503856136 	 18.483908394414 	
C	 23.985473163797 	 10.817062806136 	  8.353348844414 	
C	 23.416929033797 	 10.817065616136 	 18.483905564414 	
C	  9.544133447627 	  4.552446229856 	  3.072236081749 	
C	  8.975589317627 	  4.552449039856 	 13.202792801749 	
C	  9.544102347627 	 10.736007989856 	  3.072233251749 	
C	  8.975558217627 	 10.736010799856 	 13.202789971749 	
C	 24.224960747627 	  4.552455459856 	  3.100366011749 	
C	 23.656416617627 	  4.552458269856 	 13.230922731749 	
C	 24.224929647627 	 10.736017219856 	  3.100363181749 	
C	 23.656385517627 	 10.736020029856 	 13.230919901749 	
C	  4.429164983638 	  1.489765404791 	  2.279309812229 	
C	  3.860620853638 	  1.489768214791 	 12.409866532229 	
C	  4.429133883638 	  7.673327164791 	  2.279306982229 	
C	  3.860589753638 	  7.673329974791 	 12.409863702229 	
C	 19.109992283638 	  1.489774634791 	  2.307439742229 	
C	 18.541448153638 	  1.489777444791 	 12.437996462229 	
C	 19.109961183638 	  7.673336394791 	  2.307436912229 	
C	 18.541417053638 	  7.673339204791 	 12.437993632229 	
H	  3.958881263724 	  0.742693513622 	  6.759924931518 	
H	  3.390337133724 	  0.742696323622 	 16.890481651518 	
H	  3.958850163724 	  6.926255273622 	  6.759922101518 	
H	  3.390306033724 	  6.926258083622 	 16.890478821518 	
H	 18.639708563724 	  0.742702743622 	  6.788054861518 	
H	 18.071164433724 	  0.742705553622 	 16.918611581518 	
H	 18.639677463724 	  6.926264503622 	  6.788052031518 	
H	 18.071133333724 	  6.926267313622 	 16.918608751518 	
H	  9.535137446367 	  3.805120015170 	  9.098485142392 	
H	  8.966593316367 	  3.805122825170 	 19.229041862392 	
H	  9.535106346367 	  9.988681775170 	  9.098482312392 	
H	  8.966562216367 	  9.988684585170 	 19.229039032392 	
H	 24.215964746367 	  3.805129245170 	  9.126615072392 	
H	 23.647420616367 	  3.805132055170 	 19.257171792392 	
H	 24.215933646367 	  9.988691005170 	  9.126612242392 	
H	 23.647389516367 	  9.988693815170 	 19.257168962392 	
H	  9.774960514366 	  5.380563809484 	  3.844605949479 	
H	  9.206416384366 	  5.380566619484 	 13.975162669479 	
H	  9.774929414366 	 11.564125569484 	  3.844603119479 	
H	  9.206385284366 	 11.564128379484 	 13.975159839479 	
H	 24.455787814366 	  5.380573039484 	  3.872735879479 	
H	 23.887243684366 	  5.380575849484 	 14.003292599479 	
H	 24.455756714366 	 11.564134799484 	  3.872733049479 	
H	 23.887212584366 	 11.564137609484 	 14.003289769479 	
H	  4.198704222495 	  2.318137323444 	  1.506046607442 	
H	  3.630160092495 	  2.318140133444 	 11.636603327442 	
H	  4.198673122495 	  8.501699083444 	  1.506043777442 	
H	  3.630128992495 	  8.501701893444 	 11.636600497442 	
H	 18.879531522495 	  2.318146553444 	  1.534176537442 	
H	 18.310987392495 	  2.318149363444 	 11.664733257442 	
H	 18.879500422495 	  8.501708313444 	  1.534173707442 	
H	 18.310956292495 	  8.501711123444 	 11.664730427442 	
C	  5.221380070312 	  1.443803872281 	  8.279527497035 	
C	  4.652835940312 	  1.443806682281 	 18.410084217035 	
C	  5.221348970312 	  7.627365632281 	  8.279524667035 	
C	  4.652804840312 	  7.627368442281 	 18.410081387035 	
C	 19.902207370312 	  1.443813102281 	  8.307657427035 	
C	 19.333663240312 	  1.443815912281 	 18.438214147035 	
C	 19.902176270312 	  7.627374862281 	  8.307654597035 	
C	 19.333632140312 	  7.627377672281 	 18.438211317035 	
C	  8.272647488962 	  4.506276750613 	  7.577751525618 	
C	  7.704103358962 	  4.506279560613 	 17.708308245618 	
C	  8.272616388962 	 10.689838510613 	  7.577748695618 	
C	  7.704072258962 	 10.689841320613 	 17.708305415618 	
C	 22.953474788962 	  4.506285980613 	  7.605881455618 	
C	 22.384930658962 	  4.506288790613 	 17.736438175618 	
C	 22.953443688962 	 10.689847740613 	  7.605878625618 	
C	 22.384899558962 	 10.689850550613 	 17.736435345618 	
C	  8.512461646873 	  4.679453225417 	  2.325003485106 	
C	  7.943917516873 	  4.679456035417 	 12.455560205106 	
C	  8.512430546873 	 10.863014985417 	  2.325000655106 	
C	  7.943886416873 	 10.863017795417 	 12.455557375106 	
C	 23.193288946873 	  4.679462455417 	  2.353133415106 	
C	 22.624744816873 	  4.679465265417 	 12.483690135106 	
C	 23.193257846873 	 10.863024215417 	  2.353130585106 	
C	 22.624713716873 	 10.863027025417 	 12.483687305106 	
C	  5.461194768675 	  1.616980482386 	  3.026779749330 	
C	  4.892650638675 	  1.616983292386 	 13.157336469330 	
C	  5.461163668675 	  7.800542242386 	  3.026776919330 	
C	  4.892619538675 	  7.800545052386 	 13.157333639330 	
C	 20.142022068675 	  1.616989712386 	  3.054909679330 	
C	 19.573477938675 	  1.616992522386 	 13.185466399330 	
C	 20.141990968675 	  7.800551472386 	  3.054906849330 	
C	 19.573446838675 	  7.800554282386 	 13.185463569330 	
H	  5.905327402933 	  0.515423498816 	  8.188591307849 	
H	  5.336783272933 	  0.515426308816 	 18.319148027849 	
H	  5.905296302933 	  6.698985258816 	  8.188588477849 	
H	  5.336752172933 	  6.698988068816 	 18.319145197849 	
H	 20.586154702933 	  0.515432728816 	  8.216721237849 	
H	 20.017610572933 	  0.515435538816 	 18.347277957849 	
H	 20.586123602933 	  6.698994488816 	  8.216718407849 	
H	 20.017579472933 	  6.698997298816 	 18.347275127849 	
H	  7.588476749758 	  3.577257103256 	  7.669259495683 	
H	  7.019932619758 	  3.577259913256 	 17.799816215683 	
H	  7.588445649758 	  9.760818863256 	  7.669256665683 	
H	  7.019901519758 	  9.760821673256 	 17.799813385683 	
H	 22.269304049758 	  3.577266333256 	  7.697389425683 	
H	 21.700759919758 	  3.577269143256 	 17.827946145683 	
H	 22.269272949758 	  9.760828093256 	  7.697386595683 	
H	 21.700728819758 	  9.760830903256 	 17.827943315683 	
H	  7.828514290773 	  5.607833590570 	  2.415939491537 	
H	  7.259970160773 	  5.607836400570 	 12.546496211537 	
H	  7.828483190773 	 11.791395350570 	  2.415936661537 	
H	  7.259939060773 	 11.791398160570 	 12.546493381537 	
H	 22.509341590773 	  5.607842820570 	  2.444069421537 	
H	 21.940797460773 	  5.607845630570 	 12.574626141537 	
H	 22.509310490773 	 11.791404580570 	  2.444066591537 	
H	 21.940766360773 	 11.791407390570 	 12.574623311537 	
H	  6.145365478705 	  2.546000118267 	  2.935271623616 	
H	  5.576821348705 	  2.546002928267 	 13.065828343616 	
H	  6.145334378705 	  8.729561878267 	  2.935268793616 	
H	  5.576790248705 	  8.729564688267 	 13.065825513616 	
H	 20.826192778705 	  2.546009348267 	  2.963401553616 	
H	 20.257648648705 	  2.546012158267 	 13.093958273616 	
H	 20.826161678705 	  8.729571108267 	  2.963398723616 	
H	 20.257617548705 	  8.729573918267 	 13.093955443616 	
C	  1.994950395156 	  2.751524879527 	  6.645845363146 	
C	  1.426406265156 	  2.751527689527 	 16.776402083146 	
C	  1.994919295156 	  8.935086639527 	  6.645842533146 	
C	  1.426375165156 	  8.935089449527 	 16.776399253146 	
C	 16.675777695156 	  2.751534109527 	  6.673975293146 	
C	 16.107233565156 	  2.751536919527 	 16.804532013146 	
C	 16.675746595156 	  8.935095869527 	  6.673972463146 	
C	 16.107202465156 	  8.935098679527 	 16.804529183146 	
C	 11.440605142292 	  5.744868114055 	  9.189631989508 	
C	 10.872061012292 	  5.744870924055 	 19.320188709508 	
C	 11.440574042292 	 11.928429874055 	  9.189629159508 	
C	 10.872029912292 	 11.928432684055 	 19.320185879508 	
C	 26.121432442292 	  5.744877344055 	  9.217761919508 	
C	 25.552888312292 	  5.744880154055 	 19.348318639508 	
C	 26.121401342292 	 11.928439104055 	  9.217759089508 	
C	 25.552857212292 	 11.928441914055 	 19.348315809508 	
C	 11.738891693243 	  3.371732713885 	  3.958686519188 	
C	 11.170347563243 	  3.371735523885 	 14.089243239188 	
C	 11.738860593243 	  9.555294473885 	  3.958683689188 	
C	 11.170316463243 	  9.555297283885 	 14.089240409188 	
C	 26.419718993243 	  3.371741943885 	  3.986816449188 	
C	 25.851174863243 	  3.371744753885 	 14.117373169188 	
C	 26.419687893243 	  9.555303703885 	  3.986813619188 	
C	 25.851143763243 	  9.555306513885 	 14.117370339188 	
C	  2.293236474588 	  0.378389081165 	  1.414900168711 	
C	  1.724692344588 	  0.378391891165 	 11.545456888711 	
C	  2.293205374588 	  6.561950841165 	  1.414897338711 	
C	  1.724661244588 	  6.561953651165 	 11.545454058711 	
C	 16.974063774588 	  0.378398311165 	  1.443030098711 	
C	 16.405519644588 	  0.378401121165 	 11.573586818711 	
C	 16.974032674588 	  6.561960071165 	  1.443027268711 	
C	 16.405488544588 	  6.561962881165 	 11.573583988711 	
C	  2.150962549363 	  2.616429254869 	  5.554079377344 	
C	  1.582418419363 	  2.616432064869 	 15.684636097344 	
C	  2.150931449363 	  8.799991014869 	  5.554076547344 	
C	  1.582387319363 	  8.799993824869 	 15.684633267344 	
C	 16.831789849363 	  2.616438484869 	  5.582209307344 	
C	 16.263245719363 	  2.616441294869 	 15.712766027344 	
C	 16.831758749363 	  8.800000244869 	  5.582206477344 	
C	 16.263214619363 	  8.800003054869 	 15.712763197344 	
C	 11.359535925635 	 -0.399266804135 	 10.222723405983 	
C	 10.790991795635 	 -0.399263994135 	 20.353280125983 	
C	 11.359504825635 	  5.784294955865 	 10.222720575983 	
C	 10.790960695635 	  5.784297765865 	 20.353277295983 	
C	 26.040363225635 	 -0.399257574135 	 10.250853335983 	
C	 25.471819095635 	 -0.399254764135 	 20.381410055983 	
C	 26.040332125635 	  5.784304185865 	 10.250850505983 	
C	 25.471787995635 	  5.784306995865 	 20.381407225983 	
C	 11.582877655734 	  3.506827773865 	  5.050452935748 	
C	 11.014333525734 	  3.506830583865 	 15.181009655748 	
C	 11.582846555734 	  9.690389533865 	  5.050450105748 	
C	 11.014302425734 	  9.690392343865 	 15.181006825748 	
C	 26.263704955734 	  3.506837003865 	  5.078582865748 	
C	 25.695160825734 	  3.506839813865 	 15.209139585748 	
C	 26.263673855734 	  9.690398763865 	  5.078580035748 	
C	 25.695129725734 	  9.690401573865 	 15.209136755748 	
C	  2.374305478435 	  6.522524152019 	  0.381808758924 	
C	  1.805761348435 	  6.522526962019 	 10.512365478924 	
C	  2.374274378435 	 12.706085912019 	  0.381805928924 	
C	  1.805730248435 	 12.706088722019 	 10.512362648924 	
C	 17.055132778435 	  6.522533382019 	  0.409938688924 	
C	 16.486588648435 	  6.522536192019 	 10.540495408924 	
C	 17.055101678435 	 12.706095142019 	  0.409935858924 	
C	 16.486557548435 	 12.706097952019 	 10.540492578924 	
H	  3.011300615019 	  3.119215283756 	  5.051531275090 	
H	  2.442756485019 	  3.119218093756 	 15.182087995090 	
H	  3.011269515019 	  9.302777043756 	  5.051528445090 	
H	  2.442725385019 	  9.302779853756 	 15.182085165090 	
H	 17.692127915019 	  3.119224513756 	  5.079661205090 	
H	 17.123583785019 	  3.119227323756 	 15.210217925090 	
H	 17.692096815019 	  9.302786273756 	  5.079658375090 	
H	 17.123552685019 	  9.302789083756 	 15.210215095090 	
H	 10.499592902144 	  0.048269599252 	 10.796752426626 	
H	  9.931048772144 	  0.048272409252 	 20.927309146626 	
H	 10.499561802144 	  6.231831359252 	 10.796749596626 	
H	  9.931017672144 	  6.231834169252 	 20.927306316626 	
H	 25.180420202144 	  0.048278829252 	 10.824882356626 	
H	 24.611876072144 	  0.048281639252 	 20.955439076626 	
H	 25.180389102144 	  6.231840589252 	 10.824879526626 	
H	 24.611844972144 	  6.231843399252 	 20.955436246626 	
H	 10.722540250063 	  3.004038456556 	  5.552999882544 	
H	 10.153996120063 	  3.004041266556 	 15.683556602544 	
H	 10.722509150063 	  9.187600216556 	  5.552997052544 	
H	 10.153965020063 	  9.187603026556 	 15.683553772544 	
H	 25.403367550063 	  3.004047686556 	  5.581129812544 	
H	 24.834823420063 	  3.004050496556 	 15.711686532544 	
H	 25.403336450063 	  9.187609446556 	  5.581126982544 	
H	 24.834792320063 	  9.187612256556 	 15.711683702544 	
H	  3.234248303507 	  6.074987948682 	 -0.192220621837 	
H	  2.665704173507 	  6.074990758682 	  9.938336098163 	
H	  3.234217203507 	 12.258549708682 	 -0.192223451837 	
H	  2.665673073507 	 12.258552518682 	  9.938333268163 	
H	 17.915075603507 	  6.074997178682 	 -0.164090691837 	
H	 17.346531473507 	  6.074999988682 	  9.966466028163 	
H	 17.915044503507 	 12.258558938682 	 -0.164093521837 	
H	 17.346500373507 	 12.258561748682 	  9.966463198163 	
H	  1.406825629119 	  2.710755343881 	  4.705035876665 	
H	  0.838281499119 	  2.710758153881 	 14.835592596665 	
H	  1.406794529119 	  8.894317103881 	  4.705033046665 	
H	  0.838250399119 	  8.894319913881 	 14.835589766665 	
H	 16.087652929119 	  2.710764573881 	  4.733165806665 	
H	 15.519108799119 	  2.710767383881 	 14.863722526665 	
H	 16.087621829119 	  8.894326333881 	  4.733162976665 	
H	 15.519077699119 	  8.894329143881 	 14.863719696665 	
H	 12.602833520376 	 -0.345998774752 	  0.695125125917 	
H	 12.034289390376 	 -0.345995964752 	 10.825681845917 	
H	 12.602802420376 	  5.837562985248 	  0.695122295917 	
H	 12.034258290376 	  5.837565795248 	 10.825679015917 	
H	 27.283660820376 	 -0.345989544752 	  0.723255055917 	
H	 26.715116690376 	 -0.345986734752 	 10.853811775917 	
H	 27.283629720376 	  5.837572215248 	  0.723252225917 	
H	 26.715085590376 	  5.837575025248 	 10.853808945917 	
H	 12.327015183897 	  3.412501848393 	  5.899496104152 	
H	 11.758471053897 	  3.412504658393 	 16.030052824152 	
H	 12.326984083897 	  9.596063608393 	  5.899493274152 	
H	 11.758439953897 	  9.596066418393 	 16.030049994152 	
H	 27.007842483897 	  3.412511078393 	  5.927626034152 	
H	 26.439298353897 	  3.412513888393 	 16.058182754152 	
H	 27.007811383897 	  9.596072838393 	  5.927623204152 	
H	 26.439267253897 	  9.596075648393 	 16.058179924152 	
H	  1.131007571854 	  6.469256279567 	  9.909407297146 	
H	  0.562463441854 	  6.469259089567 	 20.039964017146 	
H	  1.130976471854 	 12.652818039567 	  9.909404467146 	
H	  0.562432341854 	 12.652820849567 	 20.039961187146 	
H	 15.811834871854 	  6.469265509567 	  9.937537227146 	
H	 15.243290741854 	  6.469268319567 	 20.068093947146 	
H	 15.811803771854 	 12.652827269567 	  9.937534397146 	
H	 15.243259641854 	 12.652830079567 	 20.068091117146 	
H	  2.658514653071 	  1.702564506377 	  5.162348009893 	
H	  2.089970523071 	  1.702567316377 	 15.292904729893 	
H	  2.658483553071 	  7.886126266377 	  5.162345179893 	
H	  2.089939423071 	  7.886129076377 	 15.292901899893 	
H	 17.339341953071 	  1.702573736377 	  5.190477939893 	
H	 16.770797823071 	  1.702576546377 	 15.321034659893 	
H	 17.339310853071 	  7.886135496377 	  5.190475109893 	
H	 16.770766723071 	  7.886138306377 	 15.321031829893 	
H	 11.244542193300 	  4.712805251723 	  0.257044351064 	
H	 10.675998063300 	  4.712808061723 	 10.387601071064 	
H	 11.244511093300 	 10.896367011723 	  0.257041521064 	
H	 10.675966963300 	 10.896369821723 	 10.387598241064 	
H	 25.925369493300 	  4.712814481723 	  0.285174281064 	
H	 25.356825363300 	  4.712817291723 	 10.415731001064 	
H	 25.925338393300 	 10.896376241723 	  0.285171451064 	
H	 25.356794263300 	 10.896379051723 	 10.415728171064 	
H	 11.075325049201 	  4.420693060634 	  5.442183776498 	
H	 10.506780919201 	  4.420695870634 	 15.572740496498 	
H	 11.075293949201 	 10.604254820634 	  5.442180946498 	
H	 10.506749819201 	 10.604257630634 	 15.572737666498 	
H	 25.756152349201 	  4.420702290634 	  5.470313706498 	
H	 25.187608219201 	  4.420705100634 	 15.600870426498 	
H	 25.756121249201 	 10.604264050634 	  5.470310876498 	
H	 25.187577119201 	 10.604266860634 	 15.600867596498 	
H	  2.489299131554 	  1.410452312802 	 10.347488065373 	
H	  1.920755001554 	  1.410455122802 	 20.478044785373 	
H	  2.489268031554 	  7.594014072802 	 10.347485235373 	
H	  1.920723901554 	  7.594016882802 	 20.478041955373 	
H	 17.170126431554 	  1.410461542802 	 10.375617995373 	
H	 16.601582301554 	  1.410464352802 	 20.506174715373 	
H	 17.170095331554 	  7.594023302802 	 10.375615165373 	
H	 16.601551201554 	  7.594026112802 	 20.506171885373 	
C	  1.480010131648 	  3.740628691732 	  6.710340386816 	
C	  0.911466001648 	  3.740631501732 	 16.840897106816 	
C	  1.479979031648 	  9.924190451732 	  6.710337556816 	
C	  0.911434901648 	  9.924193261732 	 16.840894276816 	
C	 16.160837431648 	  3.740637921732 	  6.738470316816 	
C	 15.592293301648 	  3.740640731732 	 16.869027036816 	
C	 16.160806331648 	  9.924199681732 	  6.738467486816 	
C	 15.592262201648 	  9.924202491732 	 16.869024206816 	
C	 12.086079461458 	  0.776612613190 	  9.133412851715 	
C	 11.517535331458 	  0.776615423190 	 19.263969571715 	
C	 12.086048361458 	  6.960174373190 	  9.133410021715 	
C	 11.517504231458 	  6.960177183190 	 19.263966741715 	
C	 26.766906761458 	  0.776621843190 	  9.161542781715 	
C	 26.198362631458 	  0.776624653190 	 19.292099501715 	
C	 26.766875661458 	  6.960183603190 	  9.161539951715 	
C	 26.198331531458 	  6.960186413190 	 19.292096671715 	
C	 12.253832067069 	  2.382628449944 	  3.894190009703 	
C	 11.685287937069 	  2.382631259944 	 14.024746729703 	
C	 12.253800967069 	  8.566190209944 	  3.894187179703 	
C	 11.685256837069 	  8.566193019944 	 14.024743899703 	
C	 26.934659367069 	  2.382637679944 	  3.922319939703 	
C	 26.366115237069 	  2.382640489944 	 14.052876659703 	
C	 26.934628267069 	  8.566199439944 	  3.922317109703 	
C	 26.366084137069 	  8.566202249944 	 14.052873829703 	
C	  1.647762196626 	  5.346644533857 	  1.471119257672 	
C	  1.079218066626 	  5.346647343857 	 11.601675977672 	
C	  1.647731096626 	 11.530206293857 	  1.471116427672 	
C	  1.079186966626 	 11.530209103857 	 11.601673147672 	
C	 16.328589496626 	  5.346653763857 	  1.499249187672 	
C	 15.760045366626 	  5.346656573857 	 11.629805907672 	
C	 16.328558396626 	 11.530215523857 	  1.499246357672 	
C	 15.760014266626 	 11.530218333857 	 11.629803077672 	
H	  2.074887419112 	  4.692140519540 	  6.570925471209 	
H	  1.506343289112 	  4.692143329540 	 16.701482191209 	
H	  2.074856319112 	 10.875702279540 	  6.570922641209 	
H	  1.506312189112 	 10.875705089540 	 16.701479361209 	
H	 16.755714719112 	  4.692149749540 	  6.599055401209 	
H	 16.187170589112 	  4.692152559540 	 16.729612121209 	
H	 16.755683619112 	 10.875711509540 	  6.599052571209 	
H	 16.187139489112 	 10.875714319540 	 16.729609291209 	
H	 11.406314039450 	  1.646811175768 	  9.288436433757 	
H	 10.837769909450 	  1.646813985768 	 19.418993153757 	
H	 11.406282939450 	  7.830372935768 	  9.288433603757 	
H	 10.837738809450 	  7.830375745768 	 19.418990323757 	
H	 26.087141339450 	  1.646820405768 	  9.316566363757 	
H	 25.518597209450 	  1.646823215768 	 19.447123083757 	
H	 26.087110239450 	  7.830382165768 	  9.316563533757 	
H	 25.518566109450 	  7.830384975768 	 19.447120253757 	
H	 11.658955000575 	  1.431115988380 	  4.033604635630 	
H	 11.090410870575 	  1.431118798380 	 14.164161355630 	
H	 11.658923900575 	  7.614677748380 	  4.033601805630 	
H	 11.090379770575 	  7.614680558380 	 14.164158525630 	
H	 26.339782300575 	  1.431125218380 	  4.061734565630 	
H	 25.771238170575 	  1.431128028380 	 14.192291285630 	
H	 26.339751200575 	  7.614686978380 	  4.061731735630 	
H	 25.771207070575 	  7.614689788380 	 14.192288455630 	
H	  2.327527630878 	  4.476446049675 	  1.316095203401 	
H	  1.758983500878 	  4.476448859675 	 11.446651923401 	
H	  2.327496530878 	 10.660007809675 	  1.316092373401 	
H	  1.758952400878 	 10.660010619675 	 11.446649093401 	
H	 17.008354930878 	  4.476455279675 	  1.344225133401 	
H	 16.439810800878 	  4.476458089675 	 11.474781853401 	
H	 17.008323830878 	 10.660017039675 	  1.344222303401 	
H	 16.439779700878 	 10.660019849675 	 11.474779023401 	
H	  1.189419886940 	  4.140504821224 	  7.733784526376 	
H	  0.620875756940 	  4.140507631224 	 17.864341246376 	
H	  1.189388786940 	 10.324066581224 	  7.733781696376 	
H	  0.620844656940 	 10.324069391224 	 17.864338416376 	
H	 15.870247186940 	  4.140514051224 	  7.761914456376 	
H	 15.301703056940 	  4.140516861224 	 17.892471176376 	
H	 15.870216086940 	 10.324075811224 	  7.761911626376 	
H	 15.301671956940 	 10.324078621224 	 17.892468346376 	
H	 12.302187165564 	  7.169001706029 	  8.129337195261 	
H	 11.733643035564 	  7.169004516029 	 18.259893915261 	
H	 12.302156065564 	 13.352563466029 	  8.129334365261 	
H	 11.733611935564 	 13.352566276029 	 18.259891085261 	
H	 26.983014465564 	  7.169010936029 	  8.157467125261 	
H	 26.414470335564 	  7.169013746029 	 18.288023845261 	
H	 26.982983365564 	 13.352572696029 	  8.157464295261 	
H	 26.414439235564 	 13.352575506029 	 18.288021015261 	
H	 12.544423658405 	  1.982753670885 	  2.870745345932 	
H	 11.975879528405 	  1.982756480885 	 13.001302065932 	
H	 12.544392558405 	  8.166315430885 	  2.870742515932 	
H	 11.975848428405 	  8.166318240885 	 13.001299235932 	
H	 27.225250958405 	  1.982762900885 	  2.898875275932 	
H	 26.656706828405 	  1.982765710885 	 13.029431995932 	
H	 27.225219858405 	  8.166324660885 	  2.898872445932 	
H	 26.656675728405 	  8.166327470885 	 13.029429165932 	
H	  1.431654890813 	 -1.045744742415 	  2.475195076687 	
H	  0.863110760813 	 -1.045741932415 	 12.605751796687 	
H	  1.431623790813 	  5.137817017585 	  2.475192246687 	
H	  0.863079660813 	  5.137819827585 	 12.605748966687 	
H	 16.112482190813 	 -1.045735512415 	  2.503325006687 	
H	 15.543938060813 	 -1.045732702415 	 12.633881726687 	
H	 16.112451090813 	  5.137826247585 	  2.503322176687 	
H	 15.543906960813 	  5.137829057585 	 12.633878896687 	
H	  0.554652787163 	  3.968617573194 	  6.103562088309 	
H	 -0.013891342837 	  3.968620383194 	 16.234118808309 	
H	  0.554621687163 	 10.152179333194 	  6.103559258309 	
H	 -0.013922442837 	 10.152182143194 	 16.234115978309 	
H	 15.235480087163 	  3.968626803194 	  6.131692018309 	
H	 14.666935957163 	  3.968629613194 	 16.262248738309 	
H	 15.235448987163 	 10.152188563194 	  6.131689188309 	
H	 14.666904857163 	 10.152191373194 	 16.262245908309 	
H	 12.937927707340 	  7.023681811074 	  9.752589446210 	
H	 12.369383577340 	  7.023684621074 	 19.883146166210 	
H	 12.937896607340 	 13.207243571074 	  9.752586616210 	
H	 12.369352477340 	 13.207246381074 	 19.883143336210 	
H	 27.618755007340 	  7.023691041074 	  9.780719376210 	
H	 27.050210877340 	  7.023693851074 	 19.911276096210 	
H	 27.618723907340 	 13.207252801074 	  9.780716546210 	
H	 27.050179777340 	 13.207255611074 	 19.911273266210 	
H	 13.179189427305 	  2.154639815196 	  4.500968659094 	
H	 12.610645297305 	  2.154642625196 	 14.631525379094 	
H	 13.179158327305 	  8.338201575196 	  4.500965829094 	
H	 12.610614197305 	  8.338204385196 	 14.631522549094 	
H	 27.860016727305 	  2.154649045196 	  4.529098589094 	
H	 27.291472597305 	  2.154651855196 	 14.659655309094 	
H	 27.859985627305 	  8.338210805196 	  4.529095759094 	
H	 27.291441497305 	  8.338213615196 	 14.659652479094 	
H	  0.795913702804 	 -0.900424741396 	  0.851943023625 	
H	  0.227369572804 	 -0.900421931396 	 10.982499743625 	
H	  0.795882602804 	  5.283137018604 	  0.851940193625 	
H	  0.227338472804 	  5.283139828604 	 10.982496913625 	
H	 15.476741002804 	 -0.900415511396 	  0.880072953625 	
H	 14.908196872804 	 -0.900412701396 	 11.010629673625 	
H	 15.476709902804 	  5.283146248604 	  0.880070123625 	
H	 14.908165772804 	  5.283149058604 	 11.010626843625 	
C	  1.210774171498 	  2.001529468564 	  6.895718133080 	
C	  0.642230041498 	  2.001532278564 	 17.026274853080 	
C	  1.210743071498 	  8.185091228564 	  6.895715303080 	
C	  0.642198941498 	  8.185094038564 	 17.026272023080 	
C	 15.891601471498 	  2.001538698564 	  6.923848063080 	
C	 15.323057341498 	  2.001541508564 	 17.054404783080 	
C	 15.891570371498 	  8.185100458564 	  6.923845233080 	
C	 15.323026241498 	  8.185103268564 	 17.054401953080 	
C	 12.285011081208 	  5.064126383567 	  8.963837818210 	
C	 11.716466951208 	  5.064129193567 	 19.094394538210 	
C	 12.284979981208 	 11.247688143567 	  8.963834988210 	
C	 11.716435851208 	 11.247690953567 	 19.094391708210 	
C	 26.965838381208 	  5.064135613567 	  8.991967748210 	
C	 26.397294251208 	  5.064138423567 	 19.122524468210 	
C	 26.965807281208 	 11.247697373567 	  8.991964918210 	
C	 26.397263151208 	 11.247700183567 	 19.122521638210 	
C	 12.523067077822 	  4.121729626505 	  3.708812851237 	
C	 11.954522947822 	  4.121732436505 	 13.839369571237 	
C	 12.523035977822 	 10.305291386505 	  3.708810021237 	
C	 11.954491847822 	 10.305294196505 	 13.839366741237 	
C	 27.203894377822 	  4.121738856505 	  3.736942781237 	
C	 26.635350247822 	  4.121741666505 	 13.867499501237 	
C	 27.203863277822 	 10.305300616505 	  3.736939951237 	
C	 26.635319147822 	 10.305303426505 	 13.867496671237 	
C	  1.448830471019 	  1.059130594699 	  1.640694715648 	
C	  0.880286341019 	  1.059133404699 	 11.771251435648 	
C	  1.448799371019 	  7.242692354699 	  1.640691885648 	
C	  0.880255241019 	  7.242695164699 	 11.771248605648 	
C	 16.129657771019 	  1.059139824699 	  1.668824645648 	
C	 15.561113641019 	  1.059142634699 	 11.799381365648 	
C	 16.129626671019 	  7.242701584699 	  1.668821815648 	
C	 15.561082541019 	  7.242704394699 	 11.799378535648 	
H	  0.186689286069 	  1.891872044475 	  6.430197819024 	
H	 -0.381854843931 	  1.891874854475 	 16.560754539024 	
H	  0.186658186069 	  8.075433804475 	  6.430194989024 	
H	 -0.381885943931 	  8.075436614475 	 16.560751709024 	
H	 14.867516586069 	  1.891881274475 	  6.458327749024 	
H	 14.298972456069 	  1.891884084475 	 16.588884469024 	
H	 14.867485486069 	  8.075443034475 	  6.458324919024 	
H	 14.298941356069 	  8.075445844475 	 16.588881639024 	
H	 13.306967501207 	  4.953802785920 	  9.428868391265 	
H	 12.738423371207 	  4.953805595920 	 19.559425111265 	
H	 13.306936401207 	 11.137364545920 	  9.428865561265 	
H	 12.738392271207 	 11.137367355920 	 19.559422281265 	
H	 27.987794801207 	  4.953812015920 	  9.456998321265 	
H	 27.419250671207 	  4.953814825920 	 19.587555041265 	
H	 27.987763701207 	 11.137373775920 	  9.456995491265 	
H	 27.419219571207 	 11.137376585920 	 19.587552211265 	
H	 13.547151966746 	  4.231386901654 	  4.174333653347 	
H	 12.978607836746 	  4.231389711654 	 14.304890373347 	
H	 13.547120866746 	 10.414948661654 	  4.174330823347 	
H	 12.978576736746 	 10.414951471654 	 14.304887543347 	
H	 28.227979266746 	  4.231396131654 	  4.202463583347 	
H	 27.659435136746 	  4.231398941654 	 14.333020303347 	
H	 28.227948166746 	 10.414957891654 	  4.202460753347 	
H	 27.659404036746 	 10.414960701654 	 14.333017473347 	
H	  0.426873956574 	  1.169454114344 	  1.175664359614 	
H	 -0.141670173426 	  1.169456924344 	 11.306221079614 	
H	  0.426842856574 	  7.353015874344 	  1.175661529614 	
H	 -0.141701273426 	  7.353018684344 	 11.306218249614 	
H	 15.107701256574 	  1.169463344344 	  1.203794289614 	
H	 14.539157126574 	  1.169466154344 	 11.334351009614 	
H	 15.107670156574 	  7.353025104344 	  1.203791459614 	
H	 14.539126026574 	  7.353027914344 	 11.334348179614 	
H	  0.945344367776 	  1.878623383679 	  7.985599411330 	
H	  0.376800237776 	  1.878626193679 	 18.116156131330 	
H	  0.945313267776 	  8.062185143679 	  7.985596581330 	
H	  0.376769137776 	  8.062187953679 	 18.116153301330 	
H	 15.626171667776 	  1.878632613679 	  8.013729341330 	
H	 15.057627537776 	  1.878635423679 	 18.144286061330 	
H	 15.626140567776 	  8.062194373679 	  8.013726511330 	
H	 15.057596437776 	  8.062197183679 	 18.144283231330 	
H	 12.548214014058 	  4.940832627147 	  7.872913416206 	
H	 11.979669884058 	  4.940835437147 	 18.003470136206 	
H	 12.548182914058 	 11.124394387147 	  7.872910586206 	
H	 11.979638784058 	 11.124397197147 	 18.003467306206 	
H	 27.229041314058 	  4.940841857147 	  7.901043346206 	
H	 26.660497184058 	  4.940844667147 	 18.031600066206 	
H	 27.229010214058 	 11.124403617147 	  7.901040516206 	
H	 26.660466084058 	 11.124406427147 	 18.031597236206 	
H	 12.788497059109 	  4.244635883245 	  2.618931164733 	
H	 12.219952929109 	  4.244638693245 	 12.749487884733 	
H	 12.788465959109 	 10.428197643245 	  2.618928334733 	
H	 12.219921829109 	 10.428200453245 	 12.749485054733 	
H	 27.469324359109 	  4.244645113245 	  2.647061094733 	
H	 26.900780229109 	  4.244647923245 	 12.777617814733 	
H	 27.469293259109 	 10.428206873245 	  2.647058264733 	
H	 26.900749129109 	 10.428209683245 	 12.777614984733 	
H	  1.185627662241 	  1.182424135792 	  2.731619094729 	
H	  0.617083532241 	  1.182426945792 	 12.862175814729 	
H	  1.185596562241 	  7.365985895792 	  2.731616264729 	
H	  0.617052432241 	  7.365988705792 	 12.862172984729 	
H	 15.866454962241 	  1.182433365792 	  2.759749024729 	
H	 15.297910832241 	  1.182436175792 	 12.890305744729 	
H	 15.866423862241 	  7.365995125792 	  2.759746194729 	
H	 15.297879732241 	  7.365997935792 	 12.890302914729 	
H	  1.477877779646 	  0.916529336611 	  6.937437440338 	
H	  0.909333649646 	  0.916532146611 	 17.067994160338 	
H	  1.477846679646 	  7.100091096611 	  6.937434610338 	
H	  0.909302549646 	  7.100093906611 	 17.067991330338 	
H	 16.158705079646 	  0.916538566611 	  6.965567370338 	
H	 15.590160949646 	  0.916541376611 	 17.096124090338 	
H	 16.158673979646 	  7.100100326611 	  6.965564540338 	
H	 15.590129849646 	  7.100103136611 	 17.096121260338 	
H	 12.015455239540 	  3.979531061385 	  8.920899120278 	
H	 11.446911109540 	  3.979533871385 	 19.051455840278 	
H	 12.015424139540 	 10.163092821385 	  8.920896290278 	
H	 11.446880009540 	 10.163095631385 	 19.051453010278 	
H	 26.696282539540 	  3.979540291385 	  8.949029050278 	
H	 26.127738409540 	  3.979543101385 	 19.079585770278 	
H	 26.696251439540 	 10.163102051385 	  8.949026220278 	
H	 26.127707309540 	 10.163104861385 	 19.079582940278 	
H	 12.255962110888 	  5.206730012684 	  3.667096088295 	
H	 11.687417980888 	  5.206732822684 	 13.797652808295 	
H	 12.255931010888 	 11.390291772684 	  3.667093258295 	
H	 11.687386880888 	 11.390294582684 	 13.797649978295 	
H	 26.936789410888 	  5.206739242684 	  3.695226018295 	
H	 26.368245280888 	  5.206742052684 	 13.825782738295 	
H	 26.936758310888 	 11.390301002684 	  3.695223188295 	
H	 26.368214180888 	 11.390303812684 	 13.825779908295 	
H	  1.718386178678 	  2.143725932948 	  1.683633928591 	
H	  1.149842048678 	  2.143728742948 	 11.814190648591 	
H	  1.718355078678 	  8.327287692948 	  1.683631098591 	
H	  1.149810948678 	  8.327290502948 	 11.814187818591 	
H	 16.399213478678 	  2.143735162948 	  1.711763858591 	
H	 15.830669348678 	  2.143737972948 	 11.842320578591 	
H	 16.399182378678 	  8.327296922948 	  1.711761028591 	
H	 15.830638248678 	  8.327299732948 	 11.842317748591 	
768 
Energy: -9.4089243026730003e+01 
S	  8.393962842531 	  1.446922917346 	  0.117399133635 	
S	  7.825418712531 	  1.446925727346 	 10.247955853635 	
S	  8.393931742531 	  7.630484677346 	  0.117396303635 	
S	  7.825387612531 	  7.630487487346 	 10.247953023635 	
S	 23.074790142531 	  1.446932147346 	  0.145529063635 	
S	 22.506246012531 	  1.446934957346 	 10.276085783635 	
S	 23.074759042531 	  7.630493907346 	  0.145526233635 	
S	 22.506214912531 	  7.630496717346 	 10.276082953635 	
S	  5.516630497477 	  4.503039549722 	  5.271476819831 	
S	  4.948086367477 	  4.503042359722 	 15.402033539831 	
S	  5.516599397477 	 10.686601309722 	  5.271473989831 	
S	  4.948055267477 	 10.686604119722 	 15.402030709831 	
S	 20.197457797477 	  4.503048779722 	  5.299606749831 	
S	 19.628913667477 	  4.503051589722 	 15.430163469831 	
S	 20.197426697477 	 10.686610539722 	  5.299603919831 	
S	 19.628882567477 	 10.686613349722 	 15.430160639831 	
S	  5.284428259142 	  4.667495459149 	 10.552464905266 	
S	  4.715884129142 	  4.667498269149 	 20.683021625266 	
S	  5.284397159142 	 10.851057219149 	 10.552462075266 	
S	  4.715853029142 	 10.851060029149 	 20.683018795266 	
S	 19.965255559142 	  4.667504689149 	 10.580594835266 	
S	 19.396711429142 	  4.667507499149 	 20.711151555266 	
S	 19.965224459142 	 10.851066449149 	 10.580592005266 	
S	 19.396680329142 	 10.851069259149 	 20.711148725266 	
S	  8.161761830202 	  1.611378935113 	  5.398386912068 	
S	  7.593217700202 	  1.611381745113 	 15.528943632068 	
S	  8.161730730202 	  7.794940695113 	  5.398384082068 	
S	  7.593186600202 	  7.794943505113 	 15.528940802068 	
S	 22.842589130202 	  1.611388165113 	  5.426516842068 	
S	 22.274045000202 	  1.611390975113 	 15.557073562068 	
S	 22.842558030202 	  7.794949925113 	  5.426514012068 	
S	 22.274013900202 	  7.794952735113 	 15.557070732068 	
C	  6.577046878282 	  2.539342947161 	 10.244266480656 	
C	  6.008502748282 	  2.539345757161 	 20.374823200656 	
C	  6.577015778282 	  8.722904707161 	 10.244263650656 	
C	  6.008471648282 	  8.722907517161 	 20.374820370656 	
C	 21.257874178282 	  2.539352177161 	 10.272396410656 	
C	 20.689330048282 	  2.539354987161 	 20.402953130656 	
C	 21.257843078282 	  8.722913937161 	 10.272393580656 	
C	 20.689298948282 	  8.722916747161 	 20.402950300656 	
C	  6.868834509477 	  5.572361228738 	  5.720965475298 	
C	  6.300290379477 	  5.572364038738 	 15.851522195298 	
C	  6.868803409477 	 11.755922988738 	  5.720962645298 	
C	  6.300259279477 	 11.755925798738 	 15.851519365298 	
C	 21.549661809477 	  5.572370458738 	  5.749095405298 	
C	 20.981117679477 	  5.572373268738 	 15.879652125298 	
C	 21.549630709477 	 11.755932218738 	  5.749092575298 	
C	 20.981086579477 	 11.755935028738 	 15.879649295298 	
C	  7.101344233198 	  3.575075415363 	  0.425597407792 	
C	  6.532800103198 	  3.575078225363 	 10.556154127792 	
C	  7.101313133198 	  9.758637175363 	  0.425594577792 	
C	  6.532769003198 	  9.758639985363 	 10.556151297792 	
C	 21.782171533198 	  3.575084645363 	  0.453727337792 	
C	 21.213627403198 	  3.575087455363 	 10.584284057792 	
C	 21.782140433198 	  9.758646405363 	  0.453724507792 	
C	 21.213596303198 	  9.758649215363 	 10.584281227792 	
C	  6.809557663738 	  0.542057317861 	  4.948898107674 	
C	  6.241013533738 	  0.542060127861 	 15.079454827674 	
C	  6.809526563738 	  6.725619077861 	  4.948895277674 	
C	  6.240982433738 	  6.725621887861 	 15.079451997674 	
C	 21.490384963738 	  0.542066547861 	  4.977028037674 	
C	 20.921840833738 	  0.542069357861 	 15.107584757674 	
C	 21.490353863738 	  6.725628307861 	  4.977025207674 	
C	 20.921809733738 	  6.725631117861 	 15.107581927674 	
C	  5.551979781490 	  2.393608093607 	  9.267658353553 	
C	  4.983435651490 	  2.393610903607 	 19.398215073553 	
C	  5.551948681490 	  8.577169853607 	  9.267655523553 	
C	  4.983404551490 	  8.577172663607 	 19.398212243553 	
C	 20.232807081490 	  2.393617323607 	  9.295788283553 	
C	 19.664262951490 	  2.393620133607 	 19.426345003553 	
C	 20.232775981490 	  8.577179083607 	  9.295785453553 	
C	 19.664231851490 	  8.577181893607 	 19.426342173553 	
C	  7.898924175489 	  5.452567440439 	  6.682843515727 	
C	  7.330380045489 	  5.452570250439 	 16.813400235727 	
C	  7.898893075489 	 11.636129200439 	  6.682840685727 	
C	  7.330348945489 	 11.636132010439 	 16.813397405727 	
C	 22.579751475489 	  5.452576670439 	  6.710973445727 	
C	 22.011207345489 	  5.452579480439 	 16.841530165727 	
C	 22.579720375489 	 11.636138430439 	  6.710970615727 	
C	 22.011176245489 	 11.636141240439 	 16.841527335727 	
C	  8.126411271452 	  3.720810340640 	  1.402205485853 	
C	  7.557867141452 	  3.720813150640 	 11.532762205853 	
C	  8.126380171452 	  9.904372100640 	  1.402202655853 	
C	  7.557836041452 	  9.904374910640 	 11.532759375853 	
C	 22.807238571452 	  3.720819570640 	  1.430335415853 	
C	 22.238694441452 	  3.720822380640 	 11.560892135853 	
C	 22.807207471452 	  9.904381330640 	  1.430332585853 	
C	 22.238663341452 	  9.904384140640 	 11.560889305853 	
C	  5.779467786568 	  0.661851136151 	  3.987020273227 	
C	  5.210923656568 	  0.661853946151 	 14.117576993227 	
C	  5.779436686568 	  6.845412896151 	  3.987017443227 	
C	  5.210892556568 	  6.845415706151 	 14.117574163227 	
C	 20.460295086568 	  0.661860366151 	  4.015150203227 	
C	 19.891750956568 	  0.661863176151 	 14.145706923227 	
C	 20.460263986568 	  6.845422126151 	  4.015147373227 	
C	 19.891719856568 	  6.845424936151 	 14.145704093227 	
C	  4.713184183286 	  3.491784697686 	  9.294309335427 	
C	  4.144640053286 	  3.491787507686 	 19.424866055427 	
C	  4.713153083286 	  9.675346457686 	  9.294306505427 	
C	  4.144608953286 	  9.675349267686 	 19.424863225427 	
C	 19.394011483286 	  3.491793927686 	  9.322439265427 	
C	 18.825467353286 	  3.491796737686 	 19.452995985427 	
C	 19.393980383286 	  9.675355687686 	  9.322436435427 	
C	 18.825436253286 	  9.675358497686 	 19.452993155427 	
C	  8.725306371554 	  0.431980845234 	  6.657278174594 	
C	  8.156762241554 	  0.431983655234 	 16.787834894594 	
C	  8.725275271554 	  6.615542605234 	  6.657275344594 	
C	  8.156731141554 	  6.615545415234 	 16.787832064594 	
C	 23.406133671554 	  0.431990075234 	  6.685408104594 	
C	 22.837589541554 	  0.431992885234 	 16.815964824594 	
C	 23.406102571554 	  6.615551835234 	  6.685405274594 	
C	 22.837558441554 	  6.615554645234 	 16.815961994594 	
C	  8.965206857314 	  2.622633693504 	  1.375554528555 	
C	  8.396662727314 	  2.622636503504 	 11.506111248555 	
C	  8.965175757314 	  8.806195453504 	  1.375551698555 	
C	  8.396631627314 	  8.806198263504 	 11.506108418555 	
C	 23.646034157314 	  2.622642923504 	  1.403684458555 	
C	 23.077490027314 	  2.622645733504 	 11.534241178555 	
C	 23.646003057314 	  8.806204683504 	  1.403681628555 	
C	 23.077458927314 	  8.806207493504 	 11.534238348555 	
C	  4.953085684075 	  5.682437728539 	  4.012585796372 	
C	  4.384541554075 	  5.682440538539 	 14.143142516372 	
C	  4.953054584075 	 11.865999488539 	  4.012582966372 	
C	  4.384510454075 	 11.866002298539 	 14.143139686372 	
C	 19.633912984075 	  5.682446958539 	  4.040715726372 	
C	 19.065368854075 	  5.682449768539 	 14.171272446372 	
C	 19.633881884075 	 11.866008718539 	  4.040712896372 	
C	 19.065337754075 	 11.866011528539 	 14.171269616372 	
C	  3.667876936459 	  3.611906518671 	  8.506364635241 	
C	  3.099332806459 	  3.611909328671 	 18.636921355241 	
C	  3.667845836459 	  9.795468278671 	  8.506361805241 	
C	  3.099301706459 	  9.795471088671 	 18.636918525241 	
C	 18.348704236459 	  3.611915748671 	  8.534494565241 	
C	 17.780160106459 	  3.611918558671 	 18.665051285241 	
C	 18.348673136459 	  9.795477508671 	  8.534491735241 	
C	 17.780129006459 	  9.795480318671 	 18.665048455241 	
C	  9.776376622682 	  0.557568145450 	  7.446004537606 	
C	  9.207832492682 	  0.557570955450 	 17.576561257606 	
C	  9.776345522682 	  6.741129905450 	  7.446001707606 	
C	  9.207801392682 	  6.741132715450 	 17.576558427606 	
C	 24.457203922682 	  0.557577375450 	  7.474134467606 	
C	 23.888659792682 	  0.557580185450 	 17.604691187606 	
C	 24.457172822682 	  6.741139135450 	  7.474131637606 	
C	 23.888628692682 	  6.741141945450 	 17.604688357606 	
C	 10.010514117098 	  2.502512040197 	  2.163499444040 	
C	  9.441969987098 	  2.502514850197 	 12.294056164040 	
C	 10.010483017098 	  8.686073800197 	  2.163496614040 	
C	  9.441938887098 	  8.686076610197 	 12.294053334040 	
C	 24.691341417098 	  2.502521270197 	  2.191629374040 	
C	 24.122797287098 	  2.502524080197 	 12.322186094040 	
C	 24.691310317098 	  8.686083030197 	  2.191626544040 	
C	 24.122766187098 	  8.686085840197 	 12.322183264040 	
C	  3.902015009505 	  5.556850499986 	  3.223859849261 	
C	  3.333470879505 	  5.556853309986 	 13.354416569261 	
C	  3.901983909505 	 11.740412259986 	  3.223857019261 	
C	  3.333439779505 	 11.740415069986 	 13.354413739261 	
C	 18.582842309505 	  5.556859729986 	  3.251989779261 	
C	 18.014298179505 	  5.556862539986 	 13.382546499261 	
C	 18.582811209505 	 11.740421489986 	  3.251986949261 	
C	 18.014267079505 	 11.740424299986 	 13.382543669261 	
H	  3.014718765383 	  4.565386262196 	  8.582149690978 	
H	  2.446174635383 	  4.565389072196 	 18.712706410978 	
H	  3.014687665383 	 10.748948022196 	  8.582146860978 	
H	  2.446143535383 	 10.748950832196 	 18.712703580978 	
H	 17.695546065383 	  4.565395492196 	  8.610279620978 	
H	 17.127001935383 	  4.565398302196 	 18.740836340978 	
H	 17.695514965383 	 10.748957252196 	  8.610276790978 	
H	 17.126970835383 	 10.748960062196 	 18.740833510978 	
H	 10.430207168884 	  1.507254268826 	  7.369403861340 	
H	  9.861663038884 	  1.507257078826 	 17.499960581340 	
H	 10.430176068884 	  7.690816028826 	  7.369401031340 	
H	  9.861631938884 	  7.690818838826 	 17.499957751340 	
H	 25.111034468884 	  1.507263498826 	  7.397533791340 	
H	 24.542490338884 	  1.507266308826 	 17.528090511340 	
H	 25.111003368884 	  7.690825258826 	  7.397530961340 	
H	 24.542459238884 	  7.690828068826 	 17.528087681340 	
H	 10.663672196981 	  1.549032187086 	  2.087714561467 	
H	 10.095128066981 	  1.549034997086 	 12.218271281467 	
H	 10.663641096981 	  7.732593947086 	  2.087711731467 	
H	 10.095096966981 	  7.732596757086 	 12.218268451467 	
H	 25.344499496981 	  1.549041417086 	  2.115844491467 	
H	 24.775955366981 	  1.549044227086 	 12.246401211467 	
H	 25.344468396981 	  7.732603177086 	  2.115841661467 	
H	 24.775924266981 	  7.732605987086 	 12.246398381467 	
H	  3.248184593186 	  4.607164304346 	  3.300460704831 	
H	  2.679640463186 	  4.607167114346 	 13.431017424831 	
H	  3.248153493186 	 10.790726064346 	  3.300457874831 	
H	  2.679609363186 	 10.790728874346 	 13.431014594831 	
H	 17.929011893186 	  4.607173534346 	  3.328590634831 	
H	 17.360467763186 	  4.607176344346 	 13.459147354831 	
H	 17.928980793186 	 10.790735294346 	  3.328587804831 	
H	 17.360436663186 	 10.790738104346 	 13.459144524831 	
C	  3.336554381430 	  2.676495527589 	  7.616652128712 	
C	  2.768010251430 	  2.676498337589 	 17.747208848712 	
C	  3.336523281430 	  8.860057287589 	  7.616649298712 	
C	  2.767979151430 	  8.860060097589 	 17.747206018712 	
C	 18.017381681430 	  2.676504757589 	  7.644782058712 	
C	 17.448837551430 	  2.676507567589 	 17.775338778712 	
C	 18.017350581430 	  8.860066517589 	  7.644779228712 	
C	 17.448806451430 	  8.860069327589 	 17.775335948712 	
C	 10.108822008759 	  5.730242833990 	  8.332774478003 	
C	  9.540277878759 	  5.730245643990 	 18.463331198003 	
C	 10.108790908759 	 11.913804593990 	  8.332771648003 	
C	  9.540246778759 	 11.913807403990 	 18.463328368003 	
C	 24.789649308759 	  5.730252063990 	  8.360904408003 	
C	 24.221105178759 	  5.730254873990 	 18.491461128003 	
C	 24.789618208759 	 11.913813823990 	  8.360901578003 	
C	 24.221074078759 	 11.913816633990 	 18.491458298003 	
C	 10.341836537765 	  3.437923114311 	  3.053211681688 	
C	  9.773292407765 	  3.437925924311 	 13.183768401688 	
C	 10.341805437765 	  9.621484874311 	  3.053208851688 	
C	  9.773261307765 	  9.621487684311 	 13.183765571688 	
C	 25.022663837765 	  3.437932344311 	  3.081341611688 	
C	 24.454119707765 	  3.437935154311 	 13.211898331688 	
C	 25.022632737765 	  9.621494104311 	  3.081338781688 	
C	 24.454088607765 	  9.621496914311 	 13.211895501688 	
C	  3.569569280197 	  0.384175890366 	  2.337090125990 	
C	  3.001025150197 	  0.384178700366 	 12.467646845990 	
C	  3.569538180197 	  6.567737650366 	  2.337087295990 	
C	  3.000994050197 	  6.567740460366 	 12.467644015990 	
C	 18.250396580197 	  0.384185120366 	  2.365220055990 	
C	 17.681852450197 	  0.384187930366 	 12.495776775990 	
C	 18.250365480197 	  6.567746880366 	  2.365217225990 	
C	 17.681821350197 	  6.567749690366 	 12.495773945990 	
C	  4.177129443315 	  1.598246594959 	  7.567756948448 	
C	  3.608585313315 	  1.598249404959 	 17.698313668448 	
C	  4.177098343315 	  7.781808354959 	  7.567754118448 	
C	  3.608554213315 	  7.781811164959 	 17.698310838448 	
C	 18.857956743315 	  1.598255824959 	  7.595886878448 	
C	 18.289412613315 	  1.598258634959 	 17.726443598448 	
C	 18.857925643315 	  7.781817584959 	  7.595884048448 	
C	 18.289381513315 	  7.781820394959 	 17.726440768448 	
C	  9.268145529096 	  4.656389279057 	  8.382595345500 	
C	  8.699601399096 	  4.656392089057 	 18.513152065500 	
C	  9.268114429096 	 10.839951039057 	  8.382592515500 	
C	  8.699570299096 	 10.839953849057 	 18.513149235500 	
C	 23.948972829096 	  4.656398509057 	  8.410725275500 	
C	 23.380428699096 	  4.656401319057 	 18.541281995500 	
C	 23.948941729096 	 10.839960269057 	  8.410722445500 	
C	 23.380397599096 	 10.839963079057 	 18.541279165500 	
C	  9.501261547171 	  4.516172101934 	  3.102106737327 	
C	  8.932717417171 	  4.516174911934 	 13.232663457327 	
C	  9.501230447171 	 10.699733861934 	  3.102103907327 	
C	  8.932686317171 	 10.699736671934 	 13.232660627327 	
C	 24.182088847171 	  4.516181331934 	  3.130236667327 	
C	 23.613544717171 	  4.516184141934 	 13.260793387327 	
C	 24.182057747171 	 10.699743091934 	  3.130233837327 	
C	 23.613513617171 	 10.699745901934 	 13.260790557327 	
C	  4.410245702530 	  1.458029358831 	  2.287268953501 	
C	  3.841701572530 	  1.458032168831 	 12.417825673501 	
C	  4.410214602530 	  7.641591118831 	  2.287266123501 	
C	  3.841670472530 	  7.641593928831 	 12.417822843501 	
C	 19.091073002530 	  1.458038588831 	  2.315398883501 	
C	 18.522528872530 	  1.458041398831 	 12.445955603501 	
C	 19.091041902530 	  7.641600348831 	  2.315396053501 	
C	 18.522497772530 	  7.641603158831 	 12.445952773501 	
H	  3.945056713415 	  0.776708256920 	  6.788572115979 	
H	  3.376512583415 	  0.776711066920 	 16.919128835979 	
H	  3.945025613415 	  6.960270016920 	  6.788569285979 	
H	  3.376481483415 	  6.960272826920 	 16.919126005979 	
H	 18.625884013415 	  0.776717486920 	  6.816702045979 	
H	 18.057339883415 	  0.776720296920 	 16.947258765979 	
H	 18.625852913415 	  6.960279246920 	  6.816699215979 	
H	 18.057308783415 	  6.960282056920 	 16.947255935979 	
H	  9.500138163533 	  3.834578084015 	  9.162796000223 	
H	  8.931594033533 	  3.834580894015 	 19.293352720223 	
H	  9.500107063533 	 10.018139844015 	  9.162793170223 	
H	  8.931562933533 	 10.018142654015 	 19.293349890223 	
H	 24.180965463533 	  3.834587314015 	  9.190925930223 	
H	 23.612421333533 	  3.834590124015 	 19.321482650223 	
H	 24.180934363533 	 10.018149074015 	  9.190923100223 	
H	 23.612390233533 	 10.018151884015 	 19.321479820223 	
H	  9.733334400368 	  5.337710601031 	  3.881291380517 	
H	  9.164790270368 	  5.337713411031 	 14.011848100517 	
H	  9.733303300368 	 11.521272361031 	  3.881288550517 	
H	  9.164759170368 	 11.521275171031 	 14.011845270517 	
H	 24.414161700368 	  5.337719831031 	  3.909421310517 	
H	 23.845617570368 	  5.337722641031 	 14.039978030517 	
H	 24.414130600368 	 11.521281591031 	  3.909418480517 	
H	 23.845586470368 	 11.521284401031 	 14.039975200517 	
H	  4.178252740296 	  2.279840686768 	  1.507068516857 	
H	  3.609708610296 	  2.279843496768 	 11.637625236857 	
H	  4.178221640296 	  8.463402446768 	  1.507065686857 	
H	  3.609677510296 	  8.463405256768 	 11.637622406857 	
H	 18.859080040296 	  2.279849916768 	  1.535198446857 	
H	 18.290535910296 	  2.279852726768 	 11.665755166857 	
H	 18.859048940296 	  8.463411676768 	  1.535195616857 	
H	 18.290504810296 	  8.463414486768 	 11.665752336857 	
C	  5.202148305339 	  1.458544893647 	  8.323693781198 	
C	  4.633604175339 	  1.458547703647 	 18.454250501198 	
C	  5.202117205339 	  7.642106653647 	  8.323690951198 	
C	  4.633573075339 	  7.642109463647 	 18.454247671198 	
C	 19.882975605339 	  1.458554123647 	  8.351823711198 	
C	 19.314431475339 	  1.458556933647 	 18.482380431198 	
C	 19.882944505339 	  7.642115883647 	  8.351820881198 	
C	 19.314400375339 	  7.642118693647 	 18.482377601198 	
C	  8.242905233448 	  4.516585104156 	  7.626497048610 	
C	  7.674361103448 	  4.516587914156 	 17.757053768610 	
C	  8.242874133448 	 10.700146864156 	  7.626494218610 	
C	  7.674330003448 	 10.700149674156 	 17.757050938610 	
C	 22.923732533448 	  4.516594334156 	  7.654626978610 	
C	 22.355188403448 	  4.516597144156 	 17.785183698610 	
C	 22.923701433448 	 10.700156094156 	  7.654624148610 	
C	 22.355157303448 	 10.700158904156 	 17.785180868610 	
C	  8.476242721850 	  4.655873695183 	  2.346169869169 	
C	  7.907698591850 	  4.655876505183 	 12.476726589169 	
C	  8.476211621850 	 10.839435455183 	  2.346167039169 	
C	  7.907667491850 	 10.839438265183 	 12.476723759169 	
C	 23.157070021850 	  4.655882925183 	  2.374299799169 	
C	 22.588525891850 	  4.655885735183 	 12.504856519169 	
C	 23.157038921850 	 10.839444685183 	  2.374296969169 	
C	 22.588494791850 	 10.839447495183 	 12.504853689169 	
C	  5.435486338771 	  1.597833525155 	  3.043366905554 	
C	  4.866942208771 	  1.597836335155 	 13.173923625554 	
C	  5.435455238771 	  7.781395285155 	  3.043364075554 	
C	  4.866911108771 	  7.781398095155 	 13.173920795554 	
C	 20.116313638771 	  1.597842755155 	  3.071496835554 	
C	 19.547769508771 	  1.597845565155 	 13.202053555554 	
C	 20.116282538771 	  7.781404515155 	  3.071494005554 	
C	 19.547738408771 	  7.781407325155 	 13.202050725554 	
H	  5.878885664588 	  0.524955479766 	  8.233785872500 	
H	  5.310341534588 	  0.524958289766 	 18.364342592500 	
H	  5.878854564588 	  6.708517239766 	  8.233783042500 	
H	  5.310310434588 	  6.708520049766 	 18.364339762500 	
H	 20.559712964588 	  0.524964709766 	  8.261915802500 	
H	 19.991168834588 	  0.524967519766 	 18.392472522500 	
H	 20.559681864588 	  6.708526469766 	  8.261912972500 	
H	 19.991137734588 	  6.708529279766 	 18.392469692500 	
H	  7.565928761908 	  3.582373087361 	  7.716954049115 	
H	  6.997384631908 	  3.582375897361 	 17.847510769115 	
H	  7.565897661908 	  9.765934847361 	  7.716951219115 	
H	  6.997353531908 	  9.765937657361 	 17.847507939115 	
H	 22.246756061908 	  3.582382317361 	  7.745083979115 	
H	 21.678211931908 	  3.582385127361 	 17.875640699115 	
H	 22.246724961908 	  9.765944077361 	  7.745081149115 	
H	 21.678180831908 	  9.765946887361 	 17.875637869115 	
H	  7.799505351817 	  5.589463116417 	  2.436077555884 	
H	  7.230961221817 	  5.589465926417 	 12.566634275884 	
H	  7.799474251817 	 11.773024876417 	  2.436074725884 	
H	  7.230930121817 	 11.773027686417 	 12.566631445884 	
H	 22.480332651817 	  5.589472346417 	  2.464207485884 	
H	 21.911788521817 	  5.589475156417 	 12.594764205884 	
H	 22.480301551817 	 11.773034106417 	  2.464204655884 	
H	 21.911757421817 	 11.773036916417 	 12.594761375884 	
H	  6.112462787523 	  2.532045524989 	  2.952909730011 	
H	  5.543918657523 	  2.532048334989 	 13.083466450011 	
H	  6.112431687523 	  8.715607284989 	  2.952906900011 	
H	  5.543887557523 	  8.715610094989 	 13.083463620011 	
H	 20.793290087523 	  2.532054754989 	  2.981039660011 	
H	 20.224745957523 	  2.532057564989 	 13.111596380011 	
H	 20.793258987523 	  8.715616514989 	  2.981036830011 	
H	 20.224714857523 	  8.715619324989 	 13.111593550011 	
C	  1.982329605581 	  2.798728636203 	  6.658302446410 	
C	  1.413785475581 	  2.798731446203 	 16.788859166410 	
C	  1.982298505581 	  8.982290396203 	  6.658299616410 	
C	  1.413754375581 	  8.982293206203 	 16.788856336410 	
C	 16.663156905581 	  2.798737866203 	  6.686432376410 	
C	 16.094612775581 	  2.798740676203 	 16.816989096410 	
C	 16.663125805581 	  8.982299626203 	  6.686429546410 	
C	 16.094581675581 	  8.982302436203 	 16.816986266410 	
C	 11.419877096706 	  5.778276077871 	  9.284207050506 	
C	 10.851332966706 	  5.778278887871 	 19.414763770506 	
C	 11.419845996706 	 11.961837837871 	  9.284204220506 	
C	 10.851301866706 	 11.961840647871 	 19.414760940506 	
C	 26.100704396706 	  5.778285307871 	  9.312336980506 	
C	 25.532160266706 	  5.778288117871 	 19.442893700506 	
C	 26.100673296706 	 11.961847067871 	  9.312334150506 	
C	 25.532129166706 	 11.961849877871 	 19.442890870506 	
C	 11.696061254816 	  3.315690373203 	  4.011561629597 	
C	 11.127517124816 	  3.315693183203 	 14.142118349597 	
C	 11.696030154816 	  9.499252133203 	  4.011558799597 	
C	 11.127486024816 	  9.499254943203 	 14.142115519597 	
C	 26.376888554816 	  3.315699603203 	  4.039691559597 	
C	 25.808344424816 	  3.315702413203 	 14.170248279597 	
C	 26.376857454816 	  9.499261363203 	  4.039688729597 	
C	 25.808313324816 	  9.499264173203 	 14.170245449597 	
C	  2.258513707850 	  0.336142568741 	  1.385657986874 	
C	  1.689969577850 	  0.336145378741 	 11.516214706874 	
C	  2.258482607850 	  6.519704328741 	  1.385655156874 	
C	  1.689938477850 	  6.519707138741 	 11.516211876874 	
C	 16.939341007850 	  0.336151798741 	  1.413787916874 	
C	 16.370796877850 	  0.336154608741 	 11.544344636874 	
C	 16.939309907850 	  6.519713558741 	  1.413785086874 	
C	 16.370765777850 	  6.519716368741 	 11.544341806874 	
C	  2.169842186412 	  2.542328809559 	  5.555458221498 	
C	  1.601298056412 	  2.542331619559 	 15.686014941498 	
C	  2.169811086412 	  8.725890569559 	  5.555455391498 	
C	  1.601266956412 	  8.725893379559 	 15.686012111498 	
C	 16.850669486412 	  2.542338039559 	  5.583588151498 	
C	 16.282125356412 	  2.542340849559 	 15.714144871498 	
C	 16.850638386412 	  8.725899799559 	  5.583585321498 	
C	 16.282094256412 	  8.725902609559 	 15.714142041498 	
C	 11.276372124019 	 -0.427561970773 	 10.316290528988 	
C	 10.707827994019 	 -0.427559160773 	 20.446847248988 	
C	 11.276341024019 	  5.755999789227 	 10.316287698988 	
C	 10.707796894019 	  5.756002599227 	 20.446844418988 	
C	 25.957199424019 	 -0.427552740773 	 10.344420458988 	
C	 25.388655294019 	 -0.427549930773 	 20.474977178988 	
C	 25.957168324019 	  5.756009019227 	 10.344417628988 	
C	 25.388624194019 	  5.756011829227 	 20.474974348988 	
C	 11.508547444674 	  3.572089497378 	  5.114406602626 	
C	 10.940003314674 	  3.572092307378 	 15.244963322626 	
C	 11.508516344674 	  9.755651257378 	  5.114403772626 	
C	 10.939972214674 	  9.755654067378 	 15.244960492626 	
C	 26.189374744674 	  3.572098727378 	  5.142536532626 	
C	 25.620830614674 	  3.572101537378 	 15.273093252626 	
C	 26.189343644674 	  9.755660487378 	  5.142533702626 	
C	 25.620799514674 	  9.755663297378 	 15.273090422626 	
C	  2.402018411750 	  6.541980795158 	  0.353574474490 	
C	  1.833474281750 	  6.541983605158 	 10.484131194490 	
C	  2.401987311750 	 12.725542555158 	  0.353571644490 	
C	  1.833443181750 	 12.725545365158 	 10.484128364490 	
C	 17.082845711750 	  6.541990025158 	  0.381704404490 	
C	 16.514301581750 	  6.541992835158 	 10.512261124490 	
C	 17.082814611750 	 12.725551785158 	  0.381701574490 	
C	 16.514270481750 	 12.725554595158 	 10.512258294490 	
H	  3.064125518590 	  2.992618155328 	  5.018123085042 	
H	  2.495581388590 	  2.992620965328 	 15.148679805042 	
H	  3.064094418590 	  9.176179915328 	  5.018120255042 	
H	  2.495550288590 	  9.176182725328 	 15.148676975042 	
H	 17.744952818590 	  2.992627385328 	  5.046253015042 	
H	 17.176408688590 	  2.992630195328 	 15.176809735042 	
H	 17.744921718590 	  9.176189145328 	  5.046250185042 	
H	 17.176377588590 	  9.176191955328 	 15.176806905042 	
H	 10.392672205578 	 -0.074924716373 	 10.926910151911 	
H	  9.824128075578 	 -0.074921906373 	 21.057466871911 	
H	 10.392641105578 	  6.108637043627 	 10.926907321911 	
H	  9.824096975578 	  6.108639853627 	 21.057464041911 	
H	 25.073499505578 	 -0.074915486373 	 10.955040081911 	
H	 24.504955375578 	 -0.074912676373 	 21.085596801911 	
H	 25.073468405578 	  6.108646273627 	 10.955037251911 	
H	 24.504924275578 	  6.108649083627 	 21.085593971911 	
H	 10.614264653167 	  3.121797413628 	  5.651741065138 	
H	 10.045720523167 	  3.121800223628 	 15.782297785138 	
H	 10.614233553167 	  9.305359173628 	  5.651738235138 	
H	 10.045689423167 	  9.305361983628 	 15.782294955138 	
H	 25.295091953167 	  3.121806643628 	  5.679870995138 	
H	 24.726547823167 	  3.121809453628 	 15.810427715138 	
H	 25.295060853167 	  9.305368403628 	  5.679868165138 	
H	 24.726516723167 	  9.305371213628 	 15.810424885138 	
H	  3.285718093040 	  6.189343677351 	 -0.257045506817 	
H	  2.717173963040 	  6.189346487351 	  9.873511213183 	
H	  3.285686993040 	 12.372905437351 	 -0.257048336817 	
H	  2.717142863040 	 12.372908247351 	  9.873508383183 	
H	 17.966545393040 	  6.189352907351 	 -0.228915576817 	
H	 17.398001263040 	  6.189355717351 	  9.901641143183 	
H	 17.966514293040 	 12.372914667351 	 -0.228918406817 	
H	 17.397970163040 	 12.372917477351 	  9.901638313183 	
H	  1.403638817288 	  2.635424482677 	  4.719745821208 	
H	  0.835094687288 	  2.635427292677 	 14.850302541208 	
H	  1.403607717288 	  8.818986242677 	  4.719742991208 	
H	  0.835063587288 	  8.818989052677 	 14.850299711208 	
H	 16.084466117288 	  2.635433712677 	  4.747875751208 	
H	 15.515921987288 	  2.635436522677 	 14.878432471208 	
H	 16.084435017288 	  8.818995472677 	  4.747872921208 	
H	 15.515890887288 	  8.818998282677 	 14.878429641208 	
H	 12.550528711720 	 -0.417742537736 	  0.718397578600 	
H	 11.981984581720 	 -0.417739727736 	 10.848954298600 	
H	 12.550497611720 	  5.765819222264 	  0.718394748600 	
H	 11.981953481720 	  5.765822032264 	 10.848951468600 	
H	 27.231356011720 	 -0.417733307736 	  0.746527508600 	
H	 26.662811881720 	 -0.417730497736 	 10.877084228600 	
H	 27.231324911720 	  5.765828452264 	  0.746524678600 	
H	 26.662780781720 	  5.765831262264 	 10.877081398600 	
H	 12.274751154995 	  3.478994078391 	  5.950118812501 	
H	 11.706207024995 	  3.478996888391 	 16.080675532501 	
H	 12.274720054995 	  9.662555838391 	  5.950115982501 	
H	 11.706175924995 	  9.662558648391 	 16.080672702501 	
H	 26.955578454995 	  3.479003308391 	  5.978248742501 	
H	 26.387034324995 	  3.479006118391 	 16.108805462501 	
H	 26.955547354995 	  9.662565068391 	  5.978245912501 	
H	 26.387003224995 	  9.662567878391 	 16.108802632501 	
H	  1.127861453755 	  6.532161472765 	  9.951467768035 	
H	  0.559317323755 	  6.532164282765 	 20.082024488035 	
H	  1.127830353755 	 12.715723232765 	  9.951464938035 	
H	  0.559286223755 	 12.715726042765 	 20.082021658035 	
H	 15.808688753755 	  6.532170702765 	  9.979597698035 	
H	 15.240144623755 	  6.532173512765 	 20.110154418035 	
H	 15.808657653755 	 12.715732462765 	  9.979594868035 	
H	 15.240113523755 	 12.715735272765 	 20.110151588035 	
H	  2.569033811355 	  1.518653740713 	  5.267327116637 	
H	  2.000489681355 	  1.518656550713 	 15.397883836637 	
H	  2.569002711355 	  7.702215500713 	  5.267324286637 	
H	  2.000458581355 	  7.702218310713 	 15.397881006637 	
H	 17.249861111355 	  1.518662970713 	  5.295457046637 	
H	 16.681316981355 	  1.518665780713 	 15.426013766637 	
H	 17.249830011355 	  7.702224730713 	  5.295454216637 	
H	 16.681285881355 	  7.702227540713 	 15.426010936637 	
H	 11.286674558356 	  4.495395419970 	  0.163915765146 	
H	 10.718130428356 	  4.495398229970 	 10.294472485146 	
H	 11.286643458356 	 10.678957179970 	  0.163912935146 	
H	 10.718099328356 	 10.678959989970 	 10.294469655146 	
H	 25.967501858356 	  4.495404649970 	  0.192045695146 	
H	 25.398957728356 	  4.495407459970 	 10.322602415146 	
H	 25.967470758356 	 10.678966409970 	  0.192042865146 	
H	 25.398926628356 	 10.678969219970 	 10.322599585146 	
H	 11.109354595872 	  4.595764477072 	  5.402537930384 	
H	 10.540810465872 	  4.595767287072 	 15.533094650384 	
H	 11.109323495872 	 10.779326237072 	  5.402535100384 	
H	 10.540779365872 	 10.779329047072 	 15.533091820384 	
H	 25.790181895872 	  4.595773707072 	  5.430667860384 	
H	 25.221637765872 	  4.595776517072 	 15.561224580384 	
H	 25.790150795872 	 10.779335467072 	  5.430665030384 	
H	 25.221606665872 	 10.779338277072 	 15.561221750384 	
H	  2.391715916176 	  1.619023524284 	 10.505949506279 	
H	  1.823171786176 	  1.619026334284 	 20.636506226279 	
H	  2.391684816176 	  7.802585284284 	 10.505946676279 	
H	  1.823140686176 	  7.802588094284 	 20.636503396279 	
H	 17.072543216176 	  1.619032754284 	 10.534079436279 	
H	 16.503999086176 	  1.619035564284 	 20.664636156279 	
H	 17.072512116176 	  7.802594514284 	 10.534076606279 	
H	 16.503967986176 	  7.802597324284 	 20.664633326279 	
C	  1.549837832017 	  3.865199657289 	  6.663732037689 	
C	  0.981293702017 	  3.865202467289 	 16.794288757689 	
C	  1.549806732017 	 10.048761417289 	  6.663729207689 	
C	  0.981262602017 	 10.048764227289 	 16.794285927689 	
C	 16.230665132017 	  3.865208887289 	  6.691861967689 	
C	 15.662121002017 	  3.865211697289 	 16.822418687689 	
C	 16.230634032017 	 10.048770647289 	  6.691859137689 	
C	 15.662089902017 	 10.048773457289 	 16.822415857689 	
C	 11.950191741362 	  0.902894158176 	  9.285270146830 	
C	 11.381647611362 	  0.902896968176 	 19.415826866830 	
C	 11.950160641362 	  7.086455918176 	  9.285267316830 	
C	 11.381616511362 	  7.086458728176 	 19.415824036830 	
C	 26.631019041362 	  0.902903388176 	  9.313400076830 	
C	 26.062474911362 	  0.902906198176 	 19.443956796830 	
C	 26.630987941362 	  7.086465148176 	  9.313397246830 	
C	 26.062443811362 	  7.086467958176 	 19.443953966830 	
C	 12.128553844112 	  2.249218980129 	  4.006130959108 	
C	 11.560009714112 	  2.249221790129 	 14.136687679108 	
C	 12.128522744112 	  8.432780740129 	  4.006128129108 	
C	 11.559978614112 	  8.432783550129 	 14.136684849108 	
C	 26.809381144112 	  2.249228210129 	  4.034260889108 	
C	 26.240837014112 	  2.249231020129 	 14.164817609108 	
C	 26.809350044112 	  8.432789970129 	  4.034258059108 	
C	 26.240805914112 	  8.432792780129 	 14.164814779108 	
C	  1.728199101269 	  5.211524455134 	  1.384594837725 	
C	  1.159654971269 	  5.211527265134 	 11.515151557725 	
C	  1.728168001269 	 11.395086215134 	  1.384592007725 	
C	  1.159623871269 	 11.395089025134 	 11.515148727725 	
C	 16.409026401269 	  5.211533685134 	  1.412724767725 	
C	 15.840482271269 	  5.211536495134 	 11.543281487725 	
C	 16.408995301269 	 11.395095445134 	  1.412721937725 	
C	 15.840451171269 	 11.395098255134 	 11.543278657725 	
H	  2.225604671762 	  4.758882281260 	  6.421500826376 	
H	  1.657060541762 	  4.758885091260 	 16.552057546376 	
H	  2.225573571762 	 10.942444041260 	  6.421497996376 	
H	  1.657029441762 	 10.942446851260 	 16.552054716376 	
H	 16.906431971762 	  4.758891511260 	  6.449630756376 	
H	 16.337887841762 	  4.758894321260 	 16.580187476376 	
H	 16.906400871762 	 10.942453271260 	  6.449627926376 	
H	 16.337856741762 	 10.942456081260 	 16.580184646376 	
H	 11.210354487870 	  1.712957129514 	  9.531729448361 	
H	 10.641810357870 	  1.712959939514 	 19.662286168361 	
H	 11.210323387870 	  7.896518889514 	  9.531726618361 	
H	 10.641779257870 	  7.896521699514 	 19.662283338361 	
H	 25.891181787870 	  1.712966359514 	  9.559859378361 	
H	 25.322637657870 	  1.712969169514 	 19.690416098361 	
H	 25.891150687870 	  7.896528119514 	  9.559856548361 	
H	 25.322606557870 	  7.896530929514 	 19.690413268361 	
H	 11.452787375467 	  1.355535615164 	  4.248361450792 	
H	 10.884243245467 	  1.355538425164 	 14.378918170792 	
H	 11.452756275467 	  7.539097375164 	  4.248358620792 	
H	 10.884212145467 	  7.539100185164 	 14.378915340792 	
H	 26.133614675467 	  1.355544845164 	  4.276491380792 	
H	 25.565070545467 	  1.355547655164 	 14.407048100792 	
H	 26.133583575467 	  7.539106605164 	  4.276488550792 	
H	 25.565039445467 	  7.539109415164 	 14.407045270792 	
H	  2.468036332225 	  4.401461585924 	  1.138135047549 	
H	  1.899492202225 	  4.401464395924 	 11.268691767549 	
H	  2.468005232225 	 10.585023345924 	  1.138132217549 	
H	  1.899461102225 	 10.585026155924 	 11.268688937549 	
H	 17.148863632225 	  4.401470815924 	  1.166264977549 	
H	 16.580319502225 	  4.401473625924 	 11.296821697549 	
H	 17.148832532225 	 10.585032575924 	  1.166262147549 	
H	 16.580288402225 	 10.585035385924 	 11.296818867549 	
H	  1.257981633811 	  4.356122864720 	  7.662560849041 	
H	  0.689437503811 	  4.356125674720 	 17.793117569041 	
H	  1.257950533811 	 10.539684624720 	  7.662558019041 	
H	  0.689406403811 	 10.539687434720 	 17.793114739041 	
H	 15.938808933811 	  4.356132094720 	  7.690690779041 	
H	 15.370264803811 	  4.356134904720 	 17.821247499041 	
H	 15.938777833811 	 10.539693854720 	  7.690687949041 	
H	 15.370233703811 	 10.539696664720 	 17.821244669041 	
H	 12.186996453780 	  7.388840859513 	  8.288587732607 	
H	 11.618452323780 	  7.388843669513 	 18.419144452607 	
H	 12.186965353780 	 13.572402619513 	  8.288584902607 	
H	 11.618421223780 	 13.572405429513 	 18.419141622607 	
H	 26.867823753780 	  7.388850089513 	  8.316717662607 	
H	 26.299279623780 	  7.388852899513 	 18.447274382607 	
H	 26.867792653780 	 13.572411849513 	  8.316714832607 	
H	 26.299248523780 	 13.572414659513 	 18.447271552607 	
H	 12.420411329097 	  1.758297189549 	  3.007301629709 	
H	 11.851867199097 	  1.758299999549 	 13.137858349709 	
H	 12.420380229097 	  7.941858949549 	  3.007298799709 	
H	 11.851836099097 	  7.941861759549 	 13.137855519709 	
H	 27.101238629097 	  1.758306419549 	  3.035431559709 	
H	 26.532694499097 	  1.758309229549 	 13.165988279709 	
H	 27.101207529097 	  7.941868179549 	  3.035428729709 	
H	 26.532663399097 	  7.941870989549 	 13.165985449709 	
H	  1.491394882953 	 -1.274422456624 	  2.381277412064 	
H	  0.922850752953 	 -1.274419646624 	 12.511834132064 	
H	  1.491363782953 	  4.909139303376 	  2.381274582064 	
H	  0.922819652953 	  4.909142113376 	 12.511831302064 	
H	 16.172222182953 	 -1.274413226624 	  2.409407342064 	
H	 15.603678052953 	 -1.274410416624 	 12.539964062064 	
H	 16.172191082953 	  4.909148533376 	  2.409404512064 	
H	 15.603646952953 	  4.909151343376 	 12.539961232064 	
H	  0.641342697750 	  4.105024266322 	  6.027019949635 	
H	  0.072798567750 	  4.105027076322 	 16.157576669635 	
H	  0.641311597750 	 10.288586026322 	  6.027017119635 	
H	  0.072767467750 	 10.288588836322 	 16.157573839635 	
H	 15.322169997750 	  4.105033496322 	  6.055149879635 	
H	 14.753625867750 	  4.105036306322 	 16.185706599635 	
H	 15.322138897750 	 10.288595256322 	  6.055147049635 	
H	 14.753594767750 	 10.288598066322 	 16.185703769635 	
H	 12.799216642589 	  7.154791550341 	  9.920421706347 	
H	 12.230672512589 	  7.154794360341 	 20.050978426347 	
H	 12.799185542589 	 13.338353310341 	  9.920418876347 	
H	 12.230641412589 	 13.338356120341 	 20.050975596347 	
H	 27.480043942589 	  7.154800780341 	  9.948551636347 	
H	 26.911499812589 	  7.154803590341 	 20.079108356347 	
H	 27.480012842589 	 13.338362540341 	  9.948548806347 	
H	 26.911468712589 	 13.338365350341 	 20.079105526347 	
H	 13.037048923543 	  2.009394693087 	  4.642843326622 	
H	 12.468504793543 	  2.009397503087 	 14.773400046622 	
H	 13.037017823543 	  8.192956453087 	  4.642840496622 	
H	 12.468473693543 	  8.192959263087 	 14.773397216622 	
H	 27.717876223543 	  2.009403923087 	  4.670973256622 	
H	 27.149332093543 	  2.009406733087 	 14.801529976622 	
H	 27.717845123543 	  8.192965683087 	  4.670970426622 	
H	 27.149300993543 	  8.192968493087 	 14.801527146622 	
H	  0.879173914374 	 -1.040373013240 	  0.749443689046 	
H	  0.310629784374 	 -1.040370203240 	 10.880000409046 	
H	  0.879142814374 	  5.143188746760 	  0.749440859046 	
H	  0.310598684374 	  5.143191556760 	 10.879997579046 	
H	 15.560001214374 	 -1.040363783240 	  0.777573619046 	
H	 14.991457084374 	 -1.040360973240 	 10.908130339046 	
H	 15.559970114374 	  5.143197976760 	  0.777570789046 	
H	 14.991425984374 	  5.143200786760 	 10.908127509046 	
C	  1.150687912811 	  2.094065818927 	  7.025044887406 	
C	  0.582143782811 	  2.094068628927 	 17.155601607406 	
C	  1.150656812811 	  8.277627578927 	  7.025042057406 	
C	  0.582112682811 	  8.277630388927 	 17.155598777406 	
C	 15.831515212811 	  2.094075048927 	  7.053174817406 	
C	 15.262971082811 	  2.094077858927 	 17.183731537406 	
C	 15.831484112811 	  8.277636808927 	  7.053171987406 	
C	 15.262939982811 	  8.277639618927 	 17.183728707406 	
C	 12.294713266936 	  5.151612074846 	  8.926678210021 	
C	 11.726169136936 	  5.151614884846 	 19.057234930021 	
C	 12.294682166936 	 11.335173834846 	  8.926675380021 	
C	 11.726138036936 	 11.335176644846 	 19.057232100021 	
C	 26.975540566936 	  5.151621304846 	  8.954808140021 	
C	 26.406996436936 	  5.151624114846 	 19.085364860021 	
C	 26.975509466936 	 11.335183064846 	  8.954805310021 	
C	 26.406965336936 	 11.335185874846 	 19.085362030021 	
C	 12.527702602537 	  4.020354862628 	  3.644819052219 	
C	 11.959158472537 	  4.020357672628 	 13.775375772219 	
C	 12.527671502537 	 10.203916622628 	  3.644816222219 	
C	 11.959127372537 	 10.203919432628 	 13.775372942219 	
C	 27.208529902537 	  4.020364092628 	  3.672948982219 	
C	 26.639985772537 	  4.020366902628 	 13.803505702219 	
C	 27.208498802537 	 10.203925852628 	  3.672946152219 	
C	 26.639954672537 	 10.203928662628 	 13.803502872219 	
C	  1.383677502317 	  0.962806327913 	  1.743187204665 	
C	  0.815133372317 	  0.962809137913 	 11.873743924665 	
C	  1.383646402317 	  7.146368087913 	  1.743184374665 	
C	  0.815102272317 	  7.146370897913 	 11.873741094665 	
C	 16.064504802317 	  0.962815557913 	  1.771317134665 	
C	 15.495960672317 	  0.962818367913 	 11.901873854665 	
C	 16.064473702317 	  7.146377317913 	  1.771314304665 	
C	 15.495929572317 	  7.146380127913 	 11.901871024665 	
H	  0.121819524018 	  2.015191932461 	  6.549414389693 	
H	 -0.446724605982 	  2.015194742461 	 16.679971109693 	
H	  0.121788424018 	  8.198753692461 	  6.549411559693 	
H	 -0.446755705982 	  8.198756502461 	 16.679968279693 	
H	 14.802646824018 	  2.015201162461 	  6.577544319693 	
H	 14.234102694018 	  2.015203972461 	 16.708101039693 	
H	 14.802615724018 	  8.198762922461 	  6.577541489693 	
H	 14.234071594018 	  8.198765732461 	 16.708098209693 	
H	 13.322531950676 	  5.072540535891 	  9.402221088914 	
H	 12.753987820676 	  5.072543345891 	 19.532777808914 	
H	 13.322500850676 	 11.256102295891 	  9.402218258914 	
H	 12.753956720676 	 11.256105105891 	 19.532774978914 	
H	 28.003359250676 	  5.072549765891 	  9.430351018914 	
H	 27.434815120676 	  5.072552575891 	 19.560907738914 	
H	 28.003328150676 	 11.256111525891 	  9.430348188914 	
H	 27.434784020676 	 11.256114335891 	 19.560904908914 	
H	 13.556570939256 	  4.099228716248 	  4.120449842678 	
H	 12.988026809256 	  4.099231526248 	 14.251006562678 	
H	 13.556539839256 	 10.282790476248 	  4.120447012678 	
H	 12.987995709257 	 10.282793286248 	 14.251003732678 	
H	 28.237398239256 	  4.099237946248 	  4.148579772678 	
H	 27.668854109257 	  4.099240756248 	 14.279136492678 	
H	 28.237367139256 	 10.282799706248 	  4.148576942678 	
H	 27.668823009256 	 10.282802516248 	 14.279133662678 	
H	  0.355858704627 	  1.041877759405 	  1.267644571356 	
H	 -0.212685425373 	  1.041880569405 	 11.398201291356 	
H	  0.355827604627 	  7.225439519405 	  1.267641741356 	
H	 -0.212716525373 	  7.225442329405 	 11.398198461356 	
H	 15.036686004627 	  1.041886989405 	  1.295774501356 	
H	 14.468141874627 	  1.041889799405 	 11.426331221356 	
H	 15.036654904627 	  7.225448749405 	  1.295771671356 	
H	 14.468110774627 	  7.225451559405 	 11.426328391356 	
H	  0.864947690437 	  2.129707458512 	  8.133629443228 	
H	  0.296403560437 	  2.129710268512 	 18.264186163228 	
H	  0.864916590437 	  8.313269218512 	  8.133626613228 	
H	  0.296372460437 	  8.313272028512 	 18.264183333228 	
H	 15.545774990437 	  2.129716688512 	  8.161759373228 	
H	 14.977230860437 	  2.129719498512 	 18.292316093228 	
H	 15.545743890437 	  8.313278448512 	  8.161756543228 	
H	 14.977199760437 	  8.313281258512 	 18.292313263228 	
H	 12.579665104305 	  5.187277559648 	  7.817878068690 	
H	 12.011120974305 	  5.187280369648 	 17.948434788690 	
H	 12.579634004305 	 11.370839319648 	  7.817875238690 	
H	 12.011089874305 	 11.370842129648 	 17.948431958690 	
H	 27.260492404305 	  5.187286789648 	  7.846007998690 	
H	 26.691948274305 	  5.187289599648 	 17.976564718690 	
H	 27.260461304305 	 11.370848549648 	  7.846005168690 	
H	 26.691917174305 	 11.370851359648 	 17.976561888690 	
H	 12.813442900406 	  3.984714130137 	  2.536234172595 	
H	 12.244898770406 	  3.984716940137 	 12.666790892595 	
H	 12.813411800406 	 10.168275890137 	  2.536231342595 	
H	 12.244867670406 	 10.168278700137 	 12.666788062595 	
H	 27.494270200406 	  3.984723360137 	  2.564364102595 	
H	 26.925726070406 	  3.984726170137 	 12.694920822595 	
H	 27.494239100406 	 10.168285120137 	  2.564361272595 	
H	 26.925694970406 	 10.168287930137 	 12.694917992595 	
H	  1.098725830621 	  0.927140526665 	  2.851987314352 	
H	  0.530181700621 	  0.927143336665 	 12.982544034352 	
H	  1.098694730621 	  7.110702286665 	  2.851984484352 	
H	  0.530150600621 	  7.110705096665 	 12.982541204352 	
H	 15.779553130621 	  0.927149756665 	  2.880117244352 	
H	 15.211009000621 	  0.927152566665 	 13.010673964352 	
H	 15.779522030622 	  7.110711516665 	  2.880114414352 	
H	 15.210977900622 	  7.110714326665 	 13.010671134352 	
H	  1.373175435741 	  0.982830015105 	  7.128014471687 	
H	  0.804631305741 	  0.982832825105 	 17.258571191687 	
H	  1.373144335741 	  7.166391775105 	  7.128011641687 	
H	  0.804600205741 	  7.166394585105 	 17.258568361687 	
H	 16.054002735741 	  0.982839245105 	  7.156144401687 	
H	 15.485458605741 	  0.982842055105 	 17.286701121687 	
H	 16.053971635741 	  7.166401005105 	  7.156141571687 	
H	 15.485427505741 	  7.166403815105 	 17.286698291687 	
H	 12.071237960637 	  4.041224442504 	  8.823166118872 	
H	 11.502693830637 	  4.041227252504 	 18.953722838872 	
H	 12.071206860637 	 10.224786202504 	  8.823163288872 	
H	 11.502662730637 	 10.224789012504 	 18.953720008872 	
H	 26.752065260637 	  4.041233672504 	  8.851296048872 	
H	 26.183521130637 	  4.041236482504 	 18.981852768872 	
H	 26.752034160637 	 10.224795432504 	  8.851293218872 	
H	 26.183490030637 	 10.224798242504 	 18.981849938872 	
H	 12.305213940721 	  5.131590975778 	  3.541851553644 	
H	 11.736669810721 	  5.131593785778 	 13.672408273644 	
H	 12.305182840721 	 11.315152735778 	  3.541848723644 	
H	 11.736638710721 	 11.315155545778 	 13.672405443644 	
H	 26.986041240721 	  5.131600205778 	  3.569981483644 	
H	 26.417497110721 	  5.131603015778 	 13.700538203644 	
H	 26.986010140721 	 11.315161965778 	  3.569978653644 	
H	 26.417466010721 	 11.315164775778 	 13.700535373644 	
H	  1.607152674755 	  2.073193953013 	  1.846699812349 	
H	  1.038608544755 	  2.073196763013 	 11.977256532349 	
H	  1.607121574755 	  8.256755713013 	  1.846696982349 	
H	  1.038577444755 	  8.256758523013 	 11.977253702349 	
H	 16.287979974755 	  2.073203183013 	  1.874829742349 	
H	 15.719435844755 	  2.073205993013 	 12.005386462349 	
H	 16.287948874755 	  8.256764943013 	  1.874826912349 	
H	 15.719404744755 	  8.256767753013 	 12.005383632349 	
768 
Energy: -8.9515247278879997e+01 
S	  8.346628468075 	  1.431675024109 	  0.126906758667 	
S	  7.778084338075 	  1.431677834109 	 10.257463478667 	
S	  8.346597368075 	  7.615236784109 	  0.126903928667 	
S	  7.778053238075 	  7.615239594109 	 10.257460648667 	
S	 23.027455768075 	  1.431684254109 	  0.155036688667 	
S	 22.458911638075 	  1.431687064109 	 10.285593408667 	
S	 23.027424668075 	  7.615246014109 	  0.155033858667 	
S	 22.458880538075 	  7.615248824109 	 10.285590578667 	
S	  5.502451681935 	  4.483334782461 	  5.299487765861 	
S	  4.933907551935 	  4.483337592461 	 15.430044485861 	
S	  5.502420581935 	 10.666896542461 	  5.299484935861 	
S	  4.933876451935 	 10.666899352461 	 15.430041655861 	
S	 20.183278981935 	  4.483344012461 	  5.327617695861 	
S	 19.614734851935 	  4.483346822461 	 15.458174415861 	
S	 20.183247881935 	 10.666905772461 	  5.327614865861 	
S	 19.614703751935 	 10.666908582461 	 15.458171585861 	
S	  5.276762564204 	  4.673976643313 	 10.607759037240 	
S	  4.708218434204 	  4.673979453313 	 20.738315757240 	
S	  5.276731464204 	 10.857538403313 	 10.607756207240 	
S	  4.708187334204 	 10.857541213313 	 20.738312927240 	
S	 19.957589864204 	  4.673985873313 	 10.635888967240 	
S	 19.389045734204 	  4.673988683313 	 20.766445687240 	
S	 19.957558764204 	 10.857547633313 	 10.635886137240 	
S	 19.389014634204 	 10.857550443313 	 20.766442857240 	
S	  8.120940694999 	  1.622316913822 	  5.435177644546 	
S	  7.552396564999 	  1.622319723822 	 15.565734364546 	
S	  8.120909594999 	  7.805878673822 	  5.435174814546 	
S	  7.552365464999 	  7.805881483822 	 15.565731534546 	
S	 22.801767994999 	  1.622326143822 	  5.463307574546 	
S	 22.233223864999 	  1.622328953822 	 15.593864294546 	
S	 22.801736894999 	  7.805887903822 	  5.463304744546 	
S	 22.233192764999 	  7.805890713822 	 15.593861464546 	
C	  6.554393597995 	  2.536954777034 	 10.302241579597 	
C	  5.985849467995 	  2.536957587034 	 20.432798299597 	
C	  6.554362497995 	  8.720516537034 	 10.302238749597 	
C	  5.985818367995 	  8.720519347034 	 20.432795469597 	
C	 21.235220897995 	  2.536964007034 	 10.330371509597 	
C	 20.666676767995 	  2.536966817034 	 20.460928229597 	
C	 21.235189797995 	  8.720525767034 	 10.330368679597 	
C	 20.666645667995 	  8.720528577034 	 20.460925399597 	
C	  6.843261178024 	  5.564189639790 	  5.756033070329 	
C	  6.274717048024 	  5.564192449790 	 15.886589790329 	
C	  6.843230078024 	 11.747751399790 	  5.756030240329 	
C	  6.274685948024 	 11.747754209790 	 15.886586960329 	
C	 21.524088478024 	  5.564198869790 	  5.784163000329 	
C	 20.955544348024 	  5.564201679790 	 15.914719720329 	
C	 21.524057378024 	 11.747760629790 	  5.784160170329 	
C	 20.955513248024 	 11.747763439790 	 15.914716890329 	
C	  7.068997439484 	  3.568696882244 	  0.432424041715 	
C	  6.500453309484 	  3.568699692244 	 10.562980761715 	
C	  7.068966339484 	  9.752258642244 	  0.432421211715 	
C	  6.500422209484 	  9.752261452244 	 10.562977931715 	
C	 21.749824739484 	  3.568706112244 	  0.460553971715 	
C	 21.181280609484 	  3.568708922244 	 10.591110691715 	
C	 21.749793639484 	  9.752267872244 	  0.460551141715 	
C	 21.181249509484 	  9.752270682244 	 10.591107861715 	
C	  6.780131041925 	  0.541462111115 	  4.978632171093 	
C	  6.211586911925 	  0.541464921115 	 15.109188891093 	
C	  6.780099941925 	  6.725023871115 	  4.978629341093 	
C	  6.211555811925 	  6.725026681115 	 15.109186061093 	
C	 21.460958341925 	  0.541471341115 	  5.006762101093 	
C	 20.892414211925 	  0.541474151115 	 15.137318821093 	
C	 21.460927241925 	  6.725033101115 	  5.006759271093 	
C	 20.892383111925 	  6.725035911115 	 15.137315991093 	
C	  5.533977663580 	  2.401853962466 	  9.317927039459 	
C	  4.965433533580 	  2.401856772466 	 19.448483759459 	
C	  5.533946563580 	  8.585415722466 	  9.317924209459 	
C	  4.965402433580 	  8.585418532466 	 19.448480929459 	
C	 20.214804963580 	  2.401863192466 	  9.346056969459 	
C	 19.646260833580 	  2.401866002466 	 19.476613689459 	
C	 20.214773863580 	  8.585424952466 	  9.346054139459 	
C	 19.646229733580 	  8.585427762466 	 19.476610859459 	
C	  7.868414032440 	  5.456642972114 	  6.724752069024 	
C	  7.299869902440 	  5.456645782114 	 16.855308789024 	
C	  7.868382932440 	 11.640204732114 	  6.724749239024 	
C	  7.299838802440 	 11.640207542114 	 16.855305959024 	
C	 22.549241332440 	  5.456652202114 	  6.752881999024 	
C	 21.980697202440 	  5.456655012114 	 16.883438719024 	
C	 22.549210232440 	 11.640213962114 	  6.752879169024 	
C	 21.980666102440 	 11.640216772114 	 16.883435889024 	
C	  8.089413335929 	  3.703797774838 	  1.416738548436 	
C	  7.520869205929 	  3.703800584838 	 11.547295268436 	
C	  8.089382235929 	  9.887359534838 	  1.416735718436 	
C	  7.520838105929 	  9.887362344838 	 11.547292438436 	
C	 22.770240635929 	  3.703807004838 	  1.444868478436 	
C	 22.201696505929 	  3.703809814838 	 11.575425198436 	
C	 22.770209535929 	  9.887368764838 	  1.444865648436 	
C	 22.201665405929 	  9.887371574838 	 11.575422368436 	
C	  5.754977955644 	  0.649008818851 	  4.009913422699 	
C	  5.186433825644 	  0.649011628851 	 14.140470142699 	
C	  5.754946855644 	  6.832570578851 	  4.009910592699 	
C	  5.186402725644 	  6.832573388851 	 14.140467312699 	
C	 20.435805255644 	  0.649018048851 	  4.038043352699 	
C	 19.867261125644 	  0.649020858851 	 14.168600072699 	
C	 20.435774155644 	  6.832579808851 	  4.038040522699 	
C	 19.867230025644 	  6.832582618851 	 14.168597242699 	
C	  4.704030068322 	  3.506915408218 	  9.342747533571 	
C	  4.135485938322 	  3.506918218218 	 19.473304253571 	
C	  4.703998968322 	  9.690477168218 	  9.342744703571 	
C	  4.135454838322 	  9.690479978218 	 19.473301423571 	
C	 19.384857368322 	  3.506924638218 	  9.370877463571 	
C	 18.816313238322 	  3.506927448218 	 19.501434183571 	
C	 19.384826268322 	  9.690486398218 	  9.370874633571 	
C	 18.816282138322 	  9.690489208218 	 19.501431353571 	
C	  8.685698716870 	  0.451212377853 	  6.700852157853 	
C	  8.117154586870 	  0.451215187853 	 16.831408877853 	
C	  8.685667616870 	  6.634774137853 	  6.700849327853 	
C	  8.117123486870 	  6.634776947853 	 16.831406047853 	
C	 23.366526016870 	  0.451221607853 	  6.728982087853 	
C	 22.797981886870 	  0.451224417853 	 16.859538807853 	
C	 23.366494916870 	  6.634783367853 	  6.728979257853 	
C	 22.797950786870 	  6.634786177853 	 16.859535977853 	
C	  8.919360917156 	  2.598736266248 	  1.391918066286 	
C	  8.350816787156 	  2.598739076248 	 11.522474786286 	
C	  8.919329817156 	  8.782298026248 	  1.391915236286 	
C	  8.350785687156 	  8.782300836248 	 11.522471956286 	
C	 23.600188217156 	  2.598745496248 	  1.420047996286 	
C	 23.031644087156 	  2.598748306248 	 11.550604716286 	
C	 23.600157117156 	  8.782307256248 	  1.420045166286 	
C	 23.031612987156 	  8.782310066248 	 11.550601886286 	
C	  4.937693370051 	  5.654439416644 	  4.033813535264 	
C	  4.369149240051 	  5.654442226644 	 14.164370255264 	
C	  4.937662270051 	 11.838001176644 	  4.033810705264 	
C	  4.369118140051 	 11.838003986644 	 14.164367425264 	
C	 19.618520670051 	  5.654448646644 	  4.061943465264 	
C	 19.049976540051 	  5.654451456644 	 14.192500185264 	
C	 19.618489570051 	 11.838010406644 	  4.061940635264 	
C	 19.049945440051 	 11.838013216644 	 14.192497355264 	
C	  3.665406846423 	  3.639825037389 	  8.546825850439 	
C	  3.096862716423 	  3.639827847389 	 18.677382570439 	
C	  3.665375746423 	  9.823386797389 	  8.546823020439 	
C	  3.096831616423 	  9.823389607389 	 18.677379740439 	
C	 18.346234146423 	  3.639834267389 	  8.574955780439 	
C	 17.777690016423 	  3.639837077389 	 18.705512500439 	
C	 18.346203046423 	  9.823396027389 	  8.574952950439 	
C	 17.777658916423 	  9.823398837389 	 18.705509670439 	
C	  9.730553942759 	  0.589719325421 	  7.498014386682 	
C	  9.162009812759 	  0.589722135421 	 17.628571106682 	
C	  9.730522842759 	  6.773281085421 	  7.498011556682 	
C	  9.161978712759 	  6.773283895421 	 17.628568276682 	
C	 24.411381242759 	  0.589728555421 	  7.526144316682 	
C	 23.842837112759 	  0.589731365421 	 17.656701036682 	
C	 24.411350142759 	  6.773290315421 	  7.526141486682 	
C	 23.842806012759 	  6.773293125421 	 17.656698206682 	
C	  9.957984150312 	  2.465826819265 	  2.187839976664 	
C	  9.389440020312 	  2.465829629265 	 12.318396696664 	
C	  9.957953050312 	  8.649388579265 	  2.187837146664 	
C	  9.389408920312 	  8.649391389265 	 12.318393866664 	
C	 24.638811450312 	  2.465836049265 	  2.215969906664 	
C	 24.070267320312 	  2.465838859265 	 12.346526626664 	
C	 24.638780350312 	  8.649397809265 	  2.215967076664 	
C	 24.070236220312 	  8.649400619265 	 12.346523796664 	
C	  3.892837667537 	  5.515932555964 	  3.236651777839 	
C	  3.324293537537 	  5.515935365964 	 13.367208497839 	
C	  3.892806567537 	 11.699494315964 	  3.236648947839 	
C	  3.324262437537 	 11.699497125964 	 13.367205667839 	
C	 18.573664967537 	  5.515941785964 	  3.264781707839 	
C	 18.005120837537 	  5.515944595964 	 13.395338427839 	
C	 18.573633867537 	 11.699503545964 	  3.264778877839 	
C	 18.005089737537 	 11.699506355964 	 13.395335597839 	
H	  3.020282847552 	  4.598975484989 	  8.621763186378 	
H	  2.451738717552 	  4.598978294989 	 18.752319906378 	
H	  3.020251747552 	 10.782537244989 	  8.621760356378 	
H	  2.451707617552 	 10.782540054989 	 18.752317076378 	
H	 17.701110147552 	  4.598984714989 	  8.649893116378 	
H	 17.132566017552 	  4.598987524989 	 18.780449836378 	
H	 17.701079047552 	 10.782546474989 	  8.649890286378 	
H	 17.132534917552 	 10.782549284989 	 18.780447006378 	
H	 10.375869111607 	  1.544975215678 	  7.422021644308 	
H	  9.807324981607 	  1.544978025678 	 17.552578364308 	
H	 10.375838011607 	  7.728536975678 	  7.422018814308 	
H	  9.807293881607 	  7.728539785678 	 17.552575534308 	
H	 25.056696411607 	  1.544984445678 	  7.450151574308 	
H	 24.488152281607 	  1.544987255678 	 17.580708294308 	
H	 25.056665311607 	  7.728546205678 	  7.450148744308 	
H	 24.488121181607 	  7.728549015678 	 17.580705464308 	
H	 10.603108053964 	  1.506676253753 	  2.112902851960 	
H	 10.034563923964 	  1.506679063753 	 12.243459571960 	
H	 10.603076953964 	  7.690238013753 	  2.112900021960 	
H	 10.034532823964 	  7.690240823753 	 12.243456741960 	
H	 25.283935353964 	  1.506685483753 	  2.141032781960 	
H	 24.715391223964 	  1.506688293753 	 12.271589501960 	
H	 25.283904253964 	  7.690247243753 	  2.141029951960 	
H	 24.715360123964 	  7.690250053753 	 12.271586671960 	
H	  3.247522628226 	  4.560676598547 	  3.312644719090 	
H	  2.678978498226 	  4.560679408547 	 13.443201439090 	
H	  3.247491528226 	 10.744238358547 	  3.312641889090 	
H	  2.678947398226 	 10.744241168547 	 13.443198609090 	
H	 17.928349928226 	  4.560685828547 	  3.340774649090 	
H	 17.359805798226 	  4.560688638547 	 13.471331369090 	
H	 17.928318828226 	 10.744247588547 	  3.340771819090 	
H	 17.359774698226 	 10.744250398547 	 13.471328539090 	
C	  3.333809681131 	  2.711747122338 	  7.649456196526 	
C	  2.765265551131 	  2.711749932338 	 17.780012916526 	
C	  3.333778581131 	  8.895308882338 	  7.649453366526 	
C	  2.765234451131 	  8.895311692338 	 17.780010086526 	
C	 18.014636981131 	  2.711756352338 	  7.677586126526 	
C	 17.446092851131 	  2.711759162338 	 17.808142846526 	
C	 18.014605881131 	  8.895318112338 	  7.677583296526 	
C	 17.446061751131 	  8.895320922338 	 17.808140016526 	
C	 10.062555922996 	  5.761546695710 	  8.391477081631 	
C	  9.494011792996 	  5.761549505710 	 18.522033801631 	
C	 10.062524822996 	 11.945108455710 	  8.391474251631 	
C	  9.493980692996 	 11.945111265710 	 18.522030971631 	
C	 24.743383222996 	  5.761555925710 	  8.419607011631 	
C	 24.174839092996 	  5.761558735710 	 18.550163731631 	
C	 24.743352122996 	 11.945117685710 	  8.419604181631 	
C	 24.174807992996 	 11.945120495710 	 18.550160901631 	
C	 10.289581194159 	  3.393904837487 	  3.085209336122 	
C	  9.721037064159 	  3.393907647487 	 13.215766056122 	
C	 10.289550094159 	  9.577466597487 	  3.085206506122 	
C	  9.721005964159 	  9.577469407487 	 13.215763226122 	
C	 24.970408494159 	  3.393914067487 	  3.113339266122 	
C	 24.401864364159 	  3.393916877487 	 13.243895986122 	
C	 24.970377394159 	  9.577475827487 	  3.113336436122 	
C	 24.401833264159 	  9.577478637487 	 13.243893156122 	
C	  3.560835282129 	  0.344105281650 	  2.343189336836 	
C	  2.992291152129 	  0.344108091650 	 12.473746056836 	
C	  3.560804182129 	  6.527667041650 	  2.343186506836 	
C	  2.992260052129 	  6.527669851650 	 12.473743226836 	
C	 18.241662582129 	  0.344114511650 	  2.371319266836 	
C	 17.673118452129 	  0.344117321650 	 12.501875986836 	
C	 18.241631482129 	  6.527676271650 	  2.371316436836 	
C	 17.673087352129 	  6.527679081650 	 12.501873156836 	
C	  4.164447141838 	  1.625570405540 	  7.602696453101 	
C	  3.595903011838 	  1.625573215540 	 17.733253173101 	
C	  4.164416041838 	  7.809132165540 	  7.602693623101 	
C	  3.595871911838 	  7.809134975540 	 17.733250343101 	
C	 18.845274441838 	  1.625579635540 	  7.630826383101 	
C	 18.276730311838 	  1.625582445540 	 17.761383103101 	
C	 18.845243341838 	  7.809141395540 	  7.630823553101 	
C	 18.276699211838 	  7.809144205540 	 17.761380273101 	
C	  9.232192407602 	  4.679314463250 	  8.439796373789 	
C	  8.663648277602 	  4.679317273250 	 18.570353093789 	
C	  9.232161307602 	 10.862876223250 	  8.439793543789 	
C	  8.663617177602 	 10.862879033250 	 18.570350263789 	
C	 23.913019707602 	  4.679323693250 	  8.467926303789 	
C	 23.344475577602 	  4.679326503250 	 18.598483023789 	
C	 23.912988607602 	 10.862885453250 	  8.467923473789 	
C	 23.344444477602 	 10.862888263250 	 18.598480193789 	
C	  9.458943817413 	  4.480081625729 	  3.131968916394 	
C	  8.890399687413 	  4.480084435729 	 13.262525636394 	
C	  9.458912717413 	 10.663643385729 	  3.131966086394 	
C	  8.890368587413 	 10.663646195729 	 13.262522806394 	
C	 24.139771117413 	  4.480090855729 	  3.160098846394 	
C	 23.571226987413 	  4.480093665729 	 13.290655566394 	
C	 24.139740017413 	 10.663652615729 	  3.160096016394 	
C	 23.571195887413 	 10.663655425729 	 13.290652736394 	
C	  4.391198759450 	  1.426337423085 	  2.294869705571 	
C	  3.822654629450 	  1.426340233085 	 12.425426425571 	
C	  4.391167659450 	  7.609899183085 	  2.294866875571 	
C	  3.822623529450 	  7.609901993085 	 12.425423595571 	
C	 19.072026059450 	  1.426346653085 	  2.322999635571 	
C	 18.503481929450 	  1.426349463085 	 12.453556355571 	
C	 19.071994959450 	  7.609908413085 	  2.322996805571 	
C	 18.503450829450 	  7.609911223085 	 12.453553525571 	
H	  3.931224070980 	  0.810138157169 	  6.817020011945 	
H	  3.362679940980 	  0.810140967169 	 16.947576731945 	
H	  3.931192970980 	  6.993699917169 	  6.817017181945 	
H	  3.362648840980 	  6.993702727169 	 16.947573901945 	
H	 18.612051370980 	  0.810147387169 	  6.845149941945 	
H	 18.043507240980 	  0.810150197169 	 16.975706661945 	
H	 18.612020270980 	  6.993709147169 	  6.845147111945 	
H	 18.043476140980 	  6.993711957169 	 16.975703831945 	
H	  9.465808214261 	  3.863918256793 	  9.226857299127 	
H	  8.897264084261 	  3.863921066793 	 19.357414019127 	
H	  9.465777114261 	 10.047480016793 	  9.226854469127 	
H	  8.897232984261 	 10.047482826793 	 19.357411189127 	
H	 24.146635514261 	  3.863927486793 	  9.254987229127 	
H	 23.578091384261 	  3.863930296793 	 19.385543949127 	
H	 24.146604414261 	 10.047489246793 	  9.254984399127 	
H	 23.578060284261 	 10.047492056793 	 19.385541119127 	
H	  9.692167031776 	  5.295514065341 	  3.917645141134 	
H	  9.123622901776 	  5.295516875341 	 14.048201861134 	
H	  9.692135931776 	 11.479075825341 	  3.917642311134 	
H	  9.123591801776 	 11.479078635341 	 14.048199031134 	
H	 24.372994331776 	  5.295523295341 	  3.945775071134 	
H	 23.804450201776 	  5.295526105341 	 14.076331791134 	
H	 24.372963231776 	 11.479085055341 	  3.945772241134 	
H	 23.804419101776 	 11.479087865341 	 14.076328961134 	
H	  4.157582576093 	  2.241733778285 	  1.507809023053 	
H	  3.589038446093 	  2.241736588285 	 11.638365743053 	
H	  4.157551476093 	  8.425295538285 	  1.507806193053 	
H	  3.589007346093 	  8.425298348285 	 11.638362913053 	
H	 18.838409876093 	  2.241743008285 	  1.535938953053 	
H	 18.269865746093 	  2.241745818285 	 11.666495673053 	
H	 18.838378776093 	  8.425304768285 	  1.535936123053 	
H	 18.269834646093 	  8.425307578285 	 11.666492843053 	
C	  5.183135330855 	  1.473203611901 	  8.367571320455 	
C	  4.614591200855 	  1.473206421901 	 18.498128040455 	
C	  5.183104230855 	  7.656765371901 	  8.367568490455 	
C	  4.614560100855 	  7.656768181901 	 18.498125210455 	
C	 19.863962630855 	  1.473212841901 	  8.395701250455 	
C	 19.295418500855 	  1.473215651901 	 18.526257970455 	
C	 19.863931530855 	  7.656774601901 	  8.395698420455 	
C	 19.295387400855 	  7.656777411901 	 18.526255140455 	
C	  8.213380566868 	  4.526884958966 	  7.674774571725 	
C	  7.644836436868 	  4.526887768966 	 17.805331291725 	
C	  8.213349466868 	 10.710446718966 	  7.674771741725 	
C	  7.644805336868 	 10.710449528966 	 17.805328461725 	
C	 22.894207866868 	  4.526894188966 	  7.702904501725 	
C	 22.325663736868 	  4.526896998966 	 17.833461221725 	
C	 22.894176766868 	 10.710455948966 	  7.702901671725 	
C	 22.325632636868 	 10.710458758966 	 17.833458391725 	
C	  8.440255657139 	  4.632448299137 	  2.367094036075 	
C	  7.871711527139 	  4.632451109137 	 12.497650756075 	
C	  8.440224557139 	 10.816010059137 	  2.367091206075 	
C	  7.871680427139 	 10.816012869137 	 12.497647926075 	
C	 23.121082957139 	  4.632457529137 	  2.395223966075 	
C	 22.552538827139 	  4.632460339137 	 12.525780686075 	
C	 23.121051857139 	 10.816019289137 	  2.395221136075 	
C	 22.552507727139 	 10.816022099137 	 12.525777856075 	
C	  5.410010970289 	  1.578766898313 	  3.059891098913 	
C	  4.841466840289 	  1.578769708313 	 13.190447818913 	
C	  5.409979870289 	  7.762328658313 	  3.059888268913 	
C	  4.841435740289 	  7.762331468313 	 13.190444988913 	
C	 20.090838270289 	  1.578776128313 	  3.088021028913 	
C	 19.522294140289 	  1.578778938313 	 13.218577748913 	
C	 20.090807170289 	  7.762337888313 	  3.088018198913 	
C	 19.522263040289 	  7.762340698313 	 13.218574918913 	
H	  5.852655486174 	  0.534423829733 	  8.278615160505 	
H	  5.284111356174 	  0.534426639733 	 18.409171880505 	
H	  5.852624386174 	  6.717985589733 	  8.278612330505 	
H	  5.284080256174 	  6.717988399733 	 18.409169050505 	
H	 20.533482786174 	  0.534433059733 	  8.306745090505 	
H	 19.964938656174 	  0.534435869733 	 18.437301810505 	
H	 20.533451686174 	  6.717994819733 	  8.306742260505 	
H	 19.964907556174 	  6.717997629733 	 18.437298980505 	
H	  7.543580080374 	  3.587472046870 	  7.764256439021 	
H	  6.975035950374 	  3.587474856870 	 17.894813159021 	
H	  7.543548980374 	  9.771033806870 	  7.764253609021 	
H	  6.975004850374 	  9.771036616870 	 17.894810329021 	
H	 22.224407380374 	  3.587481276870 	  7.792386369021 	
H	 21.655863250374 	  3.587484086870 	 17.922943089021 	
H	 22.224376280374 	  9.771043036870 	  7.792383539021 	
H	 21.655832150374 	  9.771045846870 	 17.922940259021 	
H	  7.770735503837 	  5.571228103909 	  2.456049934971 	
H	  7.202191373837 	  5.571230913909 	 12.586606654971 	
H	  7.770704403837 	 11.754789863909 	  2.456047104971 	
H	  7.202160273837 	 11.754792673909 	 12.586603824971 	
H	 22.451562803837 	  5.571237333909 	  2.484179864971 	
H	 21.883018673837 	  5.571240143909 	 12.614736584971 	
H	 22.451531703837 	 11.754799093909 	  2.484177034971 	
H	 21.882987573837 	 11.754801903909 	 12.614733754971 	
H	  6.079811440656 	  2.518179788130 	  2.970409037781 	
H	  5.511267310656 	  2.518182598130 	 13.100965757781 	
H	  6.079780340656 	  8.701741548130 	  2.970406207781 	
H	  5.511236210656 	  8.701744358130 	 13.100962927781 	
H	 20.760638740656 	  2.518189018130 	  2.998538967781 	
H	 20.192094610656 	  2.518191828130 	 13.129095687781 	
H	 20.760607640656 	  8.701750778130 	  2.998536137781 	
H	 20.192063510656 	  8.701753588130 	 13.129092857781 	
C	  1.991483210745 	  2.846467043475 	  6.688335176255 	
C	  1.422939080745 	  2.846469853475 	 16.818891896255 	
C	  1.991452110745 	  9.030028803475 	  6.688332346255 	
C	  1.422907980745 	  9.030031613475 	 16.818889066255 	
C	 16.672310510745 	  2.846476273475 	  6.716465106255 	
C	 16.103766380745 	  2.846479083475 	 16.847021826255 	
C	 16.672279410745 	  9.030038033475 	  6.716462276255 	
C	 16.103735280745 	  9.030040843475 	 16.847018996255 	
C	 11.381841394519 	  5.836967551458 	  9.348521722116 	
C	 10.813297264519 	  5.836970361458 	 19.479078442116 	
C	 11.381810294519 	 12.020529311458 	  9.348518892116 	
C	 10.813266164519 	 12.020532121458 	 19.479075612116 	
C	 26.062668694519 	  5.836976781458 	  9.376651652116 	
C	 25.494124564519 	  5.836979591458 	 19.507208372116 	
C	 26.062637594519 	 12.020538541458 	  9.376648822116 	
C	 25.494093464519 	 12.020541351458 	 19.507205542116 	
C	 11.631907352049 	  3.259185288066 	  4.046330472929 	
C	 11.063363222049 	  3.259188098066 	 14.176887192929 	
C	 11.631876252049 	  9.442747048066 	  4.046327642929 	
C	 11.063332122049 	  9.442749858066 	 14.176884362929 	
C	 26.312734652049 	  3.259194518066 	  4.074460402929 	
C	 25.744190522049 	  3.259197328066 	 14.205017122929 	
C	 26.312703552049 	  9.442756278066 	  4.074457572929 	
C	 25.744159422049 	  9.442759088066 	 14.205014292929 	
C	  2.241549262701 	  0.268684350133 	  1.386145240811 	
C	  1.673005132701 	  0.268687160133 	 11.516701960811 	
C	  2.241518162701 	  6.452246110133 	  1.386142410811 	
C	  1.672974032701 	  6.452248920133 	 11.516699130811 	
C	 16.922376562701 	  0.268693580133 	  1.414275170811 	
C	 16.353832432701 	  0.268696390133 	 11.544831890811 	
C	 16.922345462701 	  6.452255340133 	  1.414272340811 	
C	 16.353801332701 	  6.452258150133 	 11.544829060811 	
C	  2.192152934010 	  2.457533132569 	  5.546336281388 	
C	  1.623608804010 	  2.457535942569 	 15.676893001388 	
C	  2.192121834010 	  8.641094892569 	  5.546333451388 	
C	  1.623577704010 	  8.641097702569 	 15.676890171388 	
C	 16.872980234010 	  2.457542362569 	  5.574466211388 	
C	 16.304436104010 	  2.457545172569 	 15.705022931388 	
C	 16.872949134010 	  8.641104122569 	  5.574463381388 	
C	 16.304405004010 	  8.641106932569 	 15.705020101388 	
C	 11.191643532904 	 -0.493147964551 	 10.428584157679 	
C	 10.623099402904 	 -0.493145154551 	 20.559140877679 	
C	 11.191612432904 	  5.690413795449 	 10.428581327679 	
C	 10.623068302904 	  5.690416605449 	 20.559138047679 	
C	 25.872470832904 	 -0.493138734551 	 10.456714087679 	
C	 25.303926702904 	 -0.493135924551 	 20.587270807679 	
C	 25.872439732904 	  5.690423025449 	 10.456711257679 	
C	 25.303895602904 	  5.690425835449 	 20.587267977679 	
C	 11.431236634490 	  3.648118277832 	  5.188330179023 	
C	 10.862692504490 	  3.648121087832 	 15.318886899023 	
C	 11.431205534490 	  9.831680037832 	  5.188327349023 	
C	 10.862661404490 	  9.831682847832 	 15.318884069023 	
C	 26.112063934490 	  3.648127507832 	  5.216460109023 	
C	 25.543519804490 	  3.648130317832 	 15.347016829023 	
C	 26.112032834490 	  9.831689267832 	  5.216457279023 	
C	 25.543488704490 	  9.831692077832 	 15.347013999023 	
C	  2.431746784552 	  6.598800094882 	  0.306082691383 	
C	  1.863202654552 	  6.598802904882 	 10.436639411383 	
C	  2.431715684552 	 12.782361854882 	  0.306079861383 	
C	  1.863171554552 	 12.782364664882 	 10.436636581383 	
C	 17.112574084552 	  6.598809324882 	  0.334212621383 	
C	 16.544029954552 	  6.598812134882 	 10.464769341383 	
C	 17.112542984552 	 12.782371084882 	  0.334209791383 	
C	 16.543998854552 	 12.782373894882 	 10.464766511383 	
H	  3.114677604997 	  2.852133943055 	  4.975833922294 	
H	  2.546133474997 	  2.852136753055 	 15.106390642294 	
H	  3.114646504997 	  9.035695703055 	  4.975831092294 	
H	  2.546102374997 	  9.035698513055 	 15.106387812294 	
H	 17.795504904997 	  2.852143173055 	  5.003963852294 	
H	 17.226960774997 	  2.852145983055 	 15.134520572294 	
H	 17.795473804997 	  9.035704933055 	  5.003961022294 	
H	 17.226929674997 	  9.035707743055 	 15.134517742294 	
H	 10.284951345391 	 -0.205486524216 	 11.063890852400 	
H	  9.716407215391 	 -0.205483714216 	 21.194447572400 	
H	 10.284920245391 	  5.978075235784 	 11.063888022400 	
H	  9.716376115391 	  5.978078045784 	 21.194444742400 	
H	 24.965778645391 	 -0.205477294216 	 11.092020782400 	
H	 24.397234515391 	 -0.205474484216 	 21.222577502400 	
H	 24.965747545391 	  5.978084465784 	 11.092017952400 	
H	 24.397203415391 	  5.978087275784 	 21.222574672400 	
H	 10.508712599961 	  3.253515017169 	  5.758831972794 	
H	  9.940168469961 	  3.253517827169 	 15.889388692794 	
H	 10.508681499961 	  9.437076777169 	  5.758829142794 	
H	  9.940137369961 	  9.437079587169 	 15.889385862794 	
H	 25.189539899961 	  3.253524247169 	  5.786961902794 	
H	 24.620995769961 	  3.253527057169 	 15.917518622794 	
H	 25.189508799961 	  9.437086007169 	  5.786959072794 	
H	 24.620964669961 	  9.437088817169 	 15.917515792794 	
H	  3.338438716358 	  6.311138721726 	 -0.329224339381 	
H	  2.769894586358 	  6.311141531726 	  9.801332380619 	
H	  3.338407616358 	 12.494700481726 	 -0.329227169381 	
H	  2.769863486358 	 12.494703291726 	  9.801329550619 	
H	 18.019266016358 	  6.311147951726 	 -0.301094409381 	
H	 17.450721886358 	  6.311150761726 	  9.829462310619 	
H	 18.019234916358 	 12.494709711726 	 -0.301097239381 	
H	 17.450690786358 	 12.494712521726 	  9.829459480619 	
H	  1.402000514237 	  2.560157821584 	  4.734780830509 	
H	  0.833456384237 	  2.560160631584 	 14.865337550509 	
H	  1.401969414237 	  8.743719581584 	  4.734778000509 	
H	  0.833425284237 	  8.743722391584 	 14.865334720509 	
H	 16.082827814237 	  2.560167051584 	  4.762910760509 	
H	 15.514283684237 	  2.560169861584 	 14.893467480509 	
H	 16.082796714237 	  8.743728811584 	  4.762907930509 	
H	 15.514252584237 	  8.743731621584 	 14.893464650509 	
H	 12.500360501357 	 -0.486968791317 	  0.743029699581 	
H	 11.931816371357 	 -0.486965981317 	 10.873586419581 	
H	 12.500329401357 	  5.696592968683 	  0.743026869581 	
H	 11.931785271357 	  5.696595778683 	 10.873583589581 	
H	 27.181187801357 	 -0.486959561317 	  0.771159629581 	
H	 26.612643671357 	 -0.486956751317 	 10.901716349581 	
H	 27.181156701357 	  5.696602198683 	  0.771156799581 	
H	 26.612612571357 	  5.696605008683 	 10.901713519581 	
H	 12.221389261437 	  3.545493940076 	  5.999885480371 	
H	 11.652845131437 	  3.545496750076 	 16.130442200371 	
H	 12.221358161437 	  9.729055700076 	  5.999882650371 	
H	 11.652814031437 	  9.729058510076 	 16.130439370371 	
H	 26.902216561437 	  3.545503170076 	  6.028015410371 	
H	 26.333672431437 	  3.545505980076 	 16.158572130371 	
H	 26.902185461437 	  9.729064930076 	  6.028012580371 	
H	 26.333641331437 	  9.729067740076 	 16.158569300371 	
H	  1.123029389681 	  6.592620988906 	  9.991637608008 	
H	  0.554485259681 	  6.592623798906 	 20.122194328008 	
H	  1.122998289681 	 12.776182748906 	  9.991634778008 	
H	  0.554454159681 	 12.776185558906 	 20.122191498008 	
H	 15.803856689681 	  6.592630218906 	 10.019767538008 	
H	 15.235312559681 	  6.592633028906 	 20.150324258008 	
H	 15.803825589681 	 12.776191978906 	 10.019764708008 	
H	 15.235281459681 	 12.776194788906 	 20.150321428008 	
H	  2.480921512187 	  1.355554387600 	  5.366480099598 	
H	  1.912377382187 	  1.355557197600 	 15.497036819598 	
H	  2.480890412187 	  7.539116147600 	  5.366477269598 	
H	  1.912346282187 	  7.539118957600 	 15.497033989598 	
H	 17.161748812187 	  1.355563617600 	  5.394610029598 	
H	 16.593204682187 	  1.355566427600 	 15.525166749598 	
H	 17.161717712187 	  7.539125377600 	  5.394607199598 	
H	 16.593173582187 	  7.539128187600 	 15.525163919598 	
H	 11.326265232223 	  4.310307713973 	  0.079250381708 	
H	 10.757721102223 	  4.310310523973 	 10.209807101708 	
H	 11.326234132223 	 10.493869473973 	  0.079247551708 	
H	 10.757690002223 	 10.493872283973 	 10.209804271708 	
H	 26.007092532223 	  4.310316943973 	  0.107380311708 	
H	 25.438548402223 	  4.310319753973 	 10.237937031708 	
H	 26.007061432223 	 10.493878703973 	  0.107377481708 	
H	 25.438517302223 	 10.493881513973 	 10.237934201708 	
H	 11.142466344488 	  4.750096549209 	  5.368187088186 	
H	 10.573922214488 	  4.750099359209 	 15.498743808186 	
H	 11.142435244488 	 10.933658309209 	  5.368184258186 	
H	 10.573891114488 	 10.933661119209 	 15.498740978186 	
H	 25.823293644488 	  4.750105779209 	  5.396317018186 	
H	 25.254749514488 	  4.750108589209 	 15.526873738186 	
H	 25.823262544488 	 10.933667539209 	  5.396314188186 	
H	 25.254718414488 	 10.933670349209 	 15.526870908186 	
H	  2.297125022777 	  1.795344470884 	 10.655416794604 	
H	  1.728580892777 	  1.795347280884 	 20.785973514604 	
H	  2.297093922777 	  7.978906230884 	 10.655413964604 	
H	  1.728549792777 	  7.978909040884 	 20.785970684604 	
H	 16.977952322777 	  1.795353700884 	 10.683546724604 	
H	 16.409408192777 	  1.795356510884 	 20.814103444604 	
H	 16.977921222777 	  7.978915460884 	 10.683543894604 	
H	 16.409377092777 	  7.978918270884 	 20.814100614604 	
C	  1.618634256013 	  4.009734232074 	  6.617090461906 	
C	  1.050090126013 	  4.009737042074 	 16.747647181906 	
C	  1.618603156013 	 10.193295992074 	  6.617087631906 	
C	  1.050059026013 	 10.193298802074 	 16.747644351906 	
C	 16.299461556013 	  4.009743462074 	  6.645220391906 	
C	 15.730917426013 	  4.009746272074 	 16.775777111906 	
C	 16.299430456013 	 10.193305222074 	  6.645217561906 	
C	 15.730886326013 	 10.193308032074 	 16.775774281906 	
C	 11.815570600878 	  1.030556593365 	  9.433073403526 	
C	 11.247026470878 	  1.030559403365 	 19.563630123526 	
C	 11.815539500878 	  7.214118353365 	  9.433070573526 	
C	 11.246995370878 	  7.214121163365 	 19.563627293526 	
C	 26.496397900878 	  1.030565823365 	  9.461203333526 	
C	 25.927853770878 	  1.030568633365 	 19.591760053526 	
C	 26.496366800878 	  7.214127583365 	  9.461200503526 	
C	 25.927822670878 	  7.214130393365 	 19.591757223526 	
C	 12.004757528467 	  2.095917746385 	  4.117574117638 	
C	 11.436213398467 	  2.095920556385 	 14.248130837638 	
C	 12.004726428467 	  8.279479506385 	  4.117571287638 	
C	 11.436182298467 	  8.279482316385 	 14.248128007638 	
C	 26.685584828467 	  2.095926976385 	  4.145704047638 	
C	 26.117040698467 	  2.095929786385 	 14.276260767638 	
C	 26.685553728467 	  8.279488736385 	  4.145701217638 	
C	 26.117009598467 	  8.279491546385 	 14.276257937638 	
C	  1.807820083737 	  5.075095293263 	  1.301593514410 	
C	  1.239275953737 	  5.075098103263 	 11.432150234410 	
C	  1.807788983737 	 11.258657053263 	  1.301590684410 	
C	  1.239244853737 	 11.258659863263 	 11.432147404410 	
C	 16.488647383737 	  5.075104523263 	  1.329723444410 	
C	 15.920103253737 	  5.075107333263 	 11.460280164410 	
C	 16.488616283737 	 11.258666283263 	  1.329720614410 	
C	 15.920072153737 	 11.258669093263 	 11.460277334410 	
H	  2.366422436174 	  4.821469271633 	  6.279577674574 	
H	  1.797878306174 	  4.821472081633 	 16.410134394574 	
H	  2.366391336174 	 11.005031031633 	  6.279574844574 	
H	  1.797847206174 	 11.005033841633 	 16.410131564574 	
H	 17.047249736174 	  4.821478501633 	  6.307707604574 	
H	 16.478705606174 	  4.821481311633 	 16.438264324574 	
H	 17.047218636174 	 11.005040261633 	  6.307704774574 	
H	 16.478674506174 	 11.005043071633 	 16.438261494574 	
H	 11.026320435098 	  1.773336408817 	  9.765165492068 	
H	 10.457776305098 	  1.773339218817 	 19.895722212068 	
H	 11.026289335098 	  7.956898168817 	  9.765162662068 	
H	 10.457745205098 	  7.956900978817 	 19.895719382068 	
H	 25.707147735098 	  1.773345638817 	  9.793295422068 	
H	 25.138603605098 	  1.773348448817 	 19.923852142068 	
H	 25.707116635098 	  7.956907398817 	  9.793292592068 	
H	 25.138572505098 	  7.956910208817 	 19.923849312068 	
H	 11.256969834859 	  1.284181874289 	  4.455085899435 	
H	 10.688425704859 	  1.284184684289 	 14.585642619435 	
H	 11.256938734859 	  7.467743634289 	  4.455083069435 	
H	 10.688394604859 	  7.467746444289 	 14.585639789435 	
H	 25.937797134859 	  1.284191104289 	  4.483215829435 	
H	 25.369253004859 	  1.284193914289 	 14.613772549435 	
H	 25.937766034859 	  7.467752864289 	  4.483212999435 	
H	 25.369221904859 	  7.467755674289 	 14.613769719435 	
H	  2.597070180102 	  4.332315618313 	  0.969500912597 	
H	  2.028526050102 	  4.332318428313 	 11.100057632597 	
H	  2.597039080102 	 10.515877378313 	  0.969498082597 	
H	  2.028494950102 	 10.515880188313 	 11.100054802597 	
H	 17.277897480102 	  4.332324848313 	  0.997630842597 	
H	 16.709353350102 	  4.332327658313 	 11.128187562597 	
H	 17.277866380102 	 10.515886608313 	  0.997628012597 	
H	 16.709322250102 	 10.515889418313 	 11.128184732597 	
H	  1.326984710506 	  4.572259025729 	  7.583644869667 	
H	  0.758440580506 	  4.572261835729 	 17.714201589667 	
H	  1.326953610506 	 10.755820785729 	  7.583642039667 	
H	  0.758409480506 	 10.755823595729 	 17.714198759667 	
H	 16.007812010506 	  4.572268255729 	  7.611774799667 	
H	 15.439267880506 	  4.572271065729 	 17.742331519667 	
H	 16.007780910506 	 10.755830015729 	  7.611771969667 	
H	 15.439236780506 	 10.755832825729 	 17.742328689667 	
H	 12.069455681345 	  7.608611814675 	  8.460334545803 	
H	 11.500911551345 	  7.608614624675 	 18.590891265803 	
H	 12.069424581345 	 13.792173574675 	  8.460331715803 	
H	 11.500880451345 	 13.792176384675 	 18.590888435803 	
H	 26.750282981345 	  7.608621044675 	  8.488464475803 	
H	 26.181738851345 	  7.608623854675 	 18.619021195803 	
H	 26.750251881345 	 13.792182804675 	  8.488461645803 	
H	 26.181707751345 	 13.792185614675 	 18.619018365803 	
H	 12.296408311802 	  1.533394510984 	  3.151019231249 	
H	 11.727864181802 	  1.533397320984 	 13.281575951249 	
H	 12.296377211802 	  7.716956270984 	  3.151016401249 	
H	 11.727833081802 	  7.716959080984 	 13.281573121249 	
H	 26.977235611802 	  1.533403740984 	  3.179149161249 	
H	 26.408691481802 	  1.533406550984 	 13.309705881249 	
H	 26.977204511802 	  7.716965500984 	  3.179146331249 	
H	 26.408660381802 	  7.716968310984 	 13.309703051249 	
H	  1.553935592112 	 -1.502960106158 	  2.274332470152 	
H	  0.985391462112 	 -1.502957296158 	 12.404889190152 	
H	  1.553904492112 	  4.680601653842 	  2.274329640152 	
H	  0.985360362112 	  4.680604463842 	 12.404886360152 	
H	 16.234762892112 	 -1.502950876158 	  2.302462400152 	
H	 15.666218762112 	 -1.502948066158 	 12.433019120152 	
H	 16.234731792112 	  4.680610883842 	  2.302459570152 	
H	 15.666187662112 	  4.680613693842 	 12.433016290152 	
H	  0.728306914376 	  4.240884446646 	  5.951471886287 	
H	  0.159762784376 	  4.240887256646 	 16.082028606287 	
H	  0.728275814376 	 10.424446206646 	  5.951469056287 	
H	  0.159731684376 	 10.424449016646 	 16.082025776287 	
H	 15.409134214376 	  4.240893676646 	  5.979601816287 	
H	 14.840590084376 	  4.240896486646 	 16.110158536287 	
H	 15.409103114376 	 10.424455436646 	  5.979598986287 	
H	 14.840558984376 	 10.424458246646 	 16.110155706287 	
H	 12.657744444034 	  7.285377181040 	 10.083594027246 	
H	 12.089200314034 	  7.285379991040 	 20.214150747246 	
H	 12.657713344034 	 13.468938941040 	 10.083591197246 	
H	 12.089169214034 	 13.468941751040 	 20.214147917246 	
H	 27.338571744034 	  7.285386411040 	 10.111723957246 	
H	 26.770027614034 	  7.285389221040 	 20.242280677246 	
H	 27.338540644034 	 13.468948171040 	 10.111721127246 	
H	 26.769996514034 	 13.468950981040 	 20.242277847246 	
H	 12.895084751153 	  1.864767923000 	  4.783192945990 	
H	 12.326540621153 	  1.864770733000 	 14.913749665990 	
H	 12.895053651153 	  8.048329683000 	  4.783190115990 	
H	 12.326509521153 	  8.048332493000 	 14.913746835990 	
H	 27.575912051153 	  1.864777153000 	  4.811322875990 	
H	 27.007367921153 	  1.864779963000 	 14.941879595990 	
H	 27.575880951153 	  8.048338913000 	  4.811320045990 	
H	 27.007336821153 	  8.048341723000 	 14.941876765990 	
H	  0.965645914992 	 -1.179725344451 	  0.651073328759 	
H	  0.397101784992 	 -1.179722534451 	 10.781630048759 	
H	  0.965614814992 	  5.003836415549 	  0.651070498759 	
H	  0.397070684992 	  5.003839225549 	 10.781627218759 	
H	 15.646473214992 	 -1.179716114451 	  0.679203258759 	
H	 15.077929084992 	 -1.179713304451 	 10.809759978759 	
H	 15.646442114992 	  5.003845645549 	  0.679200428759 	
H	 15.077897984992 	  5.003848455549 	 10.809757148759 	
C	  1.079517071888 	  2.178631980543 	  7.165053142289 	
C	  0.510972941888 	  2.178634790543 	 17.295609862289 	
C	  1.079485971888 	  8.362193740543 	  7.165050312289 	
C	  0.510941841888 	  8.362196550543 	 17.295607032289 	
C	 15.760344371888 	  2.178641210543 	  7.193183072289 	
C	 15.191800241888 	  2.178644020543 	 17.323739792289 	
C	 15.760313271888 	  8.362202970543 	  7.193180242289 	
C	 15.191769141888 	  8.362205780543 	 17.323736962289 	
C	 12.315292796345 	  5.232789761331 	  8.879178352632 	
C	 11.746748666345 	  5.232792571331 	 19.009735072632 	
C	 12.315261696345 	 11.416351521331 	  8.879175522632 	
C	 11.746717566345 	 11.416354331331 	 19.009732242632 	
C	 26.996120096345 	  5.232798991331 	  8.907308282632 	
C	 26.427575966345 	  5.232801801331 	 19.037865002632 	
C	 26.996088996345 	 11.416360751331 	  8.907305452632 	
C	 26.427544866345 	 11.416363561331 	 19.037862172632 	
C	 12.543873325718 	  3.927022201218 	  3.569612699376 	
C	 11.975329195718 	  3.927025011218 	 13.700169419376 	
C	 12.543842225718 	 10.110583961218 	  3.569609869376 	
C	 11.975298095718 	 10.110586771218 	 13.700166589376 	
C	 27.224700625718 	  3.927031431218 	  3.597742629376 	
C	 26.656156495718 	  3.927034241218 	 13.728299349376 	
C	 27.224669525718 	 10.110593191218 	  3.597739799376 	
C	 26.656125395718 	 10.110596001218 	 13.728296519376 	
C	  1.308097838518 	  0.872861898646 	  1.855488978954 	
C	  0.739553708518 	  0.872864708646 	 11.986045698954 	
C	  1.308066738518 	  7.056423658646 	  1.855486148954 	
C	  0.739522608518 	  7.056426468646 	 11.986042868954 	
C	 15.988925138518 	  0.872871128646 	  1.883618908954 	
C	 15.420381008518 	  0.872873938646 	 12.014175628954 	
C	 15.988894038518 	  7.056432888646 	  1.883616078954 	
C	 15.420349908518 	  7.056435698646 	 12.014172798954 	
H	  0.057904082819 	  2.137504321823 	  6.669118575088 	
H	 -0.510640047181 	  2.137507131823 	 16.799675295088 	
H	  0.057872982819 	  8.321066081823 	  6.669115745088 	
H	 -0.510671147181 	  8.321068891823 	 16.799672465088 	
H	 14.738731382819 	  2.137513551823 	  6.697248505088 	
H	 14.170187252819 	  2.137516361823 	 16.827805225088 	
H	 14.738700282819 	  8.321075311823 	  6.697245675088 	
H	 14.170156152819 	  8.321078121823 	 16.827802395088 	
H	 13.337818352929 	  5.190347326910 	  9.374345729730 	
H	 12.769274222929 	  5.190350136910 	 19.504902449730 	
H	 13.337787252929 	 11.373909086910 	  9.374342899730 	
H	 12.769243122929 	 11.373911896910 	 19.504899619730 	
H	 28.018645652929 	  5.190356556910 	  9.402475659730 	
H	 27.450101522929 	  5.190359366910 	 19.533032379730 	
H	 28.018614552929 	 11.373918316910 	  9.402472829730 	
H	 27.450070422929 	 11.373921126910 	 19.533029549730 	
H	 13.565486211429 	  3.968149857329 	  4.065547442005 	
H	 12.996942081429 	  3.968152667329 	 14.196104162005 	
H	 13.565455111429 	 10.151711617329 	  4.065544612005 	
H	 12.996910981429 	 10.151714427329 	 14.196101332005 	
H	 28.246313511429 	  3.968159087329 	  4.093677372005 	
H	 27.677769381429 	  3.968161897329 	 14.224234092005 	
H	 28.246282411429 	 10.151720847329 	  4.093674542005 	
H	 27.677738281429 	 10.151723657329 	 14.224231262005 	
H	  0.285572149919 	  0.915304195942 	  1.360321874808 	
H	 -0.282971980081 	  0.915307005942 	 11.490878594808 	
H	  0.285541049919 	  7.098865955942 	  1.360319044808 	
H	 -0.283003080081 	  7.098868765942 	 11.490875764808 	
H	 14.966399449919 	  0.915313425942 	  1.388451804808 	
H	 14.397855319919 	  0.915316235942 	 11.519008524808 	
H	 14.966368349919 	  7.098875185942 	  1.388448974808 	
H	 14.397824219919 	  7.098877995942 	 11.519005694808 	
H	  0.787685991944 	  2.370278877507 	  8.265947588292 	
H	  0.219141861944 	  2.370281687507 	 18.396504308292 	
H	  0.787654891944 	  8.553840637507 	  8.265944758292 	
H	  0.219110761944 	  8.553843447507 	 18.396501478292 	
H	 15.468513291944 	  2.370288107507 	  8.294077518292 	
H	 14.899969161944 	  2.370290917507 	 18.424634238292 	
H	 15.468482191944 	  8.553849867507 	  8.294074688292 	
H	 14.899938061944 	  8.553852677507 	 18.424631408292 	
H	 12.608226892014 	  5.423507033068 	  7.777567897301 	
H	 12.039682762014 	  5.423509843068 	 17.908124617301 	
H	 12.608195792014 	 11.607068793068 	  7.777565067301 	
H	 12.039651662014 	 11.607071603068 	 17.908121787301 	
H	 27.289054192014 	  5.423516263068 	  7.805697827301 	
H	 26.720510062014 	  5.423519073068 	 17.936254547301 	
H	 27.289023092014 	 11.607078023068 	  7.805694997301 	
H	 26.720478962014 	 11.607080833068 	 17.936251717301 	
H	 12.835704439431 	  3.735376727754 	  2.468718004799 	
H	 12.267160309431 	  3.735379537754 	 12.599274724799 	
H	 12.835673339431 	  9.918938487754 	  2.468715174799 	
H	 12.267129209431 	  9.918941297754 	 12.599271894799 	
H	 27.516531739431 	  3.735385957754 	  2.496847934799 	
H	 26.947987609431 	  3.735388767754 	 12.627404654799 	
H	 27.516500639431 	  9.918947717754 	  2.496845104799 	
H	 26.947956509431 	  9.918950527754 	 12.627401824799 	
H	  1.015163953145 	  0.682144218967 	  2.957099399485 	
H	  0.446619823145 	  0.682147028967 	 13.087656119485 	
H	  1.015132853145 	  6.865705978967 	  2.957096569485 	
H	  0.446588723145 	  6.865708788967 	 13.087653289485 	
H	 15.695991253145 	  0.682153448967 	  2.985229329485 	
H	 15.127447123145 	  0.682156258967 	 13.115786049485 	
H	 15.695960153145 	  6.865715208967 	  2.985226499485 	
H	 15.127416023145 	  6.865718018967 	 13.115783219485 	
H	  1.259864741321 	  1.050316331142 	  7.327315890101 	
H	  0.691320611321 	  1.050319141142 	 17.457872610101 	
H	  1.259833641321 	  7.233878091142 	  7.327313060101 	
H	  0.691289511321 	  7.233880901142 	 17.457869780101 	
H	 15.940692041321 	  1.050325561142 	  7.355445820101 	
H	 15.372147911321 	  1.050328371142 	 17.486002540101 	
H	 15.940660941321 	  7.233887321142 	  7.355442990101 	
H	 15.372116811321 	  7.233890131142 	 17.485999710101 	
H	 12.136019246127 	  4.104107605008 	  8.716074517194 	
H	 11.567475116127 	  4.104110415008 	 18.846631237194 	
H	 12.135988146127 	 10.287669365008 	  8.716071687194 	
H	 11.567444016127 	 10.287672175008 	 18.846628407194 	
H	 26.816846546127 	  4.104116835008 	  8.744204447194 	
H	 26.248302416127 	  4.104119645008 	 18.874761167194 	
H	 26.816815446127 	 10.287678595008 	  8.744201617194 	
H	 26.248271316127 	 10.287681405008 	 18.874758337194 	
H	 12.363524611580 	  5.055338005648 	  3.407351902222 	
H	 11.794980481580 	  5.055340815648 	 13.537908622222 	
H	 12.363493511580 	 11.238899765648 	  3.407349072222 	
H	 11.794949381580 	 11.238902575648 	 13.537905792222 	
H	 27.044351911580 	  5.055347235648 	  3.435481832222 	
H	 26.475807781580 	  5.055350045648 	 13.566038552222 	
H	 27.044320811580 	 11.238908995648 	  3.435479002222 	
H	 26.475776681580 	 11.238911805648 	 13.566035722222 	
H	  1.487371249071 	  2.001544016510 	  2.018593340780 	
H	  0.918827119071 	  2.001546826510 	 12.149150060780 	
H	  1.487340149071 	  8.185105776510 	  2.018590510780 	
H	  0.918796019071 	  8.185108586510 	 12.149147230780 	
H	 16.168198549071 	  2.001553246510 	  2.046723270780 	
H	 15.599654419071 	  2.001556056510 	 12.177279990780 	
H	 16.168167449071 	  8.185115006510 	  2.046720440780 	
H	 15.599623319071 	  8.185117816510 	 12.177277160780 	
768 
Energy: -8.5057565158890000e+01 
S	  8.301231161442 	  1.414192284796 	  0.135377999365 	
S	  7.732687031442 	  1.414195094796 	 10.265934719365 	
S	  8.301200061442 	  7.597754044796 	  0.135375169365 	
S	  7.732655931442 	  7.597756854796 	 10.265931889365 	
S	 22.982058461442 	  1.414201514796 	  0.163507929365 	
S	 22.413514331442 	  1.414204324796 	 10.294064649365 	
S	 22.982027361442 	  7.597763274796 	  0.163505099365 	
S	 22.413483231442 	  7.597766084796 	 10.294061819365 	
S	  5.487714113795 	  4.461595486894 	  5.327741370669 	
S	  4.919169983795 	  4.461598296894 	 15.458298090669 	
S	  5.487683013795 	 10.645157246894 	  5.327738540669 	
S	  4.919138883795 	 10.645160056894 	 15.458295260669 	
S	 20.168541413795 	  4.461604716894 	  5.355871300669 	
S	 19.599997283795 	  4.461607526894 	 15.486428020669 	
S	 20.168510313795 	 10.645166476894 	  5.355868470669 	
S	 19.599966183795 	 10.645169286894 	 15.486425190669 	
S	  5.268329470158 	  4.682879112302 	 10.662711433716 	
S	  4.699785340158 	  4.682881922302 	 20.793268153716 	
S	  5.268298370158 	 10.866440872302 	 10.662708603716 	
S	  4.699754240158 	 10.866443682302 	 20.793265323716 	
S	 19.949156770158 	  4.682888342302 	 10.690841363716 	
S	 19.380612640158 	  4.682891152302 	 20.821398083716 	
S	 19.949125670158 	 10.866450102302 	 10.690838533716 	
S	 19.380581540158 	 10.866452912302 	 20.821395253716 	
S	  8.081847979040 	  1.635475860012 	  5.470347600444 	
S	  7.513303849040 	  1.635478670012 	 15.600904320444 	
S	  8.081816879040 	  7.819037620012 	  5.470344770444 	
S	  7.513272749040 	  7.819040430012 	 15.600901490444 	
S	 22.762675279040 	  1.635485090012 	  5.498477530444 	
S	 22.194131149040 	  1.635487900012 	 15.629034250444 	
S	 22.762644179040 	  7.819046850012 	  5.498474700444 	
S	 22.194100049040 	  7.819049660012 	 15.629031420444 	
C	  6.535719709872 	  2.529546233726 	 10.358783778170 	
C	  5.967175579872 	  2.529549043726 	 20.489340498170 	
C	  6.535688609872 	  8.713107993726 	 10.358780948170 	
C	  5.967144479872 	  8.713110803726 	 20.489337668170 	
C	 21.216547009872 	  2.529555463726 	 10.386913708170 	
C	 20.648002879872 	  2.529558273726 	 20.517470428170 	
C	 21.216515909872 	  8.713117223726 	 10.386910878170 	
C	 20.647971779872 	  8.713120033726 	 20.517467598170 	
C	  6.814419147298 	  5.554675515075 	  5.787066601320 	
C	  6.245875017298 	  5.554678325075 	 15.917623321320 	
C	  6.814388047298 	 11.738237275075 	  5.787063771320 	
C	  6.245843917298 	 11.738240085075 	 15.917620491320 	
C	 21.495246447298 	  5.554684745075 	  5.815196531320 	
C	 20.926702317298 	  5.554687555075 	 15.945753251320 	
C	 21.495215347298 	 11.738246505075 	  5.815193701320 	
C	 20.926671217298 	 11.738249315075 	 15.945750421320 	
C	  7.033840923811 	  3.567525160580 	  0.439305457017 	
C	  6.465296793811 	  3.567527970580 	 10.569862177017 	
C	  7.033809823811 	  9.751086920580 	  0.439302627017 	
C	  6.465265693811 	  9.751089730580 	 10.569859347017 	
C	 21.714668223811 	  3.567534390580 	  0.467435387017 	
C	 21.146124093811 	  3.567537200580 	 10.597992107017 	
C	 21.714637123811 	  9.751096150580 	  0.467432557017 	
C	 21.146092993811 	  9.751098960580 	 10.597989277017 	
C	  6.755142788976 	  0.542395881318 	  5.011022179895 	
C	  6.186598658976 	  0.542398691318 	 15.141578899895 	
C	  6.755111688976 	  6.725957641318 	  5.011019349895 	
C	  6.186567558976 	  6.725960451318 	 15.141576069895 	
C	 21.435970088976 	  0.542405111318 	  5.039152109895 	
C	 20.867425958976 	  0.542407921318 	 15.169708829895 	
C	 21.435938988976 	  6.725966871318 	  5.039149279895 	
C	 20.867394858976 	  6.725969681318 	 15.169705999895 	
C	  5.517676400838 	  2.408915855525 	  9.367857368864 	
C	  4.949132270838 	  2.408918665525 	 19.498414088864 	
C	  5.517645300838 	  8.592477615525 	  9.367854538864 	
C	  4.949101170838 	  8.592480425525 	 19.498411258864 	
C	 20.198503700838 	  2.408925085525 	  9.395987298864 	
C	 19.629959570838 	  2.408927895525 	 19.526544018864 	
C	 20.198472600838 	  8.592486845525 	  9.395984468864 	
C	 19.629928470838 	  8.592489655525 	 19.526541188864 	
C	  7.838147961902 	  5.460871426772 	  6.765001513807 	
C	  7.269603831902 	  5.460874236772 	 16.895558233807 	
C	  7.838116861902 	 11.644433186772 	  6.764998683807 	
C	  7.269572731902 	 11.644435996772 	 16.895555403807 	
C	 22.518975261902 	  5.460880656772 	  6.793131443807 	
C	 21.950431131902 	  5.460883466772 	 16.923688163807 	
C	 22.518944161902 	 11.644442416772 	  6.793128613807 	
C	 21.950400031902 	 11.644445226772 	 16.923685333807 	
C	  8.051884215223 	  3.688155620291 	  1.430231848982 	
C	  7.483340085223 	  3.688158430291 	 11.560788568982 	
C	  8.051853115223 	  9.871717380291 	  1.430229018982 	
C	  7.483308985223 	  9.871720190291 	 11.560785738982 	
C	 22.732711515223 	  3.688164850291 	  1.458361778982 	
C	 22.164167385223 	  3.688167660291 	 11.588918498982 	
C	 22.732680415223 	  9.871726610291 	  1.458358948982 	
C	 22.164136285223 	  9.871729420291 	 11.588915668982 	
C	  5.731413720726 	  0.636200020587 	  4.033087560819 	
C	  5.162869590726 	  0.636202830587 	 14.163644280819 	
C	  5.731382620726 	  6.819761780587 	  4.033084730819 	
C	  5.162838490726 	  6.819764590587 	 14.163641450819 	
C	 20.412241020726 	  0.636209250587 	  4.061217490819 	
C	 19.843696890726 	  0.636212060587 	 14.191774210819 	
C	 20.412209920726 	  6.819771010587 	  4.061214660819 	
C	 19.843665790726 	  6.819773820587 	 14.191771380819 	
C	  4.697133386800 	  3.525802589462 	  9.394705562769 	
C	  4.128589256800 	  3.525805399462 	 19.525262282769 	
C	  4.697102286800 	  9.709364349462 	  9.394702732769 	
C	  4.128558156800 	  9.709367159462 	 19.525259452769 	
C	 19.377960686800 	  3.525811819462 	  9.422835492769 	
C	 18.809416556800 	  3.525814629462 	 19.553392212769 	
C	 19.377929586800 	  9.709373579462 	  9.422832662769 	
C	 18.809385456800 	  9.709376389462 	 19.553389382769 	
C	  8.643824253577 	  0.472903918778 	  6.738824413687 	
C	  8.075280123577 	  0.472906728778 	 16.869381133687 	
C	  8.643793153577 	  6.656465678778 	  6.738821583687 	
C	  8.075249023577 	  6.656468488778 	 16.869378303687 	
C	 23.324651553577 	  0.472913148778 	  6.766954343687 	
C	 22.756107423577 	  0.472915958778 	 16.897511063687 	
C	 23.324620453577 	  6.656474908778 	  6.766951513687 	
C	 22.756076323577 	  6.656477718778 	 16.897508233687 	
C	  8.872427214992 	  2.571268807507 	  1.403383655364 	
C	  8.303883084992 	  2.571271617507 	 11.533940375363 	
C	  8.872396114992 	  8.754830567507 	  1.403380825364 	
C	  8.303851984992 	  8.754833377507 	 11.533937545364 	
C	 23.553254514992 	  2.571278037507 	  1.431513585364 	
C	 22.984710384992 	  2.571280847507 	 11.562070305364 	
C	 23.553223414992 	  8.754839797507 	  1.431510755364 	
C	 22.984679284992 	  8.754842607507 	 11.562067475364 	
C	  4.925737533855 	  5.624167535477 	  4.059264878155 	
C	  4.357193403855 	  5.624170345477 	 14.189821598155 	
C	  4.925706433855 	 11.807729295477 	  4.059262048155 	
C	  4.357162303855 	 11.807732105477 	 14.189818768155 	
C	 19.606564833855 	  5.624176765477 	  4.087394808155 	
C	 19.038020703855 	  5.624179575477 	 14.217951528155 	
C	 19.606533733855 	 11.807738525477 	  4.087391978155 	
C	 19.037989603855 	 11.807741335477 	 14.217948698155 	
C	  3.658959198918 	  3.673144627425 	  8.586989243162 	
C	  3.090415068918 	  3.673147437425 	 18.717545963162 	
C	  3.658928098918 	  9.856706387425 	  8.586986413162 	
C	  3.090383968918 	  9.856709197425 	 18.717543133162 	
C	 18.339786498918 	  3.673153857425 	  8.615119173162 	
C	 17.771242368918 	  3.673156667425 	 18.745675893162 	
C	 18.339755398918 	  9.856715617425 	  8.615116343162 	
C	 17.771211268918 	  9.856718427425 	 18.745673063162 	
C	  9.690620210495 	  0.625813964204 	  7.550161247076 	
C	  9.122076080495 	  0.625816774204 	 17.680717967076 	
C	  9.690589110495 	  6.809375724204 	  7.550158417076 	
C	  9.122044980495 	  6.809378534204 	 17.680715137076 	
C	 24.371447510495 	  0.625823194204 	  7.578291177076 	
C	 23.802903380495 	  0.625826004204 	 17.708847897076 	
C	 24.371416410495 	  6.809384954204 	  7.578288347076 	
C	 23.802872280495 	  6.809387764204 	 17.708845067076 	
C	  9.910601411304 	  2.423926957392 	  2.211100210895 	
C	  9.342057281304 	  2.423929767392 	 12.341656930895 	
C	  9.910570311304 	  8.607488717392 	  2.211097380895 	
C	  9.342026181304 	  8.607491527392 	 12.341654100895 	
C	 24.591428711304 	  2.423936187392 	  2.239230140895 	
C	 24.022884581304 	  2.423938997392 	 12.369786860895 	
C	 24.591397611304 	  8.607497947392 	  2.239227310895 	
C	 24.022853481304 	  8.607500757392 	 12.369784030895 	
C	  3.878941046536 	  5.471257593868 	  3.247928578198 	
C	  3.310396916536 	  5.471260403868 	 13.378485298198 	
C	  3.878909946536 	 11.654819353868 	  3.247925748198 	
C	  3.310365816536 	 11.654822163868 	 13.378482468198 	
C	 18.559768346536 	  5.471266823868 	  3.276058508198 	
C	 17.991224216536 	  5.471269633868 	 13.406615228198 	
C	 18.559737246536 	 11.654828583868 	  3.276055678198 	
C	 17.991193116536 	 11.654831393868 	 13.406612398198 	
H	  3.025755309718 	  4.633233965683 	  8.661683943228 	
H	  2.457211179718 	  4.633236775683 	 18.792240663228 	
H	  3.025724209718 	 10.816795725683 	  8.661681113228 	
H	  2.457180079718 	 10.816798535683 	 18.792237833228 	
H	 17.706582609718 	  4.633243195683 	  8.689813873228 	
H	 17.138038479718 	  4.633246005683 	 18.820370593228 	
H	 17.706551509718 	 10.816804955683 	  8.689811043228 	
H	 17.138007379718 	 10.816807765683 	 18.820367763228 	
H	 10.322694196183 	  1.583122245687 	  7.472207556198 	
H	  9.754150066183 	  1.583125055687 	 17.602764276198 	
H	 10.322663096183 	  7.766684005687 	  7.472204726198 	
H	  9.754118966183 	  7.766686815687 	 17.602761446198 	
H	 25.003521496183 	  1.583131475687 	  7.500337486198 	
H	 24.434977366183 	  1.583134285687 	 17.630894206198 	
H	 25.003490396183 	  7.766693235687 	  7.500334656198 	
H	 24.434946266183 	  7.766696045687 	 17.630891376198 	
H	 10.543805199784 	  1.463837504926 	  2.136405766854 	
H	  9.975261069784 	  1.463840314926 	 12.266962486854 	
H	 10.543774099784 	  7.647399264926 	  2.136402936854 	
H	  9.975229969784 	  7.647402074926 	 12.266959656854 	
H	 25.224632499784 	  1.463846734926 	  2.164535696854 	
H	 24.656088369784 	  1.463849544926 	 12.295092416854 	
H	 25.224601399784 	  7.647408494926 	  2.164532866854 	
H	 24.656057269784 	  7.647411304926 	 12.295089586854 	
H	  3.246867190640 	  4.513949249767 	  3.325882488125 	
H	  2.678323060640 	  4.513952059767 	 13.456439208125 	
H	  3.246836090640 	 10.697511009767 	  3.325879658125 	
H	  2.678291960640 	 10.697513819767 	 13.456436378125 	
H	 17.927694490640 	  4.513958479767 	  3.354012418125 	
H	 17.359150360640 	  4.513961289767 	 13.484569138125 	
H	 17.927663390640 	 10.697520239767 	  3.354009588125 	
H	 17.359119260640 	 10.697523049767 	 13.484566308125 	
C	  3.327547473031 	  2.746410166902 	  7.678336040475 	
C	  2.759003343031 	  2.746412976902 	 17.808892760475 	
C	  3.327516373031 	  8.929971926902 	  7.678333210475 	
C	  2.758972243031 	  8.929974736902 	 17.808889930475 	
C	 18.008374773031 	  2.746419396902 	  7.706465970475 	
C	 17.439830643031 	  2.746422206902 	 17.837022690475 	
C	 18.008343673031 	  8.929981156902 	  7.706463140475 	
C	 17.439799543031 	  8.929983966902 	 17.837019860475 	
C	 10.020160347417 	  5.793963397576 	  8.450415138353 	
C	  9.451616217417 	  5.793966207576 	 18.580971858353 	
C	 10.020129247417 	 11.977525157576 	  8.450412308353 	
C	  9.451585117417 	 11.977527967576 	 18.580969028353 	
C	 24.700987647417 	  5.793972627576 	  8.478545068353 	
C	 24.132443517417 	  5.793975437576 	 18.609101788353 	
C	 24.700956547417 	 11.977534387576 	  8.478542238353 	
C	 24.132412417417 	 11.977537197576 	 18.609098958353 	
C	 10.242013019935 	  3.350661551458 	  3.119753091656 	
C	  9.673468889935 	  3.350664361458 	 13.250309811656 	
C	 10.241981919935 	  9.534223311458 	  3.119750261656 	
C	  9.673437789935 	  9.534226121458 	 13.250306981656 	
C	 24.922840319935 	  3.350670781458 	  3.147883021656 	
C	 24.354296189935 	  3.350673591458 	 13.278439741656 	
C	 24.922809219935 	  9.534232541458 	  3.147880191656 	
C	 24.354265089935 	  9.534235351458 	 13.278436911656 	
C	  3.549400440910 	  0.303108271701 	  2.347674976394 	
C	  2.980856310910 	  0.303111081701 	 12.478231696394 	
C	  3.549369340910 	  6.486670031701 	  2.347672146394 	
C	  2.980825210910 	  6.486672841701 	 12.478228866394 	
C	 18.230227740910 	  0.303117501701 	  2.375804906394 	
C	 17.661683610910 	  0.303120311701 	 12.506361626394 	
C	 18.230196640910 	  6.486679261701 	  2.375802076394 	
C	 17.661652510910 	  6.486682071701 	 12.506358796394 	
C	  4.150140183688 	  1.647716226290 	  7.631859631859 	
C	  3.581596053688 	  1.647719036290 	 17.762416351859 	
C	  4.150109083688 	  7.831277986290 	  7.631856801859 	
C	  3.581564953688 	  7.831280796290 	 17.762413521859 	
C	 18.830967483688 	  1.647725456290 	  7.659989561859 	
C	 18.262423353688 	  1.647728266290 	 17.790546281859 	
C	 18.830936383688 	  7.831287216290 	  7.659986731859 	
C	 18.262392253688 	  7.831290026290 	 17.790543451859 	
C	  9.198801774085 	  4.697088712642 	  8.500865804795 	
C	  8.630257644085 	  4.697091522642 	 18.631422524795 	
C	  9.198770674085 	 10.880650472642 	  8.500862974795 	
C	  8.630226544085 	 10.880653282642 	 18.631419694795 	
C	 23.879629074085 	  4.697097942642 	  8.528995734795 	
C	 23.311084944085 	  4.697100752642 	 18.659552454795 	
C	 23.879597974085 	 10.880659702642 	  8.528992904795 	
C	 23.311053844085 	 10.880662512642 	 18.659549624795 	
C	  9.419420414012 	  4.449355581626 	  3.166229304256 	
C	  8.850876284012 	  4.449358391626 	 13.296786024256 	
C	  9.419389314012 	 10.632917341626 	  3.166226474256 	
C	  8.850845184012 	 10.632920151626 	 13.296783194256 	
C	 24.100247714012 	  4.449364811626 	  3.194359234256 	
C	 23.531703584012 	  4.449367621626 	 13.324915954256 	
C	 24.100216614012 	 10.632926571626 	  3.194356404256 	
C	 23.531672484012 	 10.632929381626 	 13.324913124256 	
C	  4.370758995840 	  1.399982865099 	  2.297223934949 	
C	  3.802214865840 	  1.399985675099 	 12.427780654949 	
C	  4.370727895840 	  7.583544625099 	  2.297221104949 	
C	  3.802183765840 	  7.583547435099 	 12.427777824949 	
C	 19.051586295840 	  1.399992095099 	  2.325353864949 	
C	 18.483042165840 	  1.399994905099 	 12.455910584949 	
C	 19.051555195840 	  7.583553855099 	  2.325351034949 	
C	 18.483011065840 	  7.583556665099 	 12.455907754949 	
H	  3.917944790375 	  0.841231534086 	  6.844227555119 	
H	  3.349400660375 	  0.841234344086 	 16.974784275119 	
H	  3.917913690375 	  7.024793294086 	  6.844224725119 	
H	  3.349369560375 	  7.024796104086 	 16.974781445119 	
H	 18.598772090375 	  0.841240764086 	  6.872357485119 	
H	 18.030227960375 	  0.841243574086 	 17.002914205119 	
H	 18.598740990375 	  7.024802524086 	  6.872354655119 	
H	 18.030196860375 	  7.024805334086 	 17.002911375119 	
H	  9.431695716329 	  3.890696051830 	  9.289825395628 	
H	  8.863151586329 	  3.890698861830 	 19.420382115628 	
H	  9.431664616329 	 10.074257811830 	  9.289822565628 	
H	  8.863120486329 	 10.074260621830 	 19.420379285628 	
H	 24.112523016329 	  3.890705281830 	  9.317955325628 	
H	 23.543978886329 	  3.890708091830 	 19.448512045628 	
H	 24.112491916329 	 10.074267041830 	  9.317952495628 	
H	 23.543947786329 	 10.074269851830 	 19.448509215628 	
H	  9.651615972344 	  5.255840489003 	  3.953861135204 	
H	  9.083071842344 	  5.255843299003 	 14.084417855204 	
H	  9.651584872344 	 11.439402249003 	  3.953858305204 	
H	  9.083040742344 	 11.439405059003 	 14.084415025204 	
H	 24.332443272344 	  5.255849719003 	  3.981991065204 	
H	 23.763899142344 	  5.255852529003 	 14.112547785204 	
H	 24.332412172344 	 11.439411479003 	  3.981988235204 	
H	 23.763868042344 	 11.439414289003 	 14.112544955204 	
H	  4.137864632515 	  2.206375685669 	  1.508264614309 	
H	  3.569320502515 	  2.206378495669 	 11.638821334309 	
H	  4.137833532515 	  8.389937445669 	  1.508261784309 	
H	  3.569289402515 	  8.389940255669 	 11.638818504309 	
H	 18.818691932515 	  2.206384915669 	  1.536394544309 	
H	 18.250147802515 	  2.206387725669 	 11.666951264309 	
H	 18.818660832515 	  8.389946675669 	  1.536391714309 	
H	 18.250116702515 	  8.389949485669 	 11.666948434309 	
C	  5.169426514959 	  1.481737159472 	  8.410942426463 	
C	  4.600882384959 	  1.481739969472 	 18.541499146463 	
C	  5.169395414959 	  7.665298919472 	  8.410939596463 	
C	  4.600851284959 	  7.665301729472 	 18.541496316463 	
C	 19.850253814959 	  1.481746389472 	  8.439072356463 	
C	 19.281709684959 	  1.481749199472 	 18.569629076463 	
C	 19.850222714959 	  7.665308149472 	  8.439069526463 	
C	 19.281678584959 	  7.665310959472 	 18.569626246463 	
C	  8.179537258336 	  4.531107281529 	  7.721710573528 	
C	  7.610993128336 	  4.531110091529 	 17.852267293528 	
C	  8.179506158336 	 10.714669041529 	  7.721707743528 	
C	  7.610962028336 	 10.714671851529 	 17.852264463528 	
C	 22.860364558336 	  4.531116511529 	  7.749840503528 	
C	 22.291820428337 	  4.531119321529 	 17.880397223528 	
C	 22.860333458336 	 10.714678271529 	  7.749837673528 	
C	 22.291789328336 	 10.714681081529 	 17.880394393528 	
C	  8.400134103623 	  4.615334512458 	  2.387146517067 	
C	  7.831589973623 	  4.615337322458 	 12.517703237067 	
C	  8.400103003623 	 10.798896272458 	  2.387143687067 	
C	  7.831558873623 	 10.798899082458 	 12.517700407067 	
C	 23.080961403623 	  4.615343742458 	  2.415276447067 	
C	 22.512417273623 	  4.615346552458 	 12.545833167067 	
C	 23.080930303623 	 10.798905502458 	  2.415273617067 	
C	 22.512386173623 	 10.798908312458 	 12.545830337067 	
C	  5.390023911962 	  1.565964241780 	  3.076378693381 	
C	  4.821479781962 	  1.565967051780 	 13.206935413381 	
C	  5.389992811962 	  7.749526001780 	  3.076375863381 	
C	  4.821448681962 	  7.749528811780 	 13.206932583381 	
C	 20.070851211962 	  1.565973471780 	  3.104508623381 	
C	 19.502307081962 	  1.565976281780 	 13.235065343381 	
C	 20.070820111962 	  7.749535231780 	  3.104505793381 	
C	 19.502275981962 	  7.749538041780 	 13.235062513381 	
H	  5.828205461891 	  0.542069707003 	  8.322524645000 	
H	  5.259661331891 	  0.542072517003 	 18.453081365000 	
H	  5.828174361891 	  6.725631467003 	  8.322521815000 	
H	  5.259630231891 	  6.725634277003 	 18.453078535000 	
H	 20.509032761891 	  0.542078937003 	  8.350654575000 	
H	 19.940488631891 	  0.542081747003 	 18.481211295000 	
H	 20.509001661891 	  6.725640697003 	  8.350651745000 	
H	 19.940457531891 	  6.725643507003 	 18.481208465000 	
H	  7.520496600782 	  3.590845079495 	  7.810516778215 	
H	  6.951952470782 	  3.590847889495 	 17.941073498215 	
H	  7.520465500782 	  9.774406839495 	  7.810513948215 	
H	  6.951921370782 	  9.774409649495 	 17.941070668215 	
H	 22.201323900782 	  3.590854309495 	  7.838646708215 	
H	 21.632779770782 	  3.590857119495 	 17.969203428215 	
H	 22.201292800782 	  9.774416069495 	  7.838643878215 	
H	 21.632748670782 	  9.774418879495 	 17.969200598215 	
H	  7.741355170087 	  5.555002003043 	  2.475563999819 	
H	  7.172811040087 	  5.555004813043 	 12.606120719819 	
H	  7.741324070087 	 11.738563763043 	  2.475561169819 	
H	  7.172779940087 	 11.738566573043 	 12.606117889819 	
H	 22.422182470087 	  5.555011233043 	  2.503693929819 	
H	 21.853638340087 	  5.555014043043 	 12.634250649819 	
H	 22.422151370087 	 11.738572993043 	  2.503691099819 	
H	 21.853607240087 	 11.738575803043 	 12.634247819819 	
H	  6.049064561257 	  2.506226419411 	  2.987572277755 	
H	  5.480520431257 	  2.506229229411 	 13.118128997755 	
H	  6.049033461257 	  8.689788179411 	  2.987569447755 	
H	  5.480489331257 	  8.689790989411 	 13.118126167755 	
H	 20.729891861257 	  2.506235649411 	  3.015702207755 	
H	 20.161347731257 	  2.506238459411 	 13.146258927755 	
H	 20.729860761257 	  8.689797409411 	  3.015699377755 	
H	 20.161316631257 	  8.689800219411 	 13.146256097755 	
C	  2.020924661479 	  2.890430707363 	  6.731781515604 	
C	  1.452380531479 	  2.890433517363 	 16.862338235604 	
C	  2.020893561479 	  9.073992467363 	  6.731778685604 	
C	  1.452349431479 	  9.073995277363 	 16.862335405604 	
C	 16.701751961479 	  2.890439937363 	  6.759911445604 	
C	 16.133207831479 	  2.890442747363 	 16.890468165604 	
C	 16.701720861479 	  9.074001697363 	  6.759908615604 	
C	 16.133176731479 	  9.074004507363 	 16.890465335604 	
C	 11.326480427488 	  5.929755081546 	  9.395066302241 	
C	 10.757936297488 	  5.929757891546 	 19.525623022241 	
C	 11.326449327488 	 12.113316841546 	  9.395063472241 	
C	 10.757905197488 	 12.113319651546 	 19.525620192241 	
C	 26.007307727488 	  5.929764311546 	  9.423196232241 	
C	 25.438763597488 	  5.929767121546 	 19.553752952241 	
C	 26.007276627488 	 12.113326071546 	  9.423193402241 	
C	 25.438732497488 	 12.113328881546 	 19.553750122241 	
C	 11.548635560763 	  3.206641395941 	  4.066307778400 	
C	 10.980091430763 	  3.206644205941 	 14.196864498400 	
C	 11.548604460763 	  9.390203155941 	  4.066304948400 	
C	 10.980060330763 	  9.390205965941 	 14.196861668400 	
C	 26.229462860763 	  3.206650625941 	  4.094437708400 	
C	 25.660918730763 	  3.206653435941 	 14.224994428400 	
C	 26.229431760763 	  9.390212385941 	  4.094434878400 	
C	 25.660887630763 	  9.390215195941 	 14.224991598400 	
C	  2.243079771716 	  0.167316538141 	  1.403024415423 	
C	  1.674535641716 	  0.167319348141 	 11.533581135423 	
C	  2.243048671716 	  6.350878298141 	  1.403021585423 	
C	  1.674504541716 	  6.350881108141 	 11.533578305423 	
C	 16.923907071716 	  0.167325768141 	  1.431154345423 	
C	 16.355362941716 	  0.167328578141 	 11.561711065423 	
C	 16.923875971716 	  6.350887528141 	  1.431151515423 	
C	 16.355331841716 	  6.350890338141 	 11.561708235423 	
C	  2.224169908891 	  2.352516048463 	  5.516973071980 	
C	  1.655625778891 	  2.352518858463 	 15.647529791980 	
C	  2.224138808891 	  8.536077808463 	  5.516970241980 	
C	  1.655594678891 	  8.536080618463 	 15.647526961980 	
C	 16.904997208891 	  2.352525278463 	  5.545103001980 	
C	 16.336453078891 	  2.352528088463 	 15.675659721980 	
C	 16.904966108891 	  8.536087038463 	  5.545100171980 	
C	 16.336421978891 	  8.536089848463 	 15.675656891980 	
C	 11.099153500393 	 -0.590114746035 	 10.570366952187 	
C	 10.530609370393 	 -0.590111936035 	 20.700923672187 	
C	 11.099122400393 	  5.593447013965 	 10.570364122187 	
C	 10.530578270393 	  5.593449823965 	 20.700920842187 	
C	 25.779980800393 	 -0.590105516035 	 10.598496882187 	
C	 25.211436670393 	 -0.590102706035 	 20.729053602187 	
C	 25.779949700393 	  5.593456243965 	 10.598494052187 	
C	 25.211405570393 	  5.593459053965 	 20.729050772187 	
C	 11.345389221428 	  3.744554808684 	  5.281116900699 	
C	 10.776845091428 	  3.744557618684 	 15.411673620699 	
C	 11.345358121428 	  9.928116568684 	  5.281114070699 	
C	 10.776813991428 	  9.928119378684 	 15.411670790699 	
C	 26.026216521428 	  3.744564038684 	  5.309246830699 	
C	 25.457672391428 	  3.744566848684 	 15.439803550699 	
C	 26.026185421428 	  9.928125798684 	  5.309244000699 	
C	 25.457641291428 	  9.928128608684 	 15.439800720699 	
C	  2.470406240989 	  6.687186605569 	  0.227723659958 	
C	  1.901862110989 	  6.687189415569 	 10.358280379958 	
C	  2.470375140989 	 12.870748365569 	  0.227720829958 	
C	  1.901831010989 	 12.870751175569 	 10.358277549958 	
C	 17.151233540989 	  6.687195835569 	  0.255853589958 	
C	 16.582689410989 	  6.687198645569 	 10.386410309958 	
C	 17.151202440989 	 12.870757595569 	  0.255850759958 	
C	 16.582658310989 	 12.870760405569 	 10.386407479958 	
H	  3.148223466081 	  2.693390309353 	  4.937101513248 	
H	  2.579679336081 	  2.693393119353 	 15.067658233248 	
H	  3.148192366081 	  8.876952069353 	  4.937098683248 	
H	  2.579648236081 	  8.876954879353 	 15.067655403248 	
H	 17.829050766081 	  2.693399539353 	  4.965231443248 	
H	 17.260506636081 	  2.693402349353 	 15.095788163248 	
H	 17.829019666081 	  8.876961299353 	  4.965228613248 	
H	 17.260475536081 	  8.876964109353 	 15.095785333248 	
H	 10.194708994145 	 -0.354868896813 	 11.198024788896 	
H	  9.626164864145 	 -0.354866086813 	 21.328581508896 	
H	 10.194677894145 	  5.828692863187 	 11.198021958896 	
H	  9.626133764145 	  5.828695673187 	 21.328578678896 	
H	 24.875536294145 	 -0.354859666813 	 11.226154718896 	
H	 24.306992164145 	 -0.354856856813 	 21.356711438896 	
H	 24.875505194145 	  5.828702093187 	 11.226151888896 	
H	 24.306961064145 	  5.828704903187 	 21.356708608896 	
H	 10.421336298880 	  3.403678163312 	  5.860987945431 	
H	  9.852792168880 	  3.403680973312 	 15.991544665431 	
H	 10.421305198880 	  9.587239923312 	  5.860985115431 	
H	  9.852761068880 	  9.587242733312 	 15.991541835431 	
H	 25.102163598880 	  3.403687393312 	  5.889117875431 	
H	 24.533619468880 	  3.403690203312 	 16.019674595431 	
H	 25.102132498880 	  9.587249153312 	  5.889115045431 	
H	 24.533588368880 	  9.587251963312 	 16.019671765431 	
H	  3.374850500524 	  6.451940788088 	 -0.399934520313 	
H	  2.806306370524 	  6.451943598088 	  9.730622199687 	
H	  3.374819400524 	 12.635502548088 	 -0.399937350313 	
H	  2.806275270524 	 12.635505358088 	  9.730619369687 	
H	 18.055677800524 	  6.451950018088 	 -0.371804590313 	
H	 17.487133670524 	  6.451952828088 	  9.758752129687 	
H	 18.055646700524 	 12.635511778088 	 -0.371807420313 	
H	 17.487102570524 	 12.635514588088 	  9.758749299687 	
H	  1.404003580660 	  2.485325507772 	  4.752353560801 	
H	  0.835459450660 	  2.485328317772 	 14.882910280801 	
H	  1.403972480660 	  8.668887267772 	  4.752350730801 	
H	  0.835428350660 	  8.668890077772 	 14.882907450801 	
H	 16.084830880660 	  2.485334737772 	  4.780483490801 	
H	 15.516286750660 	  2.485337547772 	 14.911040210801 	
H	 16.084799780660 	  8.668896497772 	  4.780480660801 	
H	 15.516255650660 	  8.668899307772 	 14.911037380801 	
H	 12.442588603287 	 -0.556079283859 	  0.758772011127 	
H	 11.874044473287 	 -0.556076473859 	 10.889328731127 	
H	 12.442557503287 	  5.627482476141 	  0.758769181127 	
H	 11.874013373287 	  5.627485286141 	 10.889325901127 	
H	 27.123415903287 	 -0.556070053859 	  0.786901941127 	
H	 26.554871773287 	 -0.556067243859 	 10.917458661127 	
H	 27.123384803287 	  5.627491706141 	  0.786899111127 	
H	 26.554840673287 	  5.627494516141 	 10.917455831127 	
H	 12.165555710696 	  3.611745883696 	  6.045736338110 	
H	 11.597011580696 	  3.611748693696 	 16.176293058110 	
H	 12.165524610696 	  9.795307643696 	  6.045733508110 	
H	 11.596980480696 	  9.795310453696 	 16.176290228110 	
H	 26.846383010696 	  3.611755113696 	  6.073866268110 	
H	 26.277838880696 	  3.611757923696 	 16.204422988110 	
H	 26.846351910696 	  9.795316873696 	  6.073863438110 	
H	 26.277807780696 	  9.795319683696 	 16.204420158110 	
H	  1.126970701280 	  6.653151185406 	 10.039319136342 	
H	  0.558426571280 	  6.653153995406 	 20.169875856342 	
H	  1.126939601280 	 12.836712945406 	 10.039316306342 	
H	  0.558395471280 	 12.836715755406 	 20.169873026342 	
H	 15.807798001280 	  6.653160415406 	 10.067449066342 	
H	 15.239253871280 	  6.653163225406 	 20.198005786342 	
H	 15.807766901280 	 12.836722175406 	 10.067446236342 	
H	 15.239222771280 	 12.836724985406 	 20.198002956342 	
H	  2.398918456362 	  1.225800461982 	  5.453729351508 	
H	  1.830374326362 	  1.225803271982 	 15.584286071508 	
H	  2.398887356362 	  7.409362221982 	  5.453726521508 	
H	  1.830343226362 	  7.409365031982 	 15.584283241508 	
H	 17.079745756362 	  1.225809691982 	  5.481859281508 	
H	 16.511201626362 	  1.225812501982 	 15.612416001508 	
H	 17.079714656362 	  7.409371451982 	  5.481856451508 	
H	 16.511170526362 	  7.409374261982 	 15.612413171508 	
H	 11.364934259174 	  4.162605497774 	  0.009320022041 	
H	 10.796390129174 	  4.162608307774 	 10.139876742041 	
H	 11.364903159174 	 10.346167257774 	  0.009317192041 	
H	 10.796359029174 	 10.346170067774 	 10.139873912041 	
H	 26.045761559174 	  4.162614727774 	  0.037449952041 	
H	 25.477217429174 	  4.162617537774 	 10.168006672041 	
H	 26.045730459174 	 10.346176487774 	  0.037447122041 	
H	 25.477186329174 	 10.346179297774 	 10.168003842041 	
H	 11.170638676293 	  4.871269965205 	  5.344361655030 	
H	 10.602094546293 	  4.871272775205 	 15.474918375030 	
H	 11.170607576293 	 11.054831725205 	  5.344358825030 	
H	 10.602063446293 	 11.054834535205 	 15.474915545030 	
H	 25.851465976293 	  4.871279195205 	  5.372491585030 	
H	 25.282921846293 	  4.871282005205 	 15.503048305030 	
H	 25.851434876293 	 11.054840955205 	  5.372488755030 	
H	 25.282890746293 	 11.054843765205 	 15.503045475030 	
H	  2.204625445080 	  1.934466351067 	 10.788770930041 	
H	  1.636081315080 	  1.934469161067 	 20.919327650041 	
H	  2.204594345080 	  8.118028111067 	 10.788768100041 	
H	  1.636050215080 	  8.118030921067 	 20.919324820041 	
H	 16.885452745080 	  1.934475581067 	 10.816900860041 	
H	 16.316908615080 	  1.934478391067 	 20.947457580041 	
H	 16.885421645080 	  8.118037341067 	 10.816898030041 	
H	 16.316877515080 	  8.118040151067 	 20.947454750041 	
C	  1.688620867705 	  4.184882008693 	  6.566079663917 	
C	  1.120076737705 	  4.184884818693 	 16.696636383917 	
C	  1.688589767705 	 10.368443768693 	  6.566076833917 	
C	  1.120045637705 	 10.368446578693 	 16.696633553917 	
C	 16.369448167705 	  4.184891238693 	  6.594209593917 	
C	 15.800904037705 	  4.184894048693 	 16.724766313917 	
C	 16.369417067705 	 10.368452998693 	  6.594206763917 	
C	 15.800872937705 	 10.368455808693 	 16.724763483917 	
C	 11.682160431653 	  1.170404041972 	  9.562225709773 	
C	 11.113616301653 	  1.170406851972 	 19.692782429773 	
C	 11.682129331653 	  7.353965801972 	  9.562222879773 	
C	 11.113585201653 	  7.353968611972 	 19.692779599773 	
C	 26.362987731653 	  1.170413271972 	  9.590355639773 	
C	 25.794443601653 	  1.170416081972 	 19.720912359773 	
C	 26.362956631653 	  7.353975031972 	  9.590352809773 	
C	 25.794412501653 	  7.353977841972 	 19.720909529773 	
C	 11.880940710438 	  1.912189938279 	  4.232008336652 	
C	 11.312396580438 	  1.912192748279 	 14.362565056652 	
C	 11.880909610438 	  8.095751698279 	  4.232005506652 	
C	 11.312365480438 	  8.095754508279 	 14.362562226652 	
C	 26.561768010438 	  1.912199168279 	  4.260138266652 	
C	 25.993223880438 	  1.912201978279 	 14.390694986652 	
C	 26.561736910438 	  8.095760928279 	  4.260135436652 	
C	 25.993192780438 	  8.095763738279 	 14.390692156652 	
C	  1.887399789138 	  4.926667557451 	  1.235864995435 	
C	  1.318855659138 	  4.926670367451 	 11.366421715435 	
C	  1.887368689138 	 11.110229317451 	  1.235862165435 	
C	  1.318824559138 	 11.110232127451 	 11.366418885435 	
C	 16.568227089138 	  4.926676787451 	  1.263994925435 	
C	 15.999682959138 	  4.926679597451 	 11.394551645435 	
C	 16.568195989138 	 11.110238547451 	  1.263992095435 	
C	 15.999651859138 	 11.110241357451 	 11.394548815435 	
H	  2.490838482836 	  4.878579750412 	  6.150365843521 	
H	  1.922294352836 	  4.878582560412 	 16.280922563521 	
H	  2.490807382836 	 11.062141510412 	  6.150363013521 	
H	  1.922263252836 	 11.062144320412 	 16.280919733521 	
H	 17.171665782836 	  4.878588980412 	  6.178495773521 	
H	 16.603121652836 	  4.878591790412 	 16.309052493521 	
H	 17.171634682836 	 11.062150740412 	  6.178492943521 	
H	 16.603090552836 	 11.062153550412 	 16.309049663521 	
H	 10.860032663091 	  1.828991538308 	  9.982050672976 	
H	 10.291488533091 	  1.828994348308 	 20.112607392976 	
H	 10.860001563091 	  8.012553298308 	  9.982047842976 	
H	 10.291457433091 	  8.012556108308 	 20.112604562976 	
H	 25.540859963091 	  1.829000768308 	 10.010180602976 	
H	 24.972315833091 	  1.829003578308 	 20.140737322976 	
H	 25.540828863091 	  8.012562528308 	 10.010177772976 	
H	 24.972284733091 	  8.012565338308 	 20.140734492976 	
H	 11.078723548731 	  1.218491080674 	  4.647721034354 	
H	 10.510179418731 	  1.218493890674 	 14.778277754354 	
H	 11.078692448731 	  7.402052840674 	  4.647718204354 	
H	 10.510148318731 	  7.402055650674 	 14.778274924354 	
H	 25.759550848731 	  1.218500310674 	  4.675850964354 	
H	 25.191006718731 	  1.218503120674 	 14.806407684354 	
H	 25.759519748731 	  7.402062070674 	  4.675848134354 	
H	 25.190975618731 	  7.402064880674 	 14.806404854354 	
H	  2.709527428973 	  4.268080230586 	  0.816039520174 	
H	  2.140983298973 	  4.268083040586 	 10.946596240174 	
H	  2.709496328973 	 10.451641990586 	  0.816036690174 	
H	  2.140952198973 	 10.451644800586 	 10.946593410174 	
H	 17.390354728973 	  4.268089460586 	  0.844169450174 	
H	 16.821810598973 	  4.268092270586 	 10.974726170174 	
H	 17.390323628973 	 10.451651220586 	  0.844166620174 	
H	 16.821779498973 	 10.451654030586 	 10.974723340174 	
H	  1.398306208460 	  4.781219507590 	  7.493429692015 	
H	  0.829762078460 	  4.781222317590 	 17.623986412015 	
H	  1.398275108460 	 10.964781267590 	  7.493426862015 	
H	  0.829730978460 	 10.964784077590 	 17.623983582015 	
H	 16.079133508460 	  4.781228737590 	  7.521559622015 	
H	 15.510589378460 	  4.781231547590 	 17.652116342015 	
H	 16.079102408460 	 10.964790497590 	  7.521556792015 	
H	 15.510558278460 	 10.964793307590 	 17.652113512015 	
H	 11.945774960558 	  7.809445577261 	  8.657339026319 	
H	 11.377230830558 	  7.809448387261 	 18.787895746319 	
H	 11.945743860558 	 13.993007337261 	  8.657336196319 	
H	 11.377199730558 	 13.993010147261 	 18.787892916319 	
H	 26.626602260558 	  7.809454807261 	  8.685468956319 	
H	 26.058058130558 	  7.809457617261 	 18.816025676319 	
H	 26.626571160558 	 13.993016567261 	  8.685466126319 	
H	 26.058027030558 	 13.993019377261 	 18.816022846319 	
H	 12.171256581777 	  1.315853963486 	  3.304657779164 	
H	 11.602712451777 	  1.315856773486 	 13.435214499164 	
H	 12.171225481777 	  7.499415723486 	  3.304654949164 	
H	 11.602681351777 	  7.499418533486 	 13.435211669164 	
H	 26.852083881777 	  1.315863193486 	  3.332787709164 	
H	 26.283539751777 	  1.315866003486 	 13.463344429164 	
H	 26.852052781777 	  7.499424953486 	  3.332784879164 	
H	 26.283508651777 	  7.499427763486 	 13.463341599164 	
H	  1.623785891196 	 -1.712374116254 	  2.140751762785 	
H	  1.055241761196 	 -1.712371306254 	 12.271308482785 	
H	  1.623754791196 	  4.471187643746 	  2.140748932785 	
H	  1.055210661196 	  4.471190453746 	 12.271305652785 	
H	 16.304613191196 	 -1.712364886254 	  2.168881692785 	
H	 15.736069061196 	 -1.712362076254 	 12.299438412785 	
H	 16.304582091196 	  4.471196873746 	  2.168878862785 	
H	 15.736037961196 	  4.471199683746 	 12.299435582785 	
H	  0.814584996678 	  4.374489725321 	  5.878206645481 	
H	  0.246040866678 	  4.374492535321 	 16.008763365481 	
H	  0.814553896678 	 10.558051485321 	  5.878203815481 	
H	  0.246009766678 	 10.558054295321 	 16.008760535481 	
H	 15.495412296678 	  4.374498955321 	  5.906336575481 	
H	 14.926868166678 	  4.374501765321 	 16.036893295481 	
H	 15.495381196678 	 10.558060715321 	  5.906333745481 	
H	 14.926837066678 	 10.558063525321 	 16.036890465481 	
H	 12.517301645650 	  7.414958554752 	 10.241593042362 	
H	 11.948757515650 	  7.414961364752 	 20.372149762362 	
H	 12.517270545650 	 13.598520314752 	 10.241590212362 	
H	 11.948726415650 	 13.598523124752 	 20.372146932362 	
H	 27.198128945650 	  7.414967784752 	 10.269722972362 	
H	 26.629584815650 	  7.414970594752 	 20.400279692362 	
H	 27.198097845650 	 13.598529544752 	 10.269720142362 	
H	 26.629553715650 	 13.598532354752 	 20.400276862362 	
H	 12.754976397161 	  1.722582492327 	  4.919881633673 	
H	 12.186432267161 	  1.722585302327 	 15.050438353673 	
H	 12.754945297161 	  7.906144252327 	  4.919878803673 	
H	 12.186401167161 	  7.906147062327 	 15.050435523673 	
H	 27.435803697161 	  1.722591722327 	  4.948011563673 	
H	 26.867259567161 	  1.722594532327 	 15.078568283673 	
H	 27.435772597161 	  7.906153482327 	  4.948008733673 	
H	 26.867228467161 	  7.906156292327 	 15.078565453673 	
H	  1.052258185766 	 -1.317886981029 	  0.556498145294 	
H	  0.483714055766 	 -1.317884171029 	 10.687054865294 	
H	  1.052227085766 	  4.865674778971 	  0.556495315294 	
H	  0.483682955766 	  4.865677588971 	 10.687052035294 	
H	 15.733085485766 	 -1.317877751029 	  0.584628075294 	
H	 15.164541355766 	 -1.317874941029 	 10.715184795294 	
H	 15.733054385766 	  4.865684008971 	  0.584625245294 	
H	 15.164510255766 	  4.865686818971 	 10.715181965294 	
C	  0.990976454365 	  2.249051463791 	  7.325285830524 	
C	  0.422432324365 	  2.249054273791 	 17.455842550524 	
C	  0.990945354365 	  8.432613223791 	  7.325283000524 	
C	  0.422401224365 	  8.432616033791 	 17.455839720524 	
C	 15.671803754365 	  2.249060693791 	  7.353415760524 	
C	 15.103259624365 	  2.249063503791 	 17.483972480524 	
C	 15.671772654365 	  8.432622453791 	  7.353412930524 	
C	 15.103228524365 	  8.432625263791 	 17.483969650524 	
C	 12.356994086827 	  5.298580926929 	  8.808448324627 	
C	 11.788449956827 	  5.298583736929 	 18.939005044627 	
C	 12.356962986827 	 11.482142686929 	  8.808445494627 	
C	 11.788418856827 	 11.482145496929 	 18.939002214627 	
C	 27.037821386827 	  5.298590156929 	  8.836578254627 	
C	 26.469277256827 	  5.298592966929 	 18.967134974627 	
C	 27.037790286827 	 11.482151916929 	  8.836575424627 	
C	 26.469246156827 	 11.482154726929 	 18.967132144627 	
C	 12.578583372704 	  3.848022638514 	  3.472803890293 	
C	 12.010039242704 	  3.848025448514 	 13.603360610293 	
C	 12.578552272704 	 10.031584398514 	  3.472801060293 	
C	 12.010008142704 	 10.031587208514 	 13.603357780293 	
C	 27.259410672704 	  3.848031868514 	  3.500933820293 	
C	 26.690866542704 	  3.848034678514 	 13.631490540293 	
C	 27.259379572704 	 10.031593628514 	  3.500930990293 	
C	 26.690835442704 	 10.031596438514 	 13.631487710293 	
C	  1.212566087188 	  0.798490411610 	  1.989642822218 	
C	  0.644021957188 	  0.798493221610 	 12.120199542218 	
C	  1.212534987188 	  6.982052171610 	  1.989639992218 	
C	  0.643990857188 	  6.982054981610 	 12.120196712218 	
C	 15.893393387188 	  0.798499641610 	  2.017772752218 	
C	 15.324849257188 	  0.798502451610 	 12.148329472218 	
C	 15.893362287188 	  6.982061401610 	  2.017769922218 	
C	 15.324818157188 	  6.982064211610 	 12.148326642218 	
H	 -0.001661315390 	  2.257539402106 	  6.788549653230 	
H	 -0.570205445390 	  2.257542212106 	 16.919106373230 	
H	 -0.001692415390 	  8.441101162106 	  6.788546823230 	
H	 -0.570236545390 	  8.441103972106 	 16.919103543230 	
H	 14.679165984610 	  2.257548632106 	  6.816679583230 	
H	 14.110621854610 	  2.257551442106 	 16.947236303230 	
H	 14.679134884610 	  8.441110392106 	  6.816676753230 	
H	 14.110590754610 	  8.441113202106 	 16.947233473230 	
H	 13.350064877793 	  5.306255486081 	  9.344812966600 	
H	 12.781520747793 	  5.306258296081 	 19.475369686600 	
H	 13.350033777793 	 11.489817246081 	  9.344810136600 	
H	 12.781489647793 	 11.489820056081 	 19.475366856600 	
H	 28.030892177793 	  5.306264716081 	  9.372942896600 	
H	 27.462348047793 	  5.306267526081 	 19.503499616600 	
H	 28.030861077793 	 11.489826476081 	  9.372940066600 	
H	 27.462316947793 	 11.489829286081 	 19.503496786600 	
H	 13.571221137631 	  3.839534741020 	  4.009540049012 	
H	 13.002677007631 	  3.839537551020 	 14.140096769012 	
H	 13.571190037631 	 10.023096501020 	  4.009537219012 	
H	 13.002645907631 	 10.023099311020 	 14.140093939012 	
H	 28.252048437631 	  3.839543971020 	  4.037669979012 	
H	 27.683504307631 	  3.839546781020 	 14.168226699012 	
H	 28.252017337631 	 10.023105731020 	  4.037667149012 	
H	 27.683473207631 	 10.023108541020 	 14.168223869012 	
H	  0.219495150582 	  0.790815705885 	  1.453278460586 	
H	 -0.349048979418 	  0.790818515885 	 11.583835180586 	
H	  0.219464050582 	  6.974377465885 	  1.453275630586 	
H	 -0.349080079418 	  6.974380275885 	 11.583832350586 	
H	 14.900322450582 	  0.790824935885 	  1.481408390586 	
H	 14.331778320582 	  0.790827745885 	 11.611965110586 	
H	 14.900291350582 	  6.974386695885 	  1.481405560586 	
H	 14.331747220582 	  6.974389505885 	 11.611962280586 	
H	  0.715763714839 	  2.589975606874 	  8.377269798064 	
H	  0.147219584839 	  2.589978416874 	 18.507826518064 	
H	  0.715732614839 	  8.773537366874 	  8.377266968064 	
H	  0.147188484839 	  8.773540176874 	 18.507823688064 	
H	 15.396591014839 	  2.589984836874 	  8.405399728064 	
H	 14.828046884839 	  2.589987646874 	 18.535956448064 	
H	 15.396559914839 	  8.773546596874 	  8.405396898064 	
H	 14.828015784839 	  8.773549406874 	 18.535953618064 	
H	 12.632682897006 	  5.639111466299 	  7.756199827087 	
H	 12.064138767006 	  5.639114276299 	 17.886756547087 	
H	 12.632651797006 	 11.822673226299 	  7.756196997087 	
H	 12.064107667006 	 11.822676036299 	 17.886753717087 	
H	 27.313510197006 	  5.639120696299 	  7.784329757087 	
H	 26.744966067006 	  5.639123506299 	 17.914886477087 	
H	 27.313479097006 	 11.822682456299 	  7.784326927087 	
H	 26.744934967006 	 11.822685266299 	 17.914883647087 	
H	 12.853796249499 	  3.507100210045 	  2.420819471462 	
H	 12.285252119499 	  3.507103020045 	 12.551376191462 	
H	 12.853765149499 	  9.690661970045 	  2.420816641462 	
H	 12.285221019499 	  9.690664780045 	 12.551373361462 	
H	 27.534623549499 	  3.507109440045 	  2.448949401462 	
H	 26.966079419499 	  3.507112250045 	 12.579506121462 	
H	 27.534592449499 	  9.690671200045 	  2.448946571462 	
H	 26.966048319499 	  9.690674010045 	 12.579503291462 	
H	  0.936877524306 	  0.457959423437 	  3.041891249083 	
H	  0.368333394306 	  0.457962233437 	 13.172447969083 	
H	  0.936846424306 	  6.641521183437 	  3.041888419083 	
H	  0.368302294306 	  6.641523993437 	 13.172445139083 	
H	 15.617704824306 	  0.457968653437 	  3.070021179083 	
H	 15.049160694306 	  0.457971463437 	 13.200577899083 	
H	 15.617673724306 	  6.641530413437 	  3.070018349083 	
H	 15.049129594306 	  6.641533223437 	 13.200575069083 	
H	  1.138388346851 	  1.134708592895 	  7.529680432040 	
H	  0.569844216851 	  1.134711402895 	 17.660237152040 	
H	  1.138357246851 	  7.318270352895 	  7.529677602040 	
H	  0.569813116851 	  7.318273162895 	 17.660234322040 	
H	 15.819215646851 	  1.134717822895 	  7.557810362040 	
H	 15.250671516851 	  1.134720632895 	 17.688367082040 	
H	 15.819184546851 	  7.318279582895 	  7.557807532040 	
H	 15.250640416851 	  7.318282392895 	 17.688364252040 	
H	 12.210041880357 	  4.183876896386 	  8.603756768291 	
H	 11.641497750357 	  4.183879706386 	 18.734313488291 	
H	 12.210010780357 	 10.367438656386 	  8.603753938291 	
H	 11.641466650357 	 10.367441466386 	 18.734310658291 	
H	 26.890869180357 	  4.183886126386 	  8.631886698291 	
H	 26.322325050357 	  4.183888936386 	 18.762443418291 	
H	 26.890838080357 	 10.367447886386 	  8.631883868291 	
H	 26.322293950357 	 10.367450696386 	 18.762440588291 	
H	 12.431170498587 	  4.962365666642 	  3.268411172766 	
H	 11.862626368587 	  4.962368476642 	 13.398967892766 	
H	 12.431139398587 	 11.145927426642 	  3.268408342766 	
H	 11.862595268587 	 11.145930236642 	 13.398965062766 	
H	 27.111997798587 	  4.962374896642 	  3.296541102766 	
H	 26.543453668587 	  4.962377706642 	 13.427097822766 	
H	 27.111966698587 	 11.145936656642 	  3.296538272766 	
H	 26.543422568587 	 11.145939466642 	 13.427094992766 	
H	  1.359518144926 	  1.913194366856 	  2.194334891632 	
H	  0.790974014926 	  1.913197176856 	 12.324891611632 	
H	  1.359487044926 	  8.096756126856 	  2.194332061632 	
H	  0.790942914926 	  8.096758936856 	 12.324888781632 	
H	 16.040345444926 	  1.913203596856 	  2.222464821632 	
H	 15.471801314926 	  1.913206406856 	 12.353021541632 	
H	 16.040314344926 	  8.096765356856 	  2.222461991632 	
H	 15.471770214926 	  8.096768166856 	 12.353018711632 	
768 
Energy: -7.3846297469649997e+01 
S	  8.274226964800 	  1.377175302200 	  0.134797036600 	
S	  7.705682834800 	  1.377178112200 	 10.265353756600 	
S	  8.274195864800 	  7.560737062200 	  0.134794206600 	
S	  7.705651734800 	  7.560739872200 	 10.265350926600 	
S	 22.955054264800 	  1.377184532200 	  0.162926966600 	
S	 22.386510134800 	  1.377187342200 	 10.293483686600 	
S	 22.955023164800 	  7.560746292200 	  0.162924136600 	
S	 22.386479034800 	  7.560749102200 	 10.293480856600 	
S	  5.468105551400 	  4.422280389300 	  5.357839294400 	
S	  4.899561421400 	  4.422283199300 	 15.488396014400 	
S	  5.468074451400 	 10.605842149300 	  5.357836464400 	
S	  4.899530321400 	 10.605844959300 	 15.488393184400 	
S	 20.148932851400 	  4.422289619300 	  5.385969224400 	
S	 19.580388721400 	  4.422292429300 	 15.516525944400 	
S	 20.148901751400 	 10.605851379300 	  5.385966394400 	
S	 19.580357621400 	 10.605854189300 	 15.516523114400 	
S	  5.252181867800 	  4.713017932400 	 10.714134363300 	
S	  4.683637737800 	  4.713020742400 	 20.844691083300 	
S	  5.252150767800 	 10.896579692400 	 10.714131533300 	
S	  4.683606637800 	 10.896582502400 	 20.844688253300 	
S	 19.933009167800 	  4.713027162400 	 10.742264293300 	
S	 19.364465037800 	  4.713029972400 	 20.872821013300 	
S	 19.932978067800 	 10.896588922400 	 10.742261463300 	
S	 19.364433937800 	 10.896591732400 	 20.872818183300 	
S	  8.058304838100 	  1.667912723500 	  5.491091585000 	
S	  7.489760708100 	  1.667915533500 	 15.621648305000 	
S	  8.058273738100 	  7.851474483500 	  5.491088755000 	
S	  7.489729608100 	  7.851477293500 	 15.621645475000 	
S	 22.739132138100 	  1.667921953500 	  5.519221515000 	
S	 22.170588008100 	  1.667924763500 	 15.649778235000 	
S	 22.739101038100 	  7.851483713500 	  5.519218685000 	
S	 22.170556908100 	  7.851486523500 	 15.649775405000 	
C	  6.549448319000 	  2.468400911100 	 10.397561804200 	
C	  5.980904189000 	  2.468403721100 	 20.528118524200 	
C	  6.549417219000 	  8.651962671100 	 10.397558974200 	
C	  5.980873089000 	  8.651965481100 	 20.528115694200 	
C	 21.230275619000 	  2.468410141100 	 10.425691734200 	
C	 20.661731489000 	  2.468412951100 	 20.556248454200 	
C	 21.230244519000 	  8.651971901100 	 10.425688904200 	
C	 20.661700389000 	  8.651974711100 	 20.556245624200 	
C	  6.761044788800 	  5.513514746100 	  5.807719306500 	
C	  6.192500658800 	  5.513517556100 	 15.938276026500 	
C	  6.761013688800 	 11.697076506100 	  5.807716476500 	
C	  6.192469558800 	 11.697079316100 	 15.938273196500 	
C	 21.441872088800 	  5.513523976100 	  5.835849236500 	
C	 20.873327958800 	  5.513526786100 	 15.966405956500 	
C	 21.441840988800 	 11.697085736100 	  5.835846406500 	
C	 20.873296858800 	 11.697088546100 	 15.966403126500 	
C	  6.976960522100 	  3.621792323500 	  0.451369381500 	
C	  6.408416392100 	  3.621795133500 	 10.581926101500 	
C	  6.976929422100 	  9.805354083500 	  0.451366551500 	
C	  6.408385292100 	  9.805356893500 	 10.581923271500 	
C	 21.657787822100 	  3.621801553500 	  0.479499311500 	
C	 21.089243692100 	  3.621804363500 	 10.610056031500 	
C	 21.657756722100 	  9.805363313500 	  0.479496481500 	
C	 21.089212592100 	  9.805366123500 	 10.610053201500 	
C	  6.765365469800 	  0.576678427600 	  5.041211357200 	
C	  6.196821339800 	  0.576681237600 	 15.171768077200 	
C	  6.765334369800 	  6.760240187600 	  5.041208527200 	
C	  6.196790239800 	  6.760242997600 	 15.171765247200 	
C	 21.446192769800 	  0.576687657600 	  5.069341287200 	
C	 20.877648639800 	  0.576690467600 	 15.199898007200 	
C	 21.446161669800 	  6.760249417600 	  5.069338457200 	
C	 20.877617539800 	  6.760252227600 	 15.199895177200 	
C	  5.514830661500 	  2.406236873400 	  9.413614614800 	
C	  4.946286531500 	  2.406239683400 	 19.544171334800 	
C	  5.514799561500 	  8.589798633400 	  9.413611784800 	
C	  4.946255431500 	  8.589801443400 	 19.544168504800 	
C	 20.195657961500 	  2.406246103400 	  9.441744544800 	
C	 19.627113831500 	  2.406248913400 	 19.572301264800 	
C	 20.195626861500 	  8.589807863400 	  9.441741714800 	
C	 19.627082731500 	  8.589810673400 	 19.572298434800 	
C	  7.795666071200 	  5.451341527800 	  6.791658665300 	
C	  7.227121941200 	  5.451344337800 	 16.922215385300 	
C	  7.795634971200 	 11.634903287800 	  6.791655835300 	
C	  7.227090841200 	 11.634906097800 	 16.922212555300 	
C	 22.476493371200 	  5.451350757800 	  6.819788595300 	
C	 21.907949241200 	  5.451353567800 	 16.950345315300 	
C	 22.476462271200 	 11.634912517800 	  6.819785765300 	
C	 21.907918141200 	 11.634915327800 	 16.950342485300 	
C	  8.011578179700 	  3.683956422100 	  1.435316571000 	
C	  7.443034049700 	  3.683959232100 	 11.565873291000 	
C	  8.011547079700 	  9.867518182100 	  1.435313741000 	
C	  7.443002949700 	  9.867520992100 	 11.565870461000 	
C	 22.692405479700 	  3.683965652100 	  1.463446501000 	
C	 22.123861349700 	  3.683968462100 	 11.594003221000 	
C	 22.692374379700 	  9.867527412100 	  1.463443671000 	
C	 22.123830249700 	  9.867530222100 	 11.594000391000 	
C	  5.730743895300 	  0.638851706800 	  4.057272317100 	
C	  5.162199765300 	  0.638854516800 	 14.187829037100 	
C	  5.730712795300 	  6.822413466800 	  4.057269487100 	
C	  5.162168665300 	  6.822416276800 	 14.187826207100 	
C	 20.411571195300 	  0.638860936800 	  4.085402247100 	
C	 19.843027065300 	  0.638863746800 	 14.215958967100 	
C	 20.411540095300 	  6.822422696800 	  4.085399417100 	
C	 19.842995965300 	  6.822425506800 	 14.215956137100 	
C	  4.708186547100 	  3.575057243500 	  9.473887592500 	
C	  4.139642417100 	  3.575060053500 	 19.604444312500 	
C	  4.708155447100 	  9.758619003500 	  9.473884762500 	
C	  4.139611317100 	  9.758621813500 	 19.604441482500 	
C	 19.389013847100 	  3.575066473500 	  9.502017522500 	
C	 18.820469717100 	  3.575069283500 	 19.632574242500 	
C	 19.388982747100 	  9.758628233500 	  9.502014692500 	
C	 18.820438617100 	  9.758631043500 	 19.632571412500 	
C	  8.602283030900 	  0.529944629900 	  6.731329322300 	
C	  8.033738900900 	  0.529947439900 	 16.861886042300 	
C	  8.602251930900 	  6.713506389900 	  6.731326492300 	
C	  8.033707800900 	  6.713509199900 	 16.861883212300 	
C	 23.283110330900 	  0.529953859900 	  6.759459252300 	
C	 22.714566200900 	  0.529956669900 	 16.890015972300 	
C	 23.283079230900 	  6.713515619900 	  6.759456422300 	
C	 22.714535100900 	  6.713518429900 	 16.890013142300 	
C	  8.818222294000 	  2.515135991100 	  1.375043593200 	
C	  8.249678164000 	  2.515138801100 	 11.505600313200 	
C	  8.818191194000 	  8.698697751100 	  1.375040763200 	
C	  8.249647064000 	  8.698700561100 	 11.505597483200 	
C	 23.499049594000 	  2.515145221100 	  1.403173523200 	
C	 22.930505464000 	  2.515148031100 	 11.533730243200 	
C	 23.499018494000 	  8.698706981100 	  1.403170693200 	
C	 22.930474364000 	  8.698709791100 	 11.533727413200 	
C	  4.924127066500 	  5.560248604700 	  4.117601875700 	
C	  4.355582936500 	  5.560251414700 	 14.248158595700 	
C	  4.924095966500 	 11.743810364700 	  4.117599045700 	
C	  4.355551836500 	 11.743813174700 	 14.248155765700 	
C	 19.604954366500 	  5.560257834700 	  4.145731805700 	
C	 19.036410236500 	  5.560260644700 	 14.276288525700 	
C	 19.604923266500 	 11.743819594700 	  4.145728975700 	
C	 19.036379136500 	 11.743822404700 	 14.276285695700 	
C	  3.616380389000 	  3.755832070100 	  8.624223372800 	
C	  3.047836259000 	  3.755834880100 	 18.754780092800 	
C	  3.616349289000 	  9.939393830100 	  8.624220542800 	
C	  3.047805159000 	  9.939396640100 	 18.754777262800 	
C	 18.297207689000 	  3.755841300100 	  8.652353302800 	
C	 17.728663559000 	  3.755844110100 	 18.782910022800 	
C	 18.297176589000 	  9.939403060100 	  8.652350472800 	
C	 17.728632459000 	  9.939405870100 	 18.782907192800 	
C	  9.694110263800 	  0.710702205100 	  7.580976645800 	
C	  9.125566133800 	  0.710705015100 	 17.711533365800 	
C	  9.694079163800 	  6.894263965100 	  7.580973815800 	
C	  9.125535033800 	  6.894266775100 	 17.711530535800 	
C	 24.374937563800 	  0.710711435100 	  7.609106575800 	
C	 23.806393433800 	  0.710714245100 	 17.739663295800 	
C	 24.374906463800 	  6.894273195100 	  7.609103745800 	
C	 23.806362333800 	  6.894276005100 	 17.739660465800 	
C	  9.910028443500 	  2.334361286300 	  2.224708027200 	
C	  9.341484313500 	  2.334364096300 	 12.355264747200 	
C	  9.909997343500 	  8.517923046300 	  2.224705197200 	
C	  9.341453213500 	  8.517925856300 	 12.355261917200 	
C	 24.590855743500 	  2.334370516300 	  2.252837957200 	
C	 24.022311613500 	  2.334373326300 	 12.383394677200 	
C	 24.590824643500 	  8.517932276300 	  2.252835127200 	
C	 24.022280513500 	  8.517935086300 	 12.383391847200 	
C	  3.832299249400 	  5.379491151300 	  3.267955189500 	
C	  3.263755119400 	  5.379493961300 	 13.398511909500 	
C	  3.832268149400 	 11.563052911300 	  3.267952359500 	
C	  3.263724019400 	 11.563055721300 	 13.398509079500 	
C	 18.513126549400 	  5.379500381300 	  3.296085119500 	
C	 17.944582419400 	  5.379503191300 	 13.426641839500 	
C	 18.513095449400 	 11.563062141300 	  3.296082289500 	
C	 17.944551319400 	 11.563064951300 	 13.426639009500 	
H	  3.030192363400 	  4.667840350300 	  8.698825072800 	
H	  2.461648233400 	  4.667843160300 	 18.829381792800 	
H	  3.030161263400 	 10.851402110300 	  8.698822242800 	
H	  2.461617133400 	 10.851404920300 	 18.829378962800 	
H	 17.711019663400 	  4.667849580300 	  8.726955002800 	
H	 17.142475533400 	  4.667852390300 	 18.857511722800 	
H	 17.710988563400 	 10.851411340300 	  8.726952172800 	
H	 17.142444433400 	 10.851414150300 	 18.857508892800 	
H	 10.280332020700 	  1.622693456600 	  7.506360722100 	
H	  9.711787890700 	  1.622696266600 	 17.636917442100 	
H	 10.280300920700 	  7.806255216600 	  7.506357892100 	
H	  9.711756790700 	  7.806258026600 	 17.636914612100 	
H	 24.961159320700 	  1.622702686600 	  7.534490652100 	
H	 24.392615190700 	  1.622705496600 	 17.665047372100 	
H	 24.961128220700 	  7.806264446600 	  7.534487822100 	
H	 24.392584090700 	  7.806267256600 	 17.665044542100 	
H	 10.496216316600 	  1.422353006100 	  2.150106647200 	
H	  9.927672186600 	  1.422355816100 	 12.280663367200 	
H	 10.496185216600 	  7.605914766100 	  2.150103817200 	
H	  9.927641086600 	  7.605917576100 	 12.280660537200 	
H	 25.177043616600 	  1.422362236100 	  2.178236577200 	
H	 24.608499486600 	  1.422365046100 	 12.308793297200 	
H	 25.177012516600 	  7.605923996100 	  2.178233747200 	
H	 24.608468386600 	  7.605926806100 	 12.308790467200 	
H	  3.246077623500 	  4.467499838900 	  3.342571328800 	
H	  2.677533493500 	  4.467502648900 	 13.473128048800 	
H	  3.246046523500 	 10.651061598900 	  3.342568498800 	
H	  2.677502393500 	 10.651064408900 	 13.473125218800 	
H	 17.926904923500 	  4.467509068900 	  3.370701258800 	
H	 17.358360793500 	  4.467511878900 	 13.501257978800 	
H	 17.926873823500 	 10.651070828900 	  3.370698428800 	
H	 17.358329693500 	 10.651073638900 	 13.501255148800 	
C	  3.297673659000 	  2.774949442900 	  7.678024848600 	
C	  2.729129529000 	  2.774952252900 	 17.808581568600 	
C	  3.297642559000 	  8.958511202900 	  7.678022018600 	
C	  2.729098429000 	  8.958514012900 	 17.808578738600 	
C	 17.978500959000 	  2.774958672900 	  7.706154778600 	
C	 17.409956829000 	  2.774961482900 	 17.836711498600 	
C	 17.978469859000 	  8.958520432900 	  7.706151948600 	
C	 17.409925729000 	  8.958523242900 	 17.836708668600 	
C	 10.012846383800 	  5.820031992100 	  8.527231920200 	
C	  9.444302253800 	  5.820034802100 	 18.657788640200 	
C	 10.012815283800 	 12.003593752100 	  8.527229090200 	
C	  9.444271153800 	 12.003596562100 	 18.657785810200 	
C	 24.693673683800 	  5.820041222100 	  8.555361850200 	
C	 24.125129553800 	  5.820044032100 	 18.685918570200 	
C	 24.693642583800 	 12.003602982100 	  8.555359020200 	
C	 24.125098453800 	 12.003605792100 	 18.685915740200 	
C	 10.228735046900 	  3.315244157100 	  3.170906228600 	
C	  9.660190916900 	  3.315246967100 	 13.301462948600 	
C	 10.228703946900 	  9.498805917100 	  3.170903398600 	
C	  9.660159816900 	  9.498808727100 	 13.301460118600 	
C	 24.909562346900 	  3.315253387100 	  3.199036158600 	
C	 24.341018216900 	  3.315256197100 	 13.329592878600 	
C	 24.909531246900 	  9.498815147100 	  3.199033328600 	
C	 24.340987116900 	  9.498817957100 	 13.329590048600 	
C	  3.513562558100 	  0.270161486100 	  2.321700231000 	
C	  2.945018428100 	  0.270164296100 	 12.452256951000 	
C	  3.513531458100 	  6.453723246100 	  2.321697401000 	
C	  2.944987328100 	  6.453726056100 	 12.452254121000 	
C	 18.194389858100 	  0.270170716100 	  2.349830161000 	
C	 17.625845728100 	  0.270173526100 	 12.480386881000 	
C	 18.194358758100 	  6.453732476100 	  2.349827331000 	
C	 17.625814628100 	  6.453735286100 	 12.480384051000 	
C	  4.115613367000 	  1.624442344200 	  7.606279463600 	
C	  3.547069237000 	  1.624445154200 	 17.736836183600 	
C	  4.115582267000 	  7.808004104200 	  7.606276633600 	
C	  3.547038137000 	  7.808006914200 	 17.736833353600 	
C	 18.796440667000 	  1.624451574200 	  7.634409393600 	
C	 18.227896537000 	  1.624454384200 	 17.764966113600 	
C	 18.796409567000 	  7.808013334200 	  7.634406563600 	
C	 18.227865437000 	  7.808016144200 	 17.764963283600 	
C	  9.194872439700 	  4.669544365100 	  8.598991286000 	
C	  8.626328309700 	  4.669547175100 	 18.729548006000 	
C	  9.194841339700 	 10.853106125100 	  8.598988456000 	
C	  8.626297209700 	 10.853108935100 	 18.729545176000 	
C	 23.875699739700 	  4.669553595100 	  8.627121216000 	
C	 23.307155609700 	  4.669556405100 	 18.757677936000 	
C	 23.875668639700 	 10.853115355100 	  8.627118386000 	
C	 23.307124509700 	 10.853118165100 	 18.757675106000 	
C	  9.410795487100 	  4.465751377700 	  3.242651400700 	
C	  8.842251357100 	  4.465754187700 	 13.373208120700 	
C	  9.410764387100 	 10.649313137700 	  3.242648570700 	
C	  8.842220257100 	 10.649315947700 	 13.373205290700 	
C	 24.091622787100 	  4.465760607700 	  3.270781330700 	
C	 23.523078657100 	  4.465763417700 	 13.401338050700 	
C	 24.091591687100 	 10.649322367700 	  3.270778500700 	
C	 23.523047557100 	 10.649325177700 	 13.401335220700 	
C	  4.331536519400 	  1.420649052200 	  2.249940436700 	
C	  3.762992389400 	  1.420651862200 	 12.380497156700 	
C	  4.331505419400 	  7.604210812200 	  2.249937606700 	
C	  3.762961289400 	  7.604213622200 	 12.380494326700 	
C	 19.012363819400 	  1.420658282200 	  2.278070366700 	
C	 18.443819689400 	  1.420661092200 	 12.408627086700 	
C	 19.012332719400 	  7.604220042200 	  2.278067536700 	
C	 18.443788589400 	  7.604222852200 	 12.408624256700 	
H	  3.910307630800 	  0.858337997200 	  6.862660610300 	
H	  3.341763500800 	  0.858340807200 	 16.993217330300 	
H	  3.910276530800 	  7.041899757200 	  6.862657780300 	
H	  3.341732400800 	  7.041902567200 	 16.993214500300 	
H	 18.591134930800 	  0.858347227200 	  6.890790540300 	
H	 18.022590800800 	  0.858350037200 	 17.021347260300 	
H	 18.591103830800 	  7.041908987200 	  6.890787710300 	
H	 18.022559700800 	  7.041911797200 	 17.021344430300 	
H	  9.400179503700 	  3.903433024400 	  9.342599275100 	
H	  8.831635373700 	  3.903435834400 	 19.473155995100 	
H	  9.400148403700 	 10.086994784400 	  9.342596445100 	
H	  8.831604273700 	 10.086997594400 	 19.473153165100 	
H	 24.081006803700 	  3.903442254400 	  9.370729205100 	
H	 23.512462673700 	  3.903445064400 	 19.501285925100 	
H	 24.080975703700 	 10.087004014400 	  9.370726375100 	
H	 23.512431573700 	 10.087006824400 	 19.501283095100 	
H	  9.616101375900 	  5.231855907300 	  3.986269934100 	
H	  9.047557245900 	  5.231858717300 	 14.116826654100 	
H	  9.616070275900 	 11.415417667300 	  3.986267104100 	
H	  9.047526145900 	 11.415420477300 	 14.116823824100 	
H	 24.296928675900 	  5.231865137300 	  4.014399864100 	
H	 23.728384545900 	  5.231867947300 	 14.144956584100 	
H	 24.296897575900 	 11.415426897300 	  4.014397034100 	
H	 23.728353445900 	 11.415429707300 	 14.144953754100 	
H	  4.126229023800 	  2.186760514700 	  1.506332765000 	
H	  3.557684893800 	  2.186763324700 	 11.636889485000 	
H	  4.126197923800 	  8.370322274700 	  1.506329935000 	
H	  3.557653793800 	  8.370325084700 	 11.636886655000 	
H	 18.807056323800 	  2.186769744700 	  1.534462695000 	
H	 18.238512193800 	  2.186772554700 	 11.665019415000 	
H	 18.807025223800 	  8.370331504700 	  1.534459865000 	
H	 18.238481093800 	  8.370334314700 	 11.665016585000 	
C	  5.203863858000 	  1.434679543400 	  8.448323302000 	
C	  4.635319728000 	  1.434682353400 	 18.578880022000 	
C	  5.203832758000 	  7.618241303400 	  8.448320472000 	
C	  4.635288628000 	  7.618244113400 	 18.578877192000 	
C	 19.884691158000 	  1.434688773400 	  8.476453232000 	
C	 19.316147028000 	  1.434691583400 	 18.607009952000 	
C	 19.884660058000 	  7.618250533400 	  8.476450402000 	
C	 19.316115928000 	  7.618253343400 	 18.607007122000 	
C	  8.106607985800 	  4.479790023800 	  7.756956459800 	
C	  7.538063855800 	  4.479792833800 	 17.887513179800 	
C	  8.106576885800 	 10.663351783800 	  7.756953629800 	
C	  7.538032755800 	 10.663354593800 	 17.887510349800 	
C	 22.787435285800 	  4.479799253800 	  7.785086389800 	
C	 22.218891155800 	  4.479802063800 	 17.915643109800 	
C	 22.787404185800 	 10.663361013800 	  7.785083559800 	
C	 22.218860055800 	 10.663363823800 	 17.915640279800 	
C	  8.322544996100 	  4.655513995700 	  2.400607562400 	
C	  7.754000866100 	  4.655516805700 	 12.531164282400 	
C	  8.322513896100 	 10.839075755700 	  2.400604732400 	
C	  7.753969766100 	 10.839078565700 	 12.531161452400 	
C	 23.003372296100 	  4.655523225700 	  2.428737492400 	
C	 22.434828166100 	  4.655526035700 	 12.559294212400 	
C	 23.003341196100 	 10.839084985700 	  2.428734662400 	
C	 22.434797066100 	 10.839087795700 	 12.559291382400 	
C	  5.419801413700 	  1.610403271700 	  3.091974731400 	
C	  4.851257283700 	  1.610406081700 	 13.222531451400 	
C	  5.419770313700 	  7.793965031700 	  3.091971901400 	
C	  4.851226183700 	  7.793967841700 	 13.222528621400 	
C	 20.100628713700 	  1.610412501700 	  3.120104661400 	
C	 19.532084583700 	  1.610415311700 	 13.250661381400 	
C	 20.100597613700 	  7.793974261700 	  3.120101831400 	
C	 19.532053483700 	  7.793977071700 	 13.250658551400 	
H	  5.815280580100 	  0.539366990000 	  8.358446190600 	
H	  5.246736450100 	  0.539369800000 	 18.489002910600 	
H	  5.815249480100 	  6.722928750000 	  8.358443360600 	
H	  5.246705350100 	  6.722931560000 	 18.489000080600 	
H	 20.496107880100 	  0.539376220000 	  8.386576120600 	
H	 19.927563750100 	  0.539379030000 	 18.517132840600 	
H	 20.496076780100 	  6.722937980000 	  8.386573290600 	
H	 19.927532650100 	  6.722940790000 	 18.517130010600 	
H	  7.495164244800 	  3.584488939300 	  7.846838885500 	
H	  6.926620114800 	  3.584491749300 	 17.977395605500 	
H	  7.495133144800 	  9.768050699300 	  7.846836055500 	
H	  6.926589014800 	  9.768053509300 	 17.977392775500 	
H	 22.175991544800 	  3.584498169300 	  7.874968815500 	
H	 21.607447414800 	  3.584500979300 	 18.005525535500 	
H	 22.175960444800 	  9.768059929300 	  7.874965985500 	
H	 21.607416314800 	  9.768062739300 	 18.005522705500 	
H	  7.711128287000 	  5.550826610000 	  2.490484352400 	
H	  7.142584157000 	  5.550829420000 	 12.621041072400 	
H	  7.711097187000 	 11.734388370000 	  2.490481522400 	
H	  7.142553057000 	 11.734391180000 	 12.621038242400 	
H	 22.391955587000 	  5.550835840000 	  2.518614282400 	
H	 21.823411457000 	  5.550838650000 	 12.649171002400 	
H	 22.391924487000 	 11.734397600000 	  2.518611452400 	
H	 21.823380357000 	 11.734400410000 	 12.649168172400 	
H	  6.031245163400 	  2.505704356200 	  3.002092091400 	
H	  5.462701033400 	  2.505707166200 	 13.132648811400 	
H	  6.031214063400 	  8.689266116200 	  3.002089261400 	
H	  5.462669933400 	  8.689268926200 	 13.132645981400 	
H	 20.712072463400 	  2.505713586200 	  3.030222021400 	
H	 20.143528333400 	  2.505716396200 	 13.160778741400 	
H	 20.712041363400 	  8.689275346200 	  3.030219191400 	
H	 20.143497233400 	  8.689278156200 	 13.160775911400 	
C	  2.060699965000 	  2.923971898300 	  6.778256047500 	
C	  1.492155835000 	  2.923974708300 	 16.908812767500 	
C	  2.060668865000 	  9.107533658300 	  6.778253217500 	
C	  1.492124735000 	  9.107536468300 	 16.908809937500 	
C	 16.741527265000 	  2.923981128300 	  6.806385977500 	
C	 16.172983135000 	  2.923983938300 	 16.936942697500 	
C	 16.741496165000 	  9.107542888300 	  6.806383147500 	
C	 16.172952035000 	  9.107545698300 	 16.936939867500 	
C	 11.249821980800 	  5.969055390200 	  9.426999575200 	
C	 10.681277850800 	  5.969058200200 	 19.557556295200 	
C	 11.249790880800 	 12.152617150200 	  9.426996745200 	
C	 10.681246750800 	 12.152619960200 	 19.557553465200 	
C	 25.930649280800 	  5.969064620200 	  9.455129505200 	
C	 25.362105150800 	  5.969067430200 	 19.585686225200 	
C	 25.930618180800 	 12.152626380200 	  9.455126675200 	
C	 25.362074050800 	 12.152629190200 	 19.585683395200 	
C	 11.465708592700 	  3.166222067100 	  4.070675242600 	
C	 10.897164462700 	  3.166224877100 	 14.201231962600 	
C	 11.465677492700 	  9.349783827100 	  4.070672412600 	
C	 10.897133362700 	  9.349786637100 	 14.201229132600 	
C	 26.146535892700 	  3.166231297100 	  4.098805172600 	
C	 25.577991762700 	  3.166234107100 	 14.229361892600 	
C	 26.146504792700 	  9.349793057100 	  4.098802342600 	
C	 25.577960662700 	  9.349795867100 	 14.229359062600 	
C	  2.276586376900 	  0.121138088000 	  1.421933213400 	
C	  1.708042246900 	  0.121140898000 	 11.552489933400 	
C	  2.276555276900 	  6.304699848000 	  1.421930383400 	
C	  1.708011146900 	  6.304702658000 	 11.552487103400 	
C	 16.957413676900 	  0.121147318000 	  1.450063143400 	
C	 16.388869546900 	  0.121150128000 	 11.580619863400 	
C	 16.957382576900 	  6.304709078000 	  1.450060313400 	
C	 16.388838446900 	  6.304711888000 	 11.580617033400 	
C	  2.262347017200 	  2.221751156100 	  5.422902565400 	
C	  1.693802887200 	  2.221753966100 	 15.553459285400 	
C	  2.262315917200 	  8.405312916100 	  5.422899735400 	
C	  1.693771787200 	  8.405315726100 	 15.553456455400 	
C	 16.943174317200 	  2.221760386100 	  5.451032495400 	
C	 16.374630187200 	  2.221763196100 	 15.581589215400 	
C	 16.943143217200 	  8.405322146100 	  5.451029665400 	
C	 16.374599087200 	  8.405324956100 	 15.581586385400 	
C	 11.048108919500 	 -0.823375339700 	 10.782308126400 	
C	 10.479564789500 	 -0.823372529700 	 20.912864846400 	
C	 11.048077819500 	  5.360186420300 	 10.782305296400 	
C	 10.479533689500 	  5.360189230300 	 20.912862016400 	
C	 25.728936219500 	 -0.823366109700 	 10.810438056400 	
C	 25.160392089500 	 -0.823363299700 	 20.940994776400 	
C	 25.728905119500 	  5.360195650300 	 10.810435226400 	
C	 25.160360989500 	  5.360198460300 	 20.940991946400 	
C	 11.264060258300 	  3.868441104100 	  5.426029355200 	
C	 10.695516128300 	  3.868443914100 	 15.556586075200 	
C	 11.264029158300 	 10.052002864100 	  5.426026525200 	
C	 10.695485028300 	 10.052005674100 	 15.556583245200 	
C	 25.944887558300 	  3.868450334100 	  5.454159285200 	
C	 25.376343428300 	  3.868453144100 	 15.584716005200 	
C	 25.944856458300 	 10.052012094100 	  5.454156455200 	
C	 25.376312328300 	 10.052014904100 	 15.584713175200 	
C	  2.478298879800 	  6.913569000600 	  0.066624656700 	
C	  1.909754749800 	  6.913571810600 	 10.197181376700 	
C	  2.478267779800 	 13.097130760600 	  0.066621826700 	
C	  1.909723649800 	 13.097133570600 	 10.197178546700 	
C	 17.159126179800 	  6.913578230600 	  0.094754586700 	
C	 16.590582049800 	  6.913581040600 	 10.225311306700 	
C	 17.159095079800 	 13.097139990600 	  0.094751756700 	
C	 16.590550949800 	 13.097142800600 	 10.225308476700 	
H	  3.170768161300 	  2.565029211100 	  4.913710526400 	
H	  2.602224031300 	  2.565032021100 	 15.044267246400 	
H	  3.170737061300 	  8.748590971100 	  4.913707696400 	
H	  2.602192931300 	  8.748593781100 	 15.044264416400 	
H	 17.851595461300 	  2.565038441100 	  4.941840456400 	
H	 17.283051331300 	  2.565041251100 	 15.072397176400 	
H	 17.851564361300 	  8.748600201100 	  4.941837626400 	
H	 17.283020231300 	  8.748603011100 	 15.072394346400 	
H	 10.139696801000 	 -0.480096932800 	 11.291488826700 	
H	  9.571152671000 	 -0.480094122800 	 21.422045546700 	
H	 10.139665701000 	  5.703464827200 	 11.291485996700 	
H	  9.571121571000 	  5.703467637200 	 21.422042716700 	
H	 24.820524101000 	 -0.480087702800 	 11.319618756700 	
H	 24.251979971000 	 -0.480084892800 	 21.450175476700 	
H	 24.820493001000 	  5.703474057200 	 11.319615926700 	
H	 24.251948871000 	  5.703476867200 	 21.450172646700 	
H	 10.355639694200 	  3.525160856600 	  5.935220864000 	
H	  9.787095564200 	  3.525163666600 	 16.065777584000 	
H	 10.355608594200 	  9.708722616600 	  5.935218034000 	
H	  9.787064464200 	  9.708725426600 	 16.065774754000 	
H	 25.036466994200 	  3.525170086600 	  5.963350794000 	
H	 24.467922864200 	  3.525172896600 	 16.093907514000 	
H	 25.036435894200 	  9.708731846600 	  5.963347964000 	
H	 24.467891764200 	  9.708734656600 	 16.093904684000 	
H	  3.386710736400 	  6.570290654600 	 -0.442556474800 	
H	  2.818166606400 	  6.570293464600 	  9.688000245200 	
H	  3.386679636400 	 12.753852414600 	 -0.442559304800 	
H	  2.818135506400 	 12.753855224600 	  9.687997415200 	
H	 18.067538036400 	  6.570299884600 	 -0.414426544800 	
H	 17.498993906400 	  6.570302694600 	  9.716130175200 	
H	 18.067506936400 	 12.753861644600 	 -0.414429374800 	
H	 17.498962806400 	 12.753864454600 	  9.716127345200 	
H	  1.404496117300 	  2.427035558900 	  4.770053794800 	
H	  0.835951987300 	  2.427038368900 	 14.900610514800 	
H	  1.404465017300 	  8.610597318900 	  4.770050964800 	
H	  0.835920887300 	  8.610600128900 	 14.900607684800 	
H	 16.085323417300 	  2.427044788900 	  4.798183724800 	
H	 15.516779287300 	  2.427047598900 	 14.928740444800 	
H	 16.085292317300 	  8.610606548900 	  4.798180894800 	
H	 15.516748187300 	  8.610609358900 	 14.928737614800 	
H	 12.337828175700 	 -0.618075910000 	  0.722500627700 	
H	 11.769284045700 	 -0.618073100000 	 10.853057347700 	
H	 12.337797075700 	  5.565485850000 	  0.722497797700 	
H	 11.769252945700 	  5.565488660000 	 10.853054517700 	
H	 27.018655475700 	 -0.618066680000 	  0.750630557700 	
H	 26.450111345700 	 -0.618063870000 	 10.881187277700 	
H	 27.018624375700 	  5.565495080000 	  0.750627727700 	
H	 26.450080245700 	  5.565497890000 	 10.881184447700 	
H	 12.121911302100 	  3.663157614800 	  6.078878020100 	
H	 11.553367172100 	  3.663160424800 	 16.209434740100 	
H	 12.121880202100 	  9.846719374800 	  6.078875190100 	
H	 11.553336072100 	  9.846722184800 	 16.209431910100 	
H	 26.802738602100 	  3.663166844800 	  6.107007950100 	
H	 26.234194472100 	  3.663169654800 	 16.237564670100 	
H	 26.802707502100 	  9.846728604800 	  6.107005120100 	
H	 26.234163372100 	  9.846731414800 	 16.237561840100 	
H	  1.188579187600 	  6.708269631800 	 10.126432579800 	
H	  0.620035057600 	  6.708272441800 	 20.256989299800 	
H	  1.188548087600 	 12.891831391800 	 10.126429749800 	
H	  0.620003957600 	 12.891834201800 	 20.256986469800 	
H	 15.869406487600 	  6.708278861800 	 10.154562509800 	
H	 15.300862357600 	  6.708281671800 	 20.285119229800 	
H	 15.869375387600 	 12.891840621800 	 10.154559679800 	
H	 15.300831257600 	 12.891843431800 	 20.285116399800 	
H	  2.333338513100 	  1.133106211500 	  5.520678957300 	
H	  1.764794383100 	  1.133109021500 	 15.651235677300 	
H	  2.333307413100 	  7.316667971500 	  5.520676127300 	
H	  1.764763283100 	  7.316670781500 	 15.651232847300 	
H	 17.014165813100 	  1.133115441500 	  5.548808887300 	
H	 16.445621683100 	  1.133118251500 	 15.679365607300 	
H	 17.014134713100 	  7.316677201500 	  5.548806057300 	
H	 16.445590583100 	  7.316680011500 	 15.679362777300 	
H	 11.409028324500 	  4.178196056400 	 -0.028085263100 	
H	 10.840484194500 	  4.178198866400 	 10.102471456900 	
H	 11.408997224500 	 10.361757816400 	 -0.028088093100 	
H	 10.840453094500 	 10.361760626400 	 10.102468626900 	
H	 26.089855624500 	  4.178205286400 	  0.000044666900 	
H	 25.521311494500 	  4.178208096400 	 10.130601386900 	
H	 26.089824524500 	 10.361767046400 	  0.000041836900 	
H	 25.521280394500 	 10.361769856400 	 10.130598556900 	
H	 11.193066621200 	  4.957086048700 	  5.328254121300 	
H	 10.624522491200 	  4.957088858700 	 15.458810841300 	
H	 11.193035521200 	 11.140647808700 	  5.328251291300 	
H	 10.624491391200 	 11.140650618700 	 15.458808011300 	
H	 25.873893921200 	  4.957095278700 	  5.356384051300 	
H	 25.305349791200 	  4.957098088700 	 15.486940771300 	
H	 25.873862821200 	 11.140657038700 	  5.356381221300 	
H	 25.305318691200 	 11.140659848700 	 15.486937941300 	
H	  2.117379466200 	  1.911997604500 	 10.877018260400 	
H	  1.548835336200 	  1.912000414500 	 21.007574980400 	
H	  2.117348366200 	  8.095559364500 	 10.877015430400 	
H	  1.548804236200 	  8.095562174500 	 21.007572150400 	
H	 16.798206766200 	  1.912006834500 	 10.905148190400 	
H	 16.229662636200 	  1.912009644500 	 21.035704910400 	
H	 16.798175666200 	  8.095568594500 	 10.905145360400 	
H	 16.229631536200 	  8.095571404500 	 21.035702080400 	
C	  1.734559952200 	  4.404219912900 	  6.506123107300 	
C	  1.166015822200 	  4.404222722900 	 16.636679827300 	
C	  1.734528852200 	 10.587781672900 	  6.506120277300 	
C	  1.165984722200 	 10.587784482900 	 16.636676997300 	
C	 16.415387252200 	  4.404229142900 	  6.534253037300 	
C	 15.846843122200 	  4.404231952900 	 16.664809757300 	
C	 16.415356152200 	 10.587790902900 	  6.534250207300 	
C	 15.846812022200 	 10.587793712900 	 16.664806927300 	
C	 11.575904795300 	  1.359102403300 	  9.699089153700 	
C	 11.007360665300 	  1.359105213300 	 19.829645873700 	
C	 11.575873695300 	  7.542664163300 	  9.699086323700 	
C	 11.007329565300 	  7.542666973300 	 19.829643043700 	
C	 26.256732095300 	  1.359111633300 	  9.727219083700 	
C	 25.688187965300 	  1.359114443300 	 19.857775803700 	
C	 26.256700995300 	  7.542673393300 	  9.727216253700 	
C	 25.688156865300 	  7.542676203300 	 19.857772973700 	
C	 11.791850066100 	  1.685974113500 	  4.342806589600 	
C	 11.223305936100 	  1.685976923500 	 14.473363309600 	
C	 11.791818966100 	  7.869535873500 	  4.342803759600 	
C	 11.223274836100 	  7.869538683500 	 14.473360479600 	
C	 26.472677366100 	  1.685983343500 	  4.370936519600 	
C	 25.904133236100 	  1.685986153500 	 14.501493239600 	
C	 26.472646266100 	  7.869545103500 	  4.370933689600 	
C	 25.904102136100 	  7.869547913500 	 14.501490409600 	
C	  1.950503562300 	  4.731091074900 	  1.149843634900 	
C	  1.381959432300 	  4.731093884900 	 11.280400354900 	
C	  1.950472462300 	 10.914652834900 	  1.149840804900 	
C	  1.381928332300 	 10.914655644900 	 11.280397524900 	
C	 16.631330862300 	  4.731100304900 	  1.177973564900 	
C	 16.062786732300 	  4.731103114900 	 11.308530284900 	
C	 16.631299762300 	 10.914662064900 	  1.177970734900 	
C	 16.062755632300 	 10.914664874900 	 11.308527454900 	
H	  2.589703828300 	  4.918653371200 	  6.050687656000 	
H	  2.021159698300 	  4.918656181200 	 16.181244376000 	
H	  2.589672728300 	 11.102215131200 	  6.050684826000 	
H	  2.021128598300 	 11.102217941200 	 16.181241546000 	
H	 17.270531128300 	  4.918662601200 	  6.078817586000 	
H	 16.701986998300 	  4.918665411200 	 16.209374306000 	
H	 17.270500028300 	 11.102224361200 	  6.078814756000 	
H	 16.701955898300 	 11.102227171200 	 16.209371476000 	
H	 10.720753036400 	  1.873537183300 	 10.154505291000 	
H	 10.152208906400 	  1.873539993300 	 20.285062011000 	
H	 10.720721936400 	  8.057098943300 	 10.154502461000 	
H	 10.152177806400 	  8.057101753300 	 20.285059181000 	
H	 25.401580336400 	  1.873546413300 	 10.182635221000 	
H	 24.833036206400 	  1.873549223300 	 20.313191941000 	
H	 25.401549236400 	  8.057108173300 	 10.182632391000 	
H	 24.833005106400 	  8.057110983300 	 20.313189111000 	
H	 10.936706512400 	  1.171539254400 	  4.798240972300 	
H	 10.368162382400 	  1.171542064400 	 14.928797692300 	
H	 10.936675412400 	  7.355101014400 	  4.798238142300 	
H	 10.368131282400 	  7.355103824400 	 14.928794862300 	
H	 25.617533812400 	  1.171548484400 	  4.826370902300 	
H	 25.048989682400 	  1.171551294400 	 14.956927622300 	
H	 25.617502712400 	  7.355110244400 	  4.826368072300 	
H	 25.048958582400 	  7.355113054400 	 14.956924792300 	
H	  2.805655203200 	  4.216656416700 	  0.694426960500 	
H	  2.237111073200 	  4.216659226700 	 10.824983680500 	
H	  2.805624103200 	 10.400218176700 	  0.694424130500 	
H	  2.237079973200 	 10.400220986700 	 10.824980850500 	
H	 17.486482503200 	  4.216665646700 	  0.722556890500 	
H	 16.917938373200 	  4.216668456700 	 10.853113610500 	
H	 17.486451403200 	 10.400227406700 	  0.722554060500 	
H	 16.917907273200 	 10.400230216700 	 10.853110780500 	
H	  1.454454417400 	  4.942542076000 	  7.419312257100 	
H	  0.885910287400 	  4.942544886000 	 17.549868977100 	
H	  1.454423317400 	 11.126103836000 	  7.419309427100 	
H	  0.885879187400 	 11.126106646000 	 17.549866147100 	
H	 16.135281717400 	  4.942551306000 	  7.447442187100 	
H	 15.566737587400 	  4.942554116000 	 17.577998907100 	
H	 16.135250617400 	 11.126113066000 	  7.447439357100 	
H	 15.566706487400 	 11.126115876000 	 17.577996077100 	
H	 11.856081281800 	  7.987633929300 	  8.785941752800 	
H	 11.287537151800 	  7.987636739300 	 18.916498472800 	
H	 11.856050181800 	 14.171195689300 	  8.785938922800 	
H	 11.287506051800 	 14.171198499300 	 18.916495642800 	
H	 26.536908581800 	  7.987643159300 	  8.814071682800 	
H	 25.968364451800 	  7.987645969300 	 18.944628402800 	
H	 26.536877481800 	 14.171204919300 	  8.814068852800 	
H	 25.968333351800 	 14.171207729300 	 18.944625572800 	
H	 12.071956739200 	  1.147653411900 	  3.429616915000 	
H	 11.503412609200 	  1.147656221900 	 13.560173635000 	
H	 12.071925639200 	  7.331215171900 	  3.429614085000 	
H	 11.503381509200 	  7.331217981900 	 13.560170805000 	
H	 26.752784039200 	  1.147662641900 	  3.457746845000 	
H	 26.184239909200 	  1.147665451900 	 13.588303565000 	
H	 26.752752939200 	  7.331224401900 	  3.457744015000 	
H	 26.184208809200 	  7.331227211900 	 13.588300735000 	
H	  1.670327769500 	 -1.897440633900 	  2.062991149700 	
H	  1.101783639500 	 -1.897437823900 	 12.193547869700 	
H	  1.670296669500 	  4.286121126100 	  2.062988319700 	
H	  1.101752539500 	  4.286123936100 	 12.193545039700 	
H	 16.351155069500 	 -1.897431403900 	  2.091121079700 	
H	 15.782610939500 	 -1.897428593900 	 12.221677799700 	
H	 16.351123969500 	  4.286130356100 	  2.091118249700 	
H	 15.782579839500 	  4.286133166100 	 12.221674969700 	
H	  0.882064840800 	  4.479102131000 	  5.817989803200 	
H	  0.313520710800 	  4.479104941000 	 15.948546523200 	
H	  0.882033740800 	 10.662663891000 	  5.817986973200 	
H	  0.313489610800 	 10.662666701000 	 15.948543693200 	
H	 15.562892140800 	  4.479111361000 	  5.846119733200 	
H	 14.994348010800 	  4.479114171000 	 15.976676453200 	
H	 15.562861040800 	 10.662673121000 	  5.846116903200 	
H	 14.994316910800 	 10.662675931000 	 15.976673623200 	
H	 12.428454998600 	  7.524205360700 	 10.387278883200 	
H	 11.859910868600 	  7.524208170700 	 20.517835603200 	
H	 12.428423898600 	 13.707767120700 	 10.387276053200 	
H	 11.859879768600 	 13.707769930700 	 20.517832773200 	
H	 27.109282298600 	  7.524214590700 	 10.415408813200 	
H	 26.540738168600 	  7.524217400700 	 20.545965533200 	
H	 27.109251198600 	 13.707776350700 	 10.415405983200 	
H	 26.540707068600 	 13.707779160700 	 20.545962703200 	
H	 12.644344881100 	  1.611092017100 	  5.030940319400 	
H	 12.075800751100 	  1.611094827100 	 15.161497039400 	
H	 12.644313781100 	  7.794653777100 	  5.030937489400 	
H	 12.075769651100 	  7.794656587100 	 15.161494209400 	
H	 27.325172181100 	  1.611101247100 	  5.059070249400 	
H	 26.756628051100 	  1.611104057100 	 15.189626969400 	
H	 27.325141081100 	  7.794663007100 	  5.059067419400 	
H	 26.756596951100 	  7.794665817100 	 15.189624139400 	
H	  1.097952918700 	 -1.434011943400 	  0.461654436900 	
H	  0.529408788700 	 -1.434009133400 	 10.592211156900 	
H	  1.097921818700 	  4.749549816600 	  0.461651606900 	
H	  0.529377688700 	  4.749552626600 	 10.592208326900 	
H	 15.778780218700 	 -1.434002713400 	  0.489784366900 	
H	 15.210236088700 	 -1.433999903400 	 10.620341086900 	
H	 15.778749118700 	  4.749559046600 	  0.489781536900 	
H	 15.210204988700 	  4.749561856600 	 10.620338256900 	
C	  0.859009870300 	  2.275087521200 	  7.498940079800 	
C	  0.290465740300 	  2.275090331200 	 17.629496799800 	
C	  0.858978770300 	  8.458649281200 	  7.498937249800 	
C	  0.290434640300 	  8.458652091200 	 17.629493969800 	
C	 15.539837170300 	  2.275096751200 	  7.527070009800 	
C	 14.971293040300 	  2.275099561200 	 17.657626729800 	
C	 15.539806070300 	  8.458658511200 	  7.527067179800 	
C	 14.971261940300 	  8.458661321200 	 17.657623899800 	
C	 12.451513155200 	  5.320185271700 	  8.706323091700 	
C	 11.882969025200 	  5.320188081700 	 18.836879811700 	
C	 12.451482055200 	 11.503747031700 	  8.706320261700 	
C	 11.882937925200 	 11.503749841700 	 18.836876981700 	
C	 27.132340455200 	  5.320194501700 	  8.734453021700 	
C	 26.563796325200 	  5.320197311700 	 18.865009741700 	
C	 27.132309355200 	 11.503756261700 	  8.734450191700 	
C	 26.563765225200 	 11.503759071700 	 18.865006911700 	
C	 12.667397959200 	  3.815108697600 	  3.349991953400 	
C	 12.098853829200 	  3.815111507600 	 13.480548673400 	
C	 12.667366859200 	  9.998670457600 	  3.349989123400 	
C	 12.098822729200 	  9.998673267600 	 13.480545843400 	
C	 27.348225259200 	  3.815117927600 	  3.378121883400 	
C	 26.779681129200 	  3.815120737600 	 13.508678603400 	
C	 27.348194159200 	  9.998679687600 	  3.378119053400 	
C	 26.779650029200 	  9.998682497600 	 13.508675773400 	
C	  1.074895180800 	  0.770007780200 	  2.142610232500 	
C	  0.506351050800 	  0.770010590200 	 12.273166952500 	
C	  1.074864080800 	  6.953569540200 	  2.142607402500 	
C	  0.506319950800 	  6.953572350200 	 12.273164122500 	
C	 15.755722480800 	  0.770017010200 	  2.170740162500 	
C	 15.187178350800 	  0.770019820200 	 12.301296882500 	
C	 15.755691380800 	  6.953578770200 	  2.170737332500 	
C	 15.187147250800 	  6.953581580200 	 12.301294052500 	
H	 -0.047227588500 	  2.355973740600 	  6.881775666400 	
H	 -0.615771718500 	  2.355976550600 	 17.012332386400 	
H	 -0.047258688500 	  8.539535500600 	  6.881772836400 	
H	 -0.615802818500 	  8.539538310600 	 17.012329556400 	
H	 14.633599711500 	  2.355982970600 	  6.909905596400 	
H	 14.065055581500 	  2.355985780600 	 17.040462316400 	
H	 14.633568611500 	  8.539544730600 	  6.909902766400 	
H	 14.065024481500 	  8.539547540600 	 17.040459486400 	
H	 13.357742057700 	  5.401060799500 	  9.323509597600 	
H	 12.789197927700 	  5.401063609500 	 19.454066317600 	
H	 13.357710957700 	 11.584622559500 	  9.323506767600 	
H	 12.789166827700 	 11.584625369500 	 19.454063487600 	
H	 28.038569357700 	  5.401070029500 	  9.351639527600 	
H	 27.470025227700 	  5.401072839500 	 19.482196247600 	
H	 28.038538257700 	 11.584631789500 	  9.351636697600 	
H	 27.469994127700 	 11.584634599500 	 19.482193417600 	
H	 13.573635570700 	  3.734222417300 	  3.967156046800 	
H	 13.005091440700 	  3.734225227300 	 14.097712766800 	
H	 13.573604470700 	  9.917784177300 	  3.967153216800 	
H	 13.005060340700 	  9.917786987300 	 14.097709936800 	
H	 28.254462870700 	  3.734231647300 	  3.995285976800 	
H	 27.685918740700 	  3.734234457300 	 14.125842696800 	
H	 28.254431770700 	  9.917793407300 	  3.995283146800 	
H	 27.685887640700 	  9.917796217300 	 14.125839866800 	
H	  0.168666130200 	  0.689132191500 	  1.525423939400 	
H	 -0.399877999800 	  0.689135001500 	 11.655980659400 	
H	  0.168635030200 	  6.872693951500 	  1.525421109400 	
H	 -0.399909099800 	  6.872696761500 	 11.655977829400 	
H	 14.849493430200 	  0.689141421500 	  1.553553869400 	
H	 14.280949300200 	  0.689144231500 	 11.684110589400 	
H	 14.849462330200 	  6.872703181500 	  1.553551039400 	
H	 14.280918200200 	  6.872705991500 	 11.684107759400 	
H	  0.663727609200 	  2.763729103700 	  8.461941528400 	
H	  0.095183479200 	  2.763731913700 	 18.592498248400 	
H	  0.663696509200 	  8.947290863700 	  8.461938698400 	
H	  0.095152379200 	  8.947293673700 	 18.592495418400 	
H	 15.344554909200 	  2.763738333700 	  8.490071458400 	
H	 14.776010779200 	  2.763741143700 	 18.620628178400 	
H	 15.344523809200 	  8.947300093700 	  8.490068628400 	
H	 14.775979679200 	  8.947302903700 	 18.620625348400 	
H	 12.646828893000 	  5.808844884300 	  7.743333331200 	
H	 12.078284763000 	  5.808847694300 	 17.873890051200 	
H	 12.646797793000 	 11.992406644300 	  7.743330501200 	
H	 12.078253663000 	 11.992409454300 	 17.873887221200 	
H	 27.327656193000 	  5.808854114300 	  7.771463261200 	
H	 26.759112063000 	  5.808856924300 	 17.902019981200 	
H	 27.327625093000 	 11.992415874300 	  7.771460431200 	
H	 26.759080963000 	 11.992418684300 	 17.902017151200 	
H	 12.862680534200 	  3.326468820300 	  2.386989650500 	
H	 12.294136404200 	  3.326471630300 	 12.517546370500 	
H	 12.862649434200 	  9.510030580300 	  2.386986820500 	
H	 12.294105304200 	  9.510033390300 	 12.517543540500 	
H	 27.543507834200 	  3.326478050300 	  2.415119580500 	
H	 26.974963704200 	  3.326480860300 	 12.545676300500 	
H	 27.543476734200 	  9.510039810300 	  2.415116750500 	
H	 26.974932604200 	  9.510042620300 	 12.545673470500 	
H	  0.879579730900 	  0.281347802200 	  3.105599781400 	
H	  0.311035600900 	  0.281350612200 	 13.236156501400 	
H	  0.879548630900 	  6.464909562200 	  3.105596951400 	
H	  0.311004500900 	  6.464912372200 	 13.236153671400 	
H	 15.560407030900 	  0.281357032200 	  3.133729711400 	
H	 14.991862900900 	  0.281359842200 	 13.264286431400 	
H	 15.560375930900 	  6.464918792200 	  3.133726881400 	
H	 14.991831800900 	  6.464921602200 	 13.264283601400 	
H	  1.045204185900 	  1.211387289900 	  7.689215422100 	
H	  0.476660055900 	  1.211390099900 	 17.819772142100 	
H	  1.045173085900 	  7.394949049900 	  7.689212592100 	
H	  0.476628955900 	  7.394951859900 	 17.819769312100 	
H	 15.726031485900 	  1.211396519900 	  7.717345352100 	
H	 15.157487355900 	  1.211399329900 	 17.847902072100 	
H	 15.726000385900 	  7.394958279900 	  7.717342522100 	
H	 15.157456255900 	  7.394961089900 	 17.847899242100 	
H	 12.265311577400 	  4.256482564700 	  8.516029920700 	
H	 11.696767447400 	  4.256485374700 	 18.646586640700 	
H	 12.265280477400 	 10.440044324700 	  8.516027090700 	
H	 11.696736347400 	 10.440047134700 	 18.646583810700 	
H	 26.946138877400 	  4.256491794700 	  8.544159850700 	
H	 26.377594747400 	  4.256494604700 	 18.674716570700 	
H	 26.946107777400 	 10.440053554700 	  8.544157020700 	
H	 26.377563647400 	 10.440056364700 	 18.674713740700 	
H	 12.481202737100 	  4.878809050700 	  3.159718317000 	
H	 11.912658607100 	  4.878811860700 	 13.290275037000 	
H	 12.481171637100 	 11.062370810700 	  3.159715487000 	
H	 11.912627507100 	 11.062373620700 	 13.290272207000 	
H	 27.162030037100 	  4.878818280700 	  3.187848247000 	
H	 26.593485907100 	  4.878821090700 	 13.318404967000 	
H	 27.161998937100 	 11.062380040700 	  3.187845417000 	
H	 26.593454807100 	 11.062382850700 	 13.318402137000 	
H	  1.261096601800 	  1.833710487200 	  2.332903830600 	
H	  0.692552471800 	  1.833713297200 	 12.463460550600 	
H	  1.261065501800 	  8.017272247200 	  2.332901000600 	
H	  0.692521371800 	  8.017275057200 	 12.463457720600 	
H	 15.941923901800 	  1.833719717200 	  2.361033760600 	
H	 15.373379771800 	  1.833722527200 	 12.491590480600 	
H	 15.941892801800 	  8.017281477200 	  2.361030930600 	
H	 15.373348671800 	  8.017284287200 	 12.491587650600 	
