  Invoking FHI-aims ...
  | Number of atoms                   :  96
  ...scf iterations...
  | Total energy corrected        :   -1.033963793358E+02 eV
  ...
  Total atomic forces (unitary forces cleaned)
     1  -3.1893414152E-01  6.2158180974E-01  1.8848843439E-01
     2  2.4140773335E-01  5.8915364722E-01  -1.8456841050E-01
     3  3.1893414019E-01  -6.2158169005E-01  -1.8848838667E-01
     4  -2.4140756845E-01  -5.8915349678E-01  1.8456846973E-01
     5  -7.6249688981E-01  4.3340845726E-01  -4.4433124992E-01
     6  1.1495909946E+00  -1.6645103243E+00  2.5852465166E+00
     7  7.6249747719E-01  -4.3340829317E-01  4.4433183956E-01
     8  -1.1495910939E+00  1.6645101896E+00  -2.5852461764E+00
     9  -4.9345510915E-01  3.4849698617E-01  -2.0377591341E-01
    10  -1.1273474012E+00  -1.4275413381E+00  1.9520857711E-01
    11  4.9345451722E-01  -3.4849703389E-01  2.0377535898E-01
    12  1.1273480310E+00  1.4275423372E+00  -1.9520892028E-01
    13  -5.8265576872E-01  -1.1129408848E+00  -1.1793732693E+00
    14  2.1254338686E+00  5.3294957002E-01  1.2582717279E+00
    15  5.8265504303E-01  1.1129411400E+00  1.1793729540E+00
    16  -2.1254351400E+00  -5.3295030733E-01  -1.2582708721E+00
    17  5.3616647679E-01  -7.2208018311E-01  -5.0057575528E-02
    18  -1.3824849453E+00  5.6017446336E-01  -1.4665584184E+00
    19  -5.3616579000E-01  7.2208041714E-01  5.0058164193E-02
    20  1.3824856753E+00  -5.6017501238E-01  1.4665584399E+00
    21  6.3704936206E-01  -1.2063757356E+00  -2.3948519799E-01
    22  -5.1552044949E-01  -1.2122951512E+00  3.9577475474E-01
    23  -6.3704993476E-01  1.2063759810E+00  2.3948474350E-01
    24  5.1552037077E-01  1.2122951748E+00  -3.9577485893E-01
    25  9.5908435985E-01  1.0748265470E-01  8.1396000780E-01
    26  5.6639977982E-03  -1.3985965059E+00  9.0193484586E-01
    27  -9.5908995114E-01  -1.0748265300E-01  -8.1396381913E-01
    28  -5.6635136276E-03  1.3985976179E+00  -9.0193537647E-01
    29  5.7864106857E-01  4.3589469459E-01  7.4671795641E-01
    30  -4.6521166971E-01  5.8287420091E-01  -7.9391350849E-01
    31  -5.7864079761E-01  -4.3589486022E-01  -7.4671807223E-01
    32  4.6521105638E-01  -5.8287459215E-01  7.9391320214E-01
    33  2.1367481781E-01  1.0337886567E+00  9.3430307979E-01
    34  -1.9351092344E-01  1.1367155758E+00  -9.1265362287E-01
    35  -2.1367446599E-01  -1.0337889721E+00  -9.3430278743E-01
    36  1.9351117907E-01  -1.1367159202E+00  9.1265345056E-01
    37  -8.5867219447E-01  5.6084855194E-01  -2.8689712390E-01
    38  8.8060731918E-01  6.7801990509E-01  1.8351373283E-01
    39  8.5867223514E-01  -5.6084871833E-01  2.8689723447E-01
    40  -8.8060722957E-01  -6.7802028358E-01  -1.8351320505E-01
    41  -8.8286051138E-01  1.1438475835E+00  6.7678558747E-02
    42  9.1160167405E-01  1.1866692658E+00  -7.4725737893E-02
    43  8.8286043984E-01  -1.1438474138E+00  -6.7678359798E-02
    44  -9.1160141007E-01  -1.1866690194E+00  7.4725910093E-02
    45  1.2515348223E+00  1.0143090751E-01  1.1347665563E+00
    46  -3.7684731719E+00  -7.0636926459E-01  -2.1383322530E+00
    47  -1.2515017823E+00  -1.0143077894E-01  -1.1347409426E+00
    48  3.7684708019E+00  7.0636770168E-01  2.1383293805E+00
    49  -1.2462512457E+00  1.8407056094E-01  1.1068454521E+00
    50  -7.0433245358E-01  7.4009184560E-02  -4.1485588810E+00
    51  1.2462360644E+00  -1.8406598349E-01  -1.1068326737E+00
    52  7.0429878110E-01  -7.4022904317E-02  4.1485674591E+00
    53  -5.0724153980E-01  -1.6524737735E+00  -2.0592223431E-01
    54  2.0254724498E+00  3.0877408861E+00  -8.0965099343E-01
    55  5.0723776287E-01  1.6524442973E+00  2.0591738475E-01
    56  -2.0254629742E+00  -3.0877483355E+00  8.0964263649E-01
    57  5.8816819012E-01  -1.2023122720E-01  2.6762405666E-01
    58  1.6303879113E+00  4.7415309166E-01  3.0224483664E+00
    59  -5.8816906519E-01  1.2023033138E-01  -2.6763343594E-01
    60  -1.6303829601E+00  -4.7414981891E-01  -3.0224372012E+00
    61  4.5192747037E-02  1.7115881599E+00  -1.1660002582E-01
    62  -9.4911453716E-01  -4.6528326976E+00  8.2474583607E-01
    63  -4.5181608217E-02  -1.7115611752E+00  1.1659184586E-01
    64  9.4913604784E-01  4.6528470729E+00  -8.2475549443E-01
    65  1.1947884537E-01  -8.9250325054E-01  -4.1931264587E-01
    66  3.2485732290E+00  -1.9395978015E-01  -4.7790493871E-01
    67  -1.1947946178E-01  8.9249005232E-01  4.1930455534E-01
    68  -3.2485706499E+00  1.9396104269E-01  4.7790784437E-01
    69  -7.0135985411E-01  -6.0750171582E-01  6.9593779845E-01
    70  1.2341579682E+00  -1.0728706969E+00  -1.2478636023E+00
    71  7.0136192982E-01  6.0750865817E-01  -6.9593150940E-01
    72  -1.2341572152E+00  1.0728701463E+00  1.2478631714E+00
    73  6.2548051891E-01  2.9270288031E-01  -1.1230555674E+00
    74  -1.3601921452E+00  -1.7988599407E-01  2.7185639530E+00
    75  -6.2547859488E-01  -2.9269753202E-01  1.1230611094E+00
    76  1.3601907152E+00  1.7988855460E-01  -2.7185664365E+00
    77  4.4377993542E-01  -1.9522427563E-01  2.0047231814E-01
    78  -1.1532349794E+00  -3.6311032854E-01  -7.1940542381E-01
    79  -4.4379146804E-01  1.9522600168E-01  -2.0048036864E-01
    80  1.1532354873E+00  3.6311029177E-01  7.1940506076E-01
    81  2.0200460069E-01  1.1458026240E+00  -6.0326866612E-01
    82  -9.4659834044E-01  2.4114793934E+00  1.1752912497E+00
    83  -2.0200006458E-01  -1.1457888090E+00  6.0325787605E-01
    84  9.4659741290E-01  -2.4114788659E+00  -1.1752919419E+00
    85  3.9569687615E-01  -4.6455119765E-02  2.5032609863E-01
    86  -6.7091112427E-01  8.7190878324E-02  -1.6814116009E-01
    87  -3.9571207963E-01  4.6451724218E-02  -2.5033124743E-01
    88  6.7090988954E-01  -8.7190808875E-02  1.6814102904E-01
    89  3.9279237863E-01  -5.8704517133E-01  -1.2467328174E+00
    90  -5.4409407988E-01  -3.6322189942E-01  1.8080393813E+00
    91  -3.9278716210E-01  5.8703090460E-01  1.2467256697E+00
    92  5.4409407939E-01  3.6322419909E-01  -1.8080387213E+00
    93  -6.0369870290E-01  6.1263903439E-01  8.1550012351E-01
    94  6.3553269276E-01  1.2913161519E+00  -6.9274161515E-01
    95  6.0369358373E-01  -6.1263791887E-01  -8.1548568422E-01
    96  -6.3553339993E-01  -1.2913170968E+00  6.9274317195E-01
  Stress tensor (eV/A^3):
  7.4699868315E-02  -8.8378524845E-03  1.9192485090E-02
  -8.8378524845E-03  6.6822695914E-02  7.9499565023E-03
  1.9192485090E-02  7.9499565023E-03  6.1617335535E-02
