64 
Energy: 2.9162796204157360e+00 
Mg	  0.000000000000 	  0.000000000000 	  0.000000000000 	
Mg	  1.000000000000 	  0.000000000000 	  2.980000000000 	
Mg	  0.000000000000 	  3.980000000000 	  0.000000000000 	
Mg	  1.000000000000 	  3.980000000000 	  2.980000000000 	
Mg	  3.980000000000 	  0.000000000000 	  0.000000000000 	
Mg	  4.980000000000 	  0.000000000000 	  2.980000000000 	
Mg	  3.980000000000 	  3.980000000000 	  0.000000000000 	
Mg	  4.980000000000 	  3.980000000000 	  2.980000000000 	
Mg	  1.702492524211 	  1.798328349474 	  0.000000000000 	
Mg	  2.702492524211 	  1.798328349474 	  2.980000000000 	
Mg	  1.702492524211 	  5.778328349474 	  0.000000000000 	
Mg	  2.702492524211 	  5.778328349474 	  2.980000000000 	
Mg	  5.682492524211 	  1.798328349474 	  0.000000000000 	
Mg	  6.682492524211 	  1.798328349474 	  2.980000000000 	
Mg	  5.682492524211 	  5.778328349474 	  0.000000000000 	
Mg	  6.682492524211 	  5.778328349474 	  2.980000000000 	
Mg	  2.469179126316 	  0.000000000000 	  1.510820873684 	
Mg	  3.469179126316 	  0.000000000000 	  4.490820873684 	
Mg	  2.469179126316 	  3.980000000000 	  1.510820873684 	
Mg	  3.469179126316 	  3.980000000000 	  4.490820873684 	
Mg	  6.449179126316 	  0.000000000000 	  1.510820873684 	
Mg	  7.449179126316 	  0.000000000000 	  4.490820873684 	
Mg	  6.449179126316 	  3.980000000000 	  1.510820873684 	
Mg	  7.449179126316 	  3.980000000000 	  4.490820873684 	
Mg	  0.479179126316 	  1.990000000000 	  1.510820873684 	
Mg	  1.479179126316 	  1.990000000000 	  4.490820873684 	
Mg	  0.479179126316 	  5.970000000000 	  1.510820873684 	
Mg	  1.479179126316 	  5.970000000000 	  4.490820873684 	
Mg	  4.459179126316 	  1.990000000000 	  1.510820873684 	
Mg	  5.459179126316 	  1.990000000000 	  4.490820873684 	
Mg	  4.459179126316 	  5.970000000000 	  1.510820873684 	
Mg	  5.459179126316 	  5.970000000000 	  4.490820873684 	
O	  1.990000000000 	  0.000000000000 	  0.000000000000 	
O	  2.990000000000 	  0.000000000000 	  2.980000000000 	
O	  1.990000000000 	  3.980000000000 	  0.000000000000 	
O	  2.990000000000 	  3.980000000000 	  2.980000000000 	
O	  5.970000000000 	  0.000000000000 	  0.000000000000 	
O	  6.970000000000 	  0.000000000000 	  2.980000000000 	
O	  5.970000000000 	  3.980000000000 	  0.000000000000 	
O	  6.970000000000 	  3.980000000000 	  2.980000000000 	
O	  0.000000000000 	  1.990000000000 	  0.000000000000 	
O	  1.000000000000 	  1.990000000000 	  2.980000000000 	
O	  0.000000000000 	  5.970000000000 	  0.000000000000 	
O	  1.000000000000 	  5.970000000000 	  2.980000000000 	
O	  3.980000000000 	  1.990000000000 	  0.000000000000 	
O	  4.980000000000 	  1.990000000000 	  2.980000000000 	
O	  3.980000000000 	  5.970000000000 	  0.000000000000 	
O	  4.980000000000 	  5.970000000000 	  2.980000000000 	
O	  0.479179126316 	  0.000000000000 	  1.510820873684 	
O	  1.479179126316 	  0.000000000000 	  4.490820873684 	
O	  0.479179126316 	  3.980000000000 	  1.510820873684 	
O	  1.479179126316 	  3.980000000000 	  4.490820873684 	
O	  4.459179126316 	  0.000000000000 	  1.510820873684 	
O	  5.459179126316 	  0.000000000000 	  4.490820873684 	
O	  4.459179126316 	  3.980000000000 	  1.510820873684 	
O	  5.459179126316 	  3.980000000000 	  4.490820873684 	
O	  2.852522427368 	  1.360358628021 	  1.510820873684 	
O	  3.852522427368 	  1.360358628021 	  4.490820873684 	
O	  2.852522427368 	  5.340358628021 	  1.510820873684 	
O	  3.852522427368 	  5.340358628021 	  4.490820873684 	
O	  6.832522427368 	  1.360358628021 	  1.510820873684 	
O	  7.832522427368 	  1.360358628021 	  4.490820873684 	
O	  6.832522427368 	  5.340358628021 	  1.510820873684 	
O	  7.832522427368 	  5.340358628021 	  4.490820873684 	
64 
Energy: 2.8778200547845714e+00 
Mg	  0.000000000000 	  0.000000000000 	  0.000000000000 	
Mg	  1.000000000000 	  0.000000000000 	  2.980000000000 	
Mg	  0.000000000000 	  3.980000000000 	  0.000000000000 	
Mg	  1.000000000000 	  3.980000000000 	  2.980000000000 	
Mg	  3.980000000000 	  0.000000000000 	  0.000000000000 	
Mg	  4.980000000000 	  0.000000000000 	  2.980000000000 	
Mg	  3.980000000000 	  3.980000000000 	  0.000000000000 	
Mg	  4.980000000000 	  3.980000000000 	  2.980000000000 	
Mg	  1.728749673550 	  1.818659386445 	  0.000000000000 	
Mg	  2.728749673550 	  1.818659386445 	  2.980000000000 	
Mg	  1.728749673550 	  5.798659386445 	  0.000000000000 	
Mg	  2.728749673550 	  5.798659386445 	  2.980000000000 	
Mg	  5.708749673550 	  1.818659386445 	  0.000000000000 	
Mg	  6.708749673550 	  1.818659386445 	  2.980000000000 	
Mg	  5.708749673550 	  5.798659386445 	  0.000000000000 	
Mg	  6.708749673550 	  5.798659386445 	  2.980000000000 	
Mg	  2.448027376712 	  0.000000000000 	  1.548930247759 	
Mg	  3.448027376712 	  0.000000000000 	  4.528930247759 	
Mg	  2.448027376712 	  3.980000000000 	  1.548930247759 	
Mg	  3.448027376712 	  3.980000000000 	  4.528930247759 	
Mg	  6.428027376712 	  0.000000000000 	  1.548930247759 	
Mg	  7.428027376712 	  0.000000000000 	  4.528930247759 	
Mg	  6.428027376712 	  3.980000000000 	  1.548930247759 	
Mg	  7.428027376712 	  3.980000000000 	  4.528930247759 	
Mg	  0.449548564477 	  1.998478812236 	  1.548930247759 	
Mg	  1.449548564477 	  1.998478812236 	  4.528930247759 	
Mg	  0.449548564477 	  5.978478812236 	  1.548930247759 	
Mg	  1.449548564477 	  5.978478812236 	  4.528930247759 	
Mg	  4.429548564477 	  1.998478812236 	  1.548930247759 	
Mg	  5.429548564477 	  1.998478812236 	  4.528930247759 	
Mg	  4.429548564477 	  5.978478812236 	  1.548930247759 	
Mg	  5.429548564477 	  5.978478812236 	  4.528930247759 	
O	  1.998478812236 	  0.000000000000 	  0.000000000000 	
O	  2.998478812236 	  0.000000000000 	  2.980000000000 	
O	  1.998478812236 	  3.980000000000 	  0.000000000000 	
O	  2.998478812236 	  3.980000000000 	  2.980000000000 	
O	  5.978478812236 	  0.000000000000 	  0.000000000000 	
O	  6.978478812236 	  0.000000000000 	  2.980000000000 	
O	  5.978478812236 	  3.980000000000 	  0.000000000000 	
O	  6.978478812236 	  3.980000000000 	  2.980000000000 	
O	  0.000000000000 	  1.998478812236 	  0.000000000000 	
O	  1.000000000000 	  1.998478812236 	  2.980000000000 	
O	  0.000000000000 	  5.978478812236 	  0.000000000000 	
O	  1.000000000000 	  5.978478812236 	  2.980000000000 	
O	  3.980000000000 	  1.998478812236 	  0.000000000000 	
O	  4.980000000000 	  1.998478812236 	  2.980000000000 	
O	  3.980000000000 	  5.978478812236 	  0.000000000000 	
O	  4.980000000000 	  5.978478812236 	  2.980000000000 	
O	  0.449548564477 	  0.000000000000 	  1.548930247759 	
O	  1.449548564477 	  0.000000000000 	  4.528930247759 	
O	  0.449548564477 	  3.980000000000 	  1.548930247759 	
O	  1.449548564477 	  3.980000000000 	  4.528930247759 	
O	  4.429548564477 	  0.000000000000 	  1.548930247759 	
O	  5.429548564477 	  0.000000000000 	  4.528930247759 	
O	  4.429548564477 	  3.980000000000 	  1.548930247759 	
O	  5.429548564477 	  3.980000000000 	  4.528930247759 	
O	  2.807666228294 	  1.407771998513 	  1.548930247759 	
O	  3.807666228294 	  1.407771998513 	  4.528930247759 	
O	  2.807666228294 	  5.387771998513 	  1.548930247759 	
O	  3.807666228294 	  5.387771998513 	  4.528930247759 	
O	  6.787666228294 	  1.407771998513 	  1.548930247759 	
O	  7.787666228294 	  1.407771998513 	  4.528930247759 	
O	  6.787666228294 	  5.387771998513 	  1.548930247759 	
O	  7.787666228294 	  5.387771998513 	  4.528930247759 	
64 
Energy: 3.2631461877586636e+00 
Mg	  0.000000000000 	  0.000000000000 	  0.000000000000 	
Mg	  1.000000000000 	  0.000000000000 	  2.980000000000 	
Mg	  0.000000000000 	  3.980000000000 	  0.000000000000 	
Mg	  1.000000000000 	  3.980000000000 	  2.980000000000 	
Mg	  3.980000000000 	  0.000000000000 	  0.000000000000 	
Mg	  4.980000000000 	  0.000000000000 	  2.980000000000 	
Mg	  3.980000000000 	  3.980000000000 	  0.000000000000 	
Mg	  4.980000000000 	  3.980000000000 	  2.980000000000 	
Mg	  1.755126907556 	  1.839048915450 	  0.000000000000 	
Mg	  2.755126907556 	  1.839048915450 	  2.980000000000 	
Mg	  1.755126907556 	  5.819048915450 	  0.000000000000 	
Mg	  2.755126907556 	  5.819048915450 	  2.980000000000 	
Mg	  5.735126907556 	  1.839048915450 	  0.000000000000 	
Mg	  6.735126907556 	  1.839048915450 	  2.980000000000 	
Mg	  5.735126907556 	  5.819048915450 	  0.000000000000 	
Mg	  6.735126907556 	  5.819048915450 	  2.980000000000 	
Mg	  2.426502970703 	  0.000000000000 	  1.587282891770 	
Mg	  3.426502970703 	  0.000000000000 	  4.567282891770 	
Mg	  2.426502970703 	  3.980000000000 	  1.587282891770 	
Mg	  3.426502970703 	  3.980000000000 	  4.567282891770 	
Mg	  6.406502970703 	  0.000000000000 	  1.587282891770 	
Mg	  7.406502970703 	  0.000000000000 	  4.567282891770 	
Mg	  6.406502970703 	  3.980000000000 	  1.587282891770 	
Mg	  7.406502970703 	  3.980000000000 	  4.567282891770 	
Mg	  0.419610039467 	  2.006892931236 	  1.587282891770 	
Mg	  1.419610039467 	  2.006892931236 	  4.567282891770 	
Mg	  0.419610039467 	  5.986892931236 	  1.587282891770 	
Mg	  1.419610039467 	  5.986892931236 	  4.567282891770 	
Mg	  4.399610039467 	  2.006892931236 	  1.587282891770 	
Mg	  5.399610039467 	  2.006892931236 	  4.567282891770 	
Mg	  4.399610039467 	  5.986892931236 	  1.587282891770 	
Mg	  5.399610039467 	  5.986892931236 	  4.567282891770 	
O	  2.006892931236 	  0.000000000000 	  0.000000000000 	
O	  3.006892931236 	  0.000000000000 	  2.980000000000 	
O	  2.006892931236 	  3.980000000000 	  0.000000000000 	
O	  3.006892931236 	  3.980000000000 	  2.980000000000 	
O	  5.986892931236 	  0.000000000000 	  0.000000000000 	
O	  6.986892931236 	  0.000000000000 	  2.980000000000 	
O	  5.986892931236 	  3.980000000000 	  0.000000000000 	
O	  6.986892931236 	  3.980000000000 	  2.980000000000 	
O	  0.000000000000 	  2.006892931236 	  0.000000000000 	
O	  1.000000000000 	  2.006892931236 	  2.980000000000 	
O	  0.000000000000 	  5.986892931236 	  0.000000000000 	
O	  1.000000000000 	  5.986892931236 	  2.980000000000 	
O	  3.980000000000 	  2.006892931236 	  0.000000000000 	
O	  4.980000000000 	  2.006892931236 	  2.980000000000 	
O	  3.980000000000 	  5.986892931236 	  0.000000000000 	
O	  4.980000000000 	  5.986892931236 	  2.980000000000 	
O	  0.419610039467 	  0.000000000000 	  1.587282891770 	
O	  1.419610039467 	  0.000000000000 	  4.567282891770 	
O	  0.419610039467 	  3.980000000000 	  1.587282891770 	
O	  1.419610039467 	  3.980000000000 	  4.567282891770 	
O	  4.399610039467 	  0.000000000000 	  1.587282891770 	
O	  5.399610039467 	  0.000000000000 	  4.567282891770 	
O	  4.399610039467 	  3.980000000000 	  1.587282891770 	
O	  5.399610039467 	  3.980000000000 	  4.567282891770 	
O	  2.762191002276 	  1.455525339377 	  1.587282891770 	
O	  3.762191002276 	  1.455525339377 	  4.567282891770 	
O	  2.762191002276 	  5.435525339377 	  1.587282891770 	
O	  3.762191002276 	  5.435525339377 	  4.567282891770 	
O	  6.742191002276 	  1.455525339377 	  1.587282891770 	
O	  7.742191002276 	  1.455525339377 	  4.567282891770 	
O	  6.742191002276 	  5.435525339377 	  1.587282891770 	
O	  7.742191002276 	  5.435525339377 	  4.567282891770 	
64 
Energy: 3.8687076785359507e+00 
Mg	  0.000000000000 	  0.000000000000 	  0.000000000000 	
Mg	  1.000000000000 	  0.000000000000 	  2.980000000000 	
Mg	  0.000000000000 	  3.980000000000 	  0.000000000000 	
Mg	  1.000000000000 	  3.980000000000 	  2.980000000000 	
Mg	  3.980000000000 	  0.000000000000 	  0.000000000000 	
Mg	  4.980000000000 	  0.000000000000 	  2.980000000000 	
Mg	  3.980000000000 	  3.980000000000 	  0.000000000000 	
Mg	  4.980000000000 	  3.980000000000 	  2.980000000000 	
Mg	  1.781526759304 	  1.859457581724 	  0.000000000000 	
Mg	  2.781526759304 	  1.859457581724 	  2.980000000000 	
Mg	  1.781526759304 	  5.839457581724 	  0.000000000000 	
Mg	  2.781526759304 	  5.839457581724 	  2.980000000000 	
Mg	  5.761526759304 	  1.859457581724 	  0.000000000000 	
Mg	  6.761526759304 	  1.859457581724 	  2.980000000000 	
Mg	  5.761526759304 	  5.839457581724 	  0.000000000000 	
Mg	  6.761526759304 	  5.839457581724 	  2.980000000000 	
Mg	  2.404973338667 	  0.000000000000 	  1.625665114463 	
Mg	  3.404973338667 	  0.000000000000 	  4.605665114463 	
Mg	  2.404973338667 	  3.980000000000 	  1.625665114463 	
Mg	  3.404973338667 	  3.980000000000 	  4.605665114463 	
Mg	  6.384973338667 	  0.000000000000 	  1.625665114463 	
Mg	  7.384973338667 	  0.000000000000 	  4.605665114463 	
Mg	  6.384973338667 	  3.980000000000 	  1.625665114463 	
Mg	  7.384973338667 	  3.980000000000 	  4.605665114463 	
Mg	  0.389654112102 	  2.015319226565 	  1.625665114463 	
Mg	  1.389654112102 	  2.015319226565 	  4.605665114463 	
Mg	  0.389654112102 	  5.995319226565 	  1.625665114463 	
Mg	  1.389654112102 	  5.995319226565 	  4.605665114463 	
Mg	  4.369654112102 	  2.015319226565 	  1.625665114463 	
Mg	  5.369654112102 	  2.015319226565 	  4.605665114463 	
Mg	  4.369654112102 	  5.995319226565 	  1.625665114463 	
Mg	  5.369654112102 	  5.995319226565 	  4.605665114463 	
O	  2.015319226565 	  0.000000000000 	  0.000000000000 	
O	  3.015319226565 	  0.000000000000 	  2.980000000000 	
O	  2.015319226565 	  3.980000000000 	  0.000000000000 	
O	  3.015319226565 	  3.980000000000 	  2.980000000000 	
O	  5.995319226565 	  0.000000000000 	  0.000000000000 	
O	  6.995319226565 	  0.000000000000 	  2.980000000000 	
O	  5.995319226565 	  3.980000000000 	  0.000000000000 	
O	  6.995319226565 	  3.980000000000 	  2.980000000000 	
O	  0.000000000000 	  2.015319226565 	  0.000000000000 	
O	  1.000000000000 	  2.015319226565 	  2.980000000000 	
O	  0.000000000000 	  5.995319226565 	  0.000000000000 	
O	  1.000000000000 	  5.995319226565 	  2.980000000000 	
O	  3.980000000000 	  2.015319226565 	  0.000000000000 	
O	  4.980000000000 	  2.015319226565 	  2.980000000000 	
O	  3.980000000000 	  5.995319226565 	  0.000000000000 	
O	  4.980000000000 	  5.995319226565 	  2.980000000000 	
O	  0.389654112102 	  0.000000000000 	  1.625665114463 	
O	  1.389654112102 	  0.000000000000 	  4.605665114463 	
O	  0.389654112102 	  3.980000000000 	  1.625665114463 	
O	  1.389654112102 	  3.980000000000 	  4.605665114463 	
O	  4.369654112102 	  0.000000000000 	  1.625665114463 	
O	  5.369654112102 	  0.000000000000 	  4.605665114463 	
O	  4.369654112102 	  3.980000000000 	  1.625665114463 	
O	  5.369654112102 	  3.980000000000 	  4.605665114463 	
O	  2.716696628349 	  1.503313723262 	  1.625665114463 	
O	  3.716696628349 	  1.503313723262 	  4.605665114463 	
O	  2.716696628349 	  5.483313723262 	  1.625665114463 	
O	  3.716696628349 	  5.483313723262 	  4.605665114463 	
O	  6.696696628349 	  1.503313723262 	  1.625665114463 	
O	  7.696696628349 	  1.503313723262 	  4.605665114463 	
O	  6.696696628349 	  5.483313723262 	  1.625665114463 	
O	  7.696696628349 	  5.483313723262 	  4.605665114463 	
64 
Energy: 4.5310525098330494e+00 
Mg	  0.000000000000 	  0.000000000000 	  0.000000000000 	
Mg	  1.000000000000 	  0.000000000000 	  2.980000000000 	
Mg	  0.000000000000 	  3.980000000000 	  0.000000000000 	
Mg	  1.000000000000 	  3.980000000000 	  2.980000000000 	
Mg	  3.980000000000 	  0.000000000000 	  0.000000000000 	
Mg	  4.980000000000 	  0.000000000000 	  2.980000000000 	
Mg	  3.980000000000 	  3.980000000000 	  0.000000000000 	
Mg	  4.980000000000 	  3.980000000000 	  2.980000000000 	
Mg	  1.807946308733 	  1.879882205067 	  0.000000000000 	
Mg	  2.807946308733 	  1.879882205067 	  2.980000000000 	
Mg	  1.807946308733 	  5.859882205067 	  0.000000000000 	
Mg	  2.807946308733 	  5.859882205067 	  2.980000000000 	
Mg	  5.787946308733 	  1.879882205067 	  0.000000000000 	
Mg	  6.787946308733 	  1.879882205067 	  2.980000000000 	
Mg	  5.787946308733 	  5.859882205067 	  0.000000000000 	
Mg	  6.787946308733 	  5.859882205067 	  2.980000000000 	
Mg	  2.383433479398 	  0.000000000000 	  1.664074516067 	
Mg	  3.383433479398 	  0.000000000000 	  4.644074516067 	
Mg	  2.383433479398 	  3.980000000000 	  1.664074516067 	
Mg	  3.383433479398 	  3.980000000000 	  4.644074516067 	
Mg	  6.363433479398 	  0.000000000000 	  1.664074516067 	
Mg	  7.363433479398 	  0.000000000000 	  4.644074516067 	
Mg	  6.363433479398 	  3.980000000000 	  1.664074516067 	
Mg	  7.363433479398 	  3.980000000000 	  4.644074516067 	
Mg	  0.359679481666 	  2.023753997733 	  1.664074516067 	
Mg	  1.359679481666 	  2.023753997733 	  4.644074516067 	
Mg	  0.359679481666 	  6.003753997733 	  1.664074516067 	
Mg	  1.359679481666 	  6.003753997733 	  4.644074516067 	
Mg	  4.339679481666 	  2.023753997733 	  1.664074516067 	
Mg	  5.339679481666 	  2.023753997733 	  4.644074516067 	
Mg	  4.339679481666 	  6.003753997733 	  1.664074516067 	
Mg	  5.339679481666 	  6.003753997733 	  4.644074516067 	
O	  2.023753997733 	  0.000000000000 	  0.000000000000 	
O	  3.023753997733 	  0.000000000000 	  2.980000000000 	
O	  2.023753997733 	  3.980000000000 	  0.000000000000 	
O	  3.023753997733 	  3.980000000000 	  2.980000000000 	
O	  6.003753997733 	  0.000000000000 	  0.000000000000 	
O	  7.003753997733 	  0.000000000000 	  2.980000000000 	
O	  6.003753997733 	  3.980000000000 	  0.000000000000 	
O	  7.003753997733 	  3.980000000000 	  2.980000000000 	
O	  0.000000000000 	  2.023753997733 	  0.000000000000 	
O	  1.000000000000 	  2.023753997733 	  2.980000000000 	
O	  0.000000000000 	  6.003753997733 	  0.000000000000 	
O	  1.000000000000 	  6.003753997733 	  2.980000000000 	
O	  3.980000000000 	  2.023753997733 	  0.000000000000 	
O	  4.980000000000 	  2.023753997733 	  2.980000000000 	
O	  3.980000000000 	  6.003753997733 	  0.000000000000 	
O	  4.980000000000 	  6.003753997733 	  2.980000000000 	
O	  0.359679481666 	  0.000000000000 	  1.664074516067 	
O	  1.359679481666 	  0.000000000000 	  4.644074516067 	
O	  0.359679481666 	  3.980000000000 	  1.664074516067 	
O	  1.359679481666 	  3.980000000000 	  4.644074516067 	
O	  4.339679481666 	  0.000000000000 	  1.664074516067 	
O	  5.339679481666 	  0.000000000000 	  4.644074516067 	
O	  4.339679481666 	  3.980000000000 	  1.664074516067 	
O	  5.339679481666 	  3.980000000000 	  4.644074516067 	
O	  2.671177064731 	  1.551135158824 	  1.664074516067 	
O	  3.671177064731 	  1.551135158824 	  4.644074516067 	
O	  2.671177064731 	  5.531135158824 	  1.664074516067 	
O	  3.671177064731 	  5.531135158824 	  4.644074516067 	
O	  6.651177064731 	  1.551135158824 	  1.664074516067 	
O	  7.651177064731 	  1.551135158824 	  4.644074516067 	
O	  6.651177064731 	  5.531135158824 	  1.664074516067 	
O	  7.651177064731 	  5.531135158824 	  4.644074516067 	
64 
Energy: 5.1260253041164132e+00 
Mg	  0.000000000000 	  0.000000000000 	  0.000000000000 	
Mg	  1.000000000000 	  0.000000000000 	  2.980000000000 	
Mg	  0.000000000000 	  3.980000000000 	  0.000000000000 	
Mg	  1.000000000000 	  3.980000000000 	  2.980000000000 	
Mg	  3.980000000000 	  0.000000000000 	  0.000000000000 	
Mg	  4.980000000000 	  0.000000000000 	  2.980000000000 	
Mg	  3.980000000000 	  3.980000000000 	  0.000000000000 	
Mg	  4.980000000000 	  3.980000000000 	  2.980000000000 	
Mg	  1.834379312503 	  1.900318074222 	  0.000000000000 	
Mg	  2.834379312503 	  1.900318074222 	  2.980000000000 	
Mg	  1.834379312503 	  5.880318074222 	  0.000000000000 	
Mg	  2.834379312503 	  5.880318074222 	  2.980000000000 	
Mg	  5.814379312503 	  1.900318074222 	  0.000000000000 	
Mg	  6.814379312503 	  1.900318074222 	  2.980000000000 	
Mg	  5.814379312503 	  5.880318074222 	  0.000000000000 	
Mg	  6.814379312503 	  5.880318074222 	  2.980000000000 	
Mg	  2.361889406259 	  0.000000000000 	  1.702501789064 	
Mg	  3.361889406259 	  0.000000000000 	  4.682501789064 	
Mg	  2.361889406259 	  3.980000000000 	  1.702501789064 	
Mg	  3.361889406259 	  3.980000000000 	  4.682501789064 	
Mg	  6.341889406259 	  0.000000000000 	  1.702501789064 	
Mg	  7.341889406259 	  0.000000000000 	  4.682501789064 	
Mg	  6.341889406259 	  3.980000000000 	  1.702501789064 	
Mg	  7.341889406259 	  3.980000000000 	  4.682501789064 	
Mg	  0.329693808598 	  2.032195597662 	  1.702501789064 	
Mg	  1.329693808598 	  2.032195597662 	  4.682501789064 	
Mg	  0.329693808598 	  6.012195597662 	  1.702501789064 	
Mg	  1.329693808598 	  6.012195597662 	  4.682501789064 	
Mg	  4.309693808598 	  2.032195597662 	  1.702501789064 	
Mg	  5.309693808598 	  2.032195597662 	  4.682501789064 	
Mg	  4.309693808598 	  6.012195597662 	  1.702501789064 	
Mg	  5.309693808598 	  6.012195597662 	  4.682501789064 	
O	  2.032195597662 	  0.000000000000 	  0.000000000000 	
O	  3.032195597662 	  0.000000000000 	  2.980000000000 	
O	  2.032195597662 	  3.980000000000 	  0.000000000000 	
O	  3.032195597662 	  3.980000000000 	  2.980000000000 	
O	  6.012195597662 	  0.000000000000 	  0.000000000000 	
O	  7.012195597662 	  0.000000000000 	  2.980000000000 	
O	  6.012195597662 	  3.980000000000 	  0.000000000000 	
O	  7.012195597662 	  3.980000000000 	  2.980000000000 	
O	  0.000000000000 	  2.032195597662 	  0.000000000000 	
O	  1.000000000000 	  2.032195597662 	  2.980000000000 	
O	  0.000000000000 	  6.012195597662 	  0.000000000000 	
O	  1.000000000000 	  6.012195597662 	  2.980000000000 	
O	  3.980000000000 	  2.032195597662 	  0.000000000000 	
O	  4.980000000000 	  2.032195597662 	  2.980000000000 	
O	  3.980000000000 	  6.012195597662 	  0.000000000000 	
O	  4.980000000000 	  6.012195597662 	  2.980000000000 	
O	  0.329693808598 	  0.000000000000 	  1.702501789064 	
O	  1.329693808598 	  0.000000000000 	  4.682501789064 	
O	  0.329693808598 	  3.980000000000 	  1.702501789064 	
O	  1.329693808598 	  3.980000000000 	  4.682501789064 	
O	  4.309693808598 	  0.000000000000 	  1.702501789064 	
O	  5.309693808598 	  0.000000000000 	  4.682501789064 	
O	  4.309693808598 	  3.980000000000 	  1.702501789064 	
O	  5.309693808598 	  3.980000000000 	  4.682501789064 	
O	  2.625644453138 	  1.598977933164 	  1.702501789064 	
O	  3.625644453138 	  1.598977933164 	  4.682501789064 	
O	  2.625644453138 	  5.578977933164 	  1.702501789064 	
O	  3.625644453138 	  5.578977933164 	  4.682501789064 	
O	  6.605644453138 	  1.598977933164 	  1.702501789064 	
O	  7.605644453138 	  1.598977933164 	  4.682501789064 	
O	  6.605644453138 	  5.578977933164 	  1.702501789064 	
O	  7.605644453138 	  5.578977933164 	  4.682501789064 	
64 
Energy: 5.5619719240799128e+00 
Mg	  0.000000000000 	  0.000000000000 	  0.000000000000 	
Mg	  1.000000000000 	  0.000000000000 	  2.980000000000 	
Mg	  0.000000000000 	  3.980000000000 	  0.000000000000 	
Mg	  1.000000000000 	  3.980000000000 	  2.980000000000 	
Mg	  3.980000000000 	  0.000000000000 	  0.000000000000 	
Mg	  4.980000000000 	  0.000000000000 	  2.980000000000 	
Mg	  3.980000000000 	  3.980000000000 	  0.000000000000 	
Mg	  4.980000000000 	  3.980000000000 	  2.980000000000 	
Mg	  1.860821755324 	  1.920761701938 	  0.000000000000 	
Mg	  2.860821755324 	  1.920761701938 	  2.980000000000 	
Mg	  1.860821755324 	  5.900761701938 	  0.000000000000 	
Mg	  2.860821755324 	  5.900761701938 	  2.980000000000 	
Mg	  5.840821755324 	  1.920761701938 	  0.000000000000 	
Mg	  6.840821755324 	  1.920761701938 	  2.980000000000 	
Mg	  5.840821755324 	  5.900761701938 	  0.000000000000 	
Mg	  6.840821755324 	  5.900761701938 	  2.980000000000 	
Mg	  2.340341328237 	  0.000000000000 	  1.740941862096 	
Mg	  3.340341328237 	  0.000000000000 	  4.720941862096 	
Mg	  2.340341328237 	  3.980000000000 	  1.740941862096 	
Mg	  3.340341328237 	  3.980000000000 	  4.720941862096 	
Mg	  6.320341328237 	  0.000000000000 	  1.740941862096 	
Mg	  7.320341328237 	  0.000000000000 	  4.720941862096 	
Mg	  6.320341328237 	  3.980000000000 	  1.740941862096 	
Mg	  7.320341328237 	  3.980000000000 	  4.720941862096 	
Mg	  0.299699733071 	  2.040641595166 	  1.740941862096 	
Mg	  1.299699733071 	  2.040641595166 	  4.720941862096 	
Mg	  0.299699733071 	  6.020641595166 	  1.740941862096 	
Mg	  1.299699733071 	  6.020641595166 	  4.720941862096 	
Mg	  4.279699733071 	  2.040641595166 	  1.740941862096 	
Mg	  5.279699733071 	  2.040641595166 	  4.720941862096 	
Mg	  4.279699733071 	  6.020641595166 	  1.740941862096 	
Mg	  5.279699733071 	  6.020641595166 	  4.720941862096 	
O	  2.040641595166 	  0.000000000000 	  0.000000000000 	
O	  3.040641595166 	  0.000000000000 	  2.980000000000 	
O	  2.040641595166 	  3.980000000000 	  0.000000000000 	
O	  3.040641595166 	  3.980000000000 	  2.980000000000 	
O	  6.020641595166 	  0.000000000000 	  0.000000000000 	
O	  7.020641595166 	  0.000000000000 	  2.980000000000 	
O	  6.020641595166 	  3.980000000000 	  0.000000000000 	
O	  7.020641595166 	  3.980000000000 	  2.980000000000 	
O	  0.000000000000 	  2.040641595166 	  0.000000000000 	
O	  1.000000000000 	  2.040641595166 	  2.980000000000 	
O	  0.000000000000 	  6.020641595166 	  0.000000000000 	
O	  1.000000000000 	  6.020641595166 	  2.980000000000 	
O	  3.980000000000 	  2.040641595166 	  0.000000000000 	
O	  4.980000000000 	  2.040641595166 	  2.980000000000 	
O	  3.980000000000 	  6.020641595166 	  0.000000000000 	
O	  4.980000000000 	  6.020641595166 	  2.980000000000 	
O	  0.299699733071 	  0.000000000000 	  1.740941862096 	
O	  1.299699733071 	  0.000000000000 	  4.720941862096 	
O	  0.299699733071 	  3.980000000000 	  1.740941862096 	
O	  1.299699733071 	  3.980000000000 	  4.720941862096 	
O	  4.279699733071 	  0.000000000000 	  1.740941862096 	
O	  5.279699733071 	  0.000000000000 	  4.720941862096 	
O	  4.279699733071 	  3.980000000000 	  1.740941862096 	
O	  5.279699733071 	  3.980000000000 	  4.720941862096 	
O	  2.580101114694 	  1.646836145911 	  1.740941862096 	
O	  3.580101114694 	  1.646836145911 	  4.720941862096 	
O	  2.580101114694 	  5.626836145911 	  1.740941862096 	
O	  3.580101114694 	  5.626836145911 	  4.720941862096 	
O	  6.560101114694 	  1.646836145911 	  1.740941862096 	
O	  7.560101114694 	  1.646836145911 	  4.720941862096 	
O	  6.560101114694 	  5.626836145911 	  1.740941862096 	
O	  7.560101114694 	  5.626836145911 	  4.720941862096 	
64 
Energy: 5.7757783436720604e+00 
Mg	  0.000000000000 	  0.000000000000 	  0.000000000000 	
Mg	  1.000000000000 	  0.000000000000 	  2.980000000000 	
Mg	  0.000000000000 	  3.980000000000 	  0.000000000000 	
Mg	  1.000000000000 	  3.980000000000 	  2.980000000000 	
Mg	  3.980000000000 	  0.000000000000 	  0.000000000000 	
Mg	  4.980000000000 	  0.000000000000 	  2.980000000000 	
Mg	  3.980000000000 	  3.980000000000 	  0.000000000000 	
Mg	  4.980000000000 	  3.980000000000 	  2.980000000000 	
Mg	  1.887269168688 	  1.941209476501 	  0.000000000000 	
Mg	  2.887269168688 	  1.941209476501 	  2.980000000000 	
Mg	  1.887269168688 	  5.921209476501 	  0.000000000000 	
Mg	  2.887269168688 	  5.921209476501 	  2.980000000000 	
Mg	  5.867269168688 	  1.941209476501 	  0.000000000000 	
Mg	  6.867269168688 	  1.941209476501 	  2.980000000000 	
Mg	  5.867269168688 	  5.921209476501 	  0.000000000000 	
Mg	  6.867269168688 	  5.921209476501 	  2.980000000000 	
Mg	  2.318791631195 	  0.000000000000 	  1.779388553061 	
Mg	  3.318791631195 	  0.000000000000 	  4.759388553061 	
Mg	  2.318791631195 	  3.980000000000 	  1.779388553061 	
Mg	  3.318791631195 	  3.980000000000 	  4.759388553061 	
Mg	  6.298791631195 	  0.000000000000 	  1.779388553061 	
Mg	  7.298791631195 	  0.000000000000 	  4.759388553061 	
Mg	  6.298791631195 	  3.980000000000 	  1.779388553061 	
Mg	  7.298791631195 	  3.980000000000 	  4.759388553061 	
Mg	  0.269701539067 	  2.049090092128 	  1.779388553061 	
Mg	  1.269701539067 	  2.049090092128 	  4.759388553061 	
Mg	  0.269701539067 	  6.029090092128 	  1.779388553061 	
Mg	  1.269701539067 	  6.029090092128 	  4.759388553061 	
Mg	  4.249701539067 	  2.049090092128 	  1.779388553061 	
Mg	  5.249701539067 	  2.049090092128 	  4.759388553061 	
Mg	  4.249701539067 	  6.029090092128 	  1.779388553061 	
Mg	  5.249701539067 	  6.029090092128 	  4.759388553061 	
O	  2.049090092128 	  0.000000000000 	  0.000000000000 	
O	  3.049090092128 	  0.000000000000 	  2.980000000000 	
O	  2.049090092128 	  3.980000000000 	  0.000000000000 	
O	  3.049090092128 	  3.980000000000 	  2.980000000000 	
O	  6.029090092128 	  0.000000000000 	  0.000000000000 	
O	  7.029090092128 	  0.000000000000 	  2.980000000000 	
O	  6.029090092128 	  3.980000000000 	  0.000000000000 	
O	  7.029090092128 	  3.980000000000 	  2.980000000000 	
O	  0.000000000000 	  2.049090092128 	  0.000000000000 	
O	  1.000000000000 	  2.049090092128 	  2.980000000000 	
O	  0.000000000000 	  6.029090092128 	  0.000000000000 	
O	  1.000000000000 	  6.029090092128 	  2.980000000000 	
O	  3.980000000000 	  2.049090092128 	  0.000000000000 	
O	  4.980000000000 	  2.049090092128 	  2.980000000000 	
O	  3.980000000000 	  6.029090092128 	  0.000000000000 	
O	  4.980000000000 	  6.029090092128 	  2.980000000000 	
O	  0.269701539067 	  0.000000000000 	  1.779388553061 	
O	  1.269701539067 	  0.000000000000 	  4.759388553061 	
O	  0.269701539067 	  3.980000000000 	  1.779388553061 	
O	  1.269701539067 	  3.980000000000 	  4.759388553061 	
O	  4.249701539067 	  0.000000000000 	  1.779388553061 	
O	  5.249701539067 	  0.000000000000 	  4.759388553061 	
O	  4.249701539067 	  3.980000000000 	  1.779388553061 	
O	  5.249701539067 	  3.980000000000 	  4.759388553061 	
O	  2.534552862448 	  1.694702269794 	  1.779388553061 	
O	  3.534552862448 	  1.694702269794 	  4.759388553061 	
O	  2.534552862448 	  5.674702269794 	  1.779388553061 	
O	  3.534552862448 	  5.674702269794 	  4.759388553061 	
O	  6.514552862448 	  1.694702269794 	  1.779388553061 	
O	  7.514552862448 	  1.694702269794 	  4.759388553061 	
O	  6.514552862448 	  5.674702269794 	  1.779388553061 	
O	  7.514552862448 	  5.674702269794 	  4.759388553061 	
64 
Energy: 5.7296445590790936e+00 
Mg	  0.000000000000 	  0.000000000000 	  0.000000000000 	
Mg	  1.000000000000 	  0.000000000000 	  2.980000000000 	
Mg	  0.000000000000 	  3.980000000000 	  0.000000000000 	
Mg	  1.000000000000 	  3.980000000000 	  2.980000000000 	
Mg	  3.980000000000 	  0.000000000000 	  0.000000000000 	
Mg	  4.980000000000 	  0.000000000000 	  2.980000000000 	
Mg	  3.980000000000 	  3.980000000000 	  0.000000000000 	
Mg	  4.980000000000 	  3.980000000000 	  2.980000000000 	
Mg	  1.913717852587 	  1.961658268630 	  0.000000000000 	
Mg	  2.913717852587 	  1.961658268630 	  2.980000000000 	
Mg	  1.913717852587 	  5.941658268630 	  0.000000000000 	
Mg	  2.913717852587 	  5.941658268630 	  2.980000000000 	
Mg	  5.893717852587 	  1.961658268630 	  0.000000000000 	
Mg	  6.893717852587 	  1.961658268630 	  2.980000000000 	
Mg	  5.893717852587 	  5.941658268630 	  0.000000000000 	
Mg	  6.893717852587 	  5.941658268630 	  2.980000000000 	
Mg	  2.297241180927 	  0.000000000000 	  1.817837020502 	
Mg	  3.297241180927 	  0.000000000000 	  4.797837020502 	
Mg	  2.297241180927 	  3.980000000000 	  1.817837020502 	
Mg	  3.297241180927 	  3.980000000000 	  4.797837020502 	
Mg	  6.277241180927 	  0.000000000000 	  1.817837020502 	
Mg	  7.277241180927 	  0.000000000000 	  4.797837020502 	
Mg	  6.277241180927 	  3.980000000000 	  1.817837020502 	
Mg	  7.277241180927 	  3.980000000000 	  4.797837020502 	
Mg	  0.239702080212 	  2.057539100715 	  1.817837020502 	
Mg	  1.239702080212 	  2.057539100715 	  4.797837020502 	
Mg	  0.239702080212 	  6.037539100715 	  1.817837020502 	
Mg	  1.239702080212 	  6.037539100715 	  4.797837020502 	
Mg	  4.219702080212 	  2.057539100715 	  1.817837020502 	
Mg	  5.219702080212 	  2.057539100715 	  4.797837020502 	
Mg	  4.219702080212 	  6.037539100715 	  1.817837020502 	
Mg	  5.219702080212 	  6.037539100715 	  4.797837020502 	
O	  2.057539100715 	  0.000000000000 	  0.000000000000 	
O	  3.057539100715 	  0.000000000000 	  2.980000000000 	
O	  2.057539100715 	  3.980000000000 	  0.000000000000 	
O	  3.057539100715 	  3.980000000000 	  2.980000000000 	
O	  6.037539100715 	  0.000000000000 	  0.000000000000 	
O	  7.037539100715 	  0.000000000000 	  2.980000000000 	
O	  6.037539100715 	  3.980000000000 	  0.000000000000 	
O	  7.037539100715 	  3.980000000000 	  2.980000000000 	
O	  0.000000000000 	  2.057539100715 	  0.000000000000 	
O	  1.000000000000 	  2.057539100715 	  2.980000000000 	
O	  0.000000000000 	  6.037539100715 	  0.000000000000 	
O	  1.000000000000 	  6.037539100715 	  2.980000000000 	
O	  3.980000000000 	  2.057539100715 	  0.000000000000 	
O	  4.980000000000 	  2.057539100715 	  2.980000000000 	
O	  3.980000000000 	  6.037539100715 	  0.000000000000 	
O	  4.980000000000 	  6.037539100715 	  2.980000000000 	
O	  0.239702080212 	  0.000000000000 	  1.817837020502 	
O	  1.239702080212 	  0.000000000000 	  4.797837020502 	
O	  0.239702080212 	  3.980000000000 	  1.817837020502 	
O	  1.239702080212 	  3.980000000000 	  4.797837020502 	
O	  4.219702080212 	  0.000000000000 	  1.817837020502 	
O	  5.219702080212 	  0.000000000000 	  4.797837020502 	
O	  4.219702080212 	  3.980000000000 	  1.817837020502 	
O	  5.219702080212 	  3.980000000000 	  4.797837020502 	
O	  2.489002845096 	  1.742570567316 	  1.817837020502 	
O	  3.489002845096 	  1.742570567316 	  4.797837020502 	
O	  2.489002845096 	  5.722570567316 	  1.817837020502 	
O	  3.489002845096 	  5.722570567316 	  4.797837020502 	
O	  6.469002845096 	  1.742570567316 	  1.817837020502 	
O	  7.469002845096 	  1.742570567316 	  4.797837020502 	
O	  6.469002845096 	  5.722570567316 	  1.817837020502 	
O	  7.469002845096 	  5.722570567316 	  4.797837020502 	
64 
Energy: 5.4102935847128188e+00 
Mg	  0.000000000000 	  0.000000000000 	  0.000000000000 	
Mg	  1.000000000000 	  0.000000000000 	  2.980000000000 	
Mg	  0.000000000000 	  3.980000000000 	  0.000000000000 	
Mg	  1.000000000000 	  3.980000000000 	  2.980000000000 	
Mg	  3.980000000000 	  0.000000000000 	  0.000000000000 	
Mg	  4.980000000000 	  0.000000000000 	  2.980000000000 	
Mg	  3.980000000000 	  3.980000000000 	  0.000000000000 	
Mg	  4.980000000000 	  3.980000000000 	  2.980000000000 	
Mg	  1.940164282806 	  1.982105298985 	  0.000000000000 	
Mg	  2.940164282806 	  1.982105298985 	  2.980000000000 	
Mg	  1.940164282806 	  5.962105298985 	  0.000000000000 	
Mg	  2.940164282806 	  5.962105298985 	  2.980000000000 	
Mg	  5.920164282806 	  1.982105298985 	  0.000000000000 	
Mg	  6.920164282806 	  1.982105298985 	  2.980000000000 	
Mg	  5.920164282806 	  5.962105298985 	  0.000000000000 	
Mg	  6.920164282806 	  5.962105298985 	  2.980000000000 	
Mg	  2.275692412236 	  0.000000000000 	  1.856282250449 	
Mg	  3.275692412236 	  0.000000000000 	  4.836282250449 	
Mg	  2.275692412236 	  3.980000000000 	  1.856282250449 	
Mg	  3.275692412236 	  3.980000000000 	  4.836282250449 	
Mg	  6.255692412236 	  0.000000000000 	  1.856282250449 	
Mg	  7.255692412236 	  0.000000000000 	  4.836282250449 	
Mg	  6.255692412236 	  3.980000000000 	  1.856282250449 	
Mg	  7.255692412236 	  3.980000000000 	  4.836282250449 	
Mg	  0.209705080894 	  2.065987331342 	  1.856282250449 	
Mg	  1.209705080894 	  2.065987331342 	  4.836282250449 	
Mg	  0.209705080894 	  6.045987331342 	  1.856282250449 	
Mg	  1.209705080894 	  6.045987331342 	  4.836282250449 	
Mg	  4.189705080894 	  2.065987331342 	  1.856282250449 	
Mg	  5.189705080894 	  2.065987331342 	  4.836282250449 	
Mg	  4.189705080894 	  6.045987331342 	  1.856282250449 	
Mg	  5.189705080894 	  6.045987331342 	  4.836282250449 	
O	  2.065987331342 	  0.000000000000 	  0.000000000000 	
O	  3.065987331342 	  0.000000000000 	  2.980000000000 	
O	  2.065987331342 	  3.980000000000 	  0.000000000000 	
O	  3.065987331342 	  3.980000000000 	  2.980000000000 	
O	  6.045987331342 	  0.000000000000 	  0.000000000000 	
O	  7.045987331342 	  0.000000000000 	  2.980000000000 	
O	  6.045987331342 	  3.980000000000 	  0.000000000000 	
O	  7.045987331342 	  3.980000000000 	  2.980000000000 	
O	  0.000000000000 	  2.065987331342 	  0.000000000000 	
O	  1.000000000000 	  2.065987331342 	  2.980000000000 	
O	  0.000000000000 	  6.045987331342 	  0.000000000000 	
O	  1.000000000000 	  6.045987331342 	  2.980000000000 	
O	  3.980000000000 	  2.065987331342 	  0.000000000000 	
O	  4.980000000000 	  2.065987331342 	  2.980000000000 	
O	  3.980000000000 	  6.045987331342 	  0.000000000000 	
O	  4.980000000000 	  6.045987331342 	  2.980000000000 	
O	  0.209705080894 	  0.000000000000 	  1.856282250449 	
O	  1.209705080894 	  0.000000000000 	  4.836282250449 	
O	  0.209705080894 	  3.980000000000 	  1.856282250449 	
O	  1.209705080894 	  3.980000000000 	  4.836282250449 	
O	  4.189705080894 	  0.000000000000 	  1.856282250449 	
O	  5.189705080894 	  0.000000000000 	  4.836282250449 	
O	  4.189705080894 	  3.980000000000 	  1.856282250449 	
O	  5.189705080894 	  3.980000000000 	  4.836282250449 	
O	  2.443456476951 	  1.790434855048 	  1.856282250449 	
O	  3.443456476951 	  1.790434855048 	  4.836282250449 	
O	  2.443456476951 	  5.770434855048 	  1.856282250449 	
O	  3.443456476951 	  5.770434855048 	  4.836282250449 	
O	  6.423456476951 	  1.790434855048 	  1.856282250449 	
O	  7.423456476951 	  1.790434855048 	  4.836282250449 	
O	  6.423456476951 	  5.770434855048 	  1.856282250449 	
O	  7.423456476951 	  5.770434855048 	  4.836282250449 	
64 
Energy: 4.8285423997705976e+00 
Mg	  0.000000000000 	  0.000000000000 	  0.000000000000 	
Mg	  1.000000000000 	  0.000000000000 	  2.980000000000 	
Mg	  0.000000000000 	  3.980000000000 	  0.000000000000 	
Mg	  1.000000000000 	  3.980000000000 	  2.980000000000 	
Mg	  3.980000000000 	  0.000000000000 	  0.000000000000 	
Mg	  4.980000000000 	  0.000000000000 	  2.980000000000 	
Mg	  3.980000000000 	  3.980000000000 	  0.000000000000 	
Mg	  4.980000000000 	  3.980000000000 	  2.980000000000 	
Mg	  1.966605259221 	  2.002547997214 	  0.000000000000 	
Mg	  2.966605259221 	  2.002547997214 	  2.980000000000 	
Mg	  1.966605259221 	  5.982547997214 	  0.000000000000 	
Mg	  2.966605259221 	  5.982547997214 	  2.980000000000 	
Mg	  5.946605259221 	  2.002547997214 	  0.000000000000 	
Mg	  6.946605259221 	  2.002547997214 	  2.980000000000 	
Mg	  5.946605259221 	  5.982547997214 	  0.000000000000 	
Mg	  6.946605259221 	  5.982547997214 	  2.980000000000 	
Mg	  2.254147163164 	  0.000000000000 	  1.894719783235 	
Mg	  3.254147163164 	  0.000000000000 	  4.874719783235 	
Mg	  2.254147163164 	  3.980000000000 	  1.894719783235 	
Mg	  3.254147163164 	  3.980000000000 	  4.874719783235 	
Mg	  6.234147163164 	  0.000000000000 	  1.894719783235 	
Mg	  7.234147163164 	  0.000000000000 	  4.874719783235 	
Mg	  6.234147163164 	  3.980000000000 	  1.894719783235 	
Mg	  7.234147163164 	  3.980000000000 	  4.874719783235 	
Mg	  0.179713689965 	  2.074433473200 	  1.894719783235 	
Mg	  1.179713689965 	  2.074433473200 	  4.874719783235 	
Mg	  0.179713689965 	  6.054433473200 	  1.894719783235 	
Mg	  1.179713689965 	  6.054433473200 	  4.874719783235 	
Mg	  4.159713689965 	  2.074433473200 	  1.894719783235 	
Mg	  5.159713689965 	  2.074433473200 	  4.874719783235 	
Mg	  4.159713689965 	  6.054433473200 	  1.894719783235 	
Mg	  5.159713689965 	  6.054433473200 	  4.874719783235 	
O	  2.074433473200 	  0.000000000000 	  0.000000000000 	
O	  3.074433473200 	  0.000000000000 	  2.980000000000 	
O	  2.074433473200 	  3.980000000000 	  0.000000000000 	
O	  3.074433473200 	  3.980000000000 	  2.980000000000 	
O	  6.054433473200 	  0.000000000000 	  0.000000000000 	
O	  7.054433473200 	  0.000000000000 	  2.980000000000 	
O	  6.054433473200 	  3.980000000000 	  0.000000000000 	
O	  7.054433473200 	  3.980000000000 	  2.980000000000 	
O	  0.000000000000 	  2.074433473200 	  0.000000000000 	
O	  1.000000000000 	  2.074433473200 	  2.980000000000 	
O	  0.000000000000 	  6.054433473200 	  0.000000000000 	
O	  1.000000000000 	  6.054433473200 	  2.980000000000 	
O	  3.980000000000 	  2.074433473200 	  0.000000000000 	
O	  4.980000000000 	  2.074433473200 	  2.980000000000 	
O	  3.980000000000 	  6.054433473200 	  0.000000000000 	
O	  4.980000000000 	  6.054433473200 	  2.980000000000 	
O	  0.179713689965 	  0.000000000000 	  1.894719783235 	
O	  1.179713689965 	  0.000000000000 	  4.874719783235 	
O	  0.179713689965 	  3.980000000000 	  1.894719783235 	
O	  1.179713689965 	  3.980000000000 	  4.874719783235 	
O	  4.159713689965 	  0.000000000000 	  1.894719783235 	
O	  5.159713689965 	  0.000000000000 	  4.874719783235 	
O	  4.159713689965 	  3.980000000000 	  1.894719783235 	
O	  5.159713689965 	  3.980000000000 	  4.874719783235 	
O	  2.397918115136 	  1.838289684586 	  1.894719783235 	
O	  3.397918115136 	  1.838289684586 	  4.874719783235 	
O	  2.397918115136 	  5.818289684586 	  1.894719783235 	
O	  3.397918115136 	  5.818289684586 	  4.874719783235 	
O	  6.377918115136 	  1.838289684586 	  1.894719783235 	
O	  7.377918115136 	  1.838289684586 	  4.874719783235 	
O	  6.377918115136 	  5.818289684586 	  1.894719783235 	
O	  7.377918115136 	  5.818289684586 	  4.874719783235 	
64 
Energy: 4.0207674709340173e+00 
Mg	  0.000000000000 	  0.000000000000 	  0.000000000000 	
Mg	  1.000000000000 	  0.000000000000 	  2.980000000000 	
Mg	  0.000000000000 	  3.980000000000 	  0.000000000000 	
Mg	  1.000000000000 	  3.980000000000 	  2.980000000000 	
Mg	  3.980000000000 	  0.000000000000 	  0.000000000000 	
Mg	  4.980000000000 	  0.000000000000 	  2.980000000000 	
Mg	  3.980000000000 	  3.980000000000 	  0.000000000000 	
Mg	  4.980000000000 	  3.980000000000 	  2.980000000000 	
Mg	  1.993037898234 	  2.022984008065 	  0.000000000000 	
Mg	  2.993037898234 	  2.022984008065 	  2.980000000000 	
Mg	  1.993037898234 	  6.002984008065 	  0.000000000000 	
Mg	  2.993037898234 	  6.002984008065 	  2.980000000000 	
Mg	  5.973037898234 	  2.022984008065 	  0.000000000000 	
Mg	  6.973037898234 	  2.022984008065 	  2.980000000000 	
Mg	  5.973037898234 	  6.002984008065 	  0.000000000000 	
Mg	  6.973037898234 	  6.002984008065 	  2.980000000000 	
Mg	  2.232606776883 	  0.000000000000 	  1.933145678572 	
Mg	  3.232606776883 	  0.000000000000 	  4.913145678572 	
Mg	  2.232606776883 	  3.980000000000 	  1.933145678572 	
Mg	  3.232606776883 	  3.980000000000 	  4.913145678572 	
Mg	  6.212606776883 	  0.000000000000 	  1.933145678572 	
Mg	  7.212606776883 	  0.000000000000 	  4.913145678572 	
Mg	  6.212606776883 	  3.980000000000 	  1.933145678572 	
Mg	  7.212606776883 	  3.980000000000 	  4.913145678572 	
Mg	  0.149730549156 	  2.082876227727 	  1.933145678572 	
Mg	  1.149730549156 	  2.082876227727 	  4.913145678572 	
Mg	  0.149730549156 	  6.062876227727 	  1.933145678572 	
Mg	  1.149730549156 	  6.062876227727 	  4.913145678572 	
Mg	  4.129730549155 	  2.082876227727 	  1.933145678572 	
Mg	  5.129730549155 	  2.082876227727 	  4.913145678572 	
Mg	  4.129730549155 	  6.062876227727 	  1.933145678572 	
Mg	  5.129730549155 	  6.062876227727 	  4.913145678572 	
O	  2.082876227727 	  0.000000000000 	  0.000000000000 	
O	  3.082876227727 	  0.000000000000 	  2.980000000000 	
O	  2.082876227727 	  3.980000000000 	  0.000000000000 	
O	  3.082876227727 	  3.980000000000 	  2.980000000000 	
O	  6.062876227727 	  0.000000000000 	  0.000000000000 	
O	  7.062876227727 	  0.000000000000 	  2.980000000000 	
O	  6.062876227727 	  3.980000000000 	  0.000000000000 	
O	  7.062876227727 	  3.980000000000 	  2.980000000000 	
O	  0.000000000000 	  2.082876227727 	  0.000000000000 	
O	  1.000000000000 	  2.082876227727 	  2.980000000000 	
O	  0.000000000000 	  6.062876227727 	  0.000000000000 	
O	  1.000000000000 	  6.062876227727 	  2.980000000000 	
O	  3.980000000000 	  2.082876227727 	  0.000000000000 	
O	  4.980000000000 	  2.082876227727 	  2.980000000000 	
O	  3.980000000000 	  6.062876227727 	  0.000000000000 	
O	  4.980000000000 	  6.062876227727 	  2.980000000000 	
O	  0.149730549156 	  0.000000000000 	  1.933145678572 	
O	  1.149730549156 	  0.000000000000 	  4.913145678572 	
O	  0.149730549156 	  3.980000000000 	  1.933145678572 	
O	  1.149730549156 	  3.980000000000 	  4.913145678572 	
O	  4.129730549155 	  0.000000000000 	  1.933145678572 	
O	  5.129730549155 	  0.000000000000 	  4.913145678572 	
O	  4.129730549155 	  3.980000000000 	  1.933145678572 	
O	  5.129730549155 	  3.980000000000 	  4.913145678572 	
O	  2.352391216207 	  1.886130286137 	  1.933145678572 	
O	  3.352391216207 	  1.886130286137 	  4.913145678572 	
O	  2.352391216207 	  5.866130286137 	  1.933145678572 	
O	  3.352391216207 	  5.866130286137 	  4.913145678572 	
O	  6.332391216207 	  1.886130286137 	  1.933145678572 	
O	  7.332391216207 	  1.886130286137 	  4.913145678572 	
O	  6.332391216207 	  5.866130286137 	  1.933145678572 	
O	  7.332391216207 	  5.866130286137 	  4.913145678572 	
64 
Energy: 3.0512680269182408e+00 
Mg	  0.000000000000 	  0.000000000000 	  0.000000000000 	
Mg	  1.000000000000 	  0.000000000000 	  2.980000000000 	
Mg	  0.000000000000 	  3.980000000000 	  0.000000000000 	
Mg	  1.000000000000 	  3.980000000000 	  2.980000000000 	
Mg	  3.980000000000 	  0.000000000000 	  0.000000000000 	
Mg	  4.980000000000 	  0.000000000000 	  2.980000000000 	
Mg	  3.980000000000 	  3.980000000000 	  0.000000000000 	
Mg	  4.980000000000 	  3.980000000000 	  2.980000000000 	
Mg	  2.019459678977 	  2.043411250225 	  0.000000000000 	
Mg	  3.019459678977 	  2.043411250225 	  2.980000000000 	
Mg	  2.019459678977 	  6.023411250225 	  0.000000000000 	
Mg	  3.019459678977 	  6.023411250225 	  2.980000000000 	
Mg	  5.999459678977 	  2.043411250225 	  0.000000000000 	
Mg	  6.999459678977 	  2.043411250225 	  2.980000000000 	
Mg	  5.999459678977 	  6.023411250225 	  0.000000000000 	
Mg	  6.999459678977 	  6.023411250225 	  2.980000000000 	
Mg	  2.211072248963 	  0.000000000000 	  1.971556536480 	
Mg	  3.211072248963 	  0.000000000000 	  4.951556536480 	
Mg	  2.211072248963 	  3.980000000000 	  1.971556536480 	
Mg	  3.211072248963 	  3.980000000000 	  4.951556536480 	
Mg	  6.191072248963 	  0.000000000000 	  1.971556536480 	
Mg	  7.191072248963 	  0.000000000000 	  4.951556536480 	
Mg	  6.191072248963 	  3.980000000000 	  1.971556536480 	
Mg	  7.191072248963 	  3.980000000000 	  4.951556536480 	
Mg	  0.119757856241 	  2.091314392722 	  1.971556536480 	
Mg	  1.119757856241 	  2.091314392722 	  4.951556536480 	
Mg	  0.119757856241 	  6.071314392722 	  1.971556536480 	
Mg	  1.119757856241 	  6.071314392722 	  4.951556536480 	
Mg	  4.099757856241 	  2.091314392722 	  1.971556536480 	
Mg	  5.099757856241 	  2.091314392722 	  4.951556536480 	
Mg	  4.099757856241 	  6.071314392722 	  1.971556536480 	
Mg	  5.099757856241 	  6.071314392722 	  4.951556536480 	
O	  2.091314392722 	  0.000000000000 	  0.000000000000 	
O	  3.091314392722 	  0.000000000000 	  2.980000000000 	
O	  2.091314392722 	  3.980000000000 	  0.000000000000 	
O	  3.091314392722 	  3.980000000000 	  2.980000000000 	
O	  6.071314392722 	  0.000000000000 	  0.000000000000 	
O	  7.071314392722 	  0.000000000000 	  2.980000000000 	
O	  6.071314392722 	  3.980000000000 	  0.000000000000 	
O	  7.071314392722 	  3.980000000000 	  2.980000000000 	
O	  0.000000000000 	  2.091314392722 	  0.000000000000 	
O	  1.000000000000 	  2.091314392722 	  2.980000000000 	
O	  0.000000000000 	  6.071314392722 	  0.000000000000 	
O	  1.000000000000 	  6.071314392722 	  2.980000000000 	
O	  3.980000000000 	  2.091314392722 	  0.000000000000 	
O	  4.980000000000 	  2.091314392722 	  2.980000000000 	
O	  3.980000000000 	  6.071314392722 	  0.000000000000 	
O	  4.980000000000 	  6.071314392722 	  2.980000000000 	
O	  0.119757856241 	  0.000000000000 	  1.971556536480 	
O	  1.119757856241 	  0.000000000000 	  4.951556536480 	
O	  0.119757856241 	  3.980000000000 	  1.971556536480 	
O	  1.119757856241 	  3.980000000000 	  4.951556536480 	
O	  4.099757856241 	  0.000000000000 	  1.971556536480 	
O	  5.099757856241 	  0.000000000000 	  4.951556536480 	
O	  4.099757856241 	  3.980000000000 	  1.971556536480 	
O	  5.099757856241 	  3.980000000000 	  4.951556536480 	
O	  2.306878533956 	  1.933952569620 	  1.971556536480 	
O	  3.306878533956 	  1.933952569620 	  4.951556536480 	
O	  2.306878533956 	  5.913952569620 	  1.971556536480 	
O	  3.306878533956 	  5.913952569620 	  4.951556536480 	
O	  6.286878533956 	  1.933952569620 	  1.971556536480 	
O	  7.286878533956 	  1.933952569620 	  4.951556536480 	
O	  6.286878533956 	  5.913952569620 	  1.971556536480 	
O	  7.286878533956 	  5.913952569620 	  4.951556536480 	
64 
Energy: 2.0153010277952124e+00 
Mg	  0.000000000000 	  0.000000000000 	  0.000000000000 	
Mg	  1.000000000000 	  0.000000000000 	  2.980000000000 	
Mg	  0.000000000000 	  3.980000000000 	  0.000000000000 	
Mg	  1.000000000000 	  3.980000000000 	  2.980000000000 	
Mg	  3.980000000000 	  0.000000000000 	  0.000000000000 	
Mg	  4.980000000000 	  0.000000000000 	  2.980000000000 	
Mg	  3.980000000000 	  3.980000000000 	  0.000000000000 	
Mg	  4.980000000000 	  3.980000000000 	  2.980000000000 	
Mg	  2.045868419111 	  2.063827896956 	  0.000000000000 	
Mg	  3.045868419111 	  2.063827896956 	  2.980000000000 	
Mg	  2.045868419111 	  6.043827896956 	  0.000000000000 	
Mg	  3.045868419111 	  6.043827896956 	  2.980000000000 	
Mg	  6.025868419111 	  2.063827896956 	  0.000000000000 	
Mg	  7.025868419111 	  2.063827896956 	  2.980000000000 	
Mg	  6.025868419111 	  6.043827896956 	  0.000000000000 	
Mg	  7.025868419111 	  6.043827896956 	  2.980000000000 	
Mg	  2.189544241868 	  0.000000000000 	  2.009949463422 	
Mg	  3.189544241868 	  0.000000000000 	  4.989949463422 	
Mg	  2.189544241868 	  3.980000000000 	  2.009949463422 	
Mg	  3.189544241868 	  3.980000000000 	  4.989949463422 	
Mg	  6.169544241868 	  0.000000000000 	  2.009949463422 	
Mg	  7.169544241868 	  0.000000000000 	  4.989949463422 	
Mg	  6.169544241868 	  3.980000000000 	  2.009949463422 	
Mg	  7.169544241868 	  3.980000000000 	  4.989949463422 	
Mg	  0.089797389223 	  2.099746852645 	  2.009949463422 	
Mg	  1.089797389223 	  2.099746852645 	  4.989949463422 	
Mg	  0.089797389223 	  6.079746852645 	  2.009949463422 	
Mg	  1.089797389223 	  6.079746852645 	  4.989949463422 	
Mg	  4.069797389223 	  2.099746852645 	  2.009949463422 	
Mg	  5.069797389223 	  2.099746852645 	  4.989949463422 	
Mg	  4.069797389223 	  6.079746852645 	  2.009949463422 	
Mg	  5.069797389223 	  6.079746852645 	  4.989949463422 	
O	  2.099746852645 	  0.000000000000 	  0.000000000000 	
O	  3.099746852645 	  0.000000000000 	  2.980000000000 	
O	  2.099746852645 	  3.980000000000 	  0.000000000000 	
O	  3.099746852645 	  3.980000000000 	  2.980000000000 	
O	  6.079746852645 	  0.000000000000 	  0.000000000000 	
O	  7.079746852645 	  0.000000000000 	  2.980000000000 	
O	  6.079746852645 	  3.980000000000 	  0.000000000000 	
O	  7.079746852645 	  3.980000000000 	  2.980000000000 	
O	  0.000000000000 	  2.099746852645 	  0.000000000000 	
O	  1.000000000000 	  2.099746852645 	  2.980000000000 	
O	  0.000000000000 	  6.079746852645 	  0.000000000000 	
O	  1.000000000000 	  6.079746852645 	  2.980000000000 	
O	  3.980000000000 	  2.099746852645 	  0.000000000000 	
O	  4.980000000000 	  2.099746852645 	  2.980000000000 	
O	  3.980000000000 	  6.079746852645 	  0.000000000000 	
O	  4.980000000000 	  6.079746852645 	  2.980000000000 	
O	  0.089797389223 	  0.000000000000 	  2.009949463422 	
O	  1.089797389223 	  0.000000000000 	  4.989949463422 	
O	  0.089797389223 	  3.980000000000 	  2.009949463422 	
O	  1.089797389223 	  3.980000000000 	  4.989949463422 	
O	  4.069797389223 	  0.000000000000 	  2.009949463422 	
O	  5.069797389223 	  0.000000000000 	  4.989949463422 	
O	  4.069797389223 	  3.980000000000 	  2.009949463422 	
O	  5.069797389223 	  3.980000000000 	  4.989949463422 	
O	  2.261382153246 	  1.981753083206 	  2.009949463422 	
O	  3.261382153246 	  1.981753083206 	  4.989949463422 	
O	  2.261382153246 	  5.961753083206 	  2.009949463422 	
O	  3.261382153246 	  5.961753083206 	  4.989949463422 	
O	  6.241382153246 	  1.981753083206 	  2.009949463422 	
O	  7.241382153246 	  1.981753083206 	  4.989949463422 	
O	  6.241382153246 	  5.961753083206 	  2.009949463422 	
O	  7.241382153246 	  5.961753083206 	  4.989949463422 	
64 
Energy: 1.0425957739536986e+00 
Mg	  0.000000000000 	  0.000000000000 	  0.000000000000 	
Mg	  1.000000000000 	  0.000000000000 	  2.980000000000 	
Mg	  0.000000000000 	  3.980000000000 	  0.000000000000 	
Mg	  1.000000000000 	  3.980000000000 	  2.980000000000 	
Mg	  3.980000000000 	  0.000000000000 	  0.000000000000 	
Mg	  4.980000000000 	  0.000000000000 	  2.980000000000 	
Mg	  3.980000000000 	  3.980000000000 	  0.000000000000 	
Mg	  4.980000000000 	  3.980000000000 	  2.980000000000 	
Mg	  2.072262287324 	  2.084232381278 	  0.000000000000 	
Mg	  3.072262287324 	  2.084232381278 	  2.980000000000 	
Mg	  2.072262287324 	  6.064232381278 	  0.000000000000 	
Mg	  3.072262287324 	  6.064232381278 	  2.980000000000 	
Mg	  6.052262287324 	  2.084232381278 	  0.000000000000 	
Mg	  7.052262287324 	  2.084232381278 	  2.980000000000 	
Mg	  6.052262287324 	  6.064232381278 	  0.000000000000 	
Mg	  7.052262287324 	  6.064232381278 	  2.980000000000 	
Mg	  2.168023038956 	  0.000000000000 	  2.048322099416 	
Mg	  3.168023038956 	  0.000000000000 	  5.028322099416 	
Mg	  2.168023038956 	  3.980000000000 	  2.048322099416 	
Mg	  3.168023038956 	  3.980000000000 	  5.028322099416 	
Mg	  6.148023038956 	  0.000000000000 	  2.048322099416 	
Mg	  7.148023038956 	  0.000000000000 	  5.028322099416 	
Mg	  6.148023038956 	  3.980000000000 	  2.048322099416 	
Mg	  7.148023038956 	  3.980000000000 	  5.028322099416 	
Mg	  0.059850469770 	  2.108172569186 	  2.048322099416 	
Mg	  1.059850469770 	  2.108172569186 	  5.028322099416 	
Mg	  0.059850469770 	  6.088172569186 	  2.048322099416 	
Mg	  1.059850469770 	  6.088172569186 	  5.028322099416 	
Mg	  4.039850469770 	  2.108172569186 	  2.048322099416 	
Mg	  5.039850469770 	  2.108172569186 	  5.028322099416 	
Mg	  4.039850469770 	  6.088172569186 	  2.048322099416 	
Mg	  5.039850469770 	  6.088172569186 	  5.028322099416 	
O	  2.108172569186 	  0.000000000000 	  0.000000000000 	
O	  3.108172569186 	  0.000000000000 	  2.980000000000 	
O	  2.108172569186 	  3.980000000000 	  0.000000000000 	
O	  3.108172569186 	  3.980000000000 	  2.980000000000 	
O	  6.088172569186 	  0.000000000000 	  0.000000000000 	
O	  7.088172569186 	  0.000000000000 	  2.980000000000 	
O	  6.088172569186 	  3.980000000000 	  0.000000000000 	
O	  7.088172569186 	  3.980000000000 	  2.980000000000 	
O	  0.000000000000 	  2.108172569186 	  0.000000000000 	
O	  1.000000000000 	  2.108172569186 	  2.980000000000 	
O	  0.000000000000 	  6.088172569186 	  0.000000000000 	
O	  1.000000000000 	  6.088172569186 	  2.980000000000 	
O	  3.980000000000 	  2.108172569186 	  0.000000000000 	
O	  4.980000000000 	  2.108172569186 	  2.980000000000 	
O	  3.980000000000 	  6.088172569186 	  0.000000000000 	
O	  4.980000000000 	  6.088172569186 	  2.980000000000 	
O	  0.059850469770 	  0.000000000000 	  2.048322099416 	
O	  1.059850469770 	  0.000000000000 	  5.028322099416 	
O	  0.059850469770 	  3.980000000000 	  2.048322099416 	
O	  1.059850469770 	  3.980000000000 	  5.028322099416 	
O	  4.039850469770 	  0.000000000000 	  2.048322099416 	
O	  5.039850469770 	  0.000000000000 	  5.028322099416 	
O	  4.039850469770 	  3.980000000000 	  2.048322099416 	
O	  5.039850469770 	  3.980000000000 	  5.028322099416 	
O	  2.215903414771 	  2.029529051909 	  2.048322099416 	
O	  3.215903414771 	  2.029529051909 	  5.028322099416 	
O	  2.215903414771 	  6.009529051909 	  2.048322099416 	
O	  3.215903414771 	  6.009529051909 	  5.028322099416 	
O	  6.195903414771 	  2.029529051909 	  2.048322099416 	
O	  7.195903414771 	  2.029529051909 	  5.028322099416 	
O	  6.195903414771 	  6.009529051909 	  2.048322099416 	
O	  7.195903414771 	  6.009529051909 	  5.028322099416 	
64 
Energy: 3.0102424384521831e-01 
Mg	  0.000000000000 	  0.000000000000 	  0.000000000000 	
Mg	  1.000000000000 	  0.000000000000 	  2.980000000000 	
Mg	  0.000000000000 	  3.980000000000 	  0.000000000000 	
Mg	  1.000000000000 	  3.980000000000 	  2.980000000000 	
Mg	  3.980000000000 	  0.000000000000 	  0.000000000000 	
Mg	  4.980000000000 	  0.000000000000 	  2.980000000000 	
Mg	  3.980000000000 	  3.980000000000 	  0.000000000000 	
Mg	  4.980000000000 	  3.980000000000 	  2.980000000000 	
Mg	  2.098639829583 	  2.104623412982 	  0.000000000000 	
Mg	  3.098639829583 	  2.104623412982 	  2.980000000000 	
Mg	  2.098639829583 	  6.084623412982 	  0.000000000000 	
Mg	  3.098639829583 	  6.084623412982 	  2.980000000000 	
Mg	  6.078639829583 	  2.104623412982 	  0.000000000000 	
Mg	  7.078639829583 	  2.104623412982 	  2.980000000000 	
Mg	  6.078639829583 	  6.084623412982 	  0.000000000000 	
Mg	  7.078639829583 	  6.084623412982 	  2.980000000000 	
Mg	  2.146508496774 	  0.000000000000 	  2.086672662785 	
Mg	  3.146508496774 	  0.000000000000 	  5.066672662785 	
Mg	  2.146508496774 	  3.980000000000 	  2.086672662785 	
Mg	  3.146508496774 	  3.980000000000 	  5.066672662785 	
Mg	  6.126508496774 	  0.000000000000 	  2.086672662785 	
Mg	  7.126508496774 	  0.000000000000 	  5.066672662785 	
Mg	  6.126508496774 	  3.980000000000 	  2.086672662785 	
Mg	  7.126508496774 	  3.980000000000 	  5.066672662785 	
Mg	  0.029917916995 	  2.116590579780 	  2.086672662785 	
Mg	  1.029917916995 	  2.116590579780 	  5.066672662785 	
Mg	  0.029917916995 	  6.096590579780 	  2.086672662785 	
Mg	  1.029917916995 	  6.096590579780 	  5.066672662785 	
Mg	  4.009917916995 	  2.116590579780 	  2.086672662785 	
Mg	  5.009917916995 	  2.116590579780 	  5.066672662785 	
Mg	  4.009917916995 	  6.096590579780 	  2.086672662785 	
Mg	  5.009917916995 	  6.096590579780 	  5.066672662785 	
O	  2.116590579780 	  0.000000000000 	  0.000000000000 	
O	  3.116590579780 	  0.000000000000 	  2.980000000000 	
O	  2.116590579780 	  3.980000000000 	  0.000000000000 	
O	  3.116590579780 	  3.980000000000 	  2.980000000000 	
O	  6.096590579780 	  0.000000000000 	  0.000000000000 	
O	  7.096590579780 	  0.000000000000 	  2.980000000000 	
O	  6.096590579780 	  3.980000000000 	  0.000000000000 	
O	  7.096590579780 	  3.980000000000 	  2.980000000000 	
O	  0.000000000000 	  2.116590579780 	  0.000000000000 	
O	  1.000000000000 	  2.116590579780 	  2.980000000000 	
O	  0.000000000000 	  6.096590579780 	  0.000000000000 	
O	  1.000000000000 	  6.096590579780 	  2.980000000000 	
O	  3.980000000000 	  2.116590579780 	  0.000000000000 	
O	  4.980000000000 	  2.116590579780 	  2.980000000000 	
O	  3.980000000000 	  6.096590579780 	  0.000000000000 	
O	  4.980000000000 	  6.096590579780 	  2.980000000000 	
O	  0.029917916995 	  0.000000000000 	  2.086672662785 	
O	  1.029917916995 	  0.000000000000 	  5.066672662785 	
O	  0.029917916995 	  3.980000000000 	  2.086672662785 	
O	  1.029917916995 	  3.980000000000 	  5.066672662785 	
O	  4.009917916995 	  0.000000000000 	  2.086672662785 	
O	  5.009917916995 	  0.000000000000 	  5.066672662785 	
O	  4.009917916995 	  3.980000000000 	  2.086672662785 	
O	  5.009917916995 	  3.980000000000 	  5.066672662785 	
O	  2.170442830370 	  2.077278436849 	  2.086672662785 	
O	  3.170442830370 	  2.077278436849 	  5.066672662785 	
O	  2.170442830370 	  6.057278436849 	  2.086672662785 	
O	  3.170442830370 	  6.057278436849 	  5.066672662785 	
O	  6.150442830370 	  2.077278436849 	  2.086672662785 	
O	  7.150442830370 	  2.077278436849 	  5.066672662785 	
O	  6.150442830370 	  6.057278436849 	  2.086672662785 	
O	  7.150442830370 	  6.057278436849 	  5.066672662785 	
64 
Energy: 0.0000000000000000e+00 
Mg	  0.000000000000 	  0.000000000000 	  0.000000000000 	
Mg	  1.000000000000 	  0.000000000000 	  2.980000000000 	
Mg	  0.000000000000 	  3.980000000000 	  0.000000000000 	
Mg	  1.000000000000 	  3.980000000000 	  2.980000000000 	
Mg	  3.980000000000 	  0.000000000000 	  0.000000000000 	
Mg	  4.980000000000 	  0.000000000000 	  2.980000000000 	
Mg	  3.980000000000 	  3.980000000000 	  0.000000000000 	
Mg	  4.980000000000 	  3.980000000000 	  2.980000000000 	
Mg	  2.125000000000 	  2.125000000000 	  0.000000000000 	
Mg	  3.125000000000 	  2.125000000000 	  2.980000000000 	
Mg	  2.125000000000 	  6.105000000000 	  0.000000000000 	
Mg	  3.125000000000 	  6.105000000000 	  2.980000000000 	
Mg	  6.105000000000 	  2.125000000000 	  0.000000000000 	
Mg	  7.105000000000 	  2.125000000000 	  2.980000000000 	
Mg	  6.105000000000 	  6.105000000000 	  0.000000000000 	
Mg	  7.105000000000 	  6.105000000000 	  2.980000000000 	
Mg	  2.125000000000 	  0.000000000000 	  2.125000000000 	
Mg	  3.125000000000 	  0.000000000000 	  5.105000000000 	
Mg	  2.125000000000 	  3.980000000000 	  2.125000000000 	
Mg	  3.125000000000 	  3.980000000000 	  5.105000000000 	
Mg	  6.105000000000 	  0.000000000000 	  2.125000000000 	
Mg	  7.105000000000 	  0.000000000000 	  5.105000000000 	
Mg	  6.105000000000 	  3.980000000000 	  2.125000000000 	
Mg	  7.105000000000 	  3.980000000000 	  5.105000000000 	
Mg	  0.000000000000 	  2.125000000000 	  2.125000000000 	
Mg	  1.000000000000 	  2.125000000000 	  5.105000000000 	
Mg	  0.000000000000 	  6.105000000000 	  2.125000000000 	
Mg	  1.000000000000 	  6.105000000000 	  5.105000000000 	
Mg	  3.980000000000 	  2.125000000000 	  2.125000000000 	
Mg	  4.980000000000 	  2.125000000000 	  5.105000000000 	
Mg	  3.980000000000 	  6.105000000000 	  2.125000000000 	
Mg	  4.980000000000 	  6.105000000000 	  5.105000000000 	
O	  2.125000000000 	  0.000000000000 	  0.000000000000 	
O	  3.125000000000 	  0.000000000000 	  2.980000000000 	
O	  2.125000000000 	  3.980000000000 	  0.000000000000 	
O	  3.125000000000 	  3.980000000000 	  2.980000000000 	
O	  6.105000000000 	  0.000000000000 	  0.000000000000 	
O	  7.105000000000 	  0.000000000000 	  2.980000000000 	
O	  6.105000000000 	  3.980000000000 	  0.000000000000 	
O	  7.105000000000 	  3.980000000000 	  2.980000000000 	
O	  0.000000000000 	  2.125000000000 	  0.000000000000 	
O	  1.000000000000 	  2.125000000000 	  2.980000000000 	
O	  0.000000000000 	  6.105000000000 	  0.000000000000 	
O	  1.000000000000 	  6.105000000000 	  2.980000000000 	
O	  3.980000000000 	  2.125000000000 	  0.000000000000 	
O	  4.980000000000 	  2.125000000000 	  2.980000000000 	
O	  3.980000000000 	  6.105000000000 	  0.000000000000 	
O	  4.980000000000 	  6.105000000000 	  2.980000000000 	
O	  0.000000000000 	  0.000000000000 	  2.125000000000 	
O	  1.000000000000 	  0.000000000000 	  5.105000000000 	
O	  0.000000000000 	  3.980000000000 	  2.125000000000 	
O	  1.000000000000 	  3.980000000000 	  5.105000000000 	
O	  3.980000000000 	  0.000000000000 	  2.125000000000 	
O	  4.980000000000 	  0.000000000000 	  5.105000000000 	
O	  3.980000000000 	  3.980000000000 	  2.125000000000 	
O	  4.980000000000 	  3.980000000000 	  5.105000000000 	
O	  2.125000000000 	  2.125000000000 	  2.125000000000 	
O	  3.125000000000 	  2.125000000000 	  5.105000000000 	
O	  2.125000000000 	  6.105000000000 	  2.125000000000 	
O	  3.125000000000 	  6.105000000000 	  5.105000000000 	
O	  6.105000000000 	  2.125000000000 	  2.125000000000 	
O	  7.105000000000 	  2.125000000000 	  5.105000000000 	
O	  6.105000000000 	  6.105000000000 	  2.125000000000 	
O	  7.105000000000 	  6.105000000000 	  5.105000000000 	
