  Invoking FHI-aims ...
  | Number of atoms                   :  96
  ...scf iterations...
  | Total energy corrected        :   -7.151212821603E+01 eV
  ...
  Total atomic forces (unitary forces cleaned)
     1  -2.0435959653E-01  5.9242411255E-01  2.0593431903E-01
     2  2.0350142829E-01  5.9123482376E-01  -2.0631403133E-01
     3  2.0435975048E-01  -5.9242402047E-01  -2.0593422312E-01
     4  -2.0350132623E-01  -5.9123454698E-01  2.0631407479E-01
     5  -8.0710628374E-01  1.1861208833E+00  5.4968789603E-02
     6  8.0597768493E-01  1.1748804542E+00  -4.2511028106E-02
     7  8.0710627756E-01  -1.1861207593E+00  -5.4968695461E-02
     8  -8.0597812751E-01  -1.1748805533E+00  4.2511335477E-02
     9  -1.7123319298E-01  1.7184885039E-01  -8.8996599994E-02
    10  1.5936832883E-01  1.5871585744E-01  9.0188700632E-02
    11  1.7123304889E-01  -1.7184826259E-01  8.8996455876E-02
    12  -1.5936873792E-01  -1.5871625551E-01  -9.0188453817E-02
    13  -3.6208326056E-01  -8.4381643611E-01  -8.7126504354E-01
    14  3.7413230557E-01  -8.3054200409E-01  8.7004810892E-01
    15  3.6208275889E-01  8.4381635428E-01  8.7126472650E-01
    16  -3.7413248650E-01  8.3054244110E-01  -8.7004733424E-01
    17  2.4110082996E+00  -3.6616433741E+00  -3.2876908548E-01
    18  -2.4147062727E+00  -3.6519988877E+00  3.1611621548E-01
    19  -2.4110124863E+00  3.6616516021E+00  3.2876922530E-01
    20  2.4147061024E+00  3.6519996200E+00  -3.1611733974E-01
    21  -1.5082247929E+00  2.0798317816E+00  4.8536091862E-02
    22  1.5082744043E+00  2.0801899414E+00  -4.9207197410E-02
    23  1.5082296622E+00  -2.0798394858E+00  -4.8536303053E-02
    24  -1.5082746296E+00  -2.0801905757E+00  4.9207674219E-02
    25  4.4828743711E-01  -1.5704559808E-02  4.2710288232E-01
    26  -4.4429430155E-01  -2.5383256492E-02  -4.1402685474E-01
    27  -4.4828731388E-01  1.5704307181E-02  -4.2710292271E-01
    28  4.4429506399E-01  2.5383234778E-02  4.1402666390E-01
    29  9.9523626557E-01  2.9473199637E+00  2.9677315355E+00
    30  -9.9535349973E-01  2.9469609095E+00  -2.9674951646E+00
    31  -9.9523769699E-01  -2.9473239849E+00  -2.9677338523E+00
    32  9.9535555251E-01  -2.9469644109E+00  2.9674970912E+00
    33  -5.6277017524E-01  -1.6694392809E+00  -1.7156347051E+00
    34  5.6285725241E-01  -1.6698418817E+00  1.7157676853E+00
    35  5.6277146058E-01  1.6694428591E+00  1.7156374698E+00
    36  -5.6285897808E-01  1.6698451311E+00  -1.7157699188E+00
    37  -2.5625608175E+00  3.4984050308E+00  2.3003433278E-01
    38  2.5621374731E+00  3.4974759856E+00  -2.2982567579E-01
    39  2.5625598599E+00  -3.4984039375E+00  -2.3003327076E-01
    40  -2.5621359716E+00  -3.4974738154E+00  2.2982633390E-01
    41  1.3140611701E+00  -1.9174017038E+00  -2.3677704524E-01
    42  -1.3139038530E+00  -1.9169839381E+00  2.3683055990E-01
    43  -1.3140601939E+00  1.9174003592E+00  2.3677629538E-01
    44  1.3139025036E+00  1.9169819673E+00  -2.3683076939E-01
    45  -5.5117453155E-01  5.9031313217E-02  -3.4366462517E-01
    46  5.4479885551E-01  4.1949417551E-02  3.4846928991E-01
    47  5.5117243868E-01  -5.9031067040E-02  3.4366391472E-01
    48  -5.4479904883E-01  -4.1949668839E-02  -3.4846945673E-01
    49  -6.9863655599E+00  5.5303662881E+00  5.9502841654E+00
    50  6.8567606452E+00  4.7461599966E+00  -6.0172982056E+00
    51  6.9863408102E+00  -5.5303153639E+00  -5.9502818759E+00
    52  -6.8567687165E+00  -4.7461564312E+00  6.0172981176E+00
    53  6.3673240129E+00  2.9071807089E+00  -3.4458158563E+00
    54  -6.3700010050E+00  2.9116275407E+00  3.4489118296E+00
    55  -6.3672957153E+00  -2.9071848773E+00  3.4458002411E+00
    56  6.3700053220E+00  -2.9116299728E+00  -3.4489178829E+00
    57  -8.9690106724E-01  1.5721843954E-01  -7.5923792649E-01
    58  9.3051808216E-01  1.6813711837E-01  7.8779169305E-01
    59  8.9690752596E-01  -1.5721932519E-01  7.5924308661E-01
    60  -9.3051310181E-01  -1.6813612126E-01  -7.8778686439E-01
    61  1.1655093052E+00  -7.7776645472E+00  1.8965583893E-01
    62  -1.0654193996E+00  -7.0094397395E+00  -1.6200495619E-01
    63  -1.1655180856E+00  7.7776213305E+00  -1.8964722021E-01
    64  1.0654191593E+00  7.0094373194E+00  1.6200639278E-01
    65  -1.7666879776E+00  -8.2315150223E+00  -1.8744220290E+00
    66  1.6800758890E+00  -8.3073064978E+00  2.1186901636E+00
    67  1.7666719904E+00  8.2314929050E+00  1.8744201878E+00
    68  -1.6800738702E+00  8.3072999715E+00  -2.1186894855E+00
    69  4.6385874020E+00  3.4946611738E+00  -2.2672431803E+00
    70  -4.6412293672E+00  3.4949932650E+00  2.2678026179E+00
    71  -4.6385716759E+00  -3.4946582199E+00  2.2672304725E+00
    72  4.6412218610E+00  -3.4949875800E+00  -2.2678020230E+00
    73  -1.4024450606E+00  2.6262392663E+00  5.1515930621E+00
    74  1.4780548064E+00  2.7261291141E+00  -5.4063219314E+00
    75  1.4024454343E+00  -2.6262224360E+00  -5.1515752720E+00
    76  -1.4780502379E+00  -2.7261284542E+00  5.4063192463E+00
    77  -8.4374621076E-01  7.7339373044E-02  -6.9036179031E-01
    78  8.6169141095E-01  7.1844104993E-02  7.0429543653E-01
    79  8.4374430749E-01  -7.7339288235E-02  6.9036065816E-01
    80  -8.6169075221E-01  -7.1844076347E-02  -7.0429408182E-01
    81  2.0691476989E+00  5.9417961443E+00  -7.5069754688E+00
    82  -2.0689365021E+00  5.9405882408E+00  7.5064419542E+00
    83  -2.0691434669E+00  -5.9417947788E+00  7.5069286792E+00
    84  2.0689386467E+00  -5.9405748527E+00  -7.5064570944E+00
    85  -8.6634267912E-01  2.8638262515E-02  -5.1697963517E-01
    86  8.6641470094E-01  2.8640457172E-02  5.1667658417E-01
    87  8.6634544242E-01  -2.8638216640E-02  5.1698110952E-01
    88  -8.6641415500E-01  -2.8640656572E-02  -5.1667557350E-01
    89  -1.2791293876E+00  2.3064340328E+00  6.1424940319E+00
    90  1.2793726912E+00  2.3062625240E+00  -6.1424370306E+00
    91  1.2791246273E+00  -2.3064109288E+00  -6.1424656920E+00
    92  -1.2793736913E+00  -2.3062696053E+00  6.1424482276E+00
    93  1.5561313022E+00  -7.2810862229E+00  9.0936458893E-01
    94  -1.5558338077E+00  -7.2802046673E+00  -9.0969783337E-01
    95  -1.5561309585E+00  7.2810603930E+00  -9.0935024466E-01
    96  1.5558315678E+00  7.2801993774E+00  9.0970059279E-01
  Stress tensor (eV/A^3):
  -1.1682925964E-02  1.2018733036E-04  4.5082539626E-02
  1.2018733036E-04  -5.6119110377E-02  2.8403409647E-04
  4.5082539626E-02  2.8403409647E-04  -1.9119681141E-02
