  Invoking FHI-aims ...
  | Number of atoms                   :  96
  ...scf iterations...
  | Total energy corrected        :   -9.469576292228E+01 eV
  ...
  Total atomic forces (unitary forces cleaned)
     1  -2.9133359572E-01  5.9913162295E-01  1.8872825113E-01
     2  2.1797497996E-01  5.7044489008E-01  -1.8398307481E-01
     3  2.9133357108E-01  -5.9913152172E-01  -1.8872822634E-01
     4  -2.1797486365E-01  -5.7044483593E-01  1.8398315921E-01
     5  -8.3458354171E-01  1.6507163018E+00  2.9239721153E-01
     6  8.5668797710E-01  9.2936702580E-01  -1.0179892467E-01
     7  8.3458421476E-01  -1.6507161351E+00  -2.9239658098E-01
     8  -8.5668789357E-01  -9.2936718911E-01  1.0179922261E-01
     9  -3.8242943492E-01  2.2731614283E-01  -1.7747687389E-01
    10  9.9565134585E-01  6.1937012839E-01  1.4491748229E-01
    11  3.8242879444E-01  -2.2731640121E-01  1.7747632847E-01
    12  -9.9565167950E-01  -6.1937002667E-01  -1.4491760396E-01
    13  -5.2704669608E-01  -1.0466604186E+00  -1.0566196596E+00
    14  -8.2280506473E-02  -1.4754878611E+00  1.1254151861E+00
    15  5.2704596430E-01  1.0466606757E+00  1.0566193551E+00
    16  8.2280364867E-02  1.4754880446E+00  -1.1254149162E+00
    17  4.0606297222E-01  -5.3378818716E-01  -3.0503422557E-02
    18  -2.7558954058E-01  -6.7760877176E-01  4.6556894199E-01
    19  -4.0606230769E-01  5.3378829168E-01  3.0503930022E-02
    20  2.7558948465E-01  6.7760850379E-01  -4.6556918820E-01
    21  6.5984776933E-01  -1.2219787207E+00  -2.2076041633E-01
    22  -6.6204519715E-01  -1.3231466669E+00  2.8538188128E-01
    23  -6.5984802909E-01  1.2219788751E+00  2.2076023935E-01
    24  6.6204535870E-01  1.3231468826E+00  -2.8538193271E-01
    25  9.2995758419E-01  7.7085741311E-02  7.0009378515E-01
    26  -1.0154493304E+00  2.3305032968E-01  -1.1055174005E+00
    27  -9.2995864464E-01  -7.7086238179E-02  -7.0009470272E-01
    28  1.0154500002E+00  -2.3304975220E-01  1.1055171864E+00
    29  4.7552814677E-01  3.4342420399E-01  5.8345528793E-01
    30  -4.5763536057E-01  3.8971426539E-01  -6.0796549571E-01
    31  -4.7552795200E-01  -3.4342425697E-01  -5.8345560552E-01
    32  4.5763454974E-01  -3.8971458913E-01  6.0796518212E-01
    33  1.9627462883E-01  1.1042453880E+00  9.5385500852E-01
    34  -1.8305152264E-01  1.1393804519E+00  -9.4504932138E-01
    35  -1.9627430616E-01  -1.1042453594E+00  -9.5385466941E-01
    36  1.8305169832E-01  -1.1393806505E+00  9.4504924988E-01
    37  -7.1158899956E-01  4.5089775618E-01  -2.0859480179E-01
    38  7.2879242071E-01  4.9084337612E-01  1.8613259496E-01
    39  7.1158908535E-01  -4.5089802413E-01  2.0859497580E-01
    40  -7.2879218177E-01  -4.9084388098E-01  -1.8613204052E-01
    41  -9.3468524827E-01  1.1853108327E+00  8.8620656826E-02
    42  9.3898757801E-01  1.1962844122E+00  -8.5366024329E-02
    43  9.3468513772E-01  -1.1853105092E+00  -8.8620543266E-02
    44  -9.3898724541E-01  -1.1962841039E+00  8.5366114900E-02
    45  -5.8420919138E-01  1.9596989861E-01  -1.9940788387E-01
    46  -2.2378312978E+00  -2.4692104339E+00  -1.6786473621E+00
    47  5.8424667274E-01  -1.9596302404E-01  1.9944972702E-01
    48  2.2378292739E+00  2.4692067820E+00  1.6786456542E+00
    49  -4.2998179807E+00  -7.2068006844E-01  2.1882433700E+00
    50  5.9887707157E+00  2.3104384587E+00  -5.2438991133E+00
    51  4.2997490183E+00  7.2067855198E-01  -2.1882500930E+00
    52  -5.9887689471E+00  -2.3104357171E+00  5.2439027367E+00
    53  9.2078175440E-01  3.7658286443E-01  -7.5569310991E-01
    54  -4.5533514068E-01  -1.1457221310E+00  6.9044899648E-01
    55  -9.2074638666E-01  -3.7655600675E-01  7.5567341798E-01
    56  4.5533683679E-01  1.1457204421E+00  -6.9044940754E-01
    57  1.5979686087E+00  -2.5766763778E-01  1.4762994746E+00
    58  9.8190527104E-01  2.6187800929E-01  1.2736031678E+00
    59  -1.5979612725E+00  2.5766542471E-01  -1.4762925948E+00
    60  -9.8190750499E-01  -2.6187856738E-01  -1.2736049291E+00
    61  6.6751373230E-01  1.2787472076E-01  -5.8702170669E-01
    62  -5.7288873201E+00  -1.9000168729E+00  3.8640898269E+00
    63  -6.6748264886E-01  -1.2788924282E-01  5.8699650724E-01
    64  5.7288853569E+00  1.9000163025E+00  -3.8640870814E+00
    65  6.3420664741E-02  -1.6552158393E+00  -1.1316877432E+00
    66  3.3164401609E+00  4.1461313284E-01  5.2301729713E-01
    67  -6.3445036404E-02  1.6552078671E+00  1.1316724856E+00
    68  -3.3164409419E+00  -4.1460958565E-01  -5.2301118516E-01
    69  -2.9443816959E-01  -5.8572867970E-01  4.1467303522E-01
    70  3.7309044333E-01  -4.1834050126E-01  -6.5997608674E-01
    71  2.9444543539E-01  5.8575195376E-01  -4.1466767694E-01
    72  -3.7308951760E-01  4.1833758942E-01  6.5997566767E-01
    73  4.3933375561E-01  3.8769146926E-01  -1.1355276477E+00
    74  -5.3317185920E-01  6.5394489190E-01  9.2810520354E-01
    75  -4.3933721984E-01  -3.8768863109E-01  1.1355431321E+00
    76  5.3317346996E-01  -6.5394278626E-01  -9.2811290499E-01
    77  1.4353687729E+00  -2.9380338971E-01  7.4888511377E-01
    78  -1.7377622212E+00  -4.3516835634E-01  -9.5504372780E-01
    79  -1.4353662181E+00  2.9380228312E-01  -7.4888508627E-01
    80  1.7377630089E+00  4.3516841313E-01  9.5504377956E-01
    81  -1.0450649408E+00  3.4573442817E+00  -7.4097326196E-01
    82  1.1331842294E+00  3.5204271594E+00  8.5235907226E-01
    83  1.0450207756E+00  -3.4573126733E+00  7.4095327517E-01
    84  -1.1331840355E+00  -3.5204309871E+00  -8.5236447390E-01
    85  1.7300768993E+00  1.8587429102E-01  8.9340563982E-01
    86  -1.7812577487E+00  2.5672519047E-01  -8.5273676557E-01
    87  -1.7300720226E+00  -1.8587370729E-01  -8.9340325396E-01
    88  1.7812573221E+00  -2.5672510340E-01  8.5273661468E-01
    89  1.9809952578E-01  -2.5398237627E-01  -6.5563758068E-01
    90  -2.1516128950E-01  -1.8580903026E-01  7.1881894083E-01
    91  -1.9810187512E-01  2.5396557036E-01  6.5565871058E-01
    92  2.1516069497E-01  1.8581196485E-01  -7.1881486525E-01
    93  2.0899575449E-01  -9.7696965167E-01  2.1089809043E-01
    94  -2.1866571044E-01  -8.5571105421E-01  -1.8297233819E-01
    95  -2.0897745122E-01  9.7692161303E-01  -2.1090407293E-01
    96  2.1866624453E-01  8.5571288624E-01  1.8297320968E-01
  Stress tensor (eV/A^3):
  6.8998716065E-02  -1.0295329320E-02  4.1832346824E-02
  -1.0295329320E-02  6.7812406348E-02  4.9644652458E-03
  4.1832346824E-02  4.9644652458E-03  5.4564500058E-02
