  Invoking FHI-aims ...
  | Number of atoms                   :  96
  ...scf iterations...
  | Total energy corrected        :   -9.035267094577E+01 eV
  ...
  Total atomic forces (unitary forces cleaned)
     1  -3.2264163782E-01  6.0094980844E-01  1.9909867384E-01
     2  2.7021736647E-01  5.9918821881E-01  -1.8320667254E-01
     3  3.2264150185E-01  -6.0094969649E-01  -1.9909866564E-01
     4  -2.7021731657E-01  -5.9918827173E-01  1.8320680154E-01
     5  -7.8975277726E-01  1.1398544519E+00  -9.3663412810E-02
     6  1.1127652216E+00  -2.3342139333E+00  3.0495611343E+00
     7  7.8975395768E-01  -1.1398542034E+00  9.3664403711E-02
     8  -1.1127647940E+00  2.3342137056E+00  -3.0495608165E+00
     9  -4.7158782306E-01  2.7329958669E-01  -1.8763603581E-01
    10  -1.2439943434E+00  -1.4358201516E+00  1.9198519947E-01
    11  4.7158687435E-01  -2.7330046910E-01  1.8763516230E-01
    12  1.2439930546E+00  1.4358201407E+00  -1.9198583186E-01
    13  -5.5628272874E-01  -1.1306096910E+00  -1.0663931300E+00
    14  2.1775647409E+00  4.5757647369E-01  1.1057869060E+00
    15  5.5628171652E-01  1.1306101083E+00  1.0663927555E+00
    16  -2.1775641233E+00  -4.5757594556E-01  -1.1057869927E+00
    17  6.1476509901E-01  -7.5267887059E-01  -3.2927194213E-02
    18  -1.7253679217E+00  9.9194964784E-01  -2.0067661643E+00
    19  -6.1476448614E-01  7.5267929348E-01  3.2927869363E-02
    20  1.7253677969E+00  -9.9194950934E-01  2.0067659081E+00
    21  5.8650440035E-01  -1.0167796379E+00  -1.1762454198E-01
    22  -4.4860942393E-01  -1.0303246593E+00  2.4747933817E-01
    23  -5.8650445407E-01  1.0167796575E+00  1.1762461309E-01
    24  4.4860944039E-01  1.0303247778E+00  -2.4747947609E-01
    25  1.0964906433E+00  1.4844083924E-01  7.6187400291E-01
    26  -2.4158020807E-01  -1.8331633198E+00  1.2660903518E+00
    27  -1.0964905708E+00  -1.4844170735E-01  -7.6187437701E-01
    28  2.4158087715E-01  1.8331639532E+00  -1.2660904278E+00
    29  5.4945902303E-01  5.3637363660E-01  7.5848393136E-01
    30  -4.6328165140E-01  6.7136328643E-01  -8.1206338186E-01
    31  -5.4945891392E-01  -5.3637351522E-01  -7.5848440701E-01
    32  4.6328057773E-01  -6.7136383251E-01  8.1206316490E-01
    33  1.1154925701E-01  9.5293610950E-01  7.5846145170E-01
    34  -1.2409018213E-01  1.0097866143E+00  -7.8005553632E-01
    35  -1.1154910282E-01  -9.5293590549E-01  -7.5846138241E-01
    36  1.2409010974E-01  -1.0097867082E+00  7.8005551063E-01
    37  -9.3586820818E-01  6.1032669076E-01  -2.0682222397E-01
    38  9.7078139971E-01  7.2236019091E-01  1.2066526588E-01
    39  9.3586830756E-01  -6.1032674971E-01  2.0682263293E-01
    40  -9.7078094213E-01  -7.2236085141E-01  -1.2066466246E-01
    41  -8.2844800142E-01  9.9012562682E-01  6.7077365591E-02
    42  8.5651807432E-01  1.0294953830E+00  -7.2004491604E-02
    43  8.2844794630E-01  -9.9012529006E-01  -6.7077387482E-02
    44  -8.5651784589E-01  -1.0294952739E+00  7.2004511247E-02
    45  -1.3765527173E+00  2.1861745935E-02  -8.9500401558E-01
    46  1.7869805274E+00  -1.0658593636E+00  -1.4177373435E-01
    47  1.3765504533E+00  -2.1862515029E-02  8.9500212544E-01
    48  -1.7869805214E+00  1.0658585403E+00  1.4177249237E-01
    49  -1.0315619357E-01  -7.0887168995E-01  1.4386815548E+00
    50  3.0607918064E-01  -6.9567263747E-01  -4.0415903094E+00
    51  1.0315756212E-01  7.0887103135E-01  -1.4386815096E+00
    52  -3.0608041648E-01  6.9567207662E-01  4.0415920649E+00
    53  -4.6274779391E-01  -1.2013058915E+00  -3.0731290303E-01
    54  -1.9234979947E-01  -2.0209645078E+00  7.4273041352E-01
    55  4.6274680238E-01  1.2013038030E+00  3.0731254901E-01
    56  1.9234969781E-01  2.0209651214E+00  -7.4273008742E-01
    57  7.9979983395E-01  -4.7501436225E-02  5.2572840735E-01
    58  1.5675348058E+00  2.8907955918E-01  1.1808040398E+00
    59  -7.9979905755E-01  4.7500801482E-02  -5.2572769334E-01
    60  -1.5675343925E+00  -2.8907975066E-01  -1.1808042338E+00
    61  -1.0394137059E+00  7.4459981847E-01  6.5514125914E-01
    62  -8.6145560860E-01  1.3726030426E+00  4.1836528306E-01
    63  1.0394120484E+00  -7.4459903972E-01  -6.5513928926E-01
    64  8.6145590830E-01  -1.3726031583E+00  -4.1836550187E-01
    65  1.3601623743E+00  -7.0460384313E-01  -6.7904072812E-01
    66  -5.5735582402E-01  -2.9149929744E-01  2.2864066881E+00
    67  -1.3601618751E+00  7.0460445320E-01  6.7904089510E-01
    68  5.5735517243E-01  2.9149973437E-01  -2.2864049360E+00
    69  -2.3559611671E-01  -1.2632150719E+00  -1.3843600893E-01
    70  9.6853286967E-01  -2.0390728001E+00  -2.5782239264E-01
    71  2.3559603423E-01  1.2632128413E+00  1.3843534393E-01
    72  -9.6853326296E-01  2.0390723202E+00  2.5782268356E-01
    73  2.0025832679E-01  5.8109564614E-01  -1.1409757866E+00
    74  -4.4465794806E-01  1.3227299214E+00  1.2150276428E+00
    75  -2.0025819015E-01  -5.8109485213E-01  1.1409742015E+00
    76  4.4465855839E-01  -1.3227291286E+00  -1.2150295040E+00
    77  7.6450297296E-01  1.3785862182E-02  5.3260765268E-01
    78  -2.3803489916E+00  -3.7666751990E-01  -1.4152226092E+00
    79  -7.6450189506E-01  -1.3785903826E-02  -5.3260753189E-01
    80  2.3803494270E+00  3.7666779524E-01  1.4152228307E+00
    81  7.7374325262E-01  1.4230813694E+00  4.5061725177E-01
    82  -8.4051893106E-01  1.8852979822E+00  -4.4347820038E-01
    83  -7.7374216102E-01  -1.4230812257E+00  -4.5061626624E-01
    84  8.4051935555E-01  -1.8852977677E+00  4.4347798641E-01
    85  9.1074045583E-01  -6.3376196749E-02  4.9868530384E-01
    86  -9.9685488948E-01  9.8149037213E-02  -4.7407554046E-01
    87  -9.1073909283E-01  6.3376328734E-02  -4.9868456450E-01
    88  9.9685474186E-01  -9.8148976974E-02  4.7407556897E-01
    89  1.4119862491E-01  5.7302060689E-01  -1.2188981407E+00
    90  -1.4609938945E-01  7.8113532476E-01  1.3110264167E+00
    91  -1.4119832210E-01  -5.7301825698E-01  1.2188961132E+00
    92  1.4609966189E-01  -7.8113502535E-01  -1.3110267081E+00
    93  -8.2227865982E-01  6.1638493491E-01  8.6040332017E-01
    94  8.7401025507E-01  8.2534399562E-01  -8.8027119514E-01
    95  8.2227698426E-01  -6.1638353735E-01  -8.6040143758E-01
    96  -8.7401006166E-01  -8.2534430872E-01  8.8027099739E-01
  Stress tensor (eV/A^3):
  8.9978764626E-02  -2.3054591659E-03  2.1295120216E-02
  -2.3054591659E-03  9.3693223619E-02  6.0213863611E-03
  2.1295120216E-02  6.0213863611E-03  6.9617864630E-02
