64 
Energy: 2.7113285490079204e+00 
Mg	  0.000000000000 	  0.000000000000 	  0.000000000000 	
Mg	  1.000000000000 	  0.000000000000 	  2.980000000000 	
Mg	  0.000000000000 	  3.980000000000 	  0.000000000000 	
Mg	  1.000000000000 	  3.980000000000 	  2.980000000000 	
Mg	  3.980000000000 	  0.000000000000 	  0.000000000000 	
Mg	  4.980000000000 	  0.000000000000 	  2.980000000000 	
Mg	  3.980000000000 	  3.980000000000 	  0.000000000000 	
Mg	  4.980000000000 	  3.980000000000 	  2.980000000000 	
Mg	  1.712867199857 	  1.805244799905 	  0.000000000000 	
Mg	  2.712867199857 	  1.805244799905 	  2.980000000000 	
Mg	  1.712867199857 	  5.785244799905 	  0.000000000000 	
Mg	  2.712867199857 	  5.785244799905 	  2.980000000000 	
Mg	  5.692867199857 	  1.805244799905 	  0.000000000000 	
Mg	  6.692867199857 	  1.805244799905 	  2.980000000000 	
Mg	  5.692867199857 	  5.785244799905 	  0.000000000000 	
Mg	  6.692867199857 	  5.785244799905 	  2.980000000000 	
Mg	  2.451888000238 	  0.000000000000 	  1.528111999762 	
Mg	  3.451888000238 	  0.000000000000 	  4.508111999762 	
Mg	  2.451888000238 	  3.980000000000 	  1.528111999762 	
Mg	  3.451888000238 	  3.980000000000 	  4.508111999762 	
Mg	  6.431888000238 	  0.000000000000 	  1.528111999762 	
Mg	  7.431888000238 	  0.000000000000 	  4.508111999762 	
Mg	  6.431888000238 	  3.980000000000 	  1.528111999762 	
Mg	  7.431888000238 	  3.980000000000 	  4.508111999762 	
Mg	  0.461888000238 	  1.990000000000 	  1.528111999762 	
Mg	  1.461888000238 	  1.990000000000 	  4.508111999762 	
Mg	  0.461888000238 	  5.970000000000 	  1.528111999762 	
Mg	  1.461888000238 	  5.970000000000 	  4.508111999762 	
Mg	  4.441888000238 	  1.990000000000 	  1.528111999762 	
Mg	  5.441888000238 	  1.990000000000 	  4.508111999762 	
Mg	  4.441888000238 	  5.970000000000 	  1.528111999762 	
Mg	  5.441888000238 	  5.970000000000 	  4.508111999762 	
O	  1.990000000000 	  0.000000000000 	  0.000000000000 	
O	  2.990000000000 	  0.000000000000 	  2.980000000000 	
O	  1.990000000000 	  3.980000000000 	  0.000000000000 	
O	  2.990000000000 	  3.980000000000 	  2.980000000000 	
O	  5.970000000000 	  0.000000000000 	  0.000000000000 	
O	  6.970000000000 	  0.000000000000 	  2.980000000000 	
O	  5.970000000000 	  3.980000000000 	  0.000000000000 	
O	  6.970000000000 	  3.980000000000 	  2.980000000000 	
O	  0.000000000000 	  1.990000000000 	  0.000000000000 	
O	  1.000000000000 	  1.990000000000 	  2.980000000000 	
O	  0.000000000000 	  5.970000000000 	  0.000000000000 	
O	  1.000000000000 	  5.970000000000 	  2.980000000000 	
O	  3.980000000000 	  1.990000000000 	  0.000000000000 	
O	  4.980000000000 	  1.990000000000 	  2.980000000000 	
O	  3.980000000000 	  5.970000000000 	  0.000000000000 	
O	  4.980000000000 	  5.970000000000 	  2.980000000000 	
O	  0.461888000238 	  0.000000000000 	  1.528111999762 	
O	  1.461888000238 	  0.000000000000 	  4.508111999762 	
O	  0.461888000238 	  3.980000000000 	  1.528111999762 	
O	  1.461888000238 	  3.980000000000 	  4.508111999762 	
O	  4.441888000238 	  0.000000000000 	  1.528111999762 	
O	  5.441888000238 	  0.000000000000 	  4.508111999762 	
O	  4.441888000238 	  3.980000000000 	  1.528111999762 	
O	  5.441888000238 	  3.980000000000 	  4.508111999762 	
O	  2.821398400428 	  1.383079167687 	  1.528111999762 	
O	  3.821398400428 	  1.383079167687 	  4.508111999762 	
O	  2.821398400428 	  5.363079167687 	  1.528111999762 	
O	  3.821398400428 	  5.363079167687 	  4.508111999762 	
O	  6.801398400428 	  1.383079167687 	  1.528111999762 	
O	  7.801398400428 	  1.383079167687 	  4.508111999762 	
O	  6.801398400428 	  5.363079167687 	  1.528111999762 	
O	  7.801398400428 	  5.363079167687 	  4.508111999762 	
64 
Energy: 2.7461960941983610e+00 
Mg	  0.000000000000 	  0.000000000000 	  0.000000000000 	
Mg	  1.000000000000 	  0.000000000000 	  2.980000000000 	
Mg	  0.000000000000 	  3.980000000000 	  0.000000000000 	
Mg	  1.000000000000 	  3.980000000000 	  2.980000000000 	
Mg	  3.980000000000 	  0.000000000000 	  0.000000000000 	
Mg	  4.980000000000 	  0.000000000000 	  2.980000000000 	
Mg	  3.980000000000 	  3.980000000000 	  0.000000000000 	
Mg	  4.980000000000 	  3.980000000000 	  2.980000000000 	
Mg	  1.738315656686 	  1.825060640658 	  0.000000000000 	
Mg	  2.738315656686 	  1.825060640658 	  2.980000000000 	
Mg	  1.738315656686 	  5.805060640658 	  0.000000000000 	
Mg	  2.738315656686 	  5.805060640658 	  2.980000000000 	
Mg	  5.718315656686 	  1.825060640658 	  0.000000000000 	
Mg	  6.718315656686 	  1.825060640658 	  2.980000000000 	
Mg	  5.718315656686 	  5.805060640658 	  0.000000000000 	
Mg	  6.718315656686 	  5.805060640658 	  2.980000000000 	
Mg	  2.432275528458 	  0.000000000000 	  1.564825688743 	
Mg	  3.432275528458 	  0.000000000000 	  4.544825688743 	
Mg	  2.432275528458 	  3.980000000000 	  1.564825688743 	
Mg	  3.432275528458 	  3.980000000000 	  4.544825688743 	
Mg	  6.412275528458 	  0.000000000000 	  1.564825688743 	
Mg	  7.412275528458 	  0.000000000000 	  4.544825688743 	
Mg	  6.412275528458 	  3.980000000000 	  1.564825688743 	
Mg	  7.412275528458 	  3.980000000000 	  4.544825688743 	
Mg	  0.433724919857 	  1.998550608601 	  1.564825688743 	
Mg	  1.433724919857 	  1.998550608601 	  4.544825688743 	
Mg	  0.433724919857 	  5.978550608601 	  1.564825688743 	
Mg	  1.433724919857 	  5.978550608601 	  4.544825688743 	
Mg	  4.413724919857 	  1.998550608601 	  1.564825688743 	
Mg	  5.413724919857 	  1.998550608601 	  4.544825688743 	
Mg	  4.413724919857 	  5.978550608601 	  1.564825688743 	
Mg	  5.413724919857 	  5.978550608601 	  4.544825688743 	
O	  1.998550608601 	  0.000000000000 	  0.000000000000 	
O	  2.998550608601 	  0.000000000000 	  2.980000000000 	
O	  1.998550608601 	  3.980000000000 	  0.000000000000 	
O	  2.998550608601 	  3.980000000000 	  2.980000000000 	
O	  5.978550608601 	  0.000000000000 	  0.000000000000 	
O	  6.978550608601 	  0.000000000000 	  2.980000000000 	
O	  5.978550608601 	  3.980000000000 	  0.000000000000 	
O	  6.978550608601 	  3.980000000000 	  2.980000000000 	
O	  0.000000000000 	  1.998550608601 	  0.000000000000 	
O	  1.000000000000 	  1.998550608601 	  2.980000000000 	
O	  0.000000000000 	  5.978550608601 	  0.000000000000 	
O	  1.000000000000 	  5.978550608601 	  2.980000000000 	
O	  3.980000000000 	  1.998550608601 	  0.000000000000 	
O	  4.980000000000 	  1.998550608601 	  2.980000000000 	
O	  3.980000000000 	  5.978550608601 	  0.000000000000 	
O	  4.980000000000 	  5.978550608601 	  2.980000000000 	
O	  0.433724919857 	  0.000000000000 	  1.564825688743 	
O	  1.433724919857 	  0.000000000000 	  4.544825688743 	
O	  0.433724919857 	  3.980000000000 	  1.564825688743 	
O	  1.433724919857 	  3.980000000000 	  4.544825688743 	
O	  4.413724919857 	  0.000000000000 	  1.564825688743 	
O	  5.413724919857 	  0.000000000000 	  4.544825688743 	
O	  4.413724919857 	  3.980000000000 	  1.564825688743 	
O	  5.413724919857 	  3.980000000000 	  4.544825688743 	
O	  2.779255464343 	  1.428636063908 	  1.564825688743 	
O	  3.779255464343 	  1.428636063908 	  4.544825688743 	
O	  2.779255464343 	  5.408636063908 	  1.564825688743 	
O	  3.779255464343 	  5.408636063908 	  4.544825688743 	
O	  6.759255464343 	  1.428636063908 	  1.564825688743 	
O	  7.759255464343 	  1.428636063908 	  4.544825688743 	
O	  6.759255464343 	  5.408636063908 	  1.564825688743 	
O	  7.759255464343 	  5.408636063908 	  4.544825688743 	
64 
Energy: 3.1886885432588148e+00 
Mg	  0.000000000000 	  0.000000000000 	  0.000000000000 	
Mg	  1.000000000000 	  0.000000000000 	  2.980000000000 	
Mg	  0.000000000000 	  3.980000000000 	  0.000000000000 	
Mg	  1.000000000000 	  3.980000000000 	  2.980000000000 	
Mg	  3.980000000000 	  0.000000000000 	  0.000000000000 	
Mg	  4.980000000000 	  0.000000000000 	  2.980000000000 	
Mg	  3.980000000000 	  3.980000000000 	  0.000000000000 	
Mg	  4.980000000000 	  3.980000000000 	  2.980000000000 	
Mg	  1.764030054887 	  1.845000266240 	  0.000000000000 	
Mg	  2.764030054887 	  1.845000266240 	  2.980000000000 	
Mg	  1.764030054887 	  5.825000266240 	  0.000000000000 	
Mg	  2.764030054887 	  5.825000266240 	  2.980000000000 	
Mg	  5.744030054887 	  1.845000266240 	  0.000000000000 	
Mg	  6.744030054887 	  1.845000266240 	  2.980000000000 	
Mg	  5.744030054887 	  5.825000266240 	  0.000000000000 	
Mg	  6.744030054887 	  5.825000266240 	  2.980000000000 	
Mg	  2.411791745706 	  0.000000000000 	  1.602089632183 	
Mg	  3.411791745706 	  0.000000000000 	  4.582089632183 	
Mg	  2.411791745706 	  3.980000000000 	  1.602089632183 	
Mg	  3.411791745706 	  3.980000000000 	  4.582089632183 	
Mg	  6.391791745706 	  0.000000000000 	  1.602089632183 	
Mg	  7.391791745706 	  0.000000000000 	  4.582089632183 	
Mg	  6.391791745706 	  3.980000000000 	  1.602089632183 	
Mg	  7.391791745706 	  3.980000000000 	  4.582089632183 	
Mg	  0.404851056762 	  2.006940688944 	  1.602089632183 	
Mg	  1.404851056762 	  2.006940688944 	  4.582089632183 	
Mg	  0.404851056762 	  5.986940688944 	  1.602089632183 	
Mg	  1.404851056762 	  5.986940688944 	  4.582089632183 	
Mg	  4.384851056762 	  2.006940688944 	  1.602089632183 	
Mg	  5.384851056762 	  2.006940688944 	  4.582089632183 	
Mg	  4.384851056762 	  5.986940688944 	  1.602089632183 	
Mg	  5.384851056762 	  5.986940688944 	  4.582089632183 	
O	  2.006940688944 	  0.000000000000 	  0.000000000000 	
O	  3.006940688944 	  0.000000000000 	  2.980000000000 	
O	  2.006940688944 	  3.980000000000 	  0.000000000000 	
O	  3.006940688944 	  3.980000000000 	  2.980000000000 	
O	  5.986940688944 	  0.000000000000 	  0.000000000000 	
O	  6.986940688944 	  0.000000000000 	  2.980000000000 	
O	  5.986940688944 	  3.980000000000 	  0.000000000000 	
O	  6.986940688944 	  3.980000000000 	  2.980000000000 	
O	  0.000000000000 	  2.006940688944 	  0.000000000000 	
O	  1.000000000000 	  2.006940688944 	  2.980000000000 	
O	  0.000000000000 	  5.986940688944 	  0.000000000000 	
O	  1.000000000000 	  5.986940688944 	  2.980000000000 	
O	  3.980000000000 	  2.006940688944 	  0.000000000000 	
O	  4.980000000000 	  2.006940688944 	  2.980000000000 	
O	  3.980000000000 	  5.986940688944 	  0.000000000000 	
O	  4.980000000000 	  5.986940688944 	  2.980000000000 	
O	  0.404851056762 	  0.000000000000 	  1.602089632183 	
O	  1.404851056762 	  0.000000000000 	  4.582089632183 	
O	  0.404851056762 	  3.980000000000 	  1.602089632183 	
O	  1.404851056762 	  3.980000000000 	  4.582089632183 	
O	  4.384851056762 	  0.000000000000 	  1.602089632183 	
O	  5.384851056762 	  0.000000000000 	  4.582089632183 	
O	  4.384851056762 	  3.980000000000 	  1.602089632183 	
O	  5.384851056762 	  3.980000000000 	  4.582089632183 	
O	  2.735672591115 	  1.474966400359 	  1.602089632183 	
O	  3.735672591115 	  1.474966400359 	  4.582089632183 	
O	  2.735672591115 	  5.454966400359 	  1.602089632183 	
O	  3.735672591115 	  5.454966400359 	  4.582089632183 	
O	  6.715672591115 	  1.474966400359 	  1.602089632183 	
O	  7.715672591115 	  1.474966400359 	  4.582089632183 	
O	  6.715672591115 	  5.454966400359 	  1.602089632183 	
O	  7.715672591115 	  5.454966400359 	  4.582089632183 	
64 
Energy: 3.8269361068580521e+00 
Mg	  0.000000000000 	  0.000000000000 	  0.000000000000 	
Mg	  1.000000000000 	  0.000000000000 	  2.980000000000 	
Mg	  0.000000000000 	  3.980000000000 	  0.000000000000 	
Mg	  1.000000000000 	  3.980000000000 	  2.980000000000 	
Mg	  3.980000000000 	  0.000000000000 	  0.000000000000 	
Mg	  4.980000000000 	  0.000000000000 	  2.980000000000 	
Mg	  3.980000000000 	  3.980000000000 	  0.000000000000 	
Mg	  4.980000000000 	  3.980000000000 	  2.980000000000 	
Mg	  1.789778372541 	  1.864970481069 	  0.000000000000 	
Mg	  2.789778372541 	  1.864970481069 	  2.980000000000 	
Mg	  1.789778372541 	  5.844970481069 	  0.000000000000 	
Mg	  2.789778372541 	  5.844970481069 	  2.980000000000 	
Mg	  5.769778372541 	  1.864970481069 	  0.000000000000 	
Mg	  6.769778372541 	  1.864970481069 	  2.980000000000 	
Mg	  5.769778372541 	  5.844970481069 	  0.000000000000 	
Mg	  6.769778372541 	  5.844970481069 	  2.980000000000 	
Mg	  2.391315240764 	  0.000000000000 	  1.639394155485 	
Mg	  3.391315240764 	  0.000000000000 	  4.619394155485 	
Mg	  2.391315240764 	  3.980000000000 	  1.639394155485 	
Mg	  3.391315240764 	  3.980000000000 	  4.619394155485 	
Mg	  6.371315240764 	  0.000000000000 	  1.639394155485 	
Mg	  7.371315240764 	  0.000000000000 	  4.619394155485 	
Mg	  6.371315240764 	  3.980000000000 	  1.639394155485 	
Mg	  7.371315240764 	  3.980000000000 	  4.619394155485 	
Mg	  0.375960542640 	  2.015354698125 	  1.639394155485 	
Mg	  1.375960542640 	  2.015354698125 	  4.619394155485 	
Mg	  0.375960542640 	  5.995354698125 	  1.639394155485 	
Mg	  1.375960542640 	  5.995354698125 	  4.619394155485 	
Mg	  4.355960542640 	  2.015354698125 	  1.639394155485 	
Mg	  5.355960542640 	  2.015354698125 	  4.619394155485 	
Mg	  4.355960542640 	  5.995354698125 	  1.639394155485 	
Mg	  5.355960542640 	  5.995354698125 	  4.619394155485 	
O	  2.015354698125 	  0.000000000000 	  0.000000000000 	
O	  3.015354698125 	  0.000000000000 	  2.980000000000 	
O	  2.015354698125 	  3.980000000000 	  0.000000000000 	
O	  3.015354698125 	  3.980000000000 	  2.980000000000 	
O	  5.995354698125 	  0.000000000000 	  0.000000000000 	
O	  6.995354698125 	  0.000000000000 	  2.980000000000 	
O	  5.995354698125 	  3.980000000000 	  0.000000000000 	
O	  6.995354698125 	  3.980000000000 	  2.980000000000 	
O	  0.000000000000 	  2.015354698125 	  0.000000000000 	
O	  1.000000000000 	  2.015354698125 	  2.980000000000 	
O	  0.000000000000 	  5.995354698125 	  0.000000000000 	
O	  1.000000000000 	  5.995354698125 	  2.980000000000 	
O	  3.980000000000 	  2.015354698125 	  0.000000000000 	
O	  4.980000000000 	  2.015354698125 	  2.980000000000 	
O	  3.980000000000 	  5.995354698125 	  0.000000000000 	
O	  4.980000000000 	  5.995354698125 	  2.980000000000 	
O	  0.375960542640 	  0.000000000000 	  1.639394155485 	
O	  1.375960542640 	  0.000000000000 	  4.619394155485 	
O	  0.375960542640 	  3.980000000000 	  1.639394155485 	
O	  1.375960542640 	  3.980000000000 	  4.619394155485 	
O	  4.355960542640 	  0.000000000000 	  1.639394155485 	
O	  5.355960542640 	  0.000000000000 	  4.619394155485 	
O	  4.355960542640 	  3.980000000000 	  1.639394155485 	
O	  5.355960542640 	  3.980000000000 	  4.619394155485 	
O	  2.692083674876 	  1.521342545096 	  1.639394155485 	
O	  3.692083674876 	  1.521342545096 	  4.619394155485 	
O	  2.692083674876 	  5.501342545096 	  1.639394155485 	
O	  3.692083674876 	  5.501342545096 	  4.619394155485 	
O	  6.672083674876 	  1.521342545096 	  1.639394155485 	
O	  7.672083674876 	  1.521342545096 	  4.619394155485 	
O	  6.672083674876 	  5.501342545096 	  1.639394155485 	
O	  7.672083674876 	  5.501342545096 	  4.619394155485 	
64 
Energy: 4.4975301675408037e+00 
Mg	  0.000000000000 	  0.000000000000 	  0.000000000000 	
Mg	  1.000000000000 	  0.000000000000 	  2.980000000000 	
Mg	  0.000000000000 	  3.980000000000 	  0.000000000000 	
Mg	  1.000000000000 	  3.980000000000 	  2.980000000000 	
Mg	  3.980000000000 	  0.000000000000 	  0.000000000000 	
Mg	  4.980000000000 	  0.000000000000 	  2.980000000000 	
Mg	  3.980000000000 	  3.980000000000 	  0.000000000000 	
Mg	  4.980000000000 	  3.980000000000 	  2.980000000000 	
Mg	  1.815563738012 	  1.884970518931 	  0.000000000000 	
Mg	  2.815563738012 	  1.884970518931 	  2.980000000000 	
Mg	  1.815563738012 	  5.864970518931 	  0.000000000000 	
Mg	  2.815563738012 	  5.864970518931 	  2.980000000000 	
Mg	  5.795563738012 	  1.884970518931 	  0.000000000000 	
Mg	  6.795563738012 	  1.884970518931 	  2.980000000000 	
Mg	  5.795563738012 	  5.864970518931 	  0.000000000000 	
Mg	  6.795563738012 	  5.864970518931 	  2.980000000000 	
Mg	  2.370817985365 	  0.000000000000 	  1.676750176173 	
Mg	  3.370817985365 	  0.000000000000 	  4.656750176173 	
Mg	  2.370817985365 	  3.980000000000 	  1.676750176173 	
Mg	  3.370817985365 	  3.980000000000 	  4.656750176173 	
Mg	  6.350817985365 	  0.000000000000 	  1.676750176173 	
Mg	  7.350817985365 	  0.000000000000 	  4.656750176173 	
Mg	  6.350817985365 	  3.980000000000 	  1.676750176173 	
Mg	  7.350817985365 	  3.980000000000 	  4.656750176173 	
Mg	  0.347033904596 	  2.023784080769 	  1.676750176173 	
Mg	  1.347033904596 	  2.023784080769 	  4.656750176173 	
Mg	  0.347033904596 	  6.003784080769 	  1.676750176173 	
Mg	  1.347033904596 	  6.003784080769 	  4.656750176173 	
Mg	  4.327033904596 	  2.023784080769 	  1.676750176173 	
Mg	  5.327033904596 	  2.023784080769 	  4.656750176173 	
Mg	  4.327033904596 	  6.003784080769 	  1.676750176173 	
Mg	  5.327033904596 	  6.003784080769 	  4.656750176173 	
O	  2.023784080769 	  0.000000000000 	  0.000000000000 	
O	  3.023784080769 	  0.000000000000 	  2.980000000000 	
O	  2.023784080769 	  3.980000000000 	  0.000000000000 	
O	  3.023784080769 	  3.980000000000 	  2.980000000000 	
O	  6.003784080769 	  0.000000000000 	  0.000000000000 	
O	  7.003784080769 	  0.000000000000 	  2.980000000000 	
O	  6.003784080769 	  3.980000000000 	  0.000000000000 	
O	  7.003784080769 	  3.980000000000 	  2.980000000000 	
O	  0.000000000000 	  2.023784080769 	  0.000000000000 	
O	  1.000000000000 	  2.023784080769 	  2.980000000000 	
O	  0.000000000000 	  6.003784080769 	  0.000000000000 	
O	  1.000000000000 	  6.003784080769 	  2.980000000000 	
O	  3.980000000000 	  2.023784080769 	  0.000000000000 	
O	  4.980000000000 	  2.023784080769 	  2.980000000000 	
O	  3.980000000000 	  6.003784080769 	  0.000000000000 	
O	  4.980000000000 	  6.003784080769 	  2.980000000000 	
O	  0.347033904596 	  0.000000000000 	  1.676750176173 	
O	  1.347033904596 	  0.000000000000 	  4.656750176173 	
O	  0.347033904596 	  3.980000000000 	  1.676750176173 	
O	  1.347033904596 	  3.980000000000 	  4.656750176173 	
O	  4.327033904596 	  0.000000000000 	  1.676750176173 	
O	  5.327033904596 	  0.000000000000 	  4.656750176173 	
O	  4.327033904596 	  3.980000000000 	  1.676750176173 	
O	  5.327033904596 	  3.980000000000 	  4.656750176173 	
O	  2.648445109042 	  1.567781530130 	  1.676750176173 	
O	  3.648445109042 	  1.567781530130 	  4.656750176173 	
O	  2.648445109042 	  5.547781530130 	  1.676750176173 	
O	  3.648445109042 	  5.547781530130 	  4.656750176173 	
O	  6.628445109042 	  1.567781530130 	  1.676750176173 	
O	  7.628445109042 	  1.567781530130 	  4.656750176173 	
O	  6.628445109042 	  5.547781530130 	  1.676750176173 	
O	  7.628445109042 	  5.547781530130 	  4.656750176173 	
64 
Energy: 5.0856105670295495e+00 
Mg	  0.000000000000 	  0.000000000000 	  0.000000000000 	
Mg	  1.000000000000 	  0.000000000000 	  2.980000000000 	
Mg	  0.000000000000 	  3.980000000000 	  0.000000000000 	
Mg	  1.000000000000 	  3.980000000000 	  2.980000000000 	
Mg	  3.980000000000 	  0.000000000000 	  0.000000000000 	
Mg	  4.980000000000 	  0.000000000000 	  2.980000000000 	
Mg	  3.980000000000 	  3.980000000000 	  0.000000000000 	
Mg	  4.980000000000 	  3.980000000000 	  2.980000000000 	
Mg	  1.841372086415 	  1.904990021800 	  0.000000000000 	
Mg	  2.841372086415 	  1.904990021800 	  2.980000000000 	
Mg	  1.841372086415 	  5.884990021800 	  0.000000000000 	
Mg	  2.841372086415 	  5.884990021800 	  2.980000000000 	
Mg	  5.821372086415 	  1.904990021800 	  0.000000000000 	
Mg	  6.821372086415 	  1.904990021800 	  2.980000000000 	
Mg	  5.821372086415 	  5.884990021800 	  0.000000000000 	
Mg	  6.821372086415 	  5.884990021800 	  2.980000000000 	
Mg	  2.350315569496 	  0.000000000000 	  1.714136215645 	
Mg	  3.350315569496 	  0.000000000000 	  4.694136215645 	
Mg	  2.350315569496 	  3.980000000000 	  1.714136215645 	
Mg	  3.350315569496 	  3.980000000000 	  4.694136215645 	
Mg	  6.330315569496 	  0.000000000000 	  1.714136215645 	
Mg	  7.330315569496 	  0.000000000000 	  4.694136215645 	
Mg	  6.330315569496 	  3.980000000000 	  1.714136215645 	
Mg	  7.330315569496 	  3.980000000000 	  4.694136215645 	
Mg	  0.318089676926 	  2.032225892570 	  1.714136215645 	
Mg	  1.318089676926 	  2.032225892570 	  4.694136215645 	
Mg	  0.318089676926 	  6.012225892570 	  1.714136215645 	
Mg	  1.318089676926 	  6.012225892570 	  4.694136215645 	
Mg	  4.298089676926 	  2.032225892570 	  1.714136215645 	
Mg	  5.298089676926 	  2.032225892570 	  4.694136215645 	
Mg	  4.298089676926 	  6.012225892570 	  1.714136215645 	
Mg	  5.298089676926 	  6.012225892570 	  4.694136215645 	
O	  2.032225892570 	  0.000000000000 	  0.000000000000 	
O	  3.032225892570 	  0.000000000000 	  2.980000000000 	
O	  2.032225892570 	  3.980000000000 	  0.000000000000 	
O	  3.032225892570 	  3.980000000000 	  2.980000000000 	
O	  6.012225892570 	  0.000000000000 	  0.000000000000 	
O	  7.012225892570 	  0.000000000000 	  2.980000000000 	
O	  6.012225892570 	  3.980000000000 	  0.000000000000 	
O	  7.012225892570 	  3.980000000000 	  2.980000000000 	
O	  0.000000000000 	  2.032225892570 	  0.000000000000 	
O	  1.000000000000 	  2.032225892570 	  2.980000000000 	
O	  0.000000000000 	  6.012225892570 	  0.000000000000 	
O	  1.000000000000 	  6.012225892570 	  2.980000000000 	
O	  3.980000000000 	  2.032225892570 	  0.000000000000 	
O	  4.980000000000 	  2.032225892570 	  2.980000000000 	
O	  3.980000000000 	  6.012225892570 	  0.000000000000 	
O	  4.980000000000 	  6.012225892570 	  2.980000000000 	
O	  0.318089676926 	  0.000000000000 	  1.714136215645 	
O	  1.318089676926 	  0.000000000000 	  4.694136215645 	
O	  0.318089676926 	  3.980000000000 	  1.714136215645 	
O	  1.318089676926 	  3.980000000000 	  4.694136215645 	
O	  4.298089676926 	  0.000000000000 	  1.714136215645 	
O	  5.298089676926 	  0.000000000000 	  4.694136215645 	
O	  4.298089676926 	  3.980000000000 	  1.714136215645 	
O	  5.298089676926 	  3.980000000000 	  4.694136215645 	
O	  2.604787311037 	  1.614256057090 	  1.714136215645 	
O	  3.604787311037 	  1.614256057090 	  4.694136215645 	
O	  2.604787311037 	  5.594256057090 	  1.714136215645 	
O	  3.604787311037 	  5.594256057090 	  4.694136215645 	
O	  6.584787311037 	  1.614256057090 	  1.714136215645 	
O	  7.584787311037 	  1.614256057090 	  4.694136215645 	
O	  6.584787311037 	  5.594256057090 	  1.714136215645 	
O	  7.584787311037 	  5.594256057090 	  4.694136215645 	
64 
Energy: 5.5105295485728467e+00 
Mg	  0.000000000000 	  0.000000000000 	  0.000000000000 	
Mg	  1.000000000000 	  0.000000000000 	  2.980000000000 	
Mg	  0.000000000000 	  3.980000000000 	  0.000000000000 	
Mg	  1.000000000000 	  3.980000000000 	  2.980000000000 	
Mg	  3.980000000000 	  0.000000000000 	  0.000000000000 	
Mg	  4.980000000000 	  0.000000000000 	  2.980000000000 	
Mg	  3.980000000000 	  3.980000000000 	  0.000000000000 	
Mg	  4.980000000000 	  3.980000000000 	  2.980000000000 	
Mg	  1.867197259569 	  1.925023362562 	  0.000000000000 	
Mg	  2.867197259569 	  1.925023362562 	  2.980000000000 	
Mg	  1.867197259569 	  5.905023362562 	  0.000000000000 	
Mg	  2.867197259569 	  5.905023362562 	  2.980000000000 	
Mg	  5.847197259569 	  1.925023362562 	  0.000000000000 	
Mg	  6.847197259569 	  1.925023362562 	  2.980000000000 	
Mg	  5.847197259569 	  5.905023362562 	  0.000000000000 	
Mg	  6.847197259569 	  5.905023362562 	  2.980000000000 	
Mg	  2.329806083510 	  0.000000000000 	  1.751545053584 	
Mg	  3.329806083510 	  0.000000000000 	  4.731545053584 	
Mg	  2.329806083510 	  3.980000000000 	  1.751545053584 	
Mg	  3.329806083510 	  3.980000000000 	  4.731545053584 	
Mg	  6.309806083510 	  0.000000000000 	  1.751545053584 	
Mg	  7.309806083510 	  0.000000000000 	  4.731545053584 	
Mg	  6.309806083510 	  3.980000000000 	  1.751545053584 	
Mg	  7.309806083510 	  3.980000000000 	  4.731545053584 	
Mg	  0.289130514963 	  2.040675568547 	  1.751545053584 	
Mg	  1.289130514963 	  2.040675568547 	  4.731545053584 	
Mg	  0.289130514963 	  6.020675568547 	  1.751545053584 	
Mg	  1.289130514963 	  6.020675568547 	  4.731545053584 	
Mg	  4.269130514963 	  2.040675568547 	  1.751545053584 	
Mg	  5.269130514963 	  2.040675568547 	  4.731545053584 	
Mg	  4.269130514963 	  6.020675568547 	  1.751545053584 	
Mg	  5.269130514963 	  6.020675568547 	  4.731545053584 	
O	  2.040675568547 	  0.000000000000 	  0.000000000000 	
O	  3.040675568547 	  0.000000000000 	  2.980000000000 	
O	  2.040675568547 	  3.980000000000 	  0.000000000000 	
O	  3.040675568547 	  3.980000000000 	  2.980000000000 	
O	  6.020675568547 	  0.000000000000 	  0.000000000000 	
O	  7.020675568547 	  0.000000000000 	  2.980000000000 	
O	  6.020675568547 	  3.980000000000 	  0.000000000000 	
O	  7.020675568547 	  3.980000000000 	  2.980000000000 	
O	  0.000000000000 	  2.040675568547 	  0.000000000000 	
O	  1.000000000000 	  2.040675568547 	  2.980000000000 	
O	  0.000000000000 	  6.020675568547 	  0.000000000000 	
O	  1.000000000000 	  6.020675568547 	  2.980000000000 	
O	  3.980000000000 	  2.040675568547 	  0.000000000000 	
O	  4.980000000000 	  2.040675568547 	  2.980000000000 	
O	  3.980000000000 	  6.020675568547 	  0.000000000000 	
O	  4.980000000000 	  6.020675568547 	  2.980000000000 	
O	  0.289130514963 	  0.000000000000 	  1.751545053584 	
O	  1.289130514963 	  0.000000000000 	  4.731545053584 	
O	  0.289130514963 	  3.980000000000 	  1.751545053584 	
O	  1.289130514963 	  3.980000000000 	  4.731545053584 	
O	  4.269130514963 	  0.000000000000 	  1.751545053584 	
O	  5.269130514963 	  0.000000000000 	  4.731545053584 	
O	  4.269130514963 	  3.980000000000 	  1.751545053584 	
O	  5.269130514963 	  3.980000000000 	  4.731545053584 	
O	  2.561110495480 	  1.660758071885 	  1.751545053584 	
O	  3.561110495480 	  1.660758071885 	  4.731545053584 	
O	  2.561110495480 	  5.640758071885 	  1.751545053584 	
O	  3.561110495480 	  5.640758071885 	  4.731545053584 	
O	  6.541110495480 	  1.660758071885 	  1.751545053584 	
O	  7.541110495480 	  1.660758071885 	  4.731545053584 	
O	  6.541110495480 	  5.640758071885 	  1.751545053584 	
O	  7.541110495480 	  5.640758071885 	  4.731545053584 	
64 
Energy: 5.7190796819604950e+00 
Mg	  0.000000000000 	  0.000000000000 	  0.000000000000 	
Mg	  1.000000000000 	  0.000000000000 	  2.980000000000 	
Mg	  0.000000000000 	  3.980000000000 	  0.000000000000 	
Mg	  1.000000000000 	  3.980000000000 	  2.980000000000 	
Mg	  3.980000000000 	  0.000000000000 	  0.000000000000 	
Mg	  4.980000000000 	  0.000000000000 	  2.980000000000 	
Mg	  3.980000000000 	  3.980000000000 	  0.000000000000 	
Mg	  4.980000000000 	  3.980000000000 	  2.980000000000 	
Mg	  1.893030840295 	  1.945063805219 	  0.000000000000 	
Mg	  2.893030840295 	  1.945063805219 	  2.980000000000 	
Mg	  1.893030840295 	  5.925063805219 	  0.000000000000 	
Mg	  2.893030840295 	  5.925063805219 	  2.980000000000 	
Mg	  5.873030840295 	  1.945063805219 	  0.000000000000 	
Mg	  6.873030840295 	  1.945063805219 	  2.980000000000 	
Mg	  5.873030840295 	  5.925063805219 	  0.000000000000 	
Mg	  6.873030840295 	  5.925063805219 	  2.980000000000 	
Mg	  2.309294559684 	  0.000000000000 	  1.788964910448 	
Mg	  3.309294559684 	  0.000000000000 	  4.768964910448 	
Mg	  2.309294559684 	  3.980000000000 	  1.788964910448 	
Mg	  3.309294559684 	  3.980000000000 	  4.768964910448 	
Mg	  6.289294559684 	  0.000000000000 	  1.788964910448 	
Mg	  7.289294559684 	  0.000000000000 	  4.768964910448 	
Mg	  6.289294559684 	  3.980000000000 	  1.788964910448 	
Mg	  7.289294559684 	  3.980000000000 	  4.768964910448 	
Mg	  0.260164824618 	  2.049129735066 	  1.788964910448 	
Mg	  1.260164824618 	  2.049129735066 	  4.768964910448 	
Mg	  0.260164824618 	  6.029129735066 	  1.788964910448 	
Mg	  1.260164824618 	  6.029129735066 	  4.768964910448 	
Mg	  4.240164824618 	  2.049129735066 	  1.788964910448 	
Mg	  5.240164824618 	  2.049129735066 	  4.768964910448 	
Mg	  4.240164824618 	  6.029129735066 	  1.788964910448 	
Mg	  5.240164824618 	  6.029129735066 	  4.768964910448 	
O	  2.049129735066 	  0.000000000000 	  0.000000000000 	
O	  3.049129735066 	  0.000000000000 	  2.980000000000 	
O	  2.049129735066 	  3.980000000000 	  0.000000000000 	
O	  3.049129735066 	  3.980000000000 	  2.980000000000 	
O	  6.029129735066 	  0.000000000000 	  0.000000000000 	
O	  7.029129735066 	  0.000000000000 	  2.980000000000 	
O	  6.029129735066 	  3.980000000000 	  0.000000000000 	
O	  7.029129735066 	  3.980000000000 	  2.980000000000 	
O	  0.000000000000 	  2.049129735066 	  0.000000000000 	
O	  1.000000000000 	  2.049129735066 	  2.980000000000 	
O	  0.000000000000 	  6.029129735066 	  0.000000000000 	
O	  1.000000000000 	  6.029129735066 	  2.980000000000 	
O	  3.980000000000 	  2.049129735066 	  0.000000000000 	
O	  4.980000000000 	  2.049129735066 	  2.980000000000 	
O	  3.980000000000 	  6.029129735066 	  0.000000000000 	
O	  4.980000000000 	  6.029129735066 	  2.980000000000 	
O	  0.260164824618 	  0.000000000000 	  1.788964910448 	
O	  1.260164824618 	  0.000000000000 	  4.768964910448 	
O	  0.260164824618 	  3.980000000000 	  1.788964910448 	
O	  1.260164824618 	  3.980000000000 	  4.768964910448 	
O	  4.240164824618 	  0.000000000000 	  1.788964910448 	
O	  5.240164824618 	  0.000000000000 	  4.768964910448 	
O	  4.240164824618 	  3.980000000000 	  1.788964910448 	
O	  5.240164824618 	  3.980000000000 	  4.768964910448 	
O	  2.517426419379 	  1.707273155517 	  1.788964910448 	
O	  3.517426419379 	  1.707273155517 	  4.768964910448 	
O	  2.517426419379 	  5.687273155517 	  1.788964910448 	
O	  3.517426419379 	  5.687273155517 	  4.768964910448 	
O	  6.497426419379 	  1.707273155517 	  1.788964910448 	
O	  7.497426419379 	  1.707273155517 	  4.768964910448 	
O	  6.497426419379 	  5.687273155517 	  1.788964910448 	
O	  7.497426419379 	  5.687273155517 	  4.768964910448 	
64 
Energy: 5.6791061670898841e+00 
Mg	  0.000000000000 	  0.000000000000 	  0.000000000000 	
Mg	  1.000000000000 	  0.000000000000 	  2.980000000000 	
Mg	  0.000000000000 	  3.980000000000 	  0.000000000000 	
Mg	  1.000000000000 	  3.980000000000 	  2.980000000000 	
Mg	  3.980000000000 	  0.000000000000 	  0.000000000000 	
Mg	  4.980000000000 	  0.000000000000 	  2.980000000000 	
Mg	  3.980000000000 	  3.980000000000 	  0.000000000000 	
Mg	  4.980000000000 	  3.980000000000 	  2.980000000000 	
Mg	  1.918866175602 	  1.965105593145 	  0.000000000000 	
Mg	  2.918866175602 	  1.965105593145 	  2.980000000000 	
Mg	  1.918866175602 	  5.945105593145 	  0.000000000000 	
Mg	  2.918866175602 	  5.945105593145 	  2.980000000000 	
Mg	  5.898866175602 	  1.965105593145 	  0.000000000000 	
Mg	  6.898866175602 	  1.965105593145 	  2.980000000000 	
Mg	  5.898866175602 	  5.945105593145 	  0.000000000000 	
Mg	  6.898866175602 	  5.945105593145 	  2.980000000000 	
Mg	  2.288781515949 	  0.000000000000 	  1.826387340515 	
Mg	  3.288781515949 	  0.000000000000 	  4.806387340515 	
Mg	  2.288781515949 	  3.980000000000 	  1.826387340515 	
Mg	  3.288781515949 	  3.980000000000 	  4.806387340515 	
Mg	  6.268781515949 	  0.000000000000 	  1.826387340515 	
Mg	  7.268781515949 	  0.000000000000 	  4.806387340515 	
Mg	  6.268781515949 	  3.980000000000 	  1.826387340515 	
Mg	  7.268781515949 	  3.980000000000 	  4.806387340515 	
Mg	  0.231197087717 	  2.057584428232 	  1.826387340515 	
Mg	  1.231197087717 	  2.057584428232 	  4.806387340515 	
Mg	  0.231197087717 	  6.037584428232 	  1.826387340515 	
Mg	  1.231197087717 	  6.037584428232 	  4.806387340515 	
Mg	  4.211197087717 	  2.057584428232 	  1.826387340515 	
Mg	  5.211197087717 	  2.057584428232 	  4.806387340515 	
Mg	  4.211197087717 	  6.037584428232 	  1.826387340515 	
Mg	  5.211197087717 	  6.037584428232 	  4.806387340515 	
O	  2.057584428232 	  0.000000000000 	  0.000000000000 	
O	  3.057584428232 	  0.000000000000 	  2.980000000000 	
O	  2.057584428232 	  3.980000000000 	  0.000000000000 	
O	  3.057584428232 	  3.980000000000 	  2.980000000000 	
O	  6.037584428232 	  0.000000000000 	  0.000000000000 	
O	  7.037584428232 	  0.000000000000 	  2.980000000000 	
O	  6.037584428232 	  3.980000000000 	  0.000000000000 	
O	  7.037584428232 	  3.980000000000 	  2.980000000000 	
O	  0.000000000000 	  2.057584428232 	  0.000000000000 	
O	  1.000000000000 	  2.057584428232 	  2.980000000000 	
O	  0.000000000000 	  6.037584428232 	  0.000000000000 	
O	  1.000000000000 	  6.037584428232 	  2.980000000000 	
O	  3.980000000000 	  2.057584428232 	  0.000000000000 	
O	  4.980000000000 	  2.057584428232 	  2.980000000000 	
O	  3.980000000000 	  6.037584428232 	  0.000000000000 	
O	  4.980000000000 	  6.037584428232 	  2.980000000000 	
O	  0.231197087717 	  0.000000000000 	  1.826387340515 	
O	  1.231197087717 	  0.000000000000 	  4.806387340515 	
O	  0.231197087717 	  3.980000000000 	  1.826387340515 	
O	  1.231197087717 	  3.980000000000 	  4.806387340515 	
O	  4.211197087717 	  0.000000000000 	  1.826387340515 	
O	  5.211197087717 	  0.000000000000 	  4.806387340515 	
O	  4.211197087717 	  3.980000000000 	  1.826387340515 	
O	  5.211197087717 	  3.980000000000 	  4.806387340515 	
O	  2.473739186123 	  1.753791454972 	  1.826387340515 	
O	  3.473739186123 	  1.753791454972 	  4.806387340515 	
O	  2.473739186123 	  5.733791454972 	  1.826387340515 	
O	  3.473739186123 	  5.733791454972 	  4.806387340515 	
O	  6.453739186123 	  1.753791454972 	  1.826387340515 	
O	  7.453739186123 	  1.753791454972 	  4.806387340515 	
O	  6.453739186123 	  5.733791454972 	  1.826387340515 	
O	  7.453739186123 	  5.733791454972 	  4.806387340515 	
64 
Energy: 5.3784385605031479e+00 
Mg	  0.000000000000 	  0.000000000000 	  0.000000000000 	
Mg	  1.000000000000 	  0.000000000000 	  2.980000000000 	
Mg	  0.000000000000 	  3.980000000000 	  0.000000000000 	
Mg	  1.000000000000 	  3.980000000000 	  2.980000000000 	
Mg	  3.980000000000 	  0.000000000000 	  0.000000000000 	
Mg	  4.980000000000 	  0.000000000000 	  2.980000000000 	
Mg	  3.980000000000 	  3.980000000000 	  0.000000000000 	
Mg	  4.980000000000 	  3.980000000000 	  2.980000000000 	
Mg	  1.944697523947 	  1.985144373107 	  0.000000000000 	
Mg	  2.944697523947 	  1.985144373107 	  2.980000000000 	
Mg	  1.944697523947 	  5.965144373107 	  0.000000000000 	
Mg	  2.944697523947 	  5.965144373107 	  2.980000000000 	
Mg	  5.924697523947 	  1.985144373107 	  0.000000000000 	
Mg	  6.924697523947 	  1.985144373107 	  2.980000000000 	
Mg	  5.924697523947 	  5.965144373107 	  0.000000000000 	
Mg	  6.924697523947 	  5.965144373107 	  2.980000000000 	
Mg	  2.268272317229 	  0.000000000000 	  1.863803825626 	
Mg	  3.268272317229 	  0.000000000000 	  4.843803825626 	
Mg	  2.268272317229 	  3.980000000000 	  1.863803825626 	
Mg	  3.268272317229 	  3.980000000000 	  4.843803825626 	
Mg	  6.248272317229 	  0.000000000000 	  1.863803825626 	
Mg	  7.248272317229 	  0.000000000000 	  4.843803825626 	
Mg	  6.248272317229 	  3.980000000000 	  1.863803825626 	
Mg	  7.248272317229 	  3.980000000000 	  4.843803825626 	
Mg	  0.202234245801 	  2.066038071428 	  1.863803825626 	
Mg	  1.202234245801 	  2.066038071428 	  4.843803825626 	
Mg	  0.202234245801 	  6.046038071428 	  1.863803825626 	
Mg	  1.202234245801 	  6.046038071428 	  4.843803825626 	
Mg	  4.182234245801 	  2.066038071428 	  1.863803825626 	
Mg	  5.182234245801 	  2.066038071428 	  4.843803825626 	
Mg	  4.182234245801 	  6.046038071428 	  1.863803825626 	
Mg	  5.182234245801 	  6.046038071428 	  4.843803825626 	
O	  2.066038071428 	  0.000000000000 	  0.000000000000 	
O	  3.066038071428 	  0.000000000000 	  2.980000000000 	
O	  2.066038071428 	  3.980000000000 	  0.000000000000 	
O	  3.066038071428 	  3.980000000000 	  2.980000000000 	
O	  6.046038071428 	  0.000000000000 	  0.000000000000 	
O	  7.046038071428 	  0.000000000000 	  2.980000000000 	
O	  6.046038071428 	  3.980000000000 	  0.000000000000 	
O	  7.046038071428 	  3.980000000000 	  2.980000000000 	
O	  0.000000000000 	  2.066038071428 	  0.000000000000 	
O	  1.000000000000 	  2.066038071428 	  2.980000000000 	
O	  0.000000000000 	  6.046038071428 	  0.000000000000 	
O	  1.000000000000 	  6.046038071428 	  2.980000000000 	
O	  3.980000000000 	  2.066038071428 	  0.000000000000 	
O	  4.980000000000 	  2.066038071428 	  2.980000000000 	
O	  3.980000000000 	  6.046038071428 	  0.000000000000 	
O	  4.980000000000 	  6.046038071428 	  2.980000000000 	
O	  0.202234245801 	  0.000000000000 	  1.863803825626 	
O	  1.202234245801 	  0.000000000000 	  4.843803825626 	
O	  0.202234245801 	  3.980000000000 	  1.863803825626 	
O	  1.202234245801 	  3.980000000000 	  4.843803825626 	
O	  4.182234245801 	  0.000000000000 	  1.863803825626 	
O	  5.182234245801 	  0.000000000000 	  4.843803825626 	
O	  4.182234245801 	  3.980000000000 	  1.863803825626 	
O	  5.182234245801 	  3.980000000000 	  4.843803825626 	
O	  2.430059713870 	  1.800302272445 	  1.863803825626 	
O	  3.430059713870 	  1.800302272445 	  4.843803825626 	
O	  2.430059713870 	  5.780302272445 	  1.863803825626 	
O	  3.430059713870 	  5.780302272445 	  4.843803825626 	
O	  6.410059713870 	  1.800302272445 	  1.863803825626 	
O	  7.410059713870 	  1.800302272445 	  4.843803825626 	
O	  6.410059713870 	  5.780302272445 	  1.863803825626 	
O	  7.410059713870 	  5.780302272445 	  4.843803825626 	
64 
Energy: 4.8241590783743797e+00 
Mg	  0.000000000000 	  0.000000000000 	  0.000000000000 	
Mg	  1.000000000000 	  0.000000000000 	  2.980000000000 	
Mg	  0.000000000000 	  3.980000000000 	  0.000000000000 	
Mg	  1.000000000000 	  3.980000000000 	  2.980000000000 	
Mg	  3.980000000000 	  0.000000000000 	  0.000000000000 	
Mg	  4.980000000000 	  0.000000000000 	  2.980000000000 	
Mg	  3.980000000000 	  3.980000000000 	  0.000000000000 	
Mg	  4.980000000000 	  3.980000000000 	  2.980000000000 	
Mg	  1.970519420020 	  2.005175802775 	  0.000000000000 	
Mg	  2.970519420020 	  2.005175802775 	  2.980000000000 	
Mg	  1.970519420020 	  5.985175802775 	  0.000000000000 	
Mg	  2.970519420020 	  5.985175802775 	  2.980000000000 	
Mg	  5.950519420020 	  2.005175802775 	  0.000000000000 	
Mg	  6.950519420020 	  2.005175802775 	  2.980000000000 	
Mg	  5.950519420020 	  5.985175802775 	  0.000000000000 	
Mg	  6.950519420020 	  5.985175802775 	  2.980000000000 	
Mg	  2.247770482062 	  0.000000000000 	  1.901206654509 	
Mg	  3.247770482062 	  0.000000000000 	  4.881206654509 	
Mg	  2.247770482062 	  3.980000000000 	  1.901206654509 	
Mg	  3.247770482062 	  3.980000000000 	  4.881206654509 	
Mg	  6.227770482062 	  0.000000000000 	  1.901206654509 	
Mg	  7.227770482062 	  0.000000000000 	  4.881206654509 	
Mg	  6.227770482062 	  3.980000000000 	  1.901206654509 	
Mg	  7.227770482062 	  3.980000000000 	  4.881206654509 	
Mg	  0.173281913776 	  2.074488568285 	  1.901206654509 	
Mg	  1.173281913776 	  2.074488568285 	  4.881206654509 	
Mg	  0.173281913776 	  6.054488568285 	  1.901206654509 	
Mg	  1.173281913776 	  6.054488568285 	  4.881206654509 	
Mg	  4.153281913776 	  2.074488568285 	  1.901206654509 	
Mg	  5.153281913776 	  2.074488568285 	  4.881206654509 	
Mg	  4.153281913776 	  6.054488568285 	  1.901206654509 	
Mg	  5.153281913776 	  6.054488568285 	  4.881206654509 	
O	  2.074488568285 	  0.000000000000 	  0.000000000000 	
O	  3.074488568285 	  0.000000000000 	  2.980000000000 	
O	  2.074488568285 	  3.980000000000 	  0.000000000000 	
O	  3.074488568285 	  3.980000000000 	  2.980000000000 	
O	  6.054488568285 	  0.000000000000 	  0.000000000000 	
O	  7.054488568285 	  0.000000000000 	  2.980000000000 	
O	  6.054488568285 	  3.980000000000 	  0.000000000000 	
O	  7.054488568285 	  3.980000000000 	  2.980000000000 	
O	  0.000000000000 	  2.074488568285 	  0.000000000000 	
O	  1.000000000000 	  2.074488568285 	  2.980000000000 	
O	  0.000000000000 	  6.054488568285 	  0.000000000000 	
O	  1.000000000000 	  6.054488568285 	  2.980000000000 	
O	  3.980000000000 	  2.074488568285 	  0.000000000000 	
O	  4.980000000000 	  2.074488568285 	  2.980000000000 	
O	  3.980000000000 	  6.054488568285 	  0.000000000000 	
O	  4.980000000000 	  6.054488568285 	  2.980000000000 	
O	  0.173281913776 	  0.000000000000 	  1.901206654509 	
O	  1.173281913776 	  0.000000000000 	  4.881206654509 	
O	  0.173281913776 	  3.980000000000 	  1.901206654509 	
O	  1.173281913776 	  3.980000000000 	  4.881206654509 	
O	  4.153281913776 	  0.000000000000 	  1.901206654509 	
O	  5.153281913776 	  0.000000000000 	  4.881206654509 	
O	  4.153281913776 	  3.980000000000 	  1.901206654509 	
O	  5.153281913776 	  3.980000000000 	  4.881206654509 	
O	  2.386396013082 	  1.846796133584 	  1.901206654509 	
O	  3.386396013082 	  1.846796133584 	  4.881206654509 	
O	  2.386396013082 	  5.826796133584 	  1.901206654509 	
O	  3.386396013082 	  5.826796133584 	  4.881206654509 	
O	  6.366396013082 	  1.846796133584 	  1.901206654509 	
O	  7.366396013082 	  1.846796133584 	  4.881206654509 	
O	  6.366396013082 	  5.826796133584 	  1.901206654509 	
O	  7.366396013082 	  5.826796133584 	  4.881206654509 	
64 
Energy: 4.0452110779161634e+00 
Mg	  0.000000000000 	  0.000000000000 	  0.000000000000 	
Mg	  1.000000000000 	  0.000000000000 	  2.980000000000 	
Mg	  0.000000000000 	  3.980000000000 	  0.000000000000 	
Mg	  1.000000000000 	  3.980000000000 	  2.980000000000 	
Mg	  3.980000000000 	  0.000000000000 	  0.000000000000 	
Mg	  4.980000000000 	  0.000000000000 	  2.980000000000 	
Mg	  3.980000000000 	  3.980000000000 	  0.000000000000 	
Mg	  4.980000000000 	  3.980000000000 	  2.980000000000 	
Mg	  1.996326672060 	  2.025195665911 	  0.000000000000 	
Mg	  2.996326672060 	  2.025195665911 	  2.980000000000 	
Mg	  1.996326672060 	  6.005195665911 	  0.000000000000 	
Mg	  2.996326672060 	  6.005195665911 	  2.980000000000 	
Mg	  5.976326672060 	  2.025195665911 	  0.000000000000 	
Mg	  6.976326672060 	  2.025195665911 	  2.980000000000 	
Mg	  5.976326672060 	  6.005195665911 	  0.000000000000 	
Mg	  6.976326672060 	  6.005195665911 	  2.980000000000 	
Mg	  2.227278622873 	  0.000000000000 	  1.938588684356 	
Mg	  3.227278622873 	  0.000000000000 	  4.918588684356 	
Mg	  2.227278622873 	  3.980000000000 	  1.938588684356 	
Mg	  3.227278622873 	  3.980000000000 	  4.918588684356 	
Mg	  6.207278622873 	  0.000000000000 	  1.938588684356 	
Mg	  7.207278622873 	  0.000000000000 	  4.918588684356 	
Mg	  6.207278622873 	  3.980000000000 	  1.938588684356 	
Mg	  7.207278622873 	  3.980000000000 	  4.918588684356 	
Mg	  0.144344969258 	  2.082933653615 	  1.938588684356 	
Mg	  1.144344969258 	  2.082933653615 	  4.918588684356 	
Mg	  0.144344969258 	  6.062933653615 	  1.938588684356 	
Mg	  1.144344969258 	  6.062933653615 	  4.918588684356 	
Mg	  4.124344969258 	  2.082933653615 	  1.938588684356 	
Mg	  5.124344969258 	  2.082933653615 	  4.918588684356 	
Mg	  4.124344969258 	  6.062933653615 	  1.938588684356 	
Mg	  5.124344969258 	  6.062933653615 	  4.918588684356 	
O	  2.082933653615 	  0.000000000000 	  0.000000000000 	
O	  3.082933653615 	  0.000000000000 	  2.980000000000 	
O	  2.082933653615 	  3.980000000000 	  0.000000000000 	
O	  3.082933653615 	  3.980000000000 	  2.980000000000 	
O	  6.062933653615 	  0.000000000000 	  0.000000000000 	
O	  7.062933653615 	  0.000000000000 	  2.980000000000 	
O	  6.062933653615 	  3.980000000000 	  0.000000000000 	
O	  7.062933653615 	  3.980000000000 	  2.980000000000 	
O	  0.000000000000 	  2.082933653615 	  0.000000000000 	
O	  1.000000000000 	  2.082933653615 	  2.980000000000 	
O	  0.000000000000 	  6.062933653615 	  0.000000000000 	
O	  1.000000000000 	  6.062933653615 	  2.980000000000 	
O	  3.980000000000 	  2.082933653615 	  0.000000000000 	
O	  4.980000000000 	  2.082933653615 	  2.980000000000 	
O	  3.980000000000 	  6.062933653615 	  0.000000000000 	
O	  4.980000000000 	  6.062933653615 	  2.980000000000 	
O	  0.144344969258 	  0.000000000000 	  1.938588684356 	
O	  1.144344969258 	  0.000000000000 	  4.918588684356 	
O	  0.144344969258 	  3.980000000000 	  1.938588684356 	
O	  1.144344969258 	  3.980000000000 	  4.918588684356 	
O	  4.124344969258 	  0.000000000000 	  1.938588684356 	
O	  5.124344969258 	  0.000000000000 	  4.918588684356 	
O	  4.124344969258 	  3.980000000000 	  1.938588684356 	
O	  5.124344969258 	  3.980000000000 	  4.918588684356 	
O	  2.342754598279 	  1.893264364009 	  1.938588684356 	
O	  3.342754598279 	  1.893264364009 	  4.918588684356 	
O	  2.342754598279 	  5.873264364009 	  1.938588684356 	
O	  3.342754598279 	  5.873264364009 	  4.918588684356 	
O	  6.322754598279 	  1.893264364009 	  1.938588684356 	
O	  7.322754598279 	  1.893264364009 	  4.918588684356 	
O	  6.322754598279 	  5.873264364009 	  1.938588684356 	
O	  7.322754598279 	  5.873264364009 	  4.918588684356 	
64 
Energy: 3.0968511479466851e+00 
Mg	  0.000000000000 	  0.000000000000 	  0.000000000000 	
Mg	  1.000000000000 	  0.000000000000 	  2.980000000000 	
Mg	  0.000000000000 	  3.980000000000 	  0.000000000000 	
Mg	  1.000000000000 	  3.980000000000 	  2.980000000000 	
Mg	  3.980000000000 	  0.000000000000 	  0.000000000000 	
Mg	  4.980000000000 	  0.000000000000 	  2.980000000000 	
Mg	  3.980000000000 	  3.980000000000 	  0.000000000000 	
Mg	  4.980000000000 	  3.980000000000 	  2.980000000000 	
Mg	  2.022114632853 	  2.045200114498 	  0.000000000000 	
Mg	  3.022114632853 	  2.045200114498 	  2.980000000000 	
Mg	  2.022114632853 	  6.025200114498 	  0.000000000000 	
Mg	  3.022114632853 	  6.025200114498 	  2.980000000000 	
Mg	  6.002114632853 	  2.045200114498 	  0.000000000000 	
Mg	  7.002114632853 	  2.045200114498 	  2.980000000000 	
Mg	  6.002114632853 	  6.025200114498 	  0.000000000000 	
Mg	  7.002114632853 	  6.025200114498 	  2.980000000000 	
Mg	  2.206798486017 	  0.000000000000 	  1.975943669562 	
Mg	  3.206798486017 	  0.000000000000 	  4.955943669562 	
Mg	  2.206798486017 	  3.980000000000 	  1.975943669562 	
Mg	  3.206798486017 	  3.980000000000 	  4.955943669562 	
Mg	  6.186798486017 	  0.000000000000 	  1.975943669562 	
Mg	  7.186798486017 	  0.000000000000 	  4.955943669562 	
Mg	  6.186798486017 	  3.980000000000 	  1.975943669562 	
Mg	  7.186798486017 	  3.980000000000 	  4.955943669562 	
Mg	  0.115427408228 	  2.091371077789 	  1.975943669562 	
Mg	  1.115427408228 	  2.091371077789 	  4.955943669562 	
Mg	  0.115427408228 	  6.071371077789 	  1.975943669562 	
Mg	  1.115427408228 	  6.071371077789 	  4.955943669562 	
Mg	  4.095427408228 	  2.091371077789 	  1.975943669562 	
Mg	  5.095427408228 	  2.091371077789 	  4.955943669562 	
Mg	  4.095427408228 	  6.071371077789 	  1.975943669562 	
Mg	  5.095427408228 	  6.071371077789 	  4.955943669562 	
O	  2.091371077789 	  0.000000000000 	  0.000000000000 	
O	  3.091371077789 	  0.000000000000 	  2.980000000000 	
O	  2.091371077789 	  3.980000000000 	  0.000000000000 	
O	  3.091371077789 	  3.980000000000 	  2.980000000000 	
O	  6.071371077789 	  0.000000000000 	  0.000000000000 	
O	  7.071371077789 	  0.000000000000 	  2.980000000000 	
O	  6.071371077789 	  3.980000000000 	  0.000000000000 	
O	  7.071371077789 	  3.980000000000 	  2.980000000000 	
O	  0.000000000000 	  2.091371077789 	  0.000000000000 	
O	  1.000000000000 	  2.091371077789 	  2.980000000000 	
O	  0.000000000000 	  6.071371077789 	  0.000000000000 	
O	  1.000000000000 	  6.071371077789 	  2.980000000000 	
O	  3.980000000000 	  2.091371077789 	  0.000000000000 	
O	  4.980000000000 	  2.091371077789 	  2.980000000000 	
O	  3.980000000000 	  6.071371077789 	  0.000000000000 	
O	  4.980000000000 	  6.071371077789 	  2.980000000000 	
O	  0.115427408228 	  0.000000000000 	  1.975943669562 	
O	  1.115427408228 	  0.000000000000 	  4.955943669562 	
O	  0.115427408228 	  3.980000000000 	  1.975943669562 	
O	  1.115427408228 	  3.980000000000 	  4.955943669562 	
O	  4.095427408228 	  0.000000000000 	  1.975943669562 	
O	  5.095427408228 	  0.000000000000 	  4.955943669562 	
O	  4.095427408228 	  3.980000000000 	  1.975943669562 	
O	  5.095427408228 	  3.980000000000 	  4.955943669562 	
O	  2.299140412599 	  1.939699463378 	  1.975943669562 	
O	  3.299140412599 	  1.939699463378 	  4.955943669562 	
O	  2.299140412599 	  5.919699463378 	  1.975943669562 	
O	  3.299140412599 	  5.919699463378 	  4.955943669562 	
O	  6.279140412599 	  1.939699463378 	  1.975943669562 	
O	  7.279140412599 	  1.939699463378 	  4.955943669562 	
O	  6.279140412599 	  5.919699463378 	  1.975943669562 	
O	  7.279140412599 	  5.919699463378 	  4.955943669562 	
64 
Energy: 2.0666109639038877e+00 
Mg	  0.000000000000 	  0.000000000000 	  0.000000000000 	
Mg	  1.000000000000 	  0.000000000000 	  2.980000000000 	
Mg	  0.000000000000 	  3.980000000000 	  0.000000000000 	
Mg	  1.000000000000 	  3.980000000000 	  2.980000000000 	
Mg	  3.980000000000 	  0.000000000000 	  0.000000000000 	
Mg	  4.980000000000 	  0.000000000000 	  2.980000000000 	
Mg	  3.980000000000 	  3.980000000000 	  0.000000000000 	
Mg	  4.980000000000 	  3.980000000000 	  2.980000000000 	
Mg	  2.047879168044 	  2.065185655151 	  0.000000000000 	
Mg	  3.047879168044 	  2.065185655151 	  2.980000000000 	
Mg	  2.047879168044 	  6.045185655151 	  0.000000000000 	
Mg	  3.047879168044 	  6.045185655151 	  2.980000000000 	
Mg	  6.027879168044 	  2.065185655151 	  0.000000000000 	
Mg	  7.027879168044 	  2.065185655151 	  2.980000000000 	
Mg	  6.027879168044 	  6.045185655151 	  0.000000000000 	
Mg	  7.027879168044 	  6.045185655151 	  2.980000000000 	
Mg	  2.186331064899 	  0.000000000000 	  2.013266193831 	
Mg	  3.186331064899 	  0.000000000000 	  4.993266193831 	
Mg	  2.186331064899 	  3.980000000000 	  2.013266193831 	
Mg	  3.186331064899 	  3.980000000000 	  4.993266193831 	
Mg	  6.166331064899 	  0.000000000000 	  2.013266193831 	
Mg	  7.166331064899 	  0.000000000000 	  4.993266193831 	
Mg	  6.166331064899 	  3.980000000000 	  2.013266193831 	
Mg	  7.166331064899 	  3.980000000000 	  4.993266193831 	
Mg	  0.086532435534 	  2.099798629365 	  2.013266193831 	
Mg	  1.086532435534 	  2.099798629365 	  4.993266193831 	
Mg	  0.086532435534 	  6.079798629365 	  2.013266193831 	
Mg	  1.086532435534 	  6.079798629365 	  4.993266193831 	
Mg	  4.066532435534 	  2.099798629365 	  2.013266193831 	
Mg	  5.066532435534 	  2.099798629365 	  4.993266193831 	
Mg	  4.066532435534 	  6.079798629365 	  2.013266193831 	
Mg	  5.066532435534 	  6.079798629365 	  4.993266193831 	
O	  2.099798629365 	  0.000000000000 	  0.000000000000 	
O	  3.099798629365 	  0.000000000000 	  2.980000000000 	
O	  2.099798629365 	  3.980000000000 	  0.000000000000 	
O	  3.099798629365 	  3.980000000000 	  2.980000000000 	
O	  6.079798629365 	  0.000000000000 	  0.000000000000 	
O	  7.079798629365 	  0.000000000000 	  2.980000000000 	
O	  6.079798629365 	  3.980000000000 	  0.000000000000 	
O	  7.079798629365 	  3.980000000000 	  2.980000000000 	
O	  0.000000000000 	  2.099798629365 	  0.000000000000 	
O	  1.000000000000 	  2.099798629365 	  2.980000000000 	
O	  0.000000000000 	  6.079798629365 	  0.000000000000 	
O	  1.000000000000 	  6.079798629365 	  2.980000000000 	
O	  3.980000000000 	  2.099798629365 	  0.000000000000 	
O	  4.980000000000 	  2.099798629365 	  2.980000000000 	
O	  3.980000000000 	  6.079798629365 	  0.000000000000 	
O	  4.980000000000 	  6.079798629365 	  2.980000000000 	
O	  0.086532435534 	  0.000000000000 	  2.013266193831 	
O	  1.086532435534 	  0.000000000000 	  4.993266193831 	
O	  0.086532435534 	  3.980000000000 	  2.013266193831 	
O	  1.086532435534 	  3.980000000000 	  4.993266193831 	
O	  4.066532435534 	  0.000000000000 	  2.013266193831 	
O	  5.066532435534 	  0.000000000000 	  4.993266193831 	
O	  4.066532435534 	  3.980000000000 	  2.013266193831 	
O	  5.066532435534 	  3.980000000000 	  4.993266193831 	
O	  2.255557013326 	  1.986095009073 	  2.013266193831 	
O	  3.255557013326 	  1.986095009073 	  4.993266193831 	
O	  2.255557013326 	  5.966095009073 	  2.013266193831 	
O	  3.255557013326 	  5.966095009073 	  4.993266193831 	
O	  6.235557013326 	  1.986095009073 	  2.013266193831 	
O	  7.235557013326 	  1.986095009073 	  4.993266193831 	
O	  6.235557013326 	  5.966095009073 	  2.013266193831 	
O	  7.235557013326 	  5.966095009073 	  4.993266193831 	
64 
Energy: 1.0815411653610922e+00 
Mg	  0.000000000000 	  0.000000000000 	  0.000000000000 	
Mg	  1.000000000000 	  0.000000000000 	  2.980000000000 	
Mg	  0.000000000000 	  3.980000000000 	  0.000000000000 	
Mg	  1.000000000000 	  3.980000000000 	  2.980000000000 	
Mg	  3.980000000000 	  0.000000000000 	  0.000000000000 	
Mg	  4.980000000000 	  0.000000000000 	  2.980000000000 	
Mg	  3.980000000000 	  3.980000000000 	  0.000000000000 	
Mg	  4.980000000000 	  3.980000000000 	  2.980000000000 	
Mg	  2.073616706058 	  2.085149171050 	  0.000000000000 	
Mg	  3.073616706058 	  2.085149171050 	  2.980000000000 	
Mg	  2.073616706058 	  6.065149171050 	  0.000000000000 	
Mg	  3.073616706058 	  6.065149171050 	  2.980000000000 	
Mg	  6.053616706058 	  2.085149171050 	  0.000000000000 	
Mg	  7.053616706058 	  2.085149171050 	  2.980000000000 	
Mg	  6.053616706058 	  6.065149171050 	  0.000000000000 	
Mg	  7.053616706058 	  6.065149171050 	  2.980000000000 	
Mg	  2.165876425993 	  0.000000000000 	  2.050551776075 	
Mg	  3.165876425993 	  0.000000000000 	  5.030551776075 	
Mg	  2.165876425993 	  3.980000000000 	  2.050551776075 	
Mg	  3.165876425993 	  3.980000000000 	  5.030551776075 	
Mg	  6.145876425993 	  0.000000000000 	  2.050551776075 	
Mg	  7.145876425993 	  0.000000000000 	  5.030551776075 	
Mg	  6.145876425993 	  3.980000000000 	  2.050551776075 	
Mg	  7.145876425993 	  3.980000000000 	  5.030551776075 	
Mg	  0.057662324959 	  2.108214101034 	  2.050551776075 	
Mg	  1.057662324959 	  2.108214101034 	  5.030551776075 	
Mg	  0.057662324959 	  6.088214101034 	  2.050551776075 	
Mg	  1.057662324959 	  6.088214101034 	  5.030551776075 	
Mg	  4.037662324959 	  2.108214101034 	  2.050551776075 	
Mg	  5.037662324959 	  2.108214101034 	  5.030551776075 	
Mg	  4.037662324959 	  6.088214101034 	  2.050551776075 	
Mg	  5.037662324959 	  6.088214101034 	  5.030551776075 	
O	  2.108214101034 	  0.000000000000 	  0.000000000000 	
O	  3.108214101034 	  0.000000000000 	  2.980000000000 	
O	  2.108214101034 	  3.980000000000 	  0.000000000000 	
O	  3.108214101034 	  3.980000000000 	  2.980000000000 	
O	  6.088214101034 	  0.000000000000 	  0.000000000000 	
O	  7.088214101034 	  0.000000000000 	  2.980000000000 	
O	  6.088214101034 	  3.980000000000 	  0.000000000000 	
O	  7.088214101034 	  3.980000000000 	  2.980000000000 	
O	  0.000000000000 	  2.108214101034 	  0.000000000000 	
O	  1.000000000000 	  2.108214101034 	  2.980000000000 	
O	  0.000000000000 	  6.088214101034 	  0.000000000000 	
O	  1.000000000000 	  6.088214101034 	  2.980000000000 	
O	  3.980000000000 	  2.108214101034 	  0.000000000000 	
O	  4.980000000000 	  2.108214101034 	  2.980000000000 	
O	  3.980000000000 	  6.088214101034 	  0.000000000000 	
O	  4.980000000000 	  6.088214101034 	  2.980000000000 	
O	  0.057662324959 	  0.000000000000 	  2.050551776075 	
O	  1.057662324959 	  0.000000000000 	  5.030551776075 	
O	  0.057662324959 	  3.980000000000 	  2.050551776075 	
O	  1.057662324959 	  3.980000000000 	  5.030551776075 	
O	  4.037662324959 	  0.000000000000 	  2.050551776075 	
O	  5.037662324959 	  0.000000000000 	  5.030551776075 	
O	  4.037662324959 	  3.980000000000 	  2.050551776075 	
O	  5.037662324959 	  3.980000000000 	  5.030551776075 	
O	  2.212006285961 	  2.032445806038 	  2.050551776075 	
O	  3.212006285961 	  2.032445806038 	  5.030551776075 	
O	  2.212006285961 	  6.012445806038 	  2.050551776075 	
O	  3.212006285961 	  6.012445806038 	  5.030551776075 	
O	  6.192006285961 	  2.032445806038 	  2.050551776075 	
O	  7.192006285961 	  2.032445806038 	  5.030551776075 	
O	  6.192006285961 	  6.012445806038 	  2.050551776075 	
O	  7.192006285961 	  6.012445806038 	  5.030551776075 	
64 
Energy: 3.1615067454743373e-01 
Mg	  0.000000000000 	  0.000000000000 	  0.000000000000 	
Mg	  1.000000000000 	  0.000000000000 	  2.980000000000 	
Mg	  0.000000000000 	  3.980000000000 	  0.000000000000 	
Mg	  1.000000000000 	  3.980000000000 	  2.980000000000 	
Mg	  3.980000000000 	  0.000000000000 	  0.000000000000 	
Mg	  4.980000000000 	  0.000000000000 	  2.980000000000 	
Mg	  3.980000000000 	  3.980000000000 	  0.000000000000 	
Mg	  4.980000000000 	  3.980000000000 	  2.980000000000 	
Mg	  2.099324346832 	  2.105087993666 	  0.000000000000 	
Mg	  3.099324346832 	  2.105087993666 	  2.980000000000 	
Mg	  2.099324346832 	  6.085087993666 	  0.000000000000 	
Mg	  3.099324346832 	  6.085087993666 	  2.980000000000 	
Mg	  6.079324346832 	  2.105087993666 	  0.000000000000 	
Mg	  7.079324346832 	  2.105087993666 	  2.980000000000 	
Mg	  6.079324346832 	  6.085087993666 	  0.000000000000 	
Mg	  7.079324346832 	  6.085087993666 	  2.980000000000 	
Mg	  2.145433521504 	  0.000000000000 	  2.087797053164 	
Mg	  3.145433521504 	  0.000000000000 	  5.067797053164 	
Mg	  2.145433521504 	  3.980000000000 	  2.087797053164 	
Mg	  3.145433521504 	  3.980000000000 	  5.067797053164 	
Mg	  6.125433521504 	  0.000000000000 	  2.087797053164 	
Mg	  7.125433521504 	  0.000000000000 	  5.067797053164 	
Mg	  6.125433521504 	  3.980000000000 	  2.087797053164 	
Mg	  7.125433521504 	  3.980000000000 	  5.067797053164 	
Mg	  0.028818234170 	  2.116615287334 	  2.087797053164 	
Mg	  1.028818234170 	  2.116615287334 	  5.067797053164 	
Mg	  0.028818234170 	  6.096615287334 	  2.087797053164 	
Mg	  1.028818234170 	  6.096615287334 	  5.067797053164 	
Mg	  4.008818234170 	  2.116615287334 	  2.087797053164 	
Mg	  5.008818234170 	  2.116615287334 	  5.067797053164 	
Mg	  4.008818234170 	  6.096615287334 	  2.087797053164 	
Mg	  5.008818234170 	  6.096615287334 	  5.067797053164 	
O	  2.116615287334 	  0.000000000000 	  0.000000000000 	
O	  3.116615287334 	  0.000000000000 	  2.980000000000 	
O	  2.116615287334 	  3.980000000000 	  0.000000000000 	
O	  3.116615287334 	  3.980000000000 	  2.980000000000 	
O	  6.096615287334 	  0.000000000000 	  0.000000000000 	
O	  7.096615287334 	  0.000000000000 	  2.980000000000 	
O	  6.096615287334 	  3.980000000000 	  0.000000000000 	
O	  7.096615287334 	  3.980000000000 	  2.980000000000 	
O	  0.000000000000 	  2.116615287334 	  0.000000000000 	
O	  1.000000000000 	  2.116615287334 	  2.980000000000 	
O	  0.000000000000 	  6.096615287334 	  0.000000000000 	
O	  1.000000000000 	  6.096615287334 	  2.980000000000 	
O	  3.980000000000 	  2.116615287334 	  0.000000000000 	
O	  4.980000000000 	  2.116615287334 	  2.980000000000 	
O	  3.980000000000 	  6.096615287334 	  0.000000000000 	
O	  4.980000000000 	  6.096615287334 	  2.980000000000 	
O	  0.028818234170 	  0.000000000000 	  2.087797053164 	
O	  1.028818234170 	  0.000000000000 	  5.067797053164 	
O	  0.028818234170 	  3.980000000000 	  2.087797053164 	
O	  1.028818234170 	  3.980000000000 	  5.067797053164 	
O	  4.008818234170 	  0.000000000000 	  2.087797053164 	
O	  5.008818234170 	  0.000000000000 	  5.067797053164 	
O	  4.008818234170 	  3.980000000000 	  2.087797053164 	
O	  5.008818234170 	  3.980000000000 	  5.067797053164 	
O	  2.168488108841 	  2.078748127634 	  2.087797053164 	
O	  3.168488108841 	  2.078748127634 	  5.067797053164 	
O	  2.168488108841 	  6.058748127634 	  2.087797053164 	
O	  3.168488108841 	  6.058748127634 	  5.067797053164 	
O	  6.148488108841 	  2.078748127634 	  2.087797053164 	
O	  7.148488108841 	  2.078748127634 	  5.067797053164 	
O	  6.148488108841 	  6.058748127634 	  2.087797053164 	
O	  7.148488108841 	  6.058748127634 	  5.067797053164 	
64 
Energy: 0.0000000000000000e+00 
Mg	  0.000000000000 	  0.000000000000 	  0.000000000000 	
Mg	  1.000000000000 	  0.000000000000 	  2.980000000000 	
Mg	  0.000000000000 	  3.980000000000 	  0.000000000000 	
Mg	  1.000000000000 	  3.980000000000 	  2.980000000000 	
Mg	  3.980000000000 	  0.000000000000 	  0.000000000000 	
Mg	  4.980000000000 	  0.000000000000 	  2.980000000000 	
Mg	  3.980000000000 	  3.980000000000 	  0.000000000000 	
Mg	  4.980000000000 	  3.980000000000 	  2.980000000000 	
Mg	  2.125000000000 	  2.125000000000 	  0.000000000000 	
Mg	  3.125000000000 	  2.125000000000 	  2.980000000000 	
Mg	  2.125000000000 	  6.105000000000 	  0.000000000000 	
Mg	  3.125000000000 	  6.105000000000 	  2.980000000000 	
Mg	  6.105000000000 	  2.125000000000 	  0.000000000000 	
Mg	  7.105000000000 	  2.125000000000 	  2.980000000000 	
Mg	  6.105000000000 	  6.105000000000 	  0.000000000000 	
Mg	  7.105000000000 	  6.105000000000 	  2.980000000000 	
Mg	  2.125000000000 	  0.000000000000 	  2.125000000000 	
Mg	  3.125000000000 	  0.000000000000 	  5.105000000000 	
Mg	  2.125000000000 	  3.980000000000 	  2.125000000000 	
Mg	  3.125000000000 	  3.980000000000 	  5.105000000000 	
Mg	  6.105000000000 	  0.000000000000 	  2.125000000000 	
Mg	  7.105000000000 	  0.000000000000 	  5.105000000000 	
Mg	  6.105000000000 	  3.980000000000 	  2.125000000000 	
Mg	  7.105000000000 	  3.980000000000 	  5.105000000000 	
Mg	  0.000000000000 	  2.125000000000 	  2.125000000000 	
Mg	  1.000000000000 	  2.125000000000 	  5.105000000000 	
Mg	  0.000000000000 	  6.105000000000 	  2.125000000000 	
Mg	  1.000000000000 	  6.105000000000 	  5.105000000000 	
Mg	  3.980000000000 	  2.125000000000 	  2.125000000000 	
Mg	  4.980000000000 	  2.125000000000 	  5.105000000000 	
Mg	  3.980000000000 	  6.105000000000 	  2.125000000000 	
Mg	  4.980000000000 	  6.105000000000 	  5.105000000000 	
O	  2.125000000000 	  0.000000000000 	  0.000000000000 	
O	  3.125000000000 	  0.000000000000 	  2.980000000000 	
O	  2.125000000000 	  3.980000000000 	  0.000000000000 	
O	  3.125000000000 	  3.980000000000 	  2.980000000000 	
O	  6.105000000000 	  0.000000000000 	  0.000000000000 	
O	  7.105000000000 	  0.000000000000 	  2.980000000000 	
O	  6.105000000000 	  3.980000000000 	  0.000000000000 	
O	  7.105000000000 	  3.980000000000 	  2.980000000000 	
O	  0.000000000000 	  2.125000000000 	  0.000000000000 	
O	  1.000000000000 	  2.125000000000 	  2.980000000000 	
O	  0.000000000000 	  6.105000000000 	  0.000000000000 	
O	  1.000000000000 	  6.105000000000 	  2.980000000000 	
O	  3.980000000000 	  2.125000000000 	  0.000000000000 	
O	  4.980000000000 	  2.125000000000 	  2.980000000000 	
O	  3.980000000000 	  6.105000000000 	  0.000000000000 	
O	  4.980000000000 	  6.105000000000 	  2.980000000000 	
O	  0.000000000000 	  0.000000000000 	  2.125000000000 	
O	  1.000000000000 	  0.000000000000 	  5.105000000000 	
O	  0.000000000000 	  3.980000000000 	  2.125000000000 	
O	  1.000000000000 	  3.980000000000 	  5.105000000000 	
O	  3.980000000000 	  0.000000000000 	  2.125000000000 	
O	  4.980000000000 	  0.000000000000 	  5.105000000000 	
O	  3.980000000000 	  3.980000000000 	  2.125000000000 	
O	  4.980000000000 	  3.980000000000 	  5.105000000000 	
O	  2.125000000000 	  2.125000000000 	  2.125000000000 	
O	  3.125000000000 	  2.125000000000 	  5.105000000000 	
O	  2.125000000000 	  6.105000000000 	  2.125000000000 	
O	  3.125000000000 	  6.105000000000 	  5.105000000000 	
O	  6.105000000000 	  2.125000000000 	  2.125000000000 	
O	  7.105000000000 	  2.125000000000 	  5.105000000000 	
O	  6.105000000000 	  6.105000000000 	  2.125000000000 	
O	  7.105000000000 	  6.105000000000 	  5.105000000000 	
