  Invoking FHI-aims ...
  | Number of atoms                   :  96
  ...scf iterations...
  | Total energy corrected        :   -1.012974819982E+02 eV
  ...
  Total atomic forces (unitary forces cleaned)
     1  -3.1661171523E-01  6.0857568418E-01  1.9148375257E-01
     2  2.4409527376E-01  5.8738718244E-01  -1.8216259319E-01
     3  3.1661166620E-01  -6.0857555830E-01  -1.9148372453E-01
     4  -2.4409516093E-01  -5.8738712989E-01  1.8216267598E-01
     5  -7.8068673492E-01  8.7137354911E-01  -1.9917821179E-01
     6  1.1373214655E+00  -2.1967373058E+00  3.0175139074E+00
     7  7.8068758060E-01  -8.7137336108E-01  1.9917898849E-01
     8  -1.1373213188E+00  2.1967371350E+00  -3.0175135471E+00
     9  -4.9215559324E-01  3.1712050070E-01  -2.0227261325E-01
    10  -9.2372446619E-01  -1.2541480386E+00  1.9624389940E-01
    11  4.9215483710E-01  -3.1712091308E-01  2.0227188360E-01
    12  9.2372446646E-01  1.2541487322E+00  -1.9624437965E-01
    13  -5.8266642018E-01  -1.1285350606E+00  -1.1377697989E+00
    14  1.9178156892E+00  3.2218117517E-01  1.1991456022E+00
    15  5.8266557414E-01  1.1285353882E+00  1.1377694524E+00
    16  -1.9178163104E+00  -3.2218149356E-01  -1.1991451182E+00
    17  4.9630455843E-01  -6.4786848270E-01  -3.6264390006E-02
    18  -1.3855835461E+00  8.5713098372E-01  -1.6530509303E+00
    19  -4.9630387603E-01  6.4786869658E-01  3.6264980429E-02
    20  1.3855839443E+00  -8.5713138869E-01  1.6530508682E+00
    21  6.7168696486E-01  -1.2226574509E+00  -2.1046518118E-01
    22  -5.6359874955E-01  -1.2760746148E+00  3.6051394000E-01
    23  -6.7168727391E-01  1.2226576077E+00  2.1046495061E-01
    24  5.6359887566E-01  1.2760746727E+00  -3.6051391344E-01
    25  1.0594024650E+00  1.1803619204E-01  8.2203632522E-01
    26  -9.7790487679E-02  -1.5664768320E+00  1.0235831832E+00
    27  -1.0594053526E+00  -1.1803665604E-01  -8.2203847328E-01
    28  9.7791065429E-02  1.5664778187E+00  -1.0235835538E+00
    29  5.4692204574E-01  4.0982068770E-01  6.8139257993E-01
    30  -4.5380299898E-01  5.4083600097E-01  -7.2931504871E-01
    31  -5.4692184332E-01  -4.0982077213E-01  -6.8139289169E-01
    32  4.5380218242E-01  -5.4083646870E-01  7.2931479994E-01
    33  2.0496847886E-01  1.0900481158E+00  9.4942878240E-01
    34  -1.8564179076E-01  1.1599266758E+00  -9.5128278151E-01
    35  -2.0496818227E-01  -1.0900481267E+00  -9.4942848562E-01
    36  1.8564194918E-01  -1.1599269045E+00  9.5128270613E-01
    37  -8.2623820449E-01  4.9425336901E-01  -2.6645064665E-01
    38  8.5970934859E-01  6.0600349603E-01  1.7989240005E-01
    39  8.2623831395E-01  -4.9425355691E-01  2.6645088402E-01
    40  -8.5970916868E-01  -6.0600407312E-01  -1.7989182029E-01
    41  -9.3478147320E-01  1.1740785653E+00  7.7503687022E-02
    42  9.5878869192E-01  1.2092252641E+00  -8.2098961976E-02
    43  9.3478135561E-01  -1.1740782395E+00  -7.7503567951E-02
    44  -9.5878837125E-01  -1.2092249975E+00  8.2099073446E-02
    45  5.9841583803E-01  1.1205260588E-01  6.6385295771E-01
    46  -3.8702476635E+00  -6.9270444356E-01  -3.3326881117E+00
    47  -5.9838212153E-01  -1.1205163587E-01  -6.6382571687E-01
    48  3.8702473627E+00  6.9270292205E-01  3.3326866238E+00
    49  -1.0703870366E+00  -1.6422407106E-01  5.9051141267E-01
    50  7.2545280337E-01  -9.1901896210E-01  -2.7590892159E+00
    51  1.0703684228E+00  1.6422378285E-01  -5.9051083746E-01
    52  -7.2545325138E-01  9.1901848984E-01  2.7590902374E+00
    53  -3.5357210935E-01  -1.3159043581E+00  -3.1239170254E-01
    54  7.8277798734E-01  -2.8185767427E-01  -2.0337335206E-01
    55  3.5358220269E-01  1.3159011540E+00  3.1238311419E-01
    56  -7.8277819409E-01  2.8185560392E-01  2.0337359148E-01
    57  8.5458262979E-01  -1.2979285736E-01  6.5666587712E-01
    58  2.2593593240E+00  5.5328131400E-01  2.7033642980E+00
    59  -8.5458744088E-01  1.2979344512E-01  -6.5667418508E-01
    60  -2.2593593720E+00  -5.5328127776E-01  -2.7033635902E+00
    61  -4.5857981238E-01  1.3318578685E+00  3.0120117341E-01
    62  -2.2728862771E+00  -8.9805511819E-01  1.5516736309E+00
    63  4.5859137374E-01  -1.3318507994E+00  -3.0120818397E-01
    64  2.2728865802E+00  8.9805722129E-01  -1.5516729193E+00
    65  1.0870931647E-01  -4.0827394745E-01  -2.4489557309E-01
    66  3.6269823601E+00  -1.1431859639E-01  -8.0958684331E-03
    67  -1.0871669436E-01  4.0827048743E-01  2.4488880793E-01
    68  -3.6269830592E+00  1.1431842668E-01  8.0986514210E-03
    69  -5.4731371988E-01  -1.1850201813E+00  3.9272310858E-01
    70  1.1355166200E+00  -1.5556175086E+00  -1.0811404568E+00
    71  5.4731644061E-01  1.1850308793E+00  -3.9271802413E-01
    72  -1.1355162958E+00  1.5556162907E+00  1.0811400839E+00
    73  5.3690073386E-01  4.3505212251E-01  -1.4487416084E+00
    74  -1.1416241669E+00  8.3498307415E-01  2.1770859175E+00
    75  -5.3690213857E-01  -4.3504905496E-01  1.4487505956E+00
    76  1.1416238609E+00  -8.3498070492E-01  -2.1770892254E+00
    77  8.2986220537E-01  -2.1113926532E-01  4.0887235210E-01
    78  -1.5418499764E+00  -4.0407555129E-01  -9.0275281545E-01
    79  -8.2987001674E-01  2.1113995902E-01  -4.0887761629E-01
    80  1.5418511107E+00  4.0407578788E-01  9.0275308988E-01
    81  -1.3593047793E-01  8.7922467683E-01  -1.4570786117E-01
    82  -2.0716100198E-01  1.9834099579E+00  4.5377713707E-01
    83  1.3592148315E-01  -8.7921504506E-01  1.4569974566E-01
    84  2.0716137618E-01  -1.9834109287E+00  -4.5377879713E-01
    85  8.6667521817E-01  5.9628699795E-02  4.7213032678E-01
    86  -9.6111955878E-01  2.3625216416E-01  -3.5008283930E-01
    87  -8.6668593359E-01  -5.9631082930E-02  -4.7213508447E-01
    88  9.6111871686E-01  -2.3625205183E-01  3.5008260918E-01
    89  3.7335905235E-01  1.8975650110E-02  -1.4406783847E+00
    90  -4.4573157680E-01  2.7599075018E-01  1.7210278409E+00
    91  -3.7335726864E-01  -1.8986084912E-02  1.4406826421E+00
    92  4.4573177372E-01  -2.7598900030E-01  -1.7210273988E+00
    93  -6.4123562504E-01  5.6848370831E-01  8.0403639873E-01
    94  6.5801605441E-01  1.0108289722E+00  -7.4557987490E-01
    95  6.4123839424E-01  -5.6849691010E-01  -8.0403232545E-01
    96  -6.5801620660E-01  -1.0108289708E+00  7.4558065559E-01
  Stress tensor (eV/A^3):
  7.2329950855E-02  -8.8223920962E-03  2.5152332873E-02
  -8.8223920962E-03  7.7553124408E-02  1.0981341123E-02
  2.5152332873E-02  1.0981341123E-02  5.4485783492E-02
