  Invoking FHI-aims ...
  | Number of atoms                   :  96
  ...scf iterations...
  | Total energy corrected        :   -9.606834388451E+01 eV
  ...
  Total atomic forces (unitary forces cleaned)
     1  -2.9793385573E-01  6.0209583065E-01  1.8838437840E-01
     2  2.2063600484E-01  5.7153360040E-01  -1.8355439020E-01
     3  2.9793382676E-01  -6.0209572506E-01  -1.8838435336E-01
     4  -2.2063588897E-01  -5.7153354684E-01  1.8355447355E-01
     5  -8.2864065897E-01  1.6546137544E+00  2.8497020063E-01
     6  8.7430603716E-01  2.3396961731E-01  4.4839497485E-01
     7  8.2864136190E-01  -1.6546135839E+00  -2.8496954441E-01
     8  -8.7430594410E-01  -2.3396978202E-01  -4.4839466853E-01
     9  -4.0563077108E-01  2.4246993009E-01  -1.8517585058E-01
    10  1.0173929544E+00  5.6495958001E-01  1.5221764499E-01
    11  4.0563010899E-01  -2.4247021498E-01  1.8517527210E-01
    12  -1.0173932748E+00  -5.6495944403E-01  -1.5221778096E-01
    13  -5.4002189998E-01  -1.0627794559E+00  -1.0769746610E+00
    14  -8.0707420155E-02  -1.4344160059E+00  1.1477292457E+00
    15  5.4002114378E-01  1.0627797257E+00  1.0769743472E+00
    16  8.0707253502E-02  1.4344161706E+00  -1.1477289773E+00
    17  3.8196729058E-01  -4.9734608933E-01  -2.5694342748E-02
    18  -3.0651176721E-01  -4.8153387540E-01  3.4467421749E-01
    19  -3.8196659996E-01  4.9734618182E-01  2.5694868242E-02
    20  3.0651175319E-01  4.8153351788E-01  -3.4467438351E-01
    21  7.0387833662E-01  -1.2797339384E+00  -2.2413530757E-01
    22  -7.0089963143E-01  -1.3925456072E+00  3.0383274998E-01
    23  -7.0387862176E-01  1.2797341178E+00  2.2413512126E-01
    24  7.0089979997E-01  1.3925458371E+00  -3.0383280187E-01
    25  9.6524363377E-01  8.3741117274E-02  7.3021462412E-01
    26  -9.6875021851E-01  7.1872802052E-02  -9.9699215866E-01
    27  -9.6524502633E-01  -8.3741610627E-02  -7.3021576168E-01
    28  9.6875088570E-01  -7.1872128247E-02  9.9699187336E-01
    29  4.7887528344E-01  3.0317407214E-01  5.5801560448E-01
    30  -4.5634309197E-01  3.6060013657E-01  -5.8973163450E-01
    31  -4.7887509120E-01  -3.0317414527E-01  -5.5801594367E-01
    32  4.5634226140E-01  -3.6060047071E-01  5.8973132292E-01
    33  2.1288000880E-01  1.1558680593E+00  1.0019658454E+00
    34  -1.9863536154E-01  1.1948178451E+00  -9.9342113747E-01
    35  -2.1287967971E-01  -1.1558680173E+00  -1.0019654846E+00
    36  1.9863554481E-01  -1.1948180610E+00  9.9342106600E-01
    37  -6.9383984718E-01  4.0428590208E-01  -2.2729003394E-01
    38  7.1709774916E-01  4.5359296372E-01  1.9974545824E-01
    39  6.9383995499E-01  -4.0428618995E-01  2.2729021213E-01
    40  -7.1709754408E-01  -4.5359351575E-01  -1.9974489511E-01
    41  -9.7866828223E-01  1.2406734343E+00  9.2935658021E-02
    42  9.8511371512E-01  1.2536545184E+00  -9.0359936128E-02
    43  9.7866815064E-01  -1.2406730760E+00  -9.2935536319E-02
    44  -9.8511335501E-01  -1.2536541823E+00  9.0360032039E-02
    45  -1.0229011221E-01  1.8157828297E-01  2.1388564425E-01
    46  -3.0573025925E+00  -2.1726989874E+00  -2.7667575321E+00
    47  1.0233343812E-01  -1.8157229833E-01  -2.1383934611E-01
    48  3.0573008301E+00  2.1726953891E+00  2.7667554293E+00
    49  -3.0043671498E+00  -4.3471342026E-01  1.0336979527E+00
    50  3.4645039550E+00  1.3385058200E+00  -3.2324363476E+00
    51  3.0043147150E+00  4.3471304641E-01  -1.0337175182E+00
    52  -3.4645044753E+00  -1.3385035633E+00  3.2324413052E+00
    53  3.2163419918E-01  -3.8550706715E-01  -5.3547252679E-01
    54  -6.0069911854E-02  -1.8627174850E+00  5.3242733917E-01
    55  -3.2160627954E-01  3.8552574418E-01  5.3545631594E-01
    56  6.0071867784E-02  1.8627154701E+00  -5.3242758320E-01
    57  1.5377008044E+00  -2.5140166971E-01  1.4324956182E+00
    58  1.3954365966E+00  3.5126829936E-01  1.7527678140E+00
    59  -1.5376953860E+00  2.5139985711E-01  -1.4324909345E+00
    60  -1.3954384329E+00  -3.5126871702E-01  -1.7527691145E+00
    61  9.8649141378E-02  6.9533988015E-01  -1.3436162822E-01
    62  -4.0612385504E+00  -4.0898283960E-01  2.6707352523E+00
    63  -9.8625191980E-02  -6.9534696363E-01  1.3434319620E-01
    64  4.0612381357E+00  4.0898307054E-01  -2.6707342251E+00
    65  -1.5594043449E-01  -8.8139509920E-01  -5.9404117612E-01
    66  3.6907513499E+00  1.0067907331E+00  2.4543875494E-02
    67  1.5591549748E-01  8.8139352023E-01  5.9402994472E-01
    68  -3.6907515658E+00  -1.0067878029E+00  -2.4538868405E-02
    69  -4.5259580755E-01  -1.0224775823E+00  3.7930167521E-01
    70  5.8537863427E-01  -8.5484988094E-01  -6.9571052420E-01
    71  4.5260176776E-01  1.0224975000E+00  -3.7929639330E-01
    72  -5.8537781176E-01  8.5484722718E-01  6.9571018260E-01
    73  5.4865482858E-01  3.7749967229E-01  -1.5079246144E+00
    74  -6.6976108259E-01  6.5782129902E-01  1.2922414992E+00
    75  -5.4865783046E-01  -3.7749694870E-01  1.5079379207E+00
    76  6.6976221619E-01  -6.5781904472E-01  -1.2922481547E+00
    77  1.4099867555E+00  -2.9967752951E-01  7.2559376301E-01
    78  -1.6570034431E+00  -4.2832728977E-01  -9.1278786798E-01
    79  -1.4099857106E+00  2.9967668327E-01  -7.2559452857E-01
    80  1.6570042201E+00  4.2832734717E-01  9.1278793145E-01
    81  -9.9044007439E-01  2.1255160367E+00  -4.8695626325E-01
    82  1.1362778131E+00  2.2082638250E+00  6.3779226836E-01
    83  9.9039849249E-01  -2.1254986488E+00  4.8694036685E-01
    84  -1.1362776874E+00  -2.2082666435E+00  -6.3779625775E-01
    85  1.6742119009E+00  1.8968716789E-01  8.6284201346E-01
    86  -1.7146537302E+00  2.7215646701E-01  -8.0271475329E-01
    87  -1.6742096039E+00  -1.8968702278E-01  -8.6284086927E-01
    88  1.7146531784E+00  -2.7215636171E-01  8.0271454657E-01
    89  2.9578518029E-01  -4.8892351774E-02  -1.1312786933E+00
    90  -3.1646203945E-01  3.1382664455E-02  1.1987399773E+00
    91  -2.9578620907E-01  4.8877880255E-02  1.1312941386E+00
    92  3.1646167999E-01  -3.1380060385E-02  -1.1987370336E+00
    93  -1.6524556756E-01  -2.5713175394E-01  4.5931744842E-01
    94  1.4430813166E-01  -1.2359357890E-01  -4.2087032501E-01
    95  1.6525994262E-01  2.5709292951E-01  -4.5932104382E-01
    96  -1.4430781927E-01  1.2359474992E-01  4.2087109704E-01
  Stress tensor (eV/A^3):
  7.2962339221E-02  -8.7620449522E-03  3.7360070214E-02
  -8.7620449522E-03  7.6188257540E-02  5.1223139814E-03
  3.7360070214E-02  5.1223139814E-03  5.5770430856E-02
