768 
Energy: -7.3825508041559999e+01 
S	  8.778583098100 	  1.541356859400 	  0.034410210600 	
S	  8.210038968100 	  1.541359669400 	 10.164966930600 	
S	  8.778551998100 	  7.724918619400 	  0.034407380600 	
S	  8.210007868100 	  7.724921429400 	 10.164964100600 	
S	 23.459410398100 	  1.541366089400 	  0.062540140600 	
S	 22.890866268100 	  1.541368899400 	 10.193096860600 	
S	 23.459379298100 	  7.724927849400 	  0.062537310600 	
S	 22.890835168100 	  7.724930659400 	 10.193094030600 	
S	  5.617972169000 	  4.633116300900 	  5.058959345800 	
S	  5.049428039000 	  4.633119110900 	 15.189516065800 	
S	  5.617941069000 	 10.816678060900 	  5.058956515800 	
S	  5.049396939000 	 10.816680870900 	 15.189513235800 	
S	 20.298799469000 	  4.633125530900 	  5.087089275800 	
S	 19.730255339000 	  4.633128340900 	 15.217645995800 	
S	 20.298768369000 	 10.816687290900 	  5.087086445800 	
S	 19.730224239000 	 10.816690100900 	 15.217643165800 	
S	  5.333668977500 	  4.642216569600 	 10.124273508100 	
S	  4.765124847500 	  4.642219379600 	 20.254830228100 	
S	  5.333637877500 	 10.825778329600 	 10.124270678100 	
S	  4.765093747500 	 10.825781139600 	 20.254827398100 	
S	 20.014496277500 	  4.642225799600 	 10.152403438100 	
S	 19.445952147500 	  4.642228609600 	 20.282960158100 	
S	 20.014465177500 	 10.825787559600 	 10.152400608100 	
S	 19.445921047500 	 10.825790369600 	 20.282957328100 	
S	  8.494280183300 	  1.550457870200 	  5.099724677400 	
S	  7.925736053300 	  1.550460680200 	 15.230281397400 	
S	  8.494249083300 	  7.734019630200 	  5.099721847400 	
S	  7.925704953300 	  7.734022440200 	 15.230278567400 	
S	 23.175107483300 	  1.550467100200 	  5.127854607400 	
S	 22.606563353300 	  1.550469910200 	 15.258411327400 	
S	 23.175076383300 	  7.734028860200 	  5.127851777400 	
S	 22.606532253300 	  7.734031670200 	 15.258408497400 	
C	  6.798118307500 	  2.504334010600 	  9.780797448900 	
C	  6.229574177500 	  2.504336820600 	 19.911354168900 	
C	  6.798087207500 	  8.687895770600 	  9.780794618900 	
C	  6.229543077500 	  8.687898580600 	 19.911351338900 	
C	 21.478945607500 	  2.504343240600 	  9.808927378900 	
C	 20.910401477500 	  2.504346050600 	 19.939484098900 	
C	 21.478914507500 	  8.687905000600 	  9.808924548900 	
C	 20.910370377500 	  8.687907810600 	 19.939481268900 	
C	  7.029858902800 	  5.596110217300 	  5.443156977400 	
C	  6.461314772800 	  5.596113027300 	 15.573713697400 	
C	  7.029827802800 	 11.779671977300 	  5.443154147400 	
C	  6.461283672800 	 11.779674787300 	 15.573710867400 	
C	 21.710686202800 	  5.596119447300 	  5.471286907400 	
C	 21.142142072800 	  5.596122257300 	 15.601843627400 	
C	 21.710655102800 	 11.779681207300 	  5.471284077400 	
C	 21.142110972800 	 11.779684017300 	 15.601840797400 	
C	  7.314133768200 	  3.679239356500 	  0.377886269800 	
C	  6.745589638200 	  3.679242166500 	 10.508442989800 	
C	  7.314102668200 	  9.862801116500 	  0.377883439800 	
C	  6.745558538200 	  9.862803926500 	 10.508440159800 	
C	 21.994961068200 	  3.679248586500 	  0.406016199800 	
C	 21.426416938200 	  3.679251396500 	 10.536572919800 	
C	 21.994929968200 	  9.862810346500 	  0.406013369800 	
C	 21.426385838200 	  9.862813156500 	 10.536570089800 	
C	  7.082393302600 	  0.587464077300 	  4.715527045500 	
C	  6.513849172600 	  0.587466887300 	 14.846083765500 	
C	  7.082362202600 	  6.771025837300 	  4.715524215500 	
C	  6.513818072600 	  6.771028647300 	 14.846080935500 	
C	 21.763220602600 	  0.587473307300 	  4.743656975500 	
C	 21.194676472600 	  0.587476117300 	 14.874213695500 	
C	 21.763189502600 	  6.771035067300 	  4.743654145500 	
C	 21.194645372600 	  6.771037877300 	 14.874210865500 	
C	  5.707537281800 	  2.321126042300 	  8.876603728600 	
C	  5.138993151800 	  2.321128852300 	 19.007160448600 	
C	  5.707506181800 	  8.504687802300 	  8.876600898600 	
C	  5.138962051800 	  8.504690612300 	 19.007157618600 	
C	 20.388364581800 	  2.321135272300 	  8.904733658600 	
C	 19.819820451800 	  2.321138082300 	 19.035290378600 	
C	 20.388333481800 	  8.504697032300 	  8.904730828600 	
C	 19.819789351800 	  8.504699842300 	 19.035287548600 	
C	  8.120442166400 	  5.412901958300 	  6.347351676700 	
C	  7.551898036400 	  5.412904768300 	 16.477908396700 	
C	  8.120411066400 	 11.596463718300 	  6.347348846700 	
C	  7.551866936400 	 11.596466528300 	 16.477905566700 	
C	 22.801269466400 	  5.412911188300 	  6.375481606700 	
C	 22.232725336400 	  5.412913998300 	 16.506038326700 	
C	 22.801238366400 	 11.596472948300 	  6.375478776700 	
C	 22.232694236400 	 11.596475758300 	 16.506035496700 	
C	  8.404714652800 	  3.862447386700 	  1.282079888500 	
C	  7.836170522800 	  3.862450196700 	 11.412636608500 	
C	  8.404683552800 	 10.046009146700 	  1.282077058500 	
C	  7.836139422800 	 10.046011956700 	 11.412633778500 	
C	 23.085541952800 	  3.862456616700 	  1.310209818500 	
C	 22.516997822800 	  3.862459426700 	 11.440766538500 	
C	 23.085510852800 	 10.046018376700 	  1.310206988500 	
C	 22.516966722800 	 10.046021186700 	 11.440763708500 	
C	  5.991810044800 	  0.770672274600 	  3.811332244900 	
C	  5.423265914800 	  0.770675084600 	 13.941888964900 	
C	  5.991778944800 	  6.954234034600 	  3.811329414900 	
C	  5.423234814800 	  6.954236844600 	 13.941886134900 	
C	 20.672637344800 	  0.770681504600 	  3.839462174900 	
C	 20.104093214800 	  0.770684314600 	 13.970018894900 	
C	 20.672606244800 	  6.954243264600 	  3.839459344900 	
C	 20.104062114800 	  6.954246074600 	 13.970016064900 	
C	  4.807288713200 	  3.418578044500 	  8.955234686400 	
C	  4.238744583200 	  3.418580854500 	 19.085791406400 	
C	  4.807257613200 	  9.602139804500 	  8.955231856400 	
C	  4.238713483200 	  9.602142614500 	 19.085788576400 	
C	 19.488116013200 	  3.418587274500 	  8.983364616400 	
C	 18.919571883200 	  3.418590084500 	 19.113921336400 	
C	 19.488084913200 	  9.602149034500 	  8.983361786400 	
C	 18.919540783200 	  9.602151844500 	 19.113918506400 	
C	  9.020685667900 	  0.326811214600 	  6.268754309600 	
C	  8.452141537900 	  0.326814024600 	 16.399311029600 	
C	  9.020654567900 	  6.510372974600 	  6.268751479600 	
C	  8.452110437900 	  6.510375784600 	 16.399308199600 	
C	 23.701512967900 	  0.326820444600 	  6.296884239600 	
C	 23.132968837900 	  0.326823254600 	 16.427440959600 	
C	 23.701481867900 	  6.510382204600 	  6.296881409600 	
C	 23.132937737900 	  6.510385014600 	 16.427438129600 	
C	  9.304963215700 	  2.764995446300 	  1.203449032000 	
C	  8.736419085700 	  2.764998256300 	 11.334005752000 	
C	  9.304932115700 	  8.948557206300 	  1.203446202000 	
C	  8.736387985700 	  8.948560016300 	 11.334002922000 	
C	 23.985790515700 	  2.765004676300 	  1.231578962000 	
C	 23.417246385700 	  2.765007486300 	 11.362135682000 	
C	 23.985759415700 	  8.948566436300 	  1.231576132000 	
C	 23.417215285700 	  8.948569246300 	 11.362132852000 	
C	  5.091566543200 	  5.856762956400 	  3.889929612000 	
C	  4.523022413200 	  5.856765766400 	 14.020486332000 	
C	  5.091535443200 	 12.040324716400 	  3.889926782000 	
C	  4.522991313200 	 12.040327526400 	 14.020483502000 	
C	 19.772393843200 	  5.856772186400 	  3.918059542000 	
C	 19.203849713200 	  5.856774996400 	 14.048616262000 	
C	 19.772362743200 	 12.040333946400 	  3.918056712000 	
C	 19.203818613200 	 12.040336756400 	 14.048613432000 	
C	  3.638231112900 	  3.456968704600 	  8.193277916700 	
C	  3.069686982900 	  3.456971514600 	 18.323834636700 	
C	  3.638200012900 	  9.640530464600 	  8.193275086700 	
C	  3.069655882900 	  9.640533274600 	 18.323831806700 	
C	 18.319058412900 	  3.456977934600 	  8.221407846700 	
C	 17.750514282900 	  3.456980744600 	 18.351964566700 	
C	 18.319027312900 	  9.640539694600 	  8.221405016700 	
C	 17.750483182900 	  9.640542504600 	 18.351961736700 	
C	 10.189735933600 	  0.365211363600 	  7.030719744100 	
C	  9.621191803600 	  0.365214173600 	 17.161276464100 	
C	 10.189704833600 	  6.548773123600 	  7.030716914100 	
C	  9.621160703600 	  6.548775933600 	 17.161273634100 	
C	 24.870563233600 	  0.365220593600 	  7.058849674100 	
C	 24.302019103600 	  0.365223403600 	 17.189406394100 	
C	 24.870532133600 	  6.548782353600 	  7.058846844100 	
C	 24.301988003600 	  6.548785163600 	 17.189403564100 	
C	 10.474020810300 	  2.726604848100 	  1.965405903000 	
C	  9.905476680300 	  2.726607658100 	 12.095962623000 	
C	 10.473989710300 	  8.910166608100 	  1.965403073000 	
C	  9.905445580300 	  8.910169418100 	 12.095959793000 	
C	 25.154848110300 	  2.726614078100 	  1.993535833000 	
C	 24.586303980300 	  2.726616888100 	 12.124092553000 	
C	 25.154817010300 	  8.910175838100 	  1.993533003000 	
C	 24.586272880300 	  8.910178648100 	 12.124089723000 	
C	  3.922516277600 	  5.818362745600 	  3.127964177500 	
C	  3.353972147600 	  5.818365555600 	 13.258520897500 	
C	  3.922485177600 	 12.001924505600 	  3.127961347500 	
C	  3.353941047600 	 12.001927315600 	 13.258518067500 	
C	 18.603343577600 	  5.818371975600 	  3.156094107500 	
C	 18.034799447600 	  5.818374785600 	 13.286650827500 	
C	 18.603312477600 	 12.001933735600 	  3.156091277500 	
C	 18.034768347600 	 12.001936545600 	 13.286647997500 	
H	  2.977023765500 	  4.314908014000 	  8.276816523600 	
H	  2.408479635500 	  4.314910824000 	 18.407373243600 	
H	  2.976992665500 	 10.498469774000 	  8.276813693600 	
H	  2.408448535500 	 10.498472584000 	 18.407370413600 	
H	 17.657851065500 	  4.314917244000 	  8.304946453600 	
H	 17.089306935500 	  4.314920054000 	 18.435503173600 	
H	 17.657819965500 	 10.498479004000 	  8.304943623600 	
H	 17.089275835500 	 10.498481814000 	 18.435500343600 	
H	 10.850920197100 	  1.223158377000 	  6.947191975500 	
H	 10.282376067100 	  1.223161187000 	 17.077748695500 	
H	 10.850889097100 	  7.406720137000 	  6.947189145500 	
H	 10.282344967100 	  7.406722947000 	 17.077745865500 	
H	 25.531747497100 	  1.223167607000 	  6.975321905500 	
H	 24.963203367100 	  1.223170417000 	 17.105878625500 	
H	 25.531716397100 	  7.406729367000 	  6.975319075500 	
H	 24.963172267100 	  7.406732177000 	 17.105875795500 	
H	 11.135228163400 	  1.868665538700 	  1.881867194800 	
H	 10.566684033400 	  1.868668348700 	 12.012423914800 	
H	 11.135197063400 	  8.052227298700 	  1.881864364800 	
H	 10.566652933400 	  8.052230108700 	 12.012421084800 	
H	 25.816055463400 	  1.868674768700 	  1.909997124800 	
H	 25.247511333400 	  1.868677578700 	 12.040553844800 	
H	 25.816024363400 	  8.052236528700 	  1.909994294800 	
H	 25.247480233400 	  8.052239338700 	 12.040551014800 	
H	  3.261332160800 	  4.960415670400 	  3.211491946300 	
H	  2.692788030800 	  4.960418480400 	 13.342048666300 	
H	  3.261301060800 	 11.143977430400 	  3.211489116300 	
H	  2.692756930800 	 11.143980240400 	 13.342045836300 	
H	 17.942159460800 	  4.960424900400 	  3.239621876300 	
H	 17.373615330800 	  4.960427710400 	 13.370178596300 	
H	 17.942128360800 	 11.143986660400 	  3.239619046300 	
H	 17.373584230800 	 11.143989470400 	 13.370175766300 	
C	  3.326383536000 	  2.393111112500 	  7.336713806700 	
C	  2.757839406000 	  2.393113922500 	 17.467270526700 	
C	  3.326352436000 	  8.576672872500 	  7.336710976700 	
C	  2.757808306000 	  8.576675682500 	 17.467267696700 	
C	 18.007210836000 	  2.393120342500 	  7.364843736700 	
C	 17.438666706000 	  2.393123152500 	 17.495400456700 	
C	 18.007179736000 	  8.576682102500 	  7.364840906700 	
C	 17.438635606000 	  8.576684912500 	 17.495397626700 	
C	 10.501585199000 	  5.484900443400 	  7.887257318900 	
C	  9.933041069000 	  5.484903253400 	 18.017814038900 	
C	 10.501554099000 	 11.668462203400 	  7.887254488900 	
C	  9.933009969000 	 11.668465013400 	 18.017811208900 	
C	 25.182412499000 	  5.484909673400 	  7.915387248900 	
C	 24.613868369000 	  5.484912483400 	 18.045943968900 	
C	 25.182381399000 	 11.668471433400 	  7.915384418900 	
C	 24.613837269000 	 11.668474243400 	 18.045941138900 	
C	 10.785868240400 	  3.790462378300 	  2.821970012800 	
C	 10.217324110400 	  3.790465188300 	 12.952526732800 	
C	 10.785837140400 	  9.974024138300 	  2.821967182800 	
C	 10.217293010400 	  9.974026948300 	 12.952523902800 	
C	 25.466695540400 	  3.790471608300 	  2.850099942800 	
C	 24.898151410400 	  3.790474418300 	 12.980656662800 	
C	 25.466664440400 	  9.974033368300 	  2.850097112800 	
C	 24.898120310400 	  9.974036178300 	 12.980653832800 	
C	  3.610667164600 	  0.698673603900 	  2.271426501600 	
C	  3.042123034600 	  0.698676413900 	 12.401983221600 	
C	  3.610636064600 	  6.882235363900 	  2.271423671600 	
C	  3.042091934600 	  6.882238173900 	 12.401980391600 	
C	 18.291494464600 	  0.698682833900 	  2.299556431600 	
C	 17.722950334600 	  0.698685643900 	 12.430113151600 	
C	 18.291463364600 	  6.882244593900 	  2.299553601600 	
C	 17.722919234600 	  6.882247403900 	 12.430110321600 	
C	  4.246239376200 	  1.326745920100 	  7.232392811600 	
C	  3.677695246200 	  1.326748730100 	 17.362949531600 	
C	  4.246208276200 	  7.510307680100 	  7.232389981600 	
C	  3.677664146200 	  7.510310490100 	 17.362946701600 	
C	 18.927066676200 	  1.326755150100 	  7.260522741600 	
C	 18.358522546200 	  1.326757960100 	 17.391079461600 	
C	 18.927035576200 	  7.510316910100 	  7.260519911600 	
C	 18.358491446200 	  7.510319720100 	 17.391076631600 	
C	  9.581760883400 	  4.418519382000 	  7.991559269300 	
C	  9.013216753400 	  4.418522192000 	 18.122115989300 	
C	  9.581729783400 	 10.602081142000 	  7.991556439300 	
C	  9.013185653400 	 10.602083952000 	 18.122113159300 	
C	 24.262588183400 	  4.418528612000 	  8.019689199300 	
C	 23.694044053400 	  4.418531422000 	 18.150245919300 	
C	 24.262557083400 	 10.602090372000 	  8.019686369300 	
C	 23.694012953400 	 10.602093182000 	 18.150243089300 	
C	  9.866012247700 	  4.856827447100 	  2.926291108900 	
C	  9.297468117700 	  4.856830257100 	 13.056847828900 	
C	  9.865981147700 	 11.040389207100 	  2.926288278900 	
C	  9.297437017700 	 11.040392017100 	 13.056844998900 	
C	 24.546839547700 	  4.856836677100 	  2.954421038900 	
C	 23.978295417700 	  4.856839487100 	 13.084977758900 	
C	 24.546808447700 	 11.040398437100 	  2.954418208900 	
C	 23.978264317700 	 11.040401247100 	 13.084974928900 	
C	  4.530491333400 	  1.765054665300 	  2.167124550900 	
C	  3.961947203400 	  1.765057475300 	 12.297681270900 	
C	  4.530460233400 	  7.948616425300 	  2.167121720900 	
C	  3.961916103400 	  7.948619235300 	 12.297678440900 	
C	 19.211318633400 	  1.765063895300 	  2.195254480900 	
C	 18.642774503400 	  1.765066705300 	 12.325811200900 	
C	 19.211287533400 	  7.948625655300 	  2.195251650900 	
C	 18.642743403400 	  7.948628465300 	 12.325808370900 	
H	  4.049839811700 	  0.502303909100 	  6.552247741900 	
H	  3.481295681700 	  0.502306719100 	 16.682804461900 	
H	  4.049808711700 	  6.685865669100 	  6.552244911900 	
H	  3.481264581700 	  6.685868479100 	 16.682801631900 	
H	 18.730667111700 	  0.502313139100 	  6.580377671900 	
H	 18.162122981700 	  0.502315949100 	 16.710934391900 	
H	 18.730636011700 	  6.685874899100 	  6.580374841900 	
H	 18.162091881700 	  6.685877709100 	 16.710931561900 	
H	  9.778172631800 	  3.594078723200 	  8.671703784000 	
H	  9.209628501800 	  3.594081533200 	 18.802260504000 	
H	  9.778141531800 	  9.777640483200 	  8.671700954000 	
H	  9.209597401800 	  9.777643293200 	 18.802257674000 	
H	 24.458999931800 	  3.594087953200 	  8.699833714000 	
H	 23.890455801800 	  3.594090763200 	 18.830390434000 	
H	 24.458968831800 	  9.777649713200 	  8.699830884000 	
H	 23.890424701800 	  9.777652523200 	 18.830387604000 	
H	 10.062411806500 	  5.681269458100 	  3.606436279800 	
H	  9.493867676500 	  5.681272268100 	 13.736992999800 	
H	 10.062380706500 	 11.864831218100 	  3.606433449800 	
H	  9.493836576500 	 11.864834028100 	 13.736990169800 	
H	 24.743239106500 	  5.681278688100 	  3.634566209800 	
H	 24.174694976500 	  5.681281498100 	 13.765122929800 	
H	 24.743208006500 	 11.864840448100 	  3.634563379800 	
H	 24.174663876500 	 11.864843258100 	 13.765120099800 	
H	  4.334079585100 	  2.589495324100 	  1.486980036300 	
H	  3.765535455100 	  2.589498134100 	 11.617536756300 	
H	  4.334048485100 	  8.773057084100 	  1.486977206300 	
H	  3.765504355100 	  8.773059894100 	 11.617533926300 	
H	 19.014906885100 	  2.589504554100 	  1.515109966300 	
H	 18.446362755100 	  2.589507364100 	 11.645666686300 	
H	 19.014875785100 	  8.773066314100 	  1.515107136300 	
H	 18.446331655100 	  8.773069124100 	 11.645663856300 	
C	  5.415710393500 	  1.283137318900 	  7.979564150100 	
C	  4.847166263500 	  1.283140128900 	 18.110120870100 	
C	  5.415679293500 	  7.466699078900 	  7.979561320100 	
C	  4.847135163500 	  7.466701888900 	 18.110118040100 	
C	 20.096537693500 	  1.283146548900 	  8.007694080100 	
C	 19.527993563500 	  1.283149358900 	 18.138250800100 	
C	 20.096506593500 	  7.466708308900 	  8.007691250100 	
C	 19.527962463500 	  7.466711118900 	 18.138247970100 	
C	  8.412295413000 	  4.374903959500 	  7.244378051500 	
C	  7.843751283000 	  4.374906769500 	 17.374934771500 	
C	  8.412264313000 	 10.558465719500 	  7.244375221500 	
C	  7.843720183000 	 10.558468529500 	 17.374931941500 	
C	 23.093122713000 	  4.374913189500 	  7.272507981500 	
C	 22.524578583000 	  4.374915999500 	 17.403064701500 	
C	 23.093091613000 	 10.558474949500 	  7.272505151500 	
C	 22.524547483000 	 10.558477759500 	 17.403061871500 	
C	  8.696541388600 	  4.900436048200 	  2.179119568000 	
C	  8.127997258600 	  4.900438858200 	 12.309676288000 	
C	  8.696510288600 	 11.083997808200 	  2.179116738000 	
C	  8.127966158600 	 11.084000618200 	 12.309673458000 	
C	 23.377368688600 	  4.900445278200 	  2.207249498000 	
C	 22.808824558600 	  4.900448088200 	 12.337806218000 	
C	 23.377337588600 	 11.084007038200 	  2.207246668000 	
C	 22.808793458600 	 11.084009848200 	 12.337803388000 	
C	  5.699956798100 	  1.808670211500 	  2.914305870100 	
C	  5.131412668100 	  1.808673021500 	 13.044862590100 	
C	  5.699925698100 	  7.992231971500 	  2.914303040100 	
C	  5.131381568100 	  7.992234781500 	 13.044859760100 	
C	 20.380784098100 	  1.808679441500 	  2.942435800100 	
C	 19.812239968100 	  1.808682251500 	 13.072992520100 	
C	 20.380752998100 	  7.992241201500 	  2.942432970100 	
C	 19.812208868100 	  7.992244011500 	 13.072989690100 	
H	  6.095413680900 	  0.440179673500 	  7.880948511900 	
H	  5.526869550900 	  0.440182483500 	 18.011505231900 	
H	  6.095382580900 	  6.623741433500 	  7.880945681900 	
H	  5.526838450900 	  6.623744243500 	 18.011502401900 	
H	 20.776240980900 	  0.440188903500 	  7.909078441900 	
H	 20.207696850900 	  0.440191713500 	 18.039635161900 	
H	 20.776209880900 	  6.623750663500 	  7.909075611900 	
H	 20.207665750900 	  6.623753473500 	 18.039632331900 	
H	  7.732618281700 	  3.531935504600 	  7.342985579400 	
H	  7.164074151700 	  3.531938314600 	 17.473542299400 	
H	  7.732587181700 	  9.715497264600 	  7.342982749400 	
H	  7.164043051700 	  9.715500074600 	 17.473539469400 	
H	 22.413445581700 	  3.531944734600 	  7.371115509400 	
H	 21.844901451700 	  3.531947544600 	 17.501672229400 	
H	 22.413414481700 	  9.715506494600 	  7.371112679400 	
H	 21.844870351700 	  9.715509304600 	 17.501669399400 	
H	  8.016837948600 	  5.743393631800 	  2.277735307300 	
H	  7.448293818600 	  5.743396441800 	 12.408292027300 	
H	  8.016806848600 	 11.926955391800 	  2.277732477300 	
H	  7.448262718600 	 11.926958201800 	 12.408289197300 	
H	 22.697665248600 	  5.743402861800 	  2.305865237300 	
H	 22.129121118600 	  5.743405671800 	 12.436421957300 	
H	 22.697634148600 	 11.926964621800 	  2.305862407300 	
H	 22.129090018600 	 11.926967431800 	 12.436419127300 	
H	  6.379633929400 	  2.651638728300 	  2.815698342200 	
H	  5.811089799400 	  2.651641538300 	 12.946255062200 	
H	  6.379602829400 	  8.835200488300 	  2.815695512200 	
H	  5.811058699400 	  8.835203298300 	 12.946252232200 	
H	 21.060461229400 	  2.651647958300 	  2.843828272200 	
H	 20.491917099400 	  2.651650768300 	 12.974384992200 	
H	 21.060430129400 	  8.835209718300 	  2.843825442200 	
H	 20.491885999400 	  8.835212528300 	 12.974382162200 	
C	  2.038932514800 	  2.415402770700 	  6.496426445200 	
C	  1.470388384800 	  2.415405580700 	 16.626983165200 	
C	  2.038901414800 	  8.598964530700 	  6.496423615200 	
C	  1.470357284800 	  8.598967340700 	 16.626980335200 	
C	 16.719759814800 	  2.415412000700 	  6.524556375200 	
C	 16.151215684800 	  2.415414810700 	 16.655113095200 	
C	 16.719728714800 	  8.598973760700 	  6.524553545200 	
C	 16.151184584800 	  8.598976570700 	 16.655110265200 	
C	 11.789036815200 	  5.507193873300 	  8.727543141800 	
C	 11.220492685200 	  5.507196683300 	 18.858099861800 	
C	 11.789005715200 	 11.690755633300 	  8.727540311800 	
C	 11.220461585200 	 11.690758443300 	 18.858097031800 	
C	 26.469864115200 	  5.507203103300 	  8.755673071800 	
C	 25.901319985200 	  5.507205913300 	 18.886229791800 	
C	 26.469833015200 	 11.690764863300 	  8.755670241800 	
C	 25.901288885200 	 11.690767673300 	 18.886226961800 	
C	 12.073319255900 	  3.768170843800 	  3.662257475500 	
C	 11.504775125900 	  3.768173653800 	 13.792814195500 	
C	 12.073288155900 	  9.951732603800 	  3.662254645500 	
C	 11.504744025900 	  9.951735413800 	 13.792811365500 	
C	 26.754146555900 	  3.768180073800 	  3.690387405500 	
C	 26.185602425900 	  3.768182883800 	 13.820944125500 	
C	 26.754115455900 	  9.951741833800 	  3.690384575500 	
C	 26.185571325900 	  9.951744643800 	 13.820941295500 	
C	  2.323215700900 	  0.676380050400 	  1.431140577700 	
C	  1.754671570900 	  0.676382860400 	 11.561697297700 	
C	  2.323184600900 	  6.859941810400 	  1.431137747700 	
C	  1.754640470900 	  6.859944620400 	 11.561694467700 	
C	 17.004043000900 	  0.676389280400 	  1.459270507700 	
C	 16.435498870900 	  0.676392090400 	 11.589827227700 	
C	 17.004011900900 	  6.859951040400 	  1.459267677700 	
C	 16.435467770900 	  6.859953850400 	 11.589824397700 	
C	  2.316129708800 	  3.196526817000 	  5.195239794800 	
C	  1.747585578800 	  3.196529627000 	 15.325796514800 	
C	  2.316098608800 	  9.380088577000 	  5.195236964800 	
C	  1.747554478800 	  9.380091387000 	 15.325793684800 	
C	 16.996957008800 	  3.196536047000 	  5.223369724800 	
C	 16.428412878800 	  3.196538857000 	 15.353926444800 	
C	 16.996925908800 	  9.380097807000 	  5.223366894800 	
C	 16.428381778800 	  9.380100617000 	 15.353923614800 	
C	 11.511861565400 	  0.104754769900 	 10.028731499500 	
C	 10.943317435400 	  0.104757579900 	 20.159288219500 	
C	 11.511830465400 	  6.288316529900 	 10.028728669500 	
C	 10.943286335400 	  6.288319339900 	 20.159285389500 	
C	 26.192688865400 	  0.104763999900 	 10.056861429500 	
C	 25.624144735400 	  0.104766809900 	 20.187418149500 	
C	 26.192657765400 	  6.288325759900 	 10.056858599500 	
C	 25.624113635400 	  6.288328569900 	 20.187415319500 	
C	 11.796121898000 	  2.987047354100 	  4.963444429600 	
C	 11.227577768000 	  2.987050164100 	 15.094001149600 	
C	 11.796090798000 	  9.170609114100 	  4.963441599600 	
C	 11.227546668000 	  9.170611924100 	 15.093998319600 	
C	 26.476949198000 	  2.987056584100 	  4.991574359600 	
C	 25.908405068000 	  2.987059394100 	 15.122131079600 	
C	 26.476918098000 	  9.170618344100 	  4.991571529600 	
C	 25.908373968000 	  9.170621154100 	 15.122128249600 	
C	  2.600391103200 	  6.078819463000 	  0.129952119000 	
C	  2.031846973200 	  6.078822273000 	 10.260508839000 	
C	  2.600360003200 	 12.262381223000 	  0.129949289000 	
C	  2.031815873200 	 12.262384033000 	 10.260506009000 	
C	 17.281218403200 	  6.078828693000 	  0.158082049000 	
C	 16.712674273200 	  6.078831503000 	 10.288638769000 	
C	 17.281187303200 	 12.262390453000 	  0.158079219000 	
C	 16.712643173200 	 12.262393263000 	 10.288635939000 	
H	  2.612757015800 	  4.227841415400 	  5.421537736000 	
H	  2.044212885800 	  4.227844225400 	 15.552094456000 	
H	  2.612725915800 	 10.411403175400 	  5.421534906000 	
H	  2.044181785800 	 10.411405985400 	 15.552091626000 	
H	 17.293584315800 	  4.227850645400 	  5.449667666000 	
H	 16.725040185800 	  4.227853455400 	 15.580224386000 	
H	 17.293553215800 	 10.411412405400 	  5.449664836000 	
H	 16.725009085800 	 10.411415215400 	 15.580221556000 	
H	 11.215218029300 	  1.136067184600 	  9.802432299100 	
H	 10.646673899300 	  1.136069994600 	 19.932989019100 	
H	 11.215186929300 	  7.319628944600 	  9.802429469100 	
H	 10.646642799300 	  7.319631754600 	 19.932986189100 	
H	 25.896045329300 	  1.136076414600 	  9.830562229100 	
H	 25.327501199300 	  1.136079224600 	 19.961118949100 	
H	 25.896014229300 	  7.319638174600 	  9.830559399100 	
H	 25.327470099300 	  7.319640984600 	 19.961116119100 	
H	 11.499494568300 	  1.955732631900 	  4.737146893600 	
H	 10.930950438300 	  1.955735441900 	 14.867703613600 	
H	 11.499463468300 	  8.139294391900 	  4.737144063600 	
H	 10.930919338300 	  8.139297201900 	 14.867700783600 	
H	 26.180321868300 	  1.955741861900 	  4.765276823600 	
H	 25.611777738300 	  1.955744671900 	 14.895833543600 	
H	 26.180290768300 	  8.139303621900 	  4.765273993600 	
H	 25.611746638300 	  8.139306431900 	 14.895830713600 	
H	  2.897034650700 	  5.047507048200 	  0.356251116800 	
H	  2.328490520700 	  5.047509858200 	 10.486807836800 	
H	  2.897003550700 	 11.231068808200 	  0.356248286800 	
H	  2.328459420700 	 11.231071618200 	 10.486805006800 	
H	 17.577861950700 	  5.047516278200 	  0.384381046800 	
H	 17.009317820700 	  5.047519088200 	 10.514937766800 	
H	 17.577830850700 	 11.231078038200 	  0.384378216800 	
H	 17.009286720700 	 11.231080848200 	 10.514934936800 	
H	  1.412048820700 	  3.230173843200 	  4.570178105800 	
H	  0.843504690700 	  3.230176653200 	 14.700734825800 	
H	  1.412017720700 	  9.413735603200 	  4.570175275800 	
H	  0.843473590700 	  9.413738413200 	 14.700731995800 	
H	 16.092876120700 	  3.230183073200 	  4.598308035800 	
H	 15.524331990700 	  3.230185883200 	 14.728864755800 	
H	 16.092845020700 	  9.413744833200 	  4.598305205800 	
H	 15.524300890700 	  9.413747643200 	 14.728861925800 	
H	 12.984491248900 	  0.138409911600 	  0.523233610500 	
H	 12.415947118900 	  0.138412721600 	 10.653790330500 	
H	 12.984460148900 	  6.321971671600 	  0.523230780500 	
H	 12.415916018900 	  6.321974481600 	 10.653787500500 	
H	 27.665318548900 	  0.138419141600 	  0.551363540500 	
H	 27.096774418900 	  0.138421951600 	 10.681920260500 	
H	 27.665287448900 	  6.321980901600 	  0.551360710500 	
H	 27.096743318900 	  6.321983711600 	 10.681917430500 	
H	 12.700202627900 	  2.953400575200 	  5.588506320900 	
H	 12.131658497900 	  2.953403385200 	 15.719063040900 	
H	 12.700171527900 	  9.136962335200 	  5.588503490900 	
H	 12.131627397900 	  9.136965145200 	 15.719060210900 	
H	 27.381029927900 	  2.953409805200 	  5.616636250900 	
H	 26.812485797900 	  2.953412615200 	 15.747192970900 	
H	 27.380998827900 	  9.136971565200 	  5.616633420900 	
H	 26.812454697900 	  9.136974375200 	 15.747190140900 	
H	  1.127761431100 	  6.045164321200 	  9.635449805400 	
H	  0.559217301100 	  6.045167131200 	 19.766006525400 	
H	  1.127730331100 	 12.228726081200 	  9.635446975400 	
H	  0.559186201100 	 12.228728891200 	 19.766003695400 	
H	 15.808588731100 	  6.045173551200 	  9.663579735400 	
H	 15.240044601100 	  6.045176361200 	 19.794136455400 	
H	 15.808557631100 	 12.228735311200 	  9.663576905400 	
H	 15.240013501100 	 12.228738121200 	 19.794133625400 	
H	  3.117974382100 	  2.721514149100 	  4.615664106800 	
H	  2.549430252100 	  2.721516959100 	 14.746220826800 	
H	  3.117943282100 	  8.905075909100 	  4.615661276800 	
H	  2.549399152100 	  8.905078719100 	 14.746217996800 	
H	 17.798801682100 	  2.721523379100 	  4.643794036800 	
H	 17.230257552100 	  2.721526189100 	 14.774350756800 	
H	 17.798770582100 	  8.905085139100 	  4.643791206800 	
H	 17.230226452100 	  8.905087949100 	 14.774347926800 	
H	 11.278543592100 	  5.813293234200 	  0.477751838000 	
H	 10.709999462100 	  5.813296044200 	 10.608308558000 	
H	 11.278512492100 	 11.996854994200 	  0.477749008000 	
H	 10.709968362100 	 11.996857804200 	 10.608305728000 	
H	 25.959370892100 	  5.813302464200 	  0.505881768000 	
H	 25.390826762100 	  5.813305274200 	 10.636438488000 	
H	 25.959339792100 	 11.996864224200 	  0.505878938000 	
H	 25.390795662100 	 11.996867034200 	 10.636435658000 	
H	 10.994277095000 	  3.462060207400 	  5.543019813300 	
H	 10.425732965000 	  3.462063017400 	 15.673576533300 	
H	 10.994245995000 	  9.645621967400 	  5.543016983300 	
H	 10.425701865000 	  9.645624777400 	 15.673573703300 	
H	 25.675104395000 	  3.462069437400 	  5.571149743300 	
H	 25.106560265000 	  3.462072247400 	 15.701706463300 	
H	 25.675073295000 	  9.645631197400 	  5.571146913300 	
H	 25.106529165000 	  9.645634007400 	 15.701703633300 	
H	  2.833709070800 	  0.370281122300 	  9.680931881800 	
H	  2.265164940800 	  0.370283932300 	 19.811488601800 	
H	  2.833677970800 	  6.553842882300 	  9.680929051800 	
H	  2.265133840800 	  6.553845692300 	 19.811485771800 	
H	 17.514536370800 	  0.370290352300 	  9.709061811800 	
H	 16.945992240800 	  0.370293162300 	 19.839618531800 	
H	 17.514505270800 	  6.553852112300 	  9.709058981800 	
H	 16.945961140800 	  6.553854922300 	 19.839615701800 	
C	  0.887164533100 	  3.099405811500 	  7.256915573700 	
C	  0.318620403100 	  3.099408621500 	 17.387472293700 	
C	  0.887133433100 	  9.282967571500 	  7.256912743700 	
C	  0.318589303100 	  9.282970381500 	 17.387469463700 	
C	 15.567991833100 	  3.099415041500 	  7.285045503700 	
C	 14.999447703100 	  3.099417851500 	 17.415602223700 	
C	 15.567960733100 	  9.282976801500 	  7.285042673700 	
C	 14.999416603100 	  9.282979611500 	 17.415599393700 	
C	 12.940820695000 	  0.007641134200 	  7.967052756600 	
C	 12.372276565000 	  0.007643944200 	 18.097609476600 	
C	 12.940789595000 	  6.191202894200 	  7.967049926600 	
C	 12.372245465000 	  6.191205704200 	 18.097606646600 	
C	 27.621647995000 	  0.007650364200 	  7.995182686600 	
C	 27.053103865000 	  0.007653174200 	 18.125739406600 	
C	 27.621616895000 	  6.191212124200 	  7.995179856600 	
C	 27.053072765000 	  6.191214934200 	 18.125736576600 	
C	 13.225087214900 	  3.084167431900 	  2.901768752300 	
C	 12.656543084900 	  3.084170241900 	 13.032325472300 	
C	 13.225056114900 	  9.267729191900 	  2.901765922300 	
C	 12.656511984900 	  9.267732001900 	 13.032322642300 	
C	 27.905914514900 	  3.084176661900 	  2.929898682300 	
C	 27.337370384900 	  3.084179471900 	 13.060455402300 	
C	 27.905883414900 	  9.267738421900 	  2.929895852300 	
C	 27.337339284900 	  9.267741231900 	 13.060452572300 	
C	  1.171431838100 	  6.175932418400 	  2.191630659100 	
C	  0.602887708100 	  6.175935228400 	 12.322187379100 	
C	  1.171400738100 	 12.359494178400 	  2.191627829100 	
C	  0.602856608100 	 12.359496988400 	 12.322184549100 	
C	 15.852259138100 	  6.175941648400 	  2.219760589100 	
C	 15.283715008100 	  6.175944458400 	 12.350317309100 	
C	 15.852228038100 	 12.359503408400 	  2.219757759100 	
C	 15.283683908100 	 12.359506218400 	 12.350314479100 	
H	  1.090122822200 	  4.156575733700 	  7.463856135200 	
H	  0.521578692200 	  4.156578543700 	 17.594412855200 	
H	  1.090091722200 	 10.340137493700 	  7.463853305200 	
H	  0.521547592200 	 10.340140303700 	 17.594410025200 	
H	 15.770950122200 	  4.156584963700 	  7.491986065200 	
H	 15.202405992200 	  4.156587773700 	 17.622542785200 	
H	 15.770919022200 	 10.340146723700 	  7.491983235200 	
H	 15.202374892200 	 10.340149533700 	 17.622539955200 	
H	 12.737839640600 	  1.064812279800 	  7.760118093700 	
H	 12.169295510600 	  1.064815089800 	 17.890674813700 	
H	 12.737808540600 	  7.248374039800 	  7.760115263700 	
H	 12.169264410600 	  7.248376849800 	 17.890671983700 	
H	 27.418666940600 	  1.064821509800 	  7.788248023700 	
H	 26.850122810600 	  1.064824319800 	 17.918804743700 	
H	 27.418635840600 	  7.248383269800 	  7.788245193700 	
H	 26.850091710600 	  7.248386079800 	 17.918801913700 	
H	 13.022128767600 	  2.026997447900 	  2.694828393100 	
H	 12.453584637600 	  2.027000257900 	 12.825385113100 	
H	 13.022097667600 	  8.210559207900 	  2.694825563100 	
H	 12.453553537600 	  8.210562017900 	 12.825382283100 	
H	 27.702956067600 	  2.027006677900 	  2.722958323100 	
H	 27.134411937600 	  2.027009487900 	 12.853515043100 	
H	 27.702924967600 	  8.210568437900 	  2.722955493100 	
H	 27.134380837600 	  8.210571247900 	 12.853512213100 	
H	  1.374413050700 	  5.118761334700 	  2.398565119600 	
H	  0.805868920700 	  5.118764144700 	 12.529121839600 	
H	  1.374381950700 	 11.302323094700 	  2.398562289600 	
H	  0.805837820700 	 11.302325904700 	 12.529119009600 	
H	 16.055240350700 	  5.118770564700 	  2.426695049600 	
H	 15.486696220700 	  5.118773374700 	 12.557251769600 	
H	 16.055209250700 	 11.302332324700 	  2.426692219600 	
H	 15.486665120700 	 11.302335134700 	 12.557248939600 	
H	  0.683561485800 	  2.596531593500 	  8.210188040200 	
H	  0.115017355800 	  2.596534403500 	 18.340744760200 	
H	  0.683530385800 	  8.780093353500 	  8.210185210200 	
H	  0.114986255800 	  8.780096163500 	 18.340741930200 	
H	 15.364388785800 	  2.596540823500 	  8.238317970200 	
H	 14.795844655800 	  2.596543633500 	 18.368874690200 	
H	 15.364357685800 	  8.780102583500 	  8.238315140200 	
H	 14.795813555800 	  8.780105393500 	 18.368871860200 	
H	 13.144397725400 	  5.688341754300 	  7.013772246600 	
H	 12.575853595400 	  5.688344564300 	 17.144328966600 	
H	 13.144366625400 	 11.871903514300 	  7.013769416600 	
H	 12.575822495400 	 11.871906324300 	 17.144326136600 	
H	 27.825225025400 	  5.688350984300 	  7.041902176600 	
H	 27.256680895400 	  5.688353794300 	 17.172458896600 	
H	 27.825193925400 	 11.871912744300 	  7.041899346600 	
H	 27.256649795400 	 11.871915554300 	 17.172456066600 	
H	 13.428690561400 	  3.587041340800 	  1.948496185000 	
H	 12.860146431400 	  3.587044150800 	 12.079052905000 	
H	 13.428659461400 	  9.770603100800 	  1.948493355000 	
H	 12.860115331400 	  9.770605910800 	 12.079050075000 	
H	 28.109517861400 	  3.587050570800 	  1.976626115000 	
H	 27.540973731400 	  3.587053380800 	 12.107182835000 	
H	 28.109486761400 	  9.770612330800 	  1.976623285000 	
H	 27.540942631400 	  9.770615140800 	 12.107180005000 	
H	  0.967854649600 	  0.495231612900 	  3.144911371300 	
H	  0.399310519600 	  0.495234422900 	 13.275468091300 	
H	  0.967823549600 	  6.678793372900 	  3.144908541300 	
H	  0.399279419600 	  6.678796182900 	 13.275465261300 	
H	 15.648681949600 	  0.495240842900 	  3.173041301300 	
H	 15.080137819600 	  0.495243652900 	 13.303598021300 	
H	 15.648650849600 	  6.678802602900 	  3.173038471300 	
H	 15.080106719600 	  6.678805412900 	 13.303595191300 	
H	 -0.027515277800 	  3.062154096700 	  6.650929329100 	
H	 -0.596059407800 	  3.062156906700 	 16.781486049100 	
H	 -0.027546377800 	  9.245715856700 	  6.650926499100 	
H	 -0.596090507800 	  9.245718666700 	 16.781483219100 	
H	 14.653312022200 	  3.062163326700 	  6.679059259100 	
H	 14.084767892200 	  3.062166136700 	 16.809615979100 	
H	 14.653280922200 	  9.245725086700 	  6.679056429100 	
H	 14.084736792200 	  9.245727896700 	 16.809613149100 	
H	 13.855469667900 	  6.153952088900 	  8.573035597100 	
H	 13.286925537900 	  6.153954898900 	 18.703592317100 	
H	 13.855438567900 	 12.337513848900 	  8.573032767100 	
H	 13.286894437900 	 12.337516658900 	 18.703589487100 	
H	 28.536296967900 	  6.153961318900 	  8.601165527100 	
H	 27.967752837900 	  6.153964128900 	 18.731722247100 	
H	 28.536265867900 	 12.337523078900 	  8.601162697100 	
H	 27.967721737900 	 12.337525888900 	 18.731719417100 	
H	 14.139766867500 	  3.121419146800 	  3.507755199200 	
H	 13.571222737500 	  3.121421956800 	 13.638311919200 	
H	 14.139735767500 	  9.304980906800 	  3.507752369200 	
H	 13.571191637500 	  9.304983716800 	 13.638309089200 	
H	 28.820594167500 	  3.121428376800 	  3.535885129200 	
H	 28.252050037500 	  3.121431186800 	 13.666441849200 	
H	 28.820563067500 	  9.304990136800 	  3.535882299200 	
H	 28.252018937500 	  9.304992946800 	 13.666439019200 	
H	  0.256782865300 	  0.029621463700 	  1.585647818500 	
H	 -0.311761264700 	  0.029624273700 	 11.716204538500 	
H	  0.256751765300 	  6.213183223700 	  1.585644988500 	
H	 -0.311792364700 	  6.213186033700 	 11.716201708500 	
H	 14.937610165300 	  0.029630693700 	  1.613777748500 	
H	 14.369066035300 	  0.029633503700 	 11.744334468500 	
H	 14.937579065300 	  6.213192453700 	  1.613774918500 	
H	 14.369034935300 	  6.213195263700 	 11.744331638500 	
C	  1.581473236200 	  0.991044022700 	  6.130188493600 	
C	  1.012929106200 	  0.991046832700 	 16.260745213600 	
C	  1.581442136200 	  7.174605782700 	  6.130185663600 	
C	  1.012898006200 	  7.174608592700 	 16.260742383600 	
C	 16.262300536200 	  0.991053252700 	  6.158318423600 	
C	 15.693756406200 	  0.991056062700 	 16.288875143600 	
C	 16.262269436200 	  7.174615012700 	  6.158315593600 	
C	 15.693725306200 	  7.174617822700 	 16.288872313600 	
C	 12.246521765400 	  4.082837103900 	  9.093781709700 	
C	 11.677977635400 	  4.082839913900 	 19.224338429700 	
C	 12.246490665400 	 10.266398863900 	  9.093778879700 	
C	 11.677946535400 	 10.266401673900 	 19.224335599700 	
C	 26.927349065400 	  4.082846333900 	  9.121911639700 	
C	 26.358804935400 	  4.082849143900 	 19.252468359700 	
C	 26.927317965400 	 10.266408093900 	  9.121908809700 	
C	 26.358773835400 	 10.266410903900 	 19.252465529700 	
C	 12.530778715400 	  5.192529777300 	  4.028494819600 	
C	 11.962234585400 	  5.192532587300 	 14.159051539600 	
C	 12.530747615400 	 11.376091537300 	  4.028491989600 	
C	 11.962203485400 	 11.376094347300 	 14.159048709600 	
C	 27.211606015400 	  5.192539007300 	  4.056624749600 	
C	 26.643061885400 	  5.192541817300 	 14.187181469600 	
C	 27.211574915400 	 11.376100767300 	  4.056621919600 	
C	 26.643030785400 	 11.376103577300 	 14.187178639600 	
C	  1.865730445700 	  2.100736819800 	  1.064902211900 	
C	  1.297186315700 	  2.100739629800 	 11.195458931900 	
C	  1.865699345700 	  8.284298579800 	  1.064899381900 	
C	  1.297155215700 	  8.284301389800 	 11.195456101900 	
C	 16.546557745700 	  2.100746049800 	  1.093032141900 	
C	 15.978013615700 	  2.100748859800 	 11.223588861900 	
C	 16.546526645700 	  8.284307809800 	  1.093029311900 	
C	 15.977982515700 	  8.284310619800 	 11.223586031900 	
H	  0.610675950600 	  1.034865784000 	  5.618136422600 	
H	  0.042131820600 	  1.034868594000 	 15.748693142600 	
H	  0.610644850600 	  7.218427544000 	  5.618133592600 	
H	  0.042100720600 	  7.218430354000 	 15.748690312600 	
H	 15.291503250600 	  1.034875014000 	  5.646266352600 	
H	 14.722959120600 	  1.034877824000 	 15.776823072600 	
H	 15.291472150600 	  7.218436774000 	  5.646263522600 	
H	 14.722928020600 	  7.218439584000 	 15.776820242600 	
H	 13.217317326700 	  4.126663991400 	  9.605838297400 	
H	 12.648773196700 	  4.126666801400 	 19.736395017400 	
H	 13.217286226700 	 10.310225751400 	  9.605835467400 	
H	 12.648742096700 	 10.310228561400 	 19.736392187400 	
H	 27.898144626700 	  4.126673221400 	  9.633968227400 	
H	 27.329600496700 	  4.126676031400 	 19.764524947400 	
H	 27.898113526700 	 10.310234981400 	  9.633965397400 	
H	 27.329569396700 	 10.310237791400 	 19.764522117400 	
H	 13.501575842900 	  5.148708016000 	  4.540547092900 	
H	 12.933031712900 	  5.148710826000 	 14.671103812900 	
H	 13.501544742900 	 11.332269776000 	  4.540544262900 	
H	 12.933000612900 	 11.332272586000 	 14.671100982900 	
H	 28.182403142900 	  5.148717246000 	  4.568677022900 	
H	 27.613859012900 	  5.148720056000 	 14.699233742900 	
H	 28.182372042900 	 11.332279006000 	  4.568674192900 	
H	 27.613827912900 	 11.332281816000 	 14.699230912900 	
H	  0.894934890100 	  2.056909870500 	  0.552845522900 	
H	  0.326390760100 	  2.056912680500 	 10.683402242900 	
H	  0.894903790100 	  8.240471630500 	  0.552842692900 	
H	  0.326359660100 	  8.240474440500 	 10.683399412900 	
H	 15.575762190100 	  2.056919100500 	  0.580975452900 	
H	 15.007218060100 	  2.056921910500 	 10.711532172900 	
H	 15.575731090100 	  8.240480860500 	  0.580972622900 	
H	 15.007186960100 	  8.240483670500 	 10.711529342900 	
H	  1.459783142400 	  0.369871747300 	  7.026704052400 	
H	  0.891239012400 	  0.369874557300 	 17.157260772400 	
H	  1.459752042400 	  6.553433507300 	  7.026701222400 	
H	  0.891207912400 	  6.553436317300 	 17.157257942400 	
H	 16.140610442400 	  0.369880977300 	  7.054833982400 	
H	 15.572066312400 	  0.369883787300 	 17.185390702400 	
H	 16.140579342400 	  6.553442737300 	  7.054831152400 	
H	 15.572035212400 	  6.553445547300 	 17.185387872400 	
H	 12.368224107600 	  3.461662627600 	  8.197272303400 	
H	 11.799679977600 	  3.461665437600 	 18.327829023400 	
H	 12.368193007600 	  9.645224387600 	  8.197269473400 	
H	 11.799648877600 	  9.645227197600 	 18.327826193400 	
H	 27.049051407600 	  3.461671857600 	  8.225402233400 	
H	 26.480507277600 	  3.461674667600 	 18.355958953400 	
H	 27.049020307600 	  9.645233617600 	  8.225399403400 	
H	 26.480476177600 	  9.645236427600 	 18.355956123400 	
H	 12.652468820600 	  5.813701619900 	  3.131979058100 	
H	 12.083924690600 	  5.813704429900 	 13.262535778100 	
H	 12.652437720600 	 11.997263379900 	  3.131976228100 	
H	 12.083893590600 	 11.997266189900 	 13.262532948100 	
H	 27.333296120600 	  5.813710849900 	  3.160108988100 	
H	 26.764751990600 	  5.813713659900 	 13.290665708100 	
H	 27.333265020600 	 11.997272609900 	  3.160106158100 	
H	 26.764720890600 	 11.997275419900 	 13.290662878100 	
H	  1.744027951100 	  2.721911110600 	  1.961411719200 	
H	  1.175483821100 	  2.721913920600 	 12.091968439200 	
H	  1.743996851100 	  8.905472870600 	  1.961408889200 	
H	  1.175452721100 	  8.905475680600 	 12.091965609200 	
H	 16.424855251100 	  2.721920340600 	  1.989541649200 	
H	 15.856311121100 	  2.721923150600 	 12.120098369200 	
H	 16.424824151100 	  8.905482100600 	  1.989538819200 	
H	 15.856280021100 	  8.905484910600 	 12.120095539200 	
H	  2.286177287500 	  0.494504553500 	  5.453213134500 	
H	  1.717633157500 	  0.494507363500 	 15.583769854500 	
H	  2.286146187500 	  6.678066313500 	  5.453210304500 	
H	  1.717602057500 	  6.678069123500 	 15.583767024500 	
H	 16.967004587500 	  0.494513783500 	  5.481343064500 	
H	 16.398460457500 	  0.494516593500 	 15.611899784500 	
H	 16.966973487500 	  6.678075543500 	  5.481340234500 	
H	 16.398429357500 	  6.678078353500 	 15.611896954500 	
H	 11.541823906000 	  3.586296368900 	  9.770757120400 	
H	 10.973279776000 	  3.586299178900 	 19.901313840400 	
H	 11.541792806000 	  9.769858128900 	  9.770754290400 	
H	 10.973248676000 	  9.769860938900 	 19.901311010400 	
H	 26.222651206000 	  3.586305598900 	  9.798887050400 	
H	 25.654107076000 	  3.586308408900 	 19.929443770400 	
H	 26.222620106000 	  9.769867358900 	  9.798884220400 	
H	 25.654075976000 	  9.769870168900 	 19.929440940400 	
H	 11.826074523000 	  5.689069555700 	  4.705470077100 	
H	 11.257530393000 	  5.689072365700 	 14.836026797100 	
H	 11.826043423000 	 11.872631315700 	  4.705467247100 	
H	 11.257499293000 	 11.872634125700 	 14.836023967100 	
H	 26.506901823000 	  5.689078785700 	  4.733600007100 	
H	 25.938357693000 	  5.689081595700 	 14.864156727100 	
H	 26.506870723000 	 11.872640545700 	  4.733597177100 	
H	 25.938326593000 	 11.872643355700 	 14.864153897100 	
H	  2.570428293700 	  2.597277802200 	  0.387927003800 	
H	  2.001884163700 	  2.597280612200 	 10.518483723800 	
H	  2.570397193700 	  8.780839562200 	  0.387924173800 	
H	  2.001853063700 	  8.780842372200 	 10.518480893800 	
H	 17.251255593700 	  2.597287032200 	  0.416056933800 	
H	 16.682711463700 	  2.597289842200 	 10.546613653800 	
H	 17.251224493700 	  8.780848792200 	  0.416054103800 	
H	 16.682680363700 	  8.780851602200 	 10.546610823800 	
768 
Energy: -9.0352670945770001e+01 
S	  8.729155328807 	  1.557106939129 	  0.050395216312 	
S	  8.160611198807 	  1.557109749129 	 10.180951936312 	
S	  8.729124228807 	  7.740668699129 	  0.050392386312 	
S	  8.160580098807 	  7.740671509129 	 10.180949106312 	
S	 23.409982628807 	  1.557116169129 	  0.078525146312 	
S	 22.841438498807 	  1.557118979129 	 10.209081866312 	
S	 23.409951528807 	  7.740677929129 	  0.078522316312 	
S	 22.841407398807 	  7.740680739129 	 10.209079036312 	
S	  5.618535223610 	  4.644879326478 	  5.071766476694 	
S	  5.049991093610 	  4.644882136478 	 15.202323196694 	
S	  5.618504123610 	 10.828441086478 	  5.071763646694 	
S	  5.049959993610 	 10.828443896478 	 15.202320366694 	
S	 20.299362523610 	  4.644888556478 	  5.099896406694 	
S	 19.730818393610 	  4.644891366478 	 15.230453126694 	
S	 20.299331423610 	 10.828450316478 	  5.099893576694 	
S	 19.730787293610 	 10.828453126478 	 15.230450296694 	
S	  5.341086692847 	  4.619770322281 	 10.157785256956 	
S	  4.772542562847 	  4.619773132281 	 20.288341976956 	
S	  5.341055592847 	 10.803332082281 	 10.157782426956 	
S	  4.772511462847 	 10.803334892281 	 20.288339146956 	
S	 20.021913992847 	  4.619779552281 	 10.185915186956 	
S	 19.453369862847 	  4.619782362281 	 20.316471906956 	
S	 20.021882892847 	 10.803341312281 	 10.185912356956 	
S	 19.453338762847 	 10.803344122281 	 20.316469076956 	
S	  8.451707174219 	  1.531998609888 	  5.136414247554 	
S	  7.883163044219 	  1.532001419888 	 15.266970967554 	
S	  8.451676074219 	  7.715560369888 	  5.136411417554 	
S	  7.883131944219 	  7.715563179888 	 15.266968137554 	
S	 23.132534474219 	  1.532007839888 	  5.164544177554 	
S	 22.563990344219 	  1.532010649888 	 15.295100897554 	
S	 23.132503374219 	  7.715569599888 	  5.164541347554 	
S	 22.563959244219 	  7.715572409888 	 15.295098067554 	
C	  6.740386697537 	  2.565090906109 	  9.831714809191 	
C	  6.171842567537 	  2.565093716109 	 19.962271529191 	
C	  6.740355597537 	  8.748652666109 	  9.831711979191 	
C	  6.171811467537 	  8.748655476109 	 19.962268699191 	
C	 21.421213997537 	  2.565100136109 	  9.859844739191 	
C	 20.852669867537 	  2.565102946109 	 19.990401459191 	
C	 21.421182897537 	  8.748661896109 	  9.859841909191 	
C	 20.852638767537 	  8.748664706109 	 19.990398629191 	
C	  7.053212013235 	  5.598865063435 	  5.500384691107 	
C	  6.484667883235 	  5.598867873435 	 15.630941411107 	
C	  7.053180913235 	 11.782426823435 	  5.500381861107 	
C	  6.484636783235 	 11.782429633435 	 15.630938581107 	
C	 21.734039313235 	  5.598874293435 	  5.528514621107 	
C	 21.165495183235 	  5.598877103435 	 15.659071341107 	
C	 21.734008213235 	 11.782436053435 	  5.528511791107 	
C	 21.165464083235 	 11.782438863435 	 15.659068511107 	
C	  7.329855371053 	  3.611786303956 	  0.376465684227 	
C	  6.761311241053 	  3.611789113956 	 10.507022404227 	
C	  7.329824271053 	  9.795348063956 	  0.376462854227 	
C	  6.761280141053 	  9.795350873956 	 10.507019574227 	
C	 22.010682671053 	  3.611795533956 	  0.404595614227 	
C	 21.442138541053 	  3.611798343956 	 10.535152334227 	
C	 22.010651571053 	  9.795357293956 	  0.404592784227 	
C	 21.442107441053 	  9.795360103956 	 10.535149504227 	
C	  7.017030248555 	  0.578012984504 	  4.707796021404 	
C	  6.448486118555 	  0.578015794504 	 14.838352741404 	
C	  7.016999148555 	  6.761574744504 	  4.707793191404 	
C	  6.448455018555 	  6.761577554504 	 14.838349911404 	
C	 21.697857548555 	  0.578022214504 	  4.735925951404 	
C	 21.129313418555 	  0.578025024504 	 14.866482671404 	
C	 21.697826448555 	  6.761583974504 	  4.735923121404 	
C	 21.129282318555 	  6.761586784504 	 14.866479841404 	
C	  5.678498256174 	  2.335697465492 	  8.908471567243 	
C	  5.109954126174 	  2.335700275492 	 19.039028287243 	
C	  5.678467156174 	  8.519259225492 	  8.908468737243 	
C	  5.109923026174 	  8.519262035492 	 19.039025457243 	
C	 20.359325556174 	  2.335706695492 	  8.936601497243 	
C	 19.790781426174 	  2.335709505492 	 19.067158217243 	
C	 20.359294456174 	  8.519268455492 	  8.936598667243 	
C	 19.790750326174 	  8.519271265492 	 19.067155387243 	
C	  8.111650041931 	  5.417484448212 	  6.385301607393 	
C	  7.543105911931 	  5.417487258212 	 16.515858327393 	
C	  8.111618941931 	 11.601046208212 	  6.385298777393 	
C	  7.543074811931 	 11.601049018212 	 16.515855497393 	
C	 22.792477341931 	  5.417493678212 	  6.413431537393 	
C	 22.223933211931 	  5.417496488212 	 16.543988257393 	
C	 22.792446241931 	 11.601055438212 	  6.413428707393 	
C	 22.223902111931 	 11.601058248212 	 16.543985427393 	
C	  8.391743604329 	  3.841179769129 	  1.299708770297 	
C	  7.823199474329 	  3.841182579129 	 11.430265490297 	
C	  8.391712504329 	 10.024741529129 	  1.299705940297 	
C	  7.823168374329 	 10.024744339129 	 11.430262660297 	
C	 23.072570904329 	  3.841188999129 	  1.327838700297 	
C	 22.504026774329 	  3.841191809129 	 11.458395420297 	
C	 23.072539804329 	 10.024750759129 	  1.327835870297 	
C	 22.503995674329 	 10.024753569129 	 11.458392590297 	
C	  5.958592167971 	  0.759393565289 	  3.822879006088 	
C	  5.390048037971 	  0.759396375289 	 13.953435726088 	
C	  5.958561067971 	  6.942955325289 	  3.822876176088 	
C	  5.390016937971 	  6.942958135289 	 13.953432896088 	
C	 20.639419467971 	  0.759402795289 	  3.851008936088 	
C	 20.070875337971 	  0.759405605289 	 13.981565656088 	
C	 20.639388367971 	  6.942964555289 	  3.851006106088 	
C	 20.070844237971 	  6.942967365289 	 13.981562826088 	
C	  4.778410241147 	  3.382245627328 	  8.948800856921 	
C	  4.209866111147 	  3.382248437328 	 19.079357576921 	
C	  4.778379141147 	  9.565807387328 	  8.948798026921 	
C	  4.209835011147 	  9.565810197328 	 19.079354746921 	
C	 19.459237541147 	  3.382254857328 	  8.976930786921 	
C	 18.890693411147 	  3.382257667328 	 19.107487506921 	
C	 19.459206441147 	  9.565816617328 	  8.976927956921 	
C	 18.890662311147 	  9.565819427328 	 19.107484676921 	
C	  9.011946719196 	  0.298809124282 	  6.346725994074 	
C	  8.443402589196 	  0.298811934282 	 16.477282714074 	
C	  9.011915619196 	  6.482370884282 	  6.346723164074 	
C	  8.443371489196 	  6.482373694282 	 16.477279884074 	
C	 23.692774019196 	  0.298818354282 	  6.374855924074 	
C	 23.124229889196 	  0.298821164282 	 16.505412644074 	
C	 23.692742919196 	  6.482380114282 	  6.374853094074 	
C	 23.124198789196 	  6.482382924282 	 16.505409814074 	
C	  9.291831614707 	  2.794631703383 	  1.259379588292 	
C	  8.723287484707 	  2.794634513383 	 11.389936308292 	
C	  9.291800514707 	  8.978193463383 	  1.259376758292 	
C	  8.723256384707 	  8.978196273383 	 11.389933478292 	
C	 23.972658914707 	  2.794640933383 	  1.287509518292 	
C	 23.404114784707 	  2.794643743383 	 11.418066238292 	
C	 23.972627814707 	  8.978202693383 	  1.287506688292 	
C	 23.404083684707 	  8.978205503383 	 11.418063408292 	
C	  5.058295523423 	  5.878068830384 	  3.861454649732 	
C	  4.489751393423 	  5.878071640384 	 13.992011369732 	
C	  5.058264423423 	 12.061630590384 	  3.861451819732 	
C	  4.489720293423 	 12.061633400384 	 13.992008539732 	
C	 19.739122823423 	  5.878078060384 	  3.889584579732 	
C	 19.170578693423 	  5.878080870384 	 14.020141299732 	
C	 19.739091723423 	 12.061639820384 	  3.889581749732 	
C	 19.170547593423 	 12.061642630384 	 14.020138469732 	
C	  3.682749895889 	  3.418395817069 	  8.219554441633 	
C	  3.114205765889 	  3.418398627069 	 18.350111161633 	
C	  3.682718795889 	  9.601957577069 	  8.219551611633 	
C	  3.114174665889 	  9.601960387069 	 18.350108331633 	
C	 18.363577195889 	  3.418405047069 	  8.247684371633 	
C	 17.795033065889 	  3.418407857069 	 18.378241091633 	
C	 18.363546095889 	  9.601966807069 	  8.247681541633 	
C	 17.795001965889 	  9.601969617069 	 18.378238261633 	
C	 10.101592754608 	  0.344647989978 	  7.063874663838 	
C	  9.533048624608 	  0.344650799978 	 17.194431383838 	
C	 10.101561654608 	  6.528209749978 	  7.063871833838 	
C	  9.533017524608 	  6.528212559978 	 17.194428553838 	
C	 24.782420054608 	  0.344657219978 	  7.092004593838 	
C	 24.213875924608 	  0.344660029978 	 17.222561313838 	
C	 24.782388954608 	  6.528218979978 	  7.092001763838 	
C	 24.213844824608 	  6.528221789978 	 17.222558483838 	
C	 10.387492008679 	  2.758481580358 	  1.988626150187 	
C	  9.818947878679 	  2.758484390358 	 12.119182870187 	
C	 10.387460908679 	  8.942043340358 	  1.988623320187 	
C	  9.818916778679 	  8.942046150358 	 12.119180040187 	
C	 25.068319308679 	  2.758490810358 	  2.016756080187 	
C	 24.499775178679 	  2.758493620358 	 12.147312800187 	
C	 25.068288208679 	  8.942052570358 	  2.016753250187 	
C	 24.499744078679 	  8.942055380358 	 12.147309970187 	
C	  3.968649464161 	  5.832229924792 	  3.144306018410 	
C	  3.400105334161 	  5.832232734792 	 13.274862738410 	
C	  3.968618364161 	 12.015791684792 	  3.144303188410 	
C	  3.400074234161 	 12.015794494792 	 13.274859908410 	
C	 18.649476764161 	  5.832239154792 	  3.172435948410 	
C	 18.080932634161 	  5.832241964792 	 13.302992668410 	
C	 18.649445664161 	 12.015800914792 	  3.172433118410 	
C	 18.080901534161 	 12.015803724792 	 13.302989838410 	
H	  2.983673046796 	  4.323334713889 	  8.303603973504 	
H	  2.415128916796 	  4.323337523889 	 18.434160693504 	
H	  2.983641946796 	 10.506896473889 	  8.303601143504 	
H	  2.415097816796 	 10.506899283889 	 18.434157863504 	
H	 17.664500346796 	  4.323343943889 	  8.331733903504 	
H	 17.095956216796 	  4.323346753889 	 18.462290623504 	
H	 17.664469246796 	 10.506905703889 	  8.331731073504 	
H	 17.095925116796 	 10.506908513889 	 18.462287793504 	
H	 10.807720399170 	  1.232632001061 	  6.992848203895 	
H	 10.239176269170 	  1.232634811061 	 17.123404923895 	
H	 10.807689299170 	  7.416193761061 	  6.992845373895 	
H	 10.239145169170 	  7.416196571061 	 17.123402093895 	
H	 25.488547699170 	  1.232641231061 	  7.020978133895 	
H	 24.920003569170 	  1.232644041061 	 17.151534853895 	
H	 25.488516599170 	  7.416202991061 	  7.020975303895 	
H	 24.919972469170 	  7.416205801061 	 17.151532023895 	
H	 11.086568829053 	  1.853542666917 	  1.904576522927 	
H	 10.518024699053 	  1.853545476917 	 12.035133242927 	
H	 11.086537729053 	  8.037104426917 	  1.904573692927 	
H	 10.517993599053 	  8.037107236917 	 12.035130412927 	
H	 25.767396129053 	  1.853551896917 	  1.932706452927 	
H	 25.198851999053 	  1.853554706917 	 12.063263172927 	
H	 25.767365029053 	  8.037113656917 	  1.932703622927 	
H	 25.198820899053 	  8.037116466917 	 12.063260342927 	
H	  3.262521937655 	  4.944245820644 	  3.215332499223 	
H	  2.693977807655 	  4.944248630644 	 13.345889219223 	
H	  3.262490837655 	 11.127807580644 	  3.215329669223 	
H	  2.693946707655 	 11.127810390644 	 13.345886389223 	
H	 17.943349237655 	  4.944255050644 	  3.243462429223 	
H	 17.374805107655 	  4.944257860644 	 13.374019149223 	
H	 17.943318137655 	 11.127816810644 	  3.243459599223 	
H	 17.374774007655 	 11.127819620644 	 13.374016319223 	
C	  3.362093842683 	  2.425225050065 	  7.386360893480 	
C	  2.793549712683 	  2.425227860065 	 17.516917613480 	
C	  3.362062742683 	  8.608786810065 	  7.386358063480 	
C	  2.793518612683 	  8.608789620065 	 17.516914783480 	
C	 18.042921142683 	  2.425234280065 	  7.414490823480 	
C	 17.474377012683 	  2.425237090065 	 17.545047543480 	
C	 18.042890042683 	  8.608796040065 	  7.414487993480 	
C	 17.474345912683 	  8.608798850065 	 17.545044713480 	
C	 10.434095011255 	  5.497936243218 	  7.919010672138 	
C	  9.865550881255 	  5.497939053218 	 18.049567392138 	
C	 10.434063911255 	 11.681498003218 	  7.919007842138 	
C	  9.865519781255 	 11.681500813218 	 18.049564562138 	
C	 25.114922311255 	  5.497945473218 	  7.947140602138 	
C	 24.546378181255 	  5.497948283218 	 18.077697322138 	
C	 25.114891211255 	 11.681507233218 	  7.947137772138 	
C	 24.546347081255 	 11.681510043218 	 18.077694492138 	
C	 10.708147890654 	  3.751652262186 	  2.821819634885 	
C	 10.139603760654 	  3.751655072186 	 12.952376354885 	
C	 10.708116790654 	  9.935214022186 	  2.821816804885 	
C	 10.139572660654 	  9.935216832186 	 12.952373524885 	
C	 25.388975190654 	  3.751661492186 	  2.849949564885 	
C	 24.820431060654 	  3.751664302186 	 12.980506284885 	
C	 25.388944090654 	  9.935223252186 	  2.849946734885 	
C	 24.820399960654 	  9.935226062186 	 12.980503454885 	
C	  3.636147299243 	  0.678941634350 	  2.289169942339 	
C	  3.067603169243 	  0.678944444350 	 12.419726662339 	
C	  3.636116199243 	  6.862503394350 	  2.289167112339 	
C	  3.067572069243 	  6.862506204350 	 12.419723832339 	
C	 18.316974599243 	  0.678950864350 	  2.317299872339 	
C	 17.748430469243 	  0.678953674350 	 12.447856592339 	
C	 18.316943499243 	  6.862512624350 	  2.317297042339 	
C	 17.748399369243 	  6.862515434350 	 12.447853762339 	
C	  4.263490243746 	  1.398222630865 	  7.312076523077 	
C	  3.694946113746 	  1.398225440865 	 17.442633243077 	
C	  4.263459143746 	  7.581784390865 	  7.312073693077 	
C	  3.694915013746 	  7.581787200865 	 17.442630413077 	
C	 18.944317543746 	  1.398231860865 	  7.340206453077 	
C	 18.375773413746 	  1.398234670865 	 17.470763173077 	
C	 18.944286443746 	  7.581793620865 	  7.340203623077 	
C	 18.375742313746 	  7.581796430865 	 17.470760343077 	
C	  9.528160696437 	  4.488430429612 	  7.981211016681 	
C	  8.959616566437 	  4.488433239612 	 18.111767736681 	
C	  9.528129596437 	 10.671992189612 	  7.981208186681 	
C	  8.959585466437 	 10.671994999612 	 18.111764906681 	
C	 24.208987996437 	  4.488439659612 	  8.009340946681 	
C	 23.640443866437 	  4.488442469612 	 18.139897666681 	
C	 24.208956896437 	 10.672001419612 	  8.009338116681 	
C	 23.640412766437 	 10.672004229612 	 18.139894836681 	
C	  9.806751379112 	  4.778654638465 	  2.896104101190 	
C	  9.238207249112 	  4.778657448465 	 13.026660821190 	
C	  9.806720279112 	 10.962216398465 	  2.896101271190 	
C	  9.238176149112 	 10.962219208465 	 13.026657991190 	
C	 24.487578679112 	  4.778663868465 	  2.924234031190 	
C	 23.919034549112 	  4.778666678465 	 13.054790751190 	
C	 24.487547579112 	 10.962225628465 	  2.924231201190 	
C	 23.919003449112 	 10.962228438465 	 13.054787921190 	
C	  4.542081431522 	  1.688447394709 	  2.226969565866 	
C	  3.973537301522 	  1.688450204709 	 12.357526285866 	
C	  4.542050331522 	  7.872009154709 	  2.226966735866 	
C	  3.973506201522 	  7.872011964709 	 12.357523455866 	
C	 19.222908731522 	  1.688456624709 	  2.255099495866 	
C	 18.654364601522 	  1.688459434709 	 12.385656215866 	
C	 19.222877631522 	  7.872018384709 	  2.255096665866 	
C	 18.654333501522 	  7.872021194709 	 12.385653385866 	
H	  4.037383626534 	  0.543847463935 	  6.585180243155 	
H	  3.468839496534 	  0.543850273935 	 16.715736963155 	
H	  4.037352526534 	  6.727409223935 	  6.585177413155 	
H	  3.468808396534 	  6.727412033935 	 16.715734133155 	
H	 18.718210926534 	  0.543856693935 	  6.613310173155 	
H	 18.149666796534 	  0.543859503935 	 16.743866893155 	
H	 18.718179826534 	  6.727418453935 	  6.613307343155 	
H	 18.149635696534 	  6.727421263935 	 16.743864063155 	
H	  9.753340517501 	  3.633072888421 	  8.708917981433 	
H	  9.184796387501 	  3.633075698421 	 18.839474701433 	
H	  9.753309417501 	  9.816634648421 	  8.708915151433 	
H	  9.184765287501 	  9.816637458421 	 18.839471871433 	
H	 24.434167817501 	  3.633082118421 	  8.737047911433 	
H	 23.865623687501 	  3.633084928421 	 18.867604631433 	
H	 24.434136717501 	  9.816643878421 	  8.737045081433 	
H	 23.865592587501 	  9.816646688421 	 18.867601801433 	
H	 10.032857987958 	  5.633029763976 	  3.623000430105 	
H	  9.464313857958 	  5.633032573976 	 13.753557150105 	
H	 10.032826887958 	 11.816591523976 	  3.622997600105 	
H	  9.464282757958 	 11.816594333976 	 13.753554320105 	
H	 24.713685287958 	  5.633038993976 	  3.651130360105 	
H	 24.145141157958 	  5.633041803976 	 13.781687080105 	
H	 24.713654187958 	 11.816600753976 	  3.651127530105 	
H	 24.145110057958 	 11.816603563976 	 13.781684250105 	
H	  4.316901613882 	  2.543804964384 	  1.499262630174 	
H	  3.748357483882 	  2.543807774384 	 11.629819350174 	
H	  4.316870513882 	  8.727366724384 	  1.499259800174 	
H	  3.748326383882 	  8.727369534384 	 11.629816520174 	
H	 18.997728913882 	  2.543814194384 	  1.527392560174 	
H	 18.429184783882 	  2.543817004384 	 11.657949280174 	
H	 18.997697813882 	  8.727375954384 	  1.527389730174 	
H	 18.429153683882 	  8.727378764384 	 11.657946450174 	
C	  5.342013521041 	  1.349404020456 	  8.011053859664 	
C	  4.773469391041 	  1.349406830456 	 18.141610579664 	
C	  5.341982421041 	  7.532965780456 	  8.011051029664 	
C	  4.773438291041 	  7.532968590456 	 18.141607749664 	
C	 20.022840821041 	  1.349413250456 	  8.039183789664 	
C	 19.454296691041 	  1.349416060456 	 18.169740509664 	
C	 20.022809721041 	  7.532975010456 	  8.039180959664 	
C	 19.454265591041 	  7.532977820456 	 18.169737679664 	
C	  8.449654486842 	  4.439351651336 	  7.282345006628 	
C	  7.881110356842 	  4.439354461336 	 17.412901726628 	
C	  8.449623386842 	 10.622913411336 	  7.282342176628 	
C	  7.881079256842 	 10.622916221336 	 17.412898896628 	
C	 23.130481786842 	  4.439360881336 	  7.310474936628 	
C	 22.561937656842 	  4.439363691336 	 17.441031656628 	
C	 23.130450686842 	 10.622922641336 	  7.310472106628 	
C	 22.561906556842 	 10.622925451336 	 17.441028826628 	
C	  8.728228216414 	  4.827473226742 	  2.197126589347 	
C	  8.159684086414 	  4.827476036742 	 12.327683309347 	
C	  8.728197116414 	 11.011034986742 	  2.197123759347 	
C	  8.159652986414 	 11.011037796742 	 12.327680479347 	
C	 23.409055516414 	  4.827482456742 	  2.225256519347 	
C	 22.840511386414 	  4.827485266742 	 12.355813239347 	
C	 23.409024416414 	 11.011044216742 	  2.225253689347 	
C	 22.840480286414 	 11.011047026742 	 12.355810409347 	
C	  5.620587746089 	  1.737526302055 	  2.925835659265 	
C	  5.052043616089 	  1.737529112055 	 13.056392379265 	
C	  5.620556646089 	  7.921088062055 	  2.925832829265 	
C	  5.052012516089 	  7.921090872055 	 13.056389549265 	
C	 20.301415046089 	  1.737535532055 	  2.953965589265 	
C	 19.732870916089 	  1.737538342055 	 13.084522309265 	
C	 20.301383946089 	  7.921097292055 	  2.953962759265 	
C	 19.732839816089 	  7.921100102055 	 13.084519479265 	
H	  6.060689474017 	  0.464001907341 	  7.915146548746 	
H	  5.492145344017 	  0.464004717341 	 18.045703268746 	
H	  6.060658374017 	  6.647563667341 	  7.915143718746 	
H	  5.492114244017 	  6.647566477341 	 18.045700438746 	
H	 20.741516774017 	  0.464011137341 	  7.943276478746 	
H	 20.172972644017 	  0.464013947341 	 18.073833198746 	
H	 20.741485674017 	  6.647572897341 	  7.943273648746 	
H	 20.172941544017 	  6.647575707341 	 18.073830368746 	
H	  7.730530991421 	  3.552861226113 	  7.379158541361 	
H	  7.161986861421 	  3.552864036113 	 17.509715261361 	
H	  7.730499891421 	  9.736422986113 	  7.379155711361 	
H	  7.161955761421 	  9.736425796113 	 17.509712431361 	
H	 22.411358291421 	  3.552870456113 	  7.407288471361 	
H	 21.842814161421 	  3.552873266113 	 17.537845191361 	
H	 22.411327191421 	  9.736432216113 	  7.407285641361 	
H	 21.842783061421 	  9.736435026113 	 17.537842361361 	
H	  8.009552159426 	  5.712875242755 	  2.293033953094 	
H	  7.441008029426 	  5.712878052755 	 12.423590673094 	
H	  8.009521059426 	 11.896437002755 	  2.293031123094 	
H	  7.440976929426 	 11.896439812755 	 12.423587843094 	
H	 22.690379459426 	  5.712884472755 	  2.321163883094 	
H	 22.121835329426 	  5.712887282755 	 12.451720603094 	
H	 22.690348359426 	 11.896446232755 	  2.321161053094 	
H	 22.121804229426 	 11.896449042755 	 12.451717773094 	
H	  6.339711189684 	  2.624016762411 	  2.829022092666 	
H	  5.771167059684 	  2.624019572411 	 12.959578812666 	
H	  6.339680089684 	  8.807578522411 	  2.829019262666 	
H	  5.771135959684 	  8.807581332411 	 12.959575982666 	
H	 21.020538489684 	  2.624025992411 	  2.857152022666 	
H	 20.451994359684 	  2.624028802411 	 12.987708742666 	
H	 21.020507389684 	  8.807587752411 	  2.857149192666 	
H	 20.451963259684 	  8.807590562411 	 12.987705912666 	
C	  1.992957156882 	  2.452866762953 	  6.485668404469 	
C	  1.424413026882 	  2.452869572953 	 16.616225124469 	
C	  1.992926056882 	  8.636428522953 	  6.485665574469 	
C	  1.424381926882 	  8.636431332953 	 16.616222294469 	
C	 16.673784456882 	  2.452875992953 	  6.513798334469 	
C	 16.105240326882 	  2.452878802953 	 16.644355054469 	
C	 16.673753356882 	  8.636437752953 	  6.513795504469 	
C	 16.105209226882 	  8.636440562953 	 16.644352224469 	
C	 11.806343177556 	  5.532973578138 	  8.808482813774 	
C	 11.237799047556 	  5.532976388138 	 18.939039533774 	
C	 11.806312077556 	 11.716535338138 	  8.808479983774 	
C	 11.237767947556 	 11.716538148138 	 18.939036703774 	
C	 26.487170477556 	  5.532982808138 	  8.836612743774 	
C	 25.918626347556 	  5.532985618138 	 18.967169463774 	
C	 26.487139377556 	 11.716544568138 	  8.836609913774 	
C	 25.918595247556 	 11.716547378138 	 18.967166633774 	
C	 12.077284469400 	  3.724010693025 	  3.722512172008 	
C	 11.508740339400 	  3.724013503025 	 13.853068892008 	
C	 12.077253369400 	  9.907572453025 	  3.722509342008 	
C	 11.508709239400 	  9.907575263025 	 13.853066062008 	
C	 26.758111769400 	  3.724019923025 	  3.750642102008 	
C	 26.189567639400 	  3.724022733025 	 13.881198822008 	
C	 26.758080669400 	  9.907581683025 	  3.750639272008 	
C	 26.189536539400 	  9.907584493025 	 13.881195992008 	
C	  2.263899226924 	  0.643904148991 	  1.399697743420 	
C	  1.695355096924 	  0.643906958991 	 11.530254463420 	
C	  2.263868126924 	  6.827465908991 	  1.399694913420 	
C	  1.695323996924 	  6.827468718991 	 11.530251633420 	
C	 16.944726526924 	  0.643913378991 	  1.427827673420 	
C	 16.376182396924 	  0.643916188991 	 11.558384393420 	
C	 16.944695426924 	  6.827475138991 	  1.427824843420 	
C	 16.376151296924 	  6.827477948991 	 11.558381563420 	
C	  2.263923765655 	  3.065254945968 	  5.319129853255 	
C	  1.695379635655 	  3.065257755968 	 15.449686573255 	
C	  2.263892665655 	  9.248816705968 	  5.319127023255 	
C	  1.695348535655 	  9.248819515968 	 15.449683743255 	
C	 16.944751065655 	  3.065264175968 	  5.347259783255 	
C	 16.376206935655 	  3.065266985968 	 15.477816503255 	
C	 16.944719965655 	  9.248825935968 	  5.347256953255 	
C	 16.376175835655 	  9.248828745968 	 15.477813673255 	
C	 11.528714976239 	 -0.017971744194 	  9.882245570938 	
C	 10.960170846239 	 -0.017968934194 	 20.012802290938 	
C	 11.528683876239 	  6.165590015806 	  9.882242740938 	
C	 10.960139746239 	  6.165592825806 	 20.012799460938 	
C	 26.209542276239 	 -0.017962514194 	  9.910375500938 	
C	 25.640998146239 	 -0.017959704194 	 20.040932220938 	
C	 26.209511176239 	  6.165599245806 	  9.910372670938 	
C	 25.640967046239 	  6.165602055806 	 20.040929390938 	
C	 11.806317594897 	  3.111622797101 	  4.889051240187 	
C	 11.237773464897 	  3.111625607101 	 15.019607960187 	
C	 11.806286494897 	  9.295184557101 	  4.889048410187 	
C	 11.237742364897 	  9.295187367101 	 15.019605130187 	
C	 26.487144894897 	  3.111632027101 	  4.917181170187 	
C	 25.918600764897 	  3.111634837101 	 15.047737890187 	
C	 26.487113794897 	  9.295193787101 	  4.917178340187 	
C	 25.918569664897 	  9.295196597101 	 15.047735060187 	
C	  2.541527460104 	  6.194849758106 	  0.325934905699 	
C	  1.972983330104 	  6.194852568106 	 10.456491625699 	
C	  2.541496360104 	 12.378411518106 	  0.325932075699 	
C	  1.972952230104 	 12.378414328106 	 10.456488795699 	
C	 17.222354760104 	  6.194858988106 	  0.354064835699 	
C	 16.653810630104 	  6.194861798106 	 10.484621555699 	
C	 17.222323660104 	 12.378420748106 	  0.354062005699 	
C	 16.653779530104 	 12.378423558106 	 10.484618725699 	
H	  2.658639841639 	  4.122560924562 	  5.380952725753 	
H	  2.090095711639 	  4.122563734562 	 15.511509445753 	
H	  2.658608741639 	 10.306122684562 	  5.380949895753 	
H	  2.090064611639 	 10.306125494562 	 15.511506615753 	
H	 17.339467141639 	  4.122570154562 	  5.409082655753 	
H	 16.770923011639 	  4.122572964562 	 15.539639375753 	
H	 17.339436041639 	 10.306131914562 	  5.409079825753 	
H	 16.770891911639 	 10.306134724562 	 15.539636545753 	
H	 11.125137028401 	  1.022271887053 	  9.918643745335 	
H	 10.556592898401 	  1.022274697053 	 20.049200465335 	
H	 11.125105928401 	  7.205833647053 	  9.918640915335 	
H	 10.556561798401 	  7.205836457053 	 20.049197635335 	
H	 25.805964328401 	  1.022281117053 	  9.946773675335 	
H	 25.237420198401 	  1.022283927053 	 20.077330395335 	
H	 25.805933228401 	  7.205842877053 	  9.946770845335 	
H	 25.237389098401 	  7.205845687053 	 20.077327565335 	
H	 11.411601701146 	  2.054316773997 	  4.827228622773 	
H	 10.843057571146 	  2.054319583997 	 14.957785342773 	
H	 11.411570601146 	  8.237878533997 	  4.827225792773 	
H	 10.843026471146 	  8.237881343997 	 14.957782512773 	
H	 26.092429001146 	  2.054326003997 	  4.855358552773 	
H	 25.523884871146 	  2.054328813997 	 14.985915272773 	
H	 26.092397901146 	  8.237887763997 	  4.855355722773 	
H	 25.523853771146 	  8.237890573997 	 14.985912442773 	
H	  2.945105465642 	  5.154606153876 	  0.289536511153 	
H	  2.376561335642 	  5.154608963876 	 10.420093231153 	
H	  2.945074365642 	 11.338167913876 	  0.289533681153 	
H	  2.376530235642 	 11.338170723876 	 10.420090401153 	
H	 17.625932765642 	  5.154615383876 	  0.317666441153 	
H	 17.057388635642 	  5.154618193876 	 10.448223161153 	
H	 17.625901665642 	 11.338177143876 	  0.317663611153 	
H	 17.057357535642 	 11.338179953876 	 10.448220331153 	
H	  1.416195200257 	  3.172954980266 	  4.584463187309 	
H	  0.847651070257 	  3.172957790266 	 14.715019907309 	
H	  1.416164100257 	  9.356516740266 	  4.584460357309 	
H	  0.847619970257 	  9.356519550266 	 14.715017077309 	
H	 16.097022500257 	  3.172964210266 	  4.612593117309 	
H	 15.528478370257 	  3.172967020266 	 14.743149837309 	
H	 16.096991400257 	  9.356525970266 	  4.612590287309 	
H	 15.528447270257 	  9.356528780266 	 14.743147007309 	
H	 12.993222803330 	  0.092996803917 	  0.583377752714 	
H	 12.424678673330 	  0.092999613917 	 10.713934472714 	
H	 12.993191703330 	  6.276558563917 	  0.583374922714 	
H	 12.424647573330 	  6.276561373917 	 10.713931642714 	
H	 27.674050103330 	  0.093006033917 	  0.611507682714 	
H	 27.105505973330 	  0.093008843917 	 10.742064402714 	
H	 27.674019003330 	  6.276567793917 	  0.611504852714 	
H	 27.105474873330 	  6.276570603917 	 10.742061572714 	
H	 12.654046129583 	  3.003923181969 	  5.623717973087 	
H	 12.085501999583 	  3.003925991969 	 15.754274693087 	
H	 12.654015029583 	  9.187484941969 	  5.623715143087 	
H	 12.085470899583 	  9.187487751969 	 15.754271863087 	
H	 27.334873429583 	  3.003932411969 	  5.651847903087 	
H	 26.766329299583 	  3.003935221969 	 15.782404623087 	
H	 27.334842329583 	  9.187494171969 	  5.651845073087 	
H	 26.766298199583 	  9.187496981969 	 15.782401793087 	
H	  1.077019728701 	  6.083881228528 	  9.624802592152 	
H	  0.508475598701 	  6.083884038528 	 19.755359312152 	
H	  1.076988628701 	 12.267442988528 	  9.624799762152 	
H	  0.508444498701 	 12.267445798528 	 19.755356482152 	
H	 15.757847028701 	  6.083890458528 	  9.652932522152 	
H	 15.189302898701 	  6.083893268528 	 19.783489242152 	
H	 15.757815928701 	 12.267452218528 	  9.652929692152 	
H	 15.189271798701 	 12.267455028528 	 19.783486412152 	
H	  3.068865726816 	  2.605239651891 	  4.671776972736 	
H	  2.500321596816 	  2.605242461891 	 14.802333692736 	
H	  3.068834626816 	  8.788801411891 	  4.671774142736 	
H	  2.500290496816 	  8.788804221891 	 14.802330862736 	
H	 17.749693026816 	  2.605248881891 	  4.699906902736 	
H	 17.181148896816 	  2.605251691891 	 14.830463622736 	
H	 17.749661926816 	  8.788810641891 	  4.699904072736 	
H	 17.181117796816 	  8.788813451891 	 14.830460792736 	
H	 11.231337493974 	  5.690405162726 	  0.482036552650 	
H	 10.662793363974 	  5.690407972726 	 10.612593272650 	
H	 11.231306393974 	 11.873966922726 	  0.482033722650 	
H	 10.662762263974 	 11.873969732726 	 10.612590442650 	
H	 25.912164793974 	  5.690414392726 	  0.510166482650 	
H	 25.343620663974 	  5.690417202726 	 10.640723202650 	
H	 25.912133693974 	 11.873976152726 	  0.510163652650 	
H	 25.343589563974 	 11.873978962726 	 10.640720372650 	
H	 11.001375549879 	  3.571638345698 	  5.536403764476 	
H	 10.432831419879 	  3.571641155698 	 15.666960484476 	
H	 11.001344449879 	  9.755200105698 	  5.536400934476 	
H	 10.432800319879 	  9.755202915698 	 15.666957654476 	
H	 25.682202849879 	  3.571647575698 	  5.564533694476 	
H	 25.113658719879 	  3.571650385698 	 15.695090414476 	
H	 25.682171749879 	  9.755209335698 	  5.564530864476 	
H	 25.113627619879 	  9.755212145698 	 15.695087584476 	
H	  2.838905007361 	  0.486472985924 	  9.726144045364 	
H	  2.270360877361 	  0.486475795924 	 19.856700765364 	
H	  2.838873907361 	  6.670034745924 	  9.726141215364 	
H	  2.270329777361 	  6.670037555924 	 19.856697935364 	
H	 17.519732307361 	  0.486482215924 	  9.754273975364 	
H	 16.951188177361 	  0.486485025924 	 19.884830695364 	
H	 17.519701207361 	  6.670043975924 	  9.754271145364 	
H	 16.951157077361 	  6.670046785924 	 19.884827865364 	
C	  1.031259753199 	  3.125022401495 	  7.130841335464 	
C	  0.462715623199 	  3.125025211495 	 17.261398055464 	
C	  1.031228653199 	  9.308584161495 	  7.130838505464 	
C	  0.462684523199 	  9.308586971495 	 17.261395225464 	
C	 15.712087053199 	  3.125031631495 	  7.158971265464 	
C	 15.143542923199 	  3.125034441495 	 17.289527985464 	
C	 15.712055953199 	  9.308593391495 	  7.158968435464 	
C	 15.143511823199 	  9.308596201495 	 17.289525155464 	
C	 12.761888083397 	  0.046614096443 	  8.203578432918 	
C	 12.193343953397 	  0.046616906443 	 18.334135152918 	
C	 12.761856983397 	  6.230175856443 	  8.203575602918 	
C	 12.193312853397 	  6.230178666443 	 18.334132322918 	
C	 27.442715383397 	  0.046623326443 	  8.231708362918 	
C	 26.874171253397 	  0.046626136443 	 18.362265082918 	
C	 27.442684283397 	  6.230185086443 	  8.231705532918 	
C	 26.874140153397 	  6.230187896443 	 18.362262252918 	
C	 13.038982095559 	  3.051854661068 	  3.077339433421 	
C	 12.470437965559 	  3.051857471068 	 13.207896153421 	
C	 13.038950995559 	  9.235416421068 	  3.077336603421 	
C	 12.470406865559 	  9.235419231068 	 13.207893323421 	
C	 27.719809395559 	  3.051863891068 	  3.105469363421 	
C	 27.151265265559 	  3.051866701068 	 13.236026083421 	
C	 27.719778295559 	  9.235425651068 	  3.105466533421 	
C	 27.151234165559 	  9.235428461068 	 13.236023253421 	
C	  1.308354279353 	  6.130263380315 	  2.004601955230 	
C	  0.739810149353 	  6.130266190315 	 12.135158675230 	
C	  1.308323179353 	 12.313825140315 	  2.004599125230 	
C	  0.739779049353 	 12.313827950315 	 12.135155845230 	
C	 15.989181579353 	  6.130272610315 	  2.032731885230 	
C	 15.420637449353 	  6.130275420315 	 12.163288605230 	
C	 15.989150479353 	 12.313834370315 	  2.032729055230 	
C	 15.420606349353 	 12.313837180315 	 12.163285775230 	
H	  1.202890422514 	  4.218026194252 	  7.368686343579 	
H	  0.634346292514 	  4.218029004252 	 17.499243063579 	
H	  1.202859322514 	 10.401587954252 	  7.368683513579 	
H	  0.634315192514 	 10.401590764252 	 17.499240233579 	
H	 15.883717722514 	  4.218035424252 	  7.396816273579 	
H	 15.315173592514 	  4.218038234252 	 17.527372993579 	
H	 15.883686622514 	 10.401597184252 	  7.396813443579 	
H	 15.315142492514 	 10.401599994252 	 17.527370163579 	
H	 12.597690246927 	  1.116835453895 	  7.921747973370 	
H	 12.029146116927 	  1.116838263895 	 18.052304693370 	
H	 12.597659146927 	  7.300397213895 	  7.921745143370 	
H	 12.029115016927 	  7.300400023895 	 18.052301863370 	
H	 27.278517546927 	  1.116844683895 	  7.949877903370 	
H	 26.709973416927 	  1.116847493895 	 18.080434623370 	
H	 27.278486446927 	  7.300406443895 	  7.949875073370 	
H	 26.709942316927 	  7.300409253895 	 18.080431793370 	
H	 12.867351291088 	  1.958850861772 	  2.839494695104 	
H	 12.298807161088 	  1.958853671772 	 12.970051415104 	
H	 12.867320191088 	  8.142412621772 	  2.839491865104 	
H	 12.298776061088 	  8.142415431772 	 12.970048585104 	
H	 27.548178591088 	  1.958860091772 	  2.867624625104 	
H	 26.979634461088 	  1.958862901772 	 12.998181345104 	
H	 27.548147491088 	  8.142421851772 	  2.867621795104 	
H	 26.979603361088 	  8.142424661772 	 12.998178515104 	
H	  1.472552308167 	  5.060041971777 	  2.286432093735 	
H	  0.904008178167 	  5.060044781777 	 12.416988813735 	
H	  1.472521208167 	 11.243603731777 	  2.286429263735 	
H	  0.903977078167 	 11.243606541777 	 12.416985983735 	
H	 16.153379608167 	  5.060051201777 	  2.314562023735 	
H	 15.584835478167 	  5.060054011777 	 12.445118743735 	
H	 16.153348508167 	 11.243612961777 	  2.314559193735 	
H	 15.584804378167 	 11.243615771777 	 12.445115913735 	
H	  0.735392470296 	  2.767417019959 	  8.160383214117 	
H	  0.166848340296 	  2.767419829959 	 18.290939934117 	
H	  0.735361370296 	  8.950978779959 	  8.160380384117 	
H	  0.166817240296 	  8.950981589959 	 18.290937104117 	
H	 15.416219770296 	  2.767426249959 	  8.188513144117 	
H	 14.847675640296 	  2.767429059959 	 18.319069864117 	
H	 15.416188670296 	  8.950988009959 	  8.188510314117 	
H	 14.847644540296 	  8.950990819959 	 18.319067034117 	
H	 13.056088848867 	  5.860933279302 	  7.121152781753 	
H	 12.487544718867 	  5.860936089302 	 17.251709501753 	
H	 13.056057748867 	 12.044495039302 	  7.121149951753 	
H	 12.487513618867 	 12.044497849302 	 17.251706671753 	
H	 27.736916148867 	  5.860942509302 	  7.149282711753 	
H	 27.168372018867 	  5.860945319302 	 17.279839431753 	
H	 27.736885048867 	 12.044504269302 	  7.149279881753 	
H	 27.168340918867 	 12.044507079302 	 17.279836601753 	
H	 13.334849693145 	  3.409459917041 	  2.047797631353 	
H	 12.766305563145 	  3.409462727041 	 12.178354351353 	
H	 13.334818593145 	  9.593021677041 	  2.047794801353 	
H	 12.766274463145 	  9.593024487041 	 12.178351521353 	
H	 28.015676993145 	  3.409469147041 	  2.075927561353 	
H	 27.447132863145 	  3.409471957041 	 12.206484281353 	
H	 28.015645893145 	  9.593030907041 	  2.075924731353 	
H	 27.447101763145 	  9.593033717041 	 12.206481451353 	
H	  1.014153494404 	  0.315943897531 	  3.087027619231 	
H	  0.445609364404 	  0.315946707531 	 13.217584339231 	
H	  1.014122394404 	  6.499505657531 	  3.087024789231 	
H	  0.445578264404 	  6.499508467531 	 13.217581509231 	
H	 15.694980794404 	  0.315953127531 	  3.115157549231 	
H	 15.126436664404 	  0.315955937531 	 13.245714269231 	
H	 15.694949694404 	  6.499514887531 	  3.115154719231 	
H	 15.126405564404 	  6.499517697531 	 13.245711439231 	
H	  0.040820117401 	  3.163911877456 	  6.595176592483 	
H	 -0.527724012599 	  3.163914687456 	 16.725733312483 	
H	  0.040789017401 	  9.347473637456 	  6.595173762483 	
H	 -0.527755112599 	  9.347476447456 	 16.725730482483 	
H	 14.721647417401 	  3.163921107456 	  6.623306522483 	
H	 14.153103287401 	  3.163923917456 	 16.753863242483 	
H	 14.721616317401 	  9.347482867456 	  6.623303692483 	
H	 14.153072187401 	  9.347485677456 	 16.753860412483 	
H	 13.725663090792 	  6.247809489690 	  8.685879845804 	
H	 13.157118960792 	  6.247812299690 	 18.816436565804 	
H	 13.725631990792 	 12.431371249690 	  8.685877015804 	
H	 13.157087860792 	 12.431374059690 	 18.816433735804 	
H	 28.406490390792 	  6.247818719690 	  8.714009775804 	
H	 27.837946260792 	  6.247821529690 	 18.844566495804 	
H	 28.406459290792 	 12.431380479690 	  8.714006945804 	
H	 27.837915160792 	 12.431383289690 	 18.844563665804 	
H	 14.029421525474 	  3.012965273417 	  3.613004532774 	
H	 13.460877395474 	  3.012968083417 	 13.743561252774 	
H	 14.029390425474 	  9.196527033417 	  3.613001702774 	
H	 13.460846295474 	  9.196529843417 	 13.743558422774 	
H	 28.710248825474 	  3.012974503417 	  3.641134462774 	
H	 28.141704695474 	  3.012977313417 	 13.771691182774 	
H	 28.710217725474 	  9.196536263417 	  3.641131632774 	
H	 28.141673595474 	  9.196539073417 	 13.771688352774 	
H	  0.344579313303 	 -0.070932101806 	  1.522300495368 	
H	 -0.223964816697 	 -0.070929291806 	 11.652857215368 	
H	  0.344548213303 	  6.112629658194 	  1.522297665368 	
H	 -0.223995916697 	  6.112632468194 	 11.652854385368 	
H	 15.025406613303 	 -0.070922871806 	  1.550430425368 	
H	 14.456862483303 	 -0.070920061806 	 11.680987145368 	
H	 15.025375513303 	  6.112638888194 	  1.550427595368 	
H	 14.456831383303 	  6.112641698194 	 11.680984315368 	
C	  1.559287199160 	  1.212317801328 	  6.245090051048 	
C	  0.990743069160 	  1.212320611328 	 16.375646771048 	
C	  1.559256099160 	  7.395879561328 	  6.245087221048 	
C	  0.990711969160 	  7.395882371328 	 16.375643941048 	
C	 16.240114499160 	  1.212327031328 	  6.273219981048 	
C	 15.671570369160 	  1.212329841328 	 16.403776701048 	
C	 16.240083399160 	  7.395888791328 	  6.273217151048 	
C	 15.671539269160 	  7.395891601328 	 16.403773871048 	
C	 12.230843694929 	  4.306841832744 	  9.049546537676 	
C	 11.662299564929 	  4.306844642744 	 19.180103257676 	
C	 12.230812594929 	 10.490403592744 	  9.049543707676 	
C	 11.662268464929 	 10.490406402744 	 19.180100427676 	
C	 26.911670994929 	  4.306851062744 	  9.077676467676 	
C	 26.343126864929 	  4.306853872744 	 19.208233187676 	
C	 26.911639894929 	 10.490412822744 	  9.077673637676 	
C	 26.343095764929 	 10.490415632744 	 19.208230357676 	
C	 12.510954583331 	  4.964560244303 	  3.963090181630 	
C	 11.942410453331 	  4.964563054303 	 14.093646901630 	
C	 12.510923483331 	 11.148122004303 	  3.963087351630 	
C	 11.942379353331 	 11.148124814303 	 14.093644071630 	
C	 27.191781883331 	  4.964569474303 	  3.991220111630 	
C	 26.623237753331 	  4.964572284303 	 14.121776831630 	
C	 27.191750783331 	 11.148131234303 	  3.991217281630 	
C	 26.623206653331 	 11.148134044303 	 14.121774001630 	
C	  1.839398418670 	  1.870035865491 	  1.158634222171 	
C	  1.270854288670 	  1.870038675491 	 11.289190942171 	
C	  1.839367318670 	  8.053597625491 	  1.158631392171 	
C	  1.270823188670 	  8.053600435491 	 11.289188112171 	
C	 16.520225718670 	  1.870045095491 	  1.186764152171 	
C	 15.951681588670 	  1.870047905491 	 11.317320872171 	
C	 16.520194618670 	  8.053606855491 	  1.186761322171 	
C	 15.951650488670 	  8.053609665491 	 11.317318042171 	
H	  0.570700053685 	  1.127634429268 	  5.712824239147 	
H	  0.002155923685 	  1.127637239268 	 15.843380959147 	
H	  0.570668953685 	  7.311196189268 	  5.712821409147 	
H	  0.002124823685 	  7.311198999268 	 15.843378129147 	
H	 15.251527353685 	  1.127643659268 	  5.740954169147 	
H	 14.682983223685 	  1.127646469268 	 15.871510889147 	
H	 15.251496253685 	  7.311205419268 	  5.740951339147 	
H	 14.682952123685 	  7.311208229268 	 15.871508059147 	
H	 13.219011365026 	  4.218264766465 	  9.581912958755 	
H	 12.650467235026 	  4.218267576465 	 19.712469678755 	
H	 13.218980265026 	 10.401826526465 	  9.581910128755 	
H	 12.650436135026 	 10.401829336465 	 19.712466848755 	
H	 27.899838665026 	  4.218273996465 	  9.610042888755 	
H	 27.331294535026 	  4.218276806465 	 19.740599608755 	
H	 27.899807565026 	 10.401835756465 	  9.610040058755 	
H	 27.331263435026 	 10.401838566465 	 19.740596778755 	
H	 13.499541673219 	  5.049243383126 	  4.495356086089 	
H	 12.930997543219 	  5.049246193126 	 14.625912806089 	
H	 13.499510573219 	 11.232805143126 	  4.495353256089 	
H	 12.930966443219 	 11.232807953126 	 14.625909976089 	
H	 28.180368973219 	  5.049252613126 	  4.523486016089 	
H	 27.611824843219 	  5.049255423126 	 14.654042736089 	
H	 28.180337873219 	 11.232814373126 	  4.523483186089 	
H	 27.611793743219 	 11.232817183126 	 14.654039906089 	
H	  0.851230757082 	  1.958612876873 	  0.626267771371 	
H	  0.282686627082 	  1.958615686873 	 10.756824491371 	
H	  0.851199657082 	  8.142174636873 	  0.626264941371 	
H	  0.282655527082 	  8.142177446873 	 10.756821661371 	
H	 15.532058057082 	  1.958622106873 	  0.654397701371 	
H	 14.963513927082 	  1.958624916873 	 10.784954421371 	
H	 15.532026957082 	  8.142183866873 	  0.654394871371 	
H	 14.963482827082 	  8.142186676873 	 10.784951591371 	
H	  1.401172257134 	  0.531576760107 	  7.135433350376 	
H	  0.832628127134 	  0.531579570107 	 17.265990070376 	
H	  1.401141157134 	  6.715138520107 	  7.135430520376 	
H	  0.832597027134 	  6.715141330107 	 17.265987240376 	
H	 16.081999557135 	  0.531585990107 	  7.163563280376 	
H	 15.513455427135 	  0.531588800107 	 17.294120000376 	
H	 16.081968457135 	  6.715147750107 	  7.163560450376 	
H	 15.513424327135 	  6.715150560107 	 17.294117170376 	
H	 12.389688461195 	  3.622619770111 	  8.159943696695 	
H	 11.821144331195 	  3.622622580111 	 18.290500416695 	
H	 12.389657361195 	  9.806181530111 	  8.159940866695 	
H	 11.821113231195 	  9.806184340111 	 18.290497586695 	
H	 27.070515761195 	  3.622629000111 	  8.188073626695 	
H	 26.501971631195 	  3.622631810111 	 18.318630346695 	
H	 27.070484661195 	  9.806190760111 	  8.188070796695 	
H	 26.501940531195 	  9.806193570111 	 18.318627516695 	
H	 12.669069619130 	  5.645300769018 	  3.072746556891 	
H	 12.100525489130 	  5.645303579018 	 13.203303276891 	
H	 12.669038519130 	 11.828862529018 	  3.072743726891 	
H	 12.100494389130 	 11.828865339018 	 13.203300446891 	
H	 27.349896919130 	  5.645309999018 	  3.100876486891 	
H	 26.781352789130 	  5.645312809018 	 13.231433206891 	
H	 27.349865819130 	 11.828871759018 	  3.100873656891 	
H	 26.781321689130 	 11.828874569018 	 13.231430376891 	
H	  1.680553537587 	  2.554257741759 	  2.048237185200 	
H	  1.112009407587 	  2.554260551759 	 12.178793905200 	
H	  1.680522437587 	  8.737819501759 	  2.048234355200 	
H	  1.111978307587 	  8.737822311759 	 12.178791075200 	
H	 16.361380837587 	  2.554266971759 	  2.076367115200 	
H	 15.792836707587 	  2.554269781759 	 12.206923835200 	
H	 16.361349737587 	  8.737828731759 	  2.076364285200 	
H	 15.792805607587 	  8.737831541759 	 12.206921005200 	
H	  2.206255260159 	  0.535983472246 	  5.611038441843 	
H	  1.637711130159 	  0.535986282246 	 15.741595161843 	
H	  2.206224160159 	  6.719545232246 	  5.611035611843 	
H	  1.637680030159 	  6.719548042246 	 15.741592331843 	
H	 16.887082560159 	  0.535992702246 	  5.639168371843 	
H	 16.318538430159 	  0.535995512246 	 15.769725091843 	
H	 16.887051460159 	  6.719554462246 	  5.639165541843 	
H	 16.318507330159 	  6.719557272246 	 15.769722261843 	
H	 11.585174421344 	  3.627074190022 	  9.683263884002 	
H	 11.016630291344 	  3.627077000022 	 19.813820604002 	
H	 11.585143321344 	  9.810635950022 	  9.683261054002 	
H	 11.016599191344 	  9.810638760022 	 19.813817774002 	
H	 26.266001721344 	  3.627083420022 	  9.711393814002 	
H	 25.697457591344 	  3.627086230022 	 19.841950534002 	
H	 26.265970621344 	  9.810645180022 	  9.711390984002 	
H	 25.697426491344 	  9.810647990022 	 19.841947704002 	
H	 11.863986458626 	  5.640894567557 	  4.597141667948 	
H	 11.295442328626 	  5.640897377557 	 14.727698387948 	
H	 11.863955358626 	 11.824456327557 	  4.597138837948 	
H	 11.295411228626 	 11.824459137557 	 14.727695557948 	
H	 26.544813758626 	  5.640903797557 	  4.625271597948 	
H	 25.976269628626 	  5.640906607557 	 14.755828317948 	
H	 26.544782658626 	 11.824465557557 	  4.625268767948 	
H	 25.976238528626 	 11.824468367557 	 14.755825487948 	
H	  2.485067687798 	  2.549803752916 	  0.524917136898 	
H	  1.916523557798 	  2.549806562916 	 10.655473856898 	
H	  2.485036587798 	  8.733365512916 	  0.524914306898 	
H	  1.916492457798 	  8.733368322916 	 10.655471026898 	
H	 17.165894987798 	  2.549812982916 	  0.553047066898 	
H	 16.597350857798 	  2.549815792916 	 10.683603786898 	
H	 17.165863887798 	  8.733374742916 	  0.553044236898 	
H	 16.597319757798 	  8.733377552916 	 10.683600956898 	
768 
Energy: -9.5792695959029999e+01 
S	  8.680274495306 	  1.545337087156 	  0.061059226102 	
S	  8.111730365306 	  1.545339897156 	 10.191615946102 	
S	  8.680243395306 	  7.728898847156 	  0.061056396102 	
S	  8.111699265306 	  7.728901657156 	 10.191613116102 	
S	 23.361101795306 	  1.545346317156 	  0.089189156102 	
S	 22.792557665306 	  1.545349127156 	 10.219745876102 	
S	 23.361070695306 	  7.728908077156 	  0.089186326102 	
S	 22.792526565306 	  7.728910887156 	 10.219743046102 	
S	  5.605570511868 	  4.628708159733 	  5.098676800591 	
S	  5.037026381868 	  4.628710969733 	 15.229233520591 	
S	  5.605539411868 	 10.812269919733 	  5.098673970591 	
S	  5.036995281868 	 10.812272729733 	 15.229230690591 	
S	 20.286397811868 	  4.628717389733 	  5.126806730591 	
S	 19.717853681868 	  4.628720199733 	 15.257363450591 	
S	 20.286366711868 	 10.812279149733 	  5.126803900591 	
S	 19.717822581868 	 10.812281959733 	 15.257360620591 	
S	  5.334798680128 	  4.622746564305 	 10.212121858043 	
S	  4.766254550128 	  4.622749374305 	 20.342678578043 	
S	  5.334767580128 	 10.806308324305 	 10.212119028043 	
S	  4.766223450128 	 10.806311134305 	 20.342675748043 	
S	 20.015625980128 	  4.622755794305 	 10.240251788043 	
S	 19.447081850128 	  4.622758604305 	 20.370808508043 	
S	 20.015594880128 	 10.806317554305 	 10.240248958043 	
S	 19.447050750128 	 10.806320364305 	 20.370805678043 	
S	  8.409503161241 	  1.539376085450 	  5.174504456901 	
S	  7.840959031241 	  1.539378895450 	 15.305061176901 	
S	  8.409472061241 	  7.722937845450 	  5.174501626901 	
S	  7.840927931241 	  7.722940655450 	 15.305058346901 	
S	 23.090330461241 	  1.539385315450 	  5.202634386901 	
S	 22.521786331241 	  1.539388125450 	 15.333191106901 	
S	 23.090299361241 	  7.722947075450 	  5.202631556901 	
S	 22.521755231241 	  7.722949885450 	 15.333188276901 	
C	  6.711559500669 	  2.567340677563 	  9.889387332223 	
C	  6.143015370669 	  2.567343487563 	 20.019944052223 	
C	  6.711528400669 	  8.750902437563 	  9.889384502223 	
C	  6.142984270669 	  8.750905247563 	 20.019941222223 	
C	 21.392386800669 	  2.567349907563 	  9.917517262223 	
C	 20.823842670669 	  2.567352717563 	 20.048073982223 	
C	 21.392355700669 	  8.750911667563 	  9.917514432223 	
C	 20.823811570669 	  8.750914477563 	 20.048071152223 	
C	  7.034643752077 	  5.587541644551 	  5.546772981538 	
C	  6.466099622077 	  5.587544454551 	 15.677329701538 	
C	  7.034612652077 	 11.771103404551 	  5.546770151538 	
C	  6.466068522077 	 11.771106214551 	 15.677326871538 	
C	 21.715471052077 	  5.587550874551 	  5.574902911538 	
C	 21.146926922077 	  5.587553684551 	 15.705459631538 	
C	 21.715439952077 	 11.771112634551 	  5.574900081538 	
C	 21.146895822077 	 11.771115444551 	 15.705456801538 	
C	  7.303513723358 	  3.600742927723 	  0.383793753869 	
C	  6.734969593358 	  3.600745737723 	 10.514350473869 	
C	  7.303482623358 	  9.784304687723 	  0.383790923869 	
C	  6.734938493358 	  9.784307497723 	 10.514347643869 	
C	 21.984341023358 	  3.600752157723 	  0.411923683869 	
C	 21.415796893358 	  3.600754967723 	 10.542480403869 	
C	 21.984309923358 	  9.784313917723 	  0.411920853869 	
C	 21.415765793358 	  9.784316727723 	 10.542477573869 	
C	  6.980429783805 	  0.580542704345 	  4.726408246533 	
C	  6.411885653805 	  0.580545514345 	 14.856964966533 	
C	  6.980398683805 	  6.764104464345 	  4.726405416533 	
C	  6.411854553805 	  6.764107274345 	 14.856962136533 	
C	 21.661257083805 	  0.580551934345 	  4.754538176533 	
C	 21.092712953805 	  0.580554744345 	 14.885094896533 	
C	 21.661225983805 	  6.764113694345 	  4.754535346533 	
C	 21.092681853805 	  6.764116504345 	 14.885092066533 	
C	  5.658203322245 	  2.345260966204 	  8.957979908455 	
C	  5.089659192245 	  2.345263776204 	 19.088536628455 	
C	  5.658172222245 	  8.528822726204 	  8.957977078455 	
C	  5.089628092245 	  8.528825536204 	 19.088533798455 	
C	 20.339030622245 	  2.345270196204 	  8.986109838455 	
C	 19.770486492245 	  2.345273006204 	 19.116666558455 	
C	 20.338999522245 	  8.528831956204 	  8.986107008455 	
C	 19.770455392245 	  8.528834766204 	 19.116663728455 	
C	  8.075662458207 	  5.416513868813 	  6.428356577381 	
C	  7.507118328207 	  5.416516678813 	 16.558913297381 	
C	  8.075631358207 	 11.600075628813 	  6.428353747381 	
C	  7.507087228207 	 11.600078438813 	 16.558910467381 	
C	 22.756489758207 	  5.416523098813 	  6.456486507381 	
C	 22.187945628207 	  5.416525908813 	 16.587043227381 	
C	 22.756458658207 	 11.600084858813 	  6.456483677381 	
C	 22.187914528207 	 11.600087668813 	 16.587040397381 	
C	  8.356869703212 	  3.822822665160 	  1.315201026365 	
C	  7.788325573212 	  3.822825475160 	 11.445757746365 	
C	  8.356838603212 	 10.006384425160 	  1.315198196365 	
C	  7.788294473212 	 10.006387235160 	 11.445754916365 	
C	 23.037697003212 	  3.822831895160 	  1.343330956365 	
C	 22.469152873212 	  3.822834705160 	 11.473887676365 	
C	 23.037665903212 	 10.006393655160 	  1.343328126365 	
C	 22.469121773212 	 10.006396465160 	 11.473884846365 	
C	  5.939411000049 	  0.751570460687 	  3.844824588265 	
C	  5.370866870049 	  0.751573270687 	 13.975381308265 	
C	  5.939379900049 	  6.935132220687 	  3.844821758265 	
C	  5.370835770049 	  6.935135030687 	 13.975378478265 	
C	 20.620238300049 	  0.751579690687 	  3.872954518265 	
C	 20.051694170049 	  0.751582500687 	 14.003511238265 	
C	 20.620207200049 	  6.935141450687 	  3.872951688265 	
C	 20.051663070049 	  6.935144260687 	 14.003508408265 	
C	  4.765778083062 	  3.390582080970 	  8.990502221730 	
C	  4.197233953062 	  3.390584890970 	 19.121058941730 	
C	  4.765746983062 	  9.574143840970 	  8.990499391730 	
C	  4.197202853062 	  9.574146650970 	 19.121056111730 	
C	 19.446605383062 	  3.390591310970 	  9.018632151730 	
C	 18.878061253062 	  3.390594120970 	 19.149188871730 	
C	 19.446574283062 	  9.574153070970 	  9.018629321730 	
C	 18.878030153062 	  9.574155880970 	 19.149186041730 	
C	  8.983635358015 	  0.317450794559 	  6.397675989606 	
C	  8.415091228015 	  0.317453604559 	 16.528232709606 	
C	  8.983604258015 	  6.501012554559 	  6.397673159606 	
C	  8.415060128015 	  6.501015364559 	 16.528229879606 	
C	 23.664462658015 	  0.317460024559 	  6.425805919606 	
C	 23.095918528015 	  0.317462834559 	 16.556362639606 	
C	 23.664431558015 	  6.501021784559 	  6.425803089606 	
C	 23.095887428015 	  6.501024594559 	 16.556359809606 	
C	  9.249294937250 	  2.777501633383 	  1.282678812129 	
C	  8.680750807250 	  2.777504443383 	 11.413235532129 	
C	  9.249263837250 	  8.961063393383 	  1.282675982129 	
C	  8.680719707250 	  8.961066203383 	 11.413232702129 	
C	 23.930122237250 	  2.777510863383 	  1.310808742129 	
C	 23.361578107250 	  2.777513673383 	 11.441365462129 	
C	 23.930091137250 	  8.961072623383 	  1.310805912129 	
C	 23.361547007250 	  8.961075433383 	 11.441362632129 	
C	  5.031438140643 	  5.850633477048 	  3.875505233423 	
C	  4.462894010643 	  5.850636287048 	 14.006061953423 	
C	  5.031407040643 	 12.034195237048 	  3.875502403423 	
C	  4.462862910643 	 12.034198047048 	 14.006059123423 	
C	 19.712265440643 	  5.850642707048 	  3.903635163423 	
C	 19.143721310643 	  5.850645517048 	 14.034191883423 	
C	 19.712234340643 	 12.034204467048 	  3.903632333423 	
C	 19.143690210643 	 12.034207277048 	 14.034189053423 	
C	  3.686125914121 	  3.438098538214 	  8.259364381600 	
C	  3.117581784121 	  3.438101348214 	 18.389921101600 	
C	  3.686094814121 	  9.621660298214 	  8.259361551600 	
C	  3.117550684121 	  9.621663108214 	 18.389918271600 	
C	 18.366953214121 	  3.438107768214 	  8.287494311600 	
C	 17.798409084121 	  3.438110578214 	 18.418051031600 	
C	 18.366922114121 	  9.621669528214 	  8.287491481600 	
C	 17.798377984121 	  9.621672338214 	 18.418048201600 	
C	 10.045372263670 	  0.374324646898 	  7.108366678537 	
C	  9.476828133670 	  0.374327456898 	 17.238923398537 	
C	 10.045341163670 	  6.557886406898 	  7.108363848537 	
C	  9.476797033670 	  6.557889216898 	 17.238920568537 	
C	 24.726199563670 	  0.374333876898 	  7.136496608537 	
C	 24.157655433670 	  0.374336686898 	 17.267053328537 	
C	 24.726168463670 	  6.557895636898 	  7.136493778537 	
C	 24.157624333670 	  6.557898446898 	 17.267050498537 	
C	 10.328947156817 	  2.729985255327 	  2.013816813151 	
C	  9.760403026817 	  2.729988065327 	 12.144373533151 	
C	 10.328916056817 	  8.913547015327 	  2.013813983151 	
C	  9.760371926817 	  8.913549825327 	 12.144370703151 	
C	 25.009774456817 	  2.729994485327 	  2.041946743151 	
C	 24.441230326817 	  2.729997295327 	 12.172503463151 	
C	 25.009743356817 	  8.913556245327 	  2.041943913151 	
C	 24.441199226817 	  8.913559055327 	 12.172500633151 	
C	  3.969701159508 	  5.793759605001 	  3.164814632082 	
C	  3.401157029508 	  5.793762415001 	 13.295371352082 	
C	  3.969670059508 	 11.977321365001 	  3.164811802082 	
C	  3.401125929508 	 11.977324175001 	 13.295368522082 	
C	 18.650528459508 	  5.793768835001 	  3.192944562082 	
C	 18.081984329508 	  5.793771645001 	 13.323501282082 	
C	 18.650497359508 	 11.977330595001 	  3.192941732082 	
C	 18.081953229508 	 11.977333405001 	 13.323498452082 	
H	  2.988858687393 	  4.353027566637 	  8.341610048300 	
H	  2.420314557393 	  4.353030376637 	 18.472166768300 	
H	  2.988827587393 	 10.536589326637 	  8.341607218300 	
H	  2.420283457393 	 10.536592136637 	 18.472163938300 	
H	 17.669685987393 	  4.353036796637 	  8.369739978300 	
H	 17.101141857393 	  4.353039606637 	 18.500296698300 	
H	 17.669654887393 	 10.536598556637 	  8.369737148300 	
H	 17.101110757393 	 10.536601366637 	 18.500293868300 	
H	 10.754032567851 	  1.266950860867 	  7.047482952181 	
H	 10.185488437851 	  1.266953670867 	 17.178039672181 	
H	 10.754001467851 	  7.450512620867 	  7.047480122181 	
H	 10.185457337851 	  7.450515430867 	 17.178036842181 	
H	 25.434859867851 	  1.266960090867 	  7.075612882181 	
H	 24.866315737851 	  1.266962900867 	 17.206169602181 	
H	 25.434828767851 	  7.450521850867 	  7.075610052181 	
H	 24.866284637851 	  7.450524660867 	 17.206166772181 	
H	 11.026214344096 	  1.815056196569 	  1.931571085156 	
H	 10.457670214096 	  1.815059006569 	 12.062127805156 	
H	 11.026183244096 	  7.998617956569 	  1.931568255156 	
H	 10.457639114096 	  7.998620766569 	 12.062124975156 	
H	 25.707041644096 	  1.815065426569 	  1.959701015156 	
H	 25.138497514096 	  1.815068236569 	 12.090257735156 	
H	 25.707010544096 	  7.998627186569 	  1.959698185156 	
H	 25.138466414096 	  7.998629996569 	 12.090254905156 	
H	  3.261040975713 	  4.901133295352 	  3.225698405871 	
H	  2.692496845713 	  4.901136105352 	 13.356255125871 	
H	  3.261009875713 	 11.084695055352 	  3.225695575871 	
H	  2.692465745713 	 11.084697865352 	 13.356252295871 	
H	 17.941868275713 	  4.901142525352 	  3.253828335871 	
H	 17.373324145713 	  4.901145335352 	 13.384385055871 	
H	 17.941837175713 	 11.084704285352 	  3.253825505871 	
H	 17.373293045713 	 11.084707095352 	 13.384382225871 	
C	  3.364913715644 	  2.461256844579 	  7.423260958833 	
C	  2.796369585644 	  2.461259654579 	 17.553817678833 	
C	  3.364882615644 	  8.644818604579 	  7.423258128833 	
C	  2.796338485644 	  8.644821414579 	 17.553814848833 	
C	 18.045741015644 	  2.461266074579 	  7.451390888833 	
C	 17.477196885644 	  2.461268884579 	 17.581947608833 	
C	 18.045709915644 	  8.644827834579 	  7.451388058833 	
C	 17.477165785644 	  8.644830644579 	 17.581944778833 	
C	 10.386480647354 	  5.523289508272 	  7.982933669754 	
C	  9.817936517354 	  5.523292318272 	 18.113490389754 	
C	 10.386449547354 	 11.706851268272 	  7.982930839754 	
C	  9.817905417354 	 11.706854078272 	 18.113487559754 	
C	 25.067307947354 	  5.523298738272 	  8.011063599754 	
C	 24.498763817354 	  5.523301548272 	 18.141620319754 	
C	 25.067276847354 	 11.706860498272 	  8.011060769754 	
C	 24.498732717354 	 11.706863308272 	 18.141617489754 	
C	 10.650159185450 	  3.706826883755 	  2.849920138797 	
C	 10.081615055450 	  3.706829693755 	 12.980476858797 	
C	 10.650128085450 	  9.890388643755 	  2.849917308797 	
C	 10.081583955450 	  9.890391453755 	 12.980474028797 	
C	 25.330986485450 	  3.706836113755 	  2.878050068797 	
C	 24.762442355450 	  3.706838923755 	 13.008606788797 	
C	 25.330955385450 	  9.890397873755 	  2.878047238797 	
C	 24.762411255450 	  9.890400683755 	 13.008603958797 	
C	  3.628592805638 	  0.644794725626 	  2.290247614405 	
C	  3.060048675638 	  0.644797535626 	 12.420804334405 	
C	  3.628561705638 	  6.828356485626 	  2.290244784405 	
C	  3.060017575638 	  6.828359295626 	 12.420801504405 	
C	 18.309420105638 	  0.644803955626 	  2.318377544405 	
C	 17.740875975638 	  0.644806765626 	 12.448934264405 	
C	 18.309389005638 	  6.828365715626 	  2.318374714405 	
C	 17.740844875638 	  6.828368525626 	 12.448931434405 	
C	  4.255286882842 	  1.432685241905 	  7.355025498994 	
C	  3.686742752842 	  1.432688051905 	 17.485582218994 	
C	  4.255255782842 	  7.616247001905 	  7.355022668994 	
C	  3.686711652842 	  7.616249811905 	 17.485579388994 	
C	 18.936114182842 	  1.432694471905 	  7.383155428994 	
C	 18.367570052842 	  1.432697281905 	 17.513712148994 	
C	 18.936083082842 	  7.616256231905 	  7.383152598994 	
C	 18.367538952842 	  7.616259041905 	 17.513709318994 	
C	  9.488049478722 	  4.519085522409 	  8.030965554136 	
C	  8.919505348722 	  4.519088332409 	 18.161522274136 	
C	  9.488018378722 	 10.702647282409 	  8.030962724136 	
C	  8.919474248722 	 10.702650092409 	 18.161519444136 	
C	 24.168876778722 	  4.519094752409 	  8.059095484136 	
C	 23.600332648722 	  4.519097562409 	 18.189652204136 	
C	 24.168845678722 	 10.702656512409 	  8.059092654136 	
C	 23.600301548722 	 10.702659322409 	 18.189649374136 	
C	  9.759785938742 	  4.735398465269 	  2.918155666550 	
C	  9.191241808742 	  4.735401275269 	 13.048712386550 	
C	  9.759754838742 	 10.918960225269 	  2.918152836550 	
C	  9.191210708742 	 10.918963035269 	 13.048709556550 	
C	 24.440613238742 	  4.735407695269 	  2.946285596550 	
C	 23.872069108742 	  4.735410505269 	 13.076842316550 	
C	 24.440582138742 	 10.918969455269 	  2.946282766550 	
C	 23.872038008742 	 10.918972265269 	 13.076839486550 	
C	  4.527023800344 	  1.648998645772 	  2.242215658665 	
C	  3.958479670344 	  1.649001455772 	 12.372772378665 	
C	  4.526992700344 	  7.832560405772 	  2.242212828665 	
C	  3.958448570344 	  7.832563215772 	 12.372769548665 	
C	 19.207851100344 	  1.649007875772 	  2.270345588665 	
C	 18.639306970344 	  1.649010685772 	 12.400902308665 	
C	 19.207820000344 	  7.832569635772 	  2.270342758665 	
C	 18.639275870344 	  7.832572445772 	 12.400899478665 	
H	  4.024428188346 	  0.580527987217 	  6.617462165694 	
H	  3.455884058346 	  0.580530797217 	 16.748018885694 	
H	  4.024397088346 	  6.764089747217 	  6.617459335694 	
H	  3.455852958346 	  6.764092557217 	 16.748016055694 	
H	 18.705255488346 	  0.580537217217 	  6.645592095694 	
H	 18.136711358346 	  0.580540027217 	 16.776148815694 	
H	 18.705224388346 	  6.764098977217 	  6.645589265694 	
H	 18.136680258346 	  6.764101787217 	 16.776145985694 	
H	  9.717919711943 	  3.665536207542 	  8.769120723761 	
H	  9.149375581943 	  3.665539017542 	 18.899677443761 	
H	  9.717888611943 	  9.849097967542 	  8.769117893761 	
H	  9.149344481943 	  9.849100777542 	 18.899674613761 	
H	 24.398747011943 	  3.665545437542 	  8.797250653761 	
H	 23.830202881943 	  3.665548247542 	 18.927807373761 	
H	 24.398715911943 	  9.849107197542 	  8.797247823761 	
H	 23.830171781943 	  9.849110007542 	 18.927804543761 	
H	  9.990644640429 	  5.587555699348 	  3.655719011654 	
H	  9.422100510429 	  5.587558509348 	 13.786275731654 	
H	  9.990613540429 	 11.771117459348 	  3.655716181654 	
H	  9.422069410429 	 11.771120269348 	 13.786272901654 	
H	 24.671471940429 	  5.587564929348 	  3.683848941654 	
H	 24.102927810429 	  5.587567739348 	 13.814405661654 	
H	 24.671440840429 	 11.771126689348 	  3.683846111654 	
H	 24.102896710429 	 11.771129499348 	 13.814402831654 	
H	  4.297153530388 	  2.502548005454 	  1.504060547746 	
H	  3.728609400388 	  2.502550815454 	 11.634617267746 	
H	  4.297122430388 	  8.686109765454 	  1.504057717746 	
H	  3.728578300388 	  8.686112575454 	 11.634614437746 	
H	 18.977980830388 	  2.502557235454 	  1.532190477746 	
H	 18.409436700388 	  2.502560045454 	 11.662747197746 	
H	 18.977949730388 	  8.686118995454 	  1.532187647746 	
H	 18.409405600388 	  8.686121805454 	 11.662744367746 	
C	  5.314575835036 	  1.371457275732 	  8.054335706616 	
C	  4.746031705036 	  1.371460085732 	 18.184892426616 	
C	  5.314544735036 	  7.555019035732 	  8.054332876616 	
C	  4.746000605036 	  7.555021845732 	 18.184889596616 	
C	 19.995403135036 	  1.371466505732 	  8.082465636616 	
C	 19.426859005036 	  1.371469315732 	 18.213022356616 	
C	 19.995372035036 	  7.555028265732 	  8.082462806616 	
C	 19.426827905036 	  7.555031075732 	 18.213019526616 	
C	  8.428303867791 	  4.457344704031 	  7.331163376721 	
C	  7.859759737791 	  4.457347514031 	 17.461720096721 	
C	  8.428272767791 	 10.640906464031 	  7.331160546721 	
C	  7.859728637791 	 10.640909274031 	 17.461717266721 	
C	 23.109131167791 	  4.457353934031 	  7.359293306721 	
C	 22.540587037791 	  4.457356744031 	 17.489850026721 	
C	 23.109100067791 	 10.640915694031 	  7.359290476721 	
C	 22.540555937791 	 10.640918504031 	 17.489847196721 	
C	  8.700497084481 	  4.796626395081 	  2.218845304016 	
C	  8.131952954481 	  4.796629205081 	 12.349402024016 	
C	  8.700465984481 	 10.980188155081 	  2.218842474016 	
C	  8.131921854481 	 10.980190965081 	 12.349399194016 	
C	 23.381324384481 	  4.796635625081 	  2.246975234016 	
C	 22.812780254481 	  4.796638435081 	 12.377531954016 	
C	 23.381293284481 	 10.980197385081 	  2.246972404016 	
C	 22.812749154481 	 10.980200195081 	 12.377529124016 	
C	  5.586769562061 	  1.710739576193 	  2.942017865034 	
C	  5.018225432061 	  1.710742386193 	 13.072574585034 	
C	  5.586738462061 	  7.894301336193 	  2.942015035034 	
C	  5.018194332061 	  7.894304146193 	 13.072571755034 	
C	 20.267596862061 	  1.710748806193 	  2.970147795034 	
C	 19.699052732061 	  1.710751616193 	 13.100704515034 	
C	 20.267565762061 	  7.894310566193 	  2.970144965034 	
C	 19.699021632061 	  7.894313376193 	 13.100701685034 	
H	  6.031764635451 	  0.476577204285 	  7.960141865384 	
H	  5.463220505451 	  0.476580014285 	 18.090698585384 	
H	  6.031733535451 	  6.660138964285 	  7.960139035384 	
H	  5.463189405451 	  6.660141774285 	 18.090695755384 	
H	 20.712591935451 	  0.476586434285 	  7.988271795384 	
H	 20.144047805451 	  0.476589244285 	 18.118828515384 	
H	 20.712560835451 	  6.660148194285 	  7.988268965384 	
H	 20.144016705451 	  6.660151004285 	 18.118825685384 	
H	  7.710717885555 	  3.561106359350 	  7.426555813630 	
H	  7.142173755555 	  3.561109169350 	 17.557112533630 	
H	  7.710686785555 	  9.744668119350 	  7.426552983630 	
H	  7.142142655555 	  9.744670929350 	 17.557109703630 	
H	 22.391545185555 	  3.561115589350 	  7.454685743630 	
H	 21.823001055555 	  3.561118399350 	 17.585242463630 	
H	 22.391514085555 	  9.744677349350 	  7.454682913630 	
H	 21.822969955555 	  9.744680159350 	 17.585239633630 	
H	  7.983308196789 	  5.691506380039 	  2.313039157603 	
H	  7.414764066789 	  5.691509190039 	 12.443595877603 	
H	  7.983277096789 	 11.875068140039 	  2.313036327603 	
H	  7.414732966789 	 11.875070950039 	 12.443593047603 	
H	 22.664135496789 	  5.691515610039 	  2.341169087603 	
H	 22.095591366789 	  5.691518420039 	 12.471725807603 	
H	 22.664104396789 	 11.875077370039 	  2.341166257603 	
H	 22.095560266789 	 11.875080180039 	 12.471722977603 	
H	  6.304355489997 	  2.606977947013 	  2.846625373013 	
H	  5.735811359997 	  2.606980757013 	 12.977182093013 	
H	  6.304324389997 	  8.790539707013 	  2.846622543013 	
H	  5.735780259997 	  8.790542517013 	 12.977179263013 	
H	 20.985182789997 	  2.606987177013 	  2.874755303013 	
H	 20.416638659997 	  2.606989987013 	 13.005312023013 	
H	 20.985151689997 	  8.790548937013 	  2.874752473013 	
H	 20.416607559997 	  8.790551747013 	 13.005309193013 	
C	  1.962493524286 	  2.502985252258 	  6.490954227105 	
C	  1.393949394286 	  2.502988062258 	 16.621510947105 	
C	  1.962462424286 	  8.686547012258 	  6.490951397105 	
C	  1.393918294286 	  8.686549822258 	 16.621508117105 	
C	 16.643320824286 	  2.502994482258 	  6.519084157105 	
C	 16.074776694286 	  2.502997292258 	 16.649640877105 	
C	 16.643289724286 	  8.686556242258 	  6.519081327105 	
C	 16.074745594286 	  8.686559052258 	 16.649638047105 	
C	 11.749777477078 	  5.545008979535 	  8.866594825776 	
C	 11.181233347078 	  5.545011789535 	 18.997151545776 	
C	 11.749746377078 	 11.728570739535 	  8.866591995776 	
C	 11.181202247078 	 11.728573549535 	 18.997148715776 	
C	 26.430604777078 	  5.545018209535 	  8.894724755776 	
C	 25.862060647078 	  5.545021019535 	 19.025281475776 	
C	 26.430573677078 	 11.728579969535 	  8.894721925776 	
C	 25.862029547078 	 11.728582779535 	 19.025278645776 	
C	 12.052579237437 	  3.665098687760 	  3.782226914771 	
C	 11.484035107437 	  3.665101497760 	 13.912783634771 	
C	 12.052548137437 	  9.848660447760 	  3.782224084771 	
C	 11.484004007437 	  9.848663257760 	 13.912780804771 	
C	 26.733406537437 	  3.665107917760 	  3.810356844771 	
C	 26.164862407437 	  3.665110727760 	 13.940913564771 	
C	 26.733375437437 	  9.848669677760 	  3.810354014771 	
C	 26.164831307437 	  9.848672487760 	 13.940910734771 	
C	  2.265295967719 	  0.623075102651 	  1.406586461401 	
C	  1.696751837719 	  0.623077912651 	 11.537143181401 	
C	  2.265264867719 	  6.806636862651 	  1.406583631401 	
C	  1.696720737719 	  6.806639672651 	 11.537140351401 	
C	 16.946123267719 	  0.623084332651 	  1.434716391401 	
C	 16.377579137719 	  0.623087142651 	 11.565273111401 	
C	 16.946092167719 	  6.806646092651 	  1.434713561401 	
C	 16.377548037719 	  6.806648902651 	 11.565270281401 	
C	  2.217875031441 	  2.958368575313 	  5.394839391199 	
C	  1.649330901441 	  2.958371385313 	 15.525396111199 	
C	  2.217843931441 	  9.141930335313 	  5.394836561199 	
C	  1.649299801441 	  9.141933145313 	 15.525393281199 	
C	 16.898702331441 	  2.958377805313 	  5.422969321199 	
C	 16.330158201441 	  2.958380615313 	 15.553526041199 	
C	 16.898671231441 	  9.141939565313 	  5.422966491199 	
C	 16.330127101441 	  9.141942375313 	 15.553523211199 	
C	 11.519065637005 	 -0.112385748285 	  9.926364982094 	
C	 10.950521507005 	 -0.112382938285 	 20.056921702094 	
C	 11.519034537005 	  6.071176011715 	  9.926362152094 	
C	 10.950490407005 	  6.071178821715 	 20.056918872094 	
C	 26.199892937005 	 -0.112376518285 	  9.954494912094 	
C	 25.631348807005 	 -0.112373708285 	 20.085051632094 	
C	 26.199861837005 	  6.071185241715 	  9.954492082094 	
C	 25.631317707005 	  6.071188051715 	 20.085048802094 	
C	 11.797197248987 	  3.209715364747 	  4.878342435684 	
C	 11.228653118987 	  3.209718174747 	 15.008899155684 	
C	 11.797166148987 	  9.393277124747 	  4.878339605684 	
C	 11.228622018987 	  9.393279934747 	 15.008896325684 	
C	 26.478024548987 	  3.209724594747 	  4.906472365684 	
C	 25.909480418987 	  3.209727404747 	 15.037029085684 	
C	 26.477993448987 	  9.393286354747 	  4.906469535684 	
C	 25.909449318987 	  9.393289164747 	 15.037026255684 	
C	  2.496007794689 	  6.280470112721 	  0.346816268692 	
C	  1.927463664689 	  6.280472922721 	 10.477372988692 	
C	  2.495976694689 	 12.464031872721 	  0.346813438692 	
C	  1.927432564689 	 12.464034682721 	 10.477370158692 	
C	 17.176835094690 	  6.280479342721 	  0.374946198692 	
C	 16.608290964690 	  6.280482152721 	 10.505502918692 	
C	 17.176803994690 	 12.464041102721 	  0.374943368692 	
C	 16.608259864690 	 12.464043912721 	 10.505500088692 	
H	  2.723377424942 	  3.978159420278 	  5.331156122613 	
H	  2.154833294942 	  3.978162230278 	 15.461712842613 	
H	  2.723346324942 	 10.161721180278 	  5.331153292613 	
H	  2.154802194942 	 10.161723990278 	 15.461710012613 	
H	 17.404204724942 	  3.978168650278 	  5.359286052613 	
H	 16.835660594942 	  3.978171460278 	 15.489842772613 	
H	 17.404173624942 	 10.161730410278 	  5.359283222613 	
H	 16.835629494942 	 10.161733220278 	 15.489839942613 	
H	 11.011429142673 	  0.874976000291 	 10.061900246649 	
H	 10.442885012673 	  0.874978810291 	 20.192456966649 	
H	 11.011398042673 	  7.058537760291 	 10.061897416649 	
H	 10.442853912673 	  7.058540570291 	 20.192454136649 	
H	 25.692256442673 	  0.874985230291 	 10.090030176649 	
H	 25.123712312673 	  0.874988040291 	 20.220586896649 	
H	 25.692225342673 	  7.058546990291 	 10.090027346649 	
H	 25.123681212673 	  7.058549800291 	 20.220584066649 	
H	 11.291695291328 	  2.189924251458 	  4.942025682249 	
H	 10.723151161328 	  2.189927061458 	 15.072582402249 	
H	 11.291664191328 	  8.373486011458 	  4.942022852249 	
H	 10.723120061328 	  8.373488821458 	 15.072579572249 	
H	 25.972522591328 	  2.189933481458 	  4.970155612249 	
H	 25.403978461328 	  2.189936291458 	 15.100712332249 	
H	 25.972491491328 	  8.373495241458 	  4.970152782249 	
H	 25.403947361328 	  8.373498051458 	 15.100709502249 	
H	  3.003644323459 	  5.293108413603 	  0.211280730458 	
H	  2.435100193459 	  5.293111223603 	 10.341837450458 	
H	  3.003613223459 	 11.476670173603 	  0.211277900458 	
H	  2.435069093459 	 11.476672983603 	 10.341834620458 	
H	 17.684471623459 	  5.293117643603 	  0.239410660458 	
H	 17.115927493459 	  5.293120453603 	 10.369967380458 	
H	 17.684440523459 	 11.476679403603 	  0.239407830458 	
H	 17.115896393459 	 11.476682213603 	 10.369964550458 	
H	  1.414391196415 	  3.095366555976 	  4.606113900163 	
H	  0.845847066415 	  3.095369365976 	 14.736670620163 	
H	  1.414360096415 	  9.278928315976 	  4.606111070163 	
H	  0.845815966415 	  9.278931125976 	 14.736667790163 	
H	 16.095218496415 	  3.095375785976 	  4.634243830163 	
H	 15.526674366415 	  3.095378595976 	 14.764800550163 	
H	 16.095187396415 	  9.278937545976 	  4.634241000163 	
H	 15.526643266415 	  9.278940355976 	 14.764797720163 	
H	 12.943460902308 	  0.024337124375 	  0.614578010485 	
H	 12.374916772308 	  0.024339934375 	 10.745134730485 	
H	 12.943429802308 	  6.207898884375 	  0.614575180485 	
H	 12.374885672308 	  6.207901694375 	 10.745131900485 	
H	 27.624288202308 	  0.024346354375 	  0.642707940485 	
H	 27.055744072308 	  0.024349164375 	 10.773264660485 	
H	 27.624257102308 	  6.207908114375 	  0.642705110485 	
H	 27.055712972308 	  6.207910924375 	 10.773261830485 	
H	 12.600681228697 	  3.072717887224 	  5.667067867965 	
H	 12.032137098697 	  3.072720697224 	 15.797624587965 	
H	 12.600650128697 	  9.256279647224 	  5.667065037965 	
H	 12.032105998697 	  9.256282457224 	 15.797621757965 	
H	 27.281508528697 	  3.072727117224 	  5.695197797965 	
H	 26.712964398697 	  3.072729927224 	 15.825754517965 	
H	 27.281477428697 	  9.256288877224 	  5.695194967965 	
H	 26.712933298697 	  9.256291687224 	 15.825751687965 	
H	  1.071612591980 	  6.143747265651 	  9.658603154302 	
H	  0.503068461980 	  6.143750075651 	 19.789159874302 	
H	  1.071581491980 	 12.327309025651 	  9.658600324302 	
H	  0.503037361980 	 12.327311835651 	 19.789157044302 	
H	 15.752439891980 	  6.143756495651 	  9.686733084302 	
H	 15.183895761980 	  6.143759305651 	 19.817289804302 	
H	 15.752408791980 	 12.327318255651 	  9.686730254302 	
H	 15.183864661980 	 12.327321065651 	 19.817286974302 	
H	  3.008473385691 	  2.448485615108 	  4.750524622139 	
H	  2.439929255691 	  2.448488425108 	 14.881081342139 	
H	  3.008442285691 	  8.632047375108 	  4.750521792139 	
H	  2.439898155691 	  8.632050185108 	 14.881078512139 	
H	 17.689300685691 	  2.448494845108 	  4.778654552139 	
H	 17.120756555691 	  2.448497655108 	 14.909211272139 	
H	 17.689269585691 	  8.632056605108 	  4.778651722139 	
H	 17.120725455691 	  8.632059415108 	 14.909208442139 	
H	 11.216816292093 	  5.533233521426 	  0.450753252879 	
H	 10.648272162093 	  5.533236331426 	 10.581309972879 	
H	 11.216785192093 	 11.716795281426 	  0.450750422879 	
H	 10.648241062093 	 11.716798091426 	 10.581307142879 	
H	 25.897643592093 	  5.533242751426 	  0.478883182879 	
H	 25.329099462093 	  5.533245561426 	 10.609439902879 	
H	 25.897612492093 	 11.716804511426 	  0.478880352879 	
H	 25.329068362093 	 11.716807321426 	 10.609437072879 	
H	 11.006598772218 	  3.719598667919 	  5.522656854840 	
H	 10.438054642218 	  3.719601477919 	 15.653213574840 	
H	 11.006567672218 	  9.903160427919 	  5.522654024840 	
H	 10.438023542218 	  9.903163237919 	 15.653210744840 	
H	 25.687426072218 	  3.719607897919 	  5.550786784840 	
H	 25.118881942218 	  3.719610707919 	 15.681343504840 	
H	 25.687394972218 	  9.903169657919 	  5.550783954840 	
H	 25.118850842218 	  9.903172467919 	 15.681340674840 	
H	  2.798257208314 	  0.634850963479 	  9.822428117408 	
H	  2.229713078314 	  0.634853773479 	 19.952984837408 	
H	  2.798226108314 	  6.818412723479 	  9.822425287408 	
H	  2.229681978314 	  6.818415533479 	 19.952982007408 	
H	 17.479084508314 	  0.634860193479 	  9.850558047408 	
H	 16.910540378314 	  0.634863003479 	 19.981114767408 	
H	 17.479053408314 	  6.818421953479 	  9.850555217408 	
H	 16.910509278314 	  6.818424763479 	 19.981111937408 	
C	  1.134174787187 	  3.201042441270 	  7.026202405860 	
C	  0.565630657187 	  3.201045251270 	 17.156759125860 	
C	  1.134143687187 	  9.384604201270 	  7.026199575860 	
C	  0.565599557187 	  9.384607011270 	 17.156756295860 	
C	 15.815002087187 	  3.201051671270 	  7.054332335860 	
C	 15.246457957187 	  3.201054481270 	 17.184889055860 	
C	 15.814970987187 	  9.384613431270 	  7.054329505860 	
C	 15.246426857187 	  9.384616241270 	 17.184886225860 	
C	 12.662198135881 	  0.147154174711 	  8.364541376995 	
C	 12.093654005881 	  0.147156984711 	 18.495098096995 	
C	 12.662167035881 	  6.330715934711 	  8.364538546995 	
C	 12.093622905881 	  6.330718744711 	 18.495095266995 	
C	 27.343025435881 	  0.147163404711 	  8.392671306995 	
C	 26.774481305881 	  0.147166214711 	 18.523228026995 	
C	 27.342994335881 	  6.330725164711 	  8.392668476995 	
C	 26.774450205881 	  6.330727974711 	 18.523225196995 	
C	 12.880898364680 	  2.967041017287 	  3.246978661419 	
C	 12.312354234680 	  2.967043827287 	 13.377535381419 	
C	 12.880867264680 	  9.150602777287 	  3.246975831419 	
C	 12.312323134680 	  9.150605587287 	 13.377532551419 	
C	 27.561725664680 	  2.967050247287 	  3.275108591419 	
C	 26.993181534680 	  2.967053057287 	 13.405665311419 	
C	 27.561694564680 	  9.150612007287 	  3.275105761419 	
C	 26.993150434680 	  9.150614817287 	 13.405662481419 	
C	  1.352875297646 	  6.020929688496 	  1.908639773613 	
C	  0.784331167646 	  6.020932498496 	 12.039196493613 	
C	  1.352844197646 	 12.204491448496 	  1.908636943613 	
C	  0.784300067646 	 12.204494258496 	 12.039193663613 	
C	 16.033702597646 	  6.020938918496 	  1.936769703613 	
C	 15.465158467646 	  6.020941728496 	 12.067326423613 	
C	 16.033671497646 	 12.204500678496 	  1.936766873613 	
C	 15.465127367646 	 12.204503488496 	 12.067323593613 	
H	  1.351364798695 	  4.302322497140 	  7.241193045012 	
H	  0.782820668695 	  4.302325307140 	 17.371749765012 	
H	  1.351333698695 	 10.485884257140 	  7.241190215012 	
H	  0.782789568695 	 10.485887067140 	 17.371746935012 	
H	 16.032192098695 	  4.302331727140 	  7.269322975012 	
H	 15.463647968695 	  4.302334537140 	 17.399879695012 	
H	 16.032160998695 	 10.485893487140 	  7.269320145012 	
H	 15.463616868695 	 10.485896297140 	 17.399876865012 	
H	 12.401320891124 	  1.209034683665 	  8.138394632220 	
H	 11.832776761124 	  1.209037493665 	 18.268951352220 	
H	 12.401289791124 	  7.392596443665 	  8.138391802220 	
H	 11.832745661124 	  7.392599253665 	 18.268948522220 	
H	 27.082148191124 	  1.209043913665 	  8.166524562220 	
H	 26.513604061124 	  1.209046723665 	 18.297081282220 	
H	 27.082117091124 	  7.392605673665 	  8.166521732220 	
H	 26.513572961124 	  7.392608483665 	 18.297078452220 	
H	 12.663708259485 	  1.865760922342 	  3.031988303693 	
H	 12.095164129485 	  1.865763732342 	 13.162545023693 	
H	 12.663677159485 	  8.049322682342 	  3.031985473693 	
H	 12.095133029485 	  8.049325492342 	 13.162542193693 	
H	 27.344535559485 	  1.865770152342 	  3.060118233693 	
H	 26.775991429485 	  1.865772962342 	 13.190674953693 	
H	 27.344504459485 	  8.049331912342 	  3.060115403693 	
H	 26.775960329485 	  8.049334722342 	 13.190672123693 	
H	  1.613752700055 	  4.959049144696 	  2.134786158560 	
H	  1.045208570055 	  4.959051954696 	 12.265342878560 	
H	  1.613721600055 	 11.142610904696 	  2.134783328560 	
H	  1.045177470055 	 11.142613714696 	 12.265340048560 	
H	 16.294580000055 	  4.959058374696 	  2.162916088560 	
H	 15.726035870055 	  4.959061184696 	 12.293472808560 	
H	 16.294548900055 	 11.142620134696 	  2.162913258560 	
H	 15.726004770055 	 11.142622944696 	 12.293469978560 	
H	  0.808484959692 	  2.987404958118 	  8.098448293622 	
H	  0.239940829692 	  2.987407768118 	 18.229005013622 	
H	  0.808453859692 	  9.170966718118 	  8.098445463622 	
H	  0.239909729692 	  9.170969528118 	 18.229002183622 	
H	 15.489312259692 	  2.987414188118 	  8.126578223622 	
H	 14.920768129692 	  2.987416998118 	 18.257134943622 	
H	 15.489281159692 	  9.170975948118 	  8.126575393622 	
H	 14.920737029692 	  9.170978758118 	 18.257132113622 	
H	 12.930664297012 	  6.076037770975 	  7.289067259100 	
H	 12.362120167012 	  6.076040580975 	 17.419623979100 	
H	 12.930633197012 	 12.259599530975 	  7.289064429100 	
H	 12.362089067012 	 12.259602340975 	 17.419621149100 	
H	 27.611491597012 	  6.076047000975 	  7.317197189100 	
H	 27.042947467012 	  6.076049810975 	 17.447753909100 	
H	 27.611460497012 	 12.259608760975 	  7.317194359100 	
H	 27.042916367012 	 12.259611570975 	 17.447751079100 	
H	 13.206588592881 	  3.180678653483 	  2.174732940116 	
H	 12.638044462881 	  3.180681463483 	 12.305289660116 	
H	 13.206557492881 	  9.364240413483 	  2.174730110116 	
H	 12.638013362881 	  9.364243223483 	 12.305286830116 	
H	 27.887415892881 	  3.180687883483 	  2.202862870116 	
H	 27.318871762881 	  3.180690693483 	 12.333419590116 	
H	 27.887384792881 	  9.364249643483 	  2.202860040116 	
H	 27.318840662881 	  9.364252453483 	 12.333416760116 	
H	  1.084409194142 	  0.092045833122 	  2.984113901389 	
H	  0.515865064142 	  0.092048643122 	 13.114670621389 	
H	  1.084378094142 	  6.275607593122 	  2.984111071389 	
H	  0.515833964142 	  6.275610403122 	 13.114667791389 	
H	 15.765236494142 	  0.092055063122 	  3.012243831389 	
H	 15.196692364142 	  0.092057873122 	 13.142800551389 	
H	 15.765205394142 	  6.275616823122 	  3.012241001389 	
H	 15.196661264142 	  6.275619633122 	 13.142797721389 	
H	  0.128089512516 	  3.294152351353 	  6.513029161773 	
H	 -0.440454617484 	  3.294155161353 	 16.643585881773 	
H	  0.128058412516 	  9.477714111353 	  6.513026331773 	
H	 -0.440485717484 	  9.477716921353 	 16.643583051773 	
H	 14.808916812516 	  3.294161581353 	  6.541159091773 	
H	 14.240372682516 	  3.294164391353 	 16.671715811773 	
H	 14.808885712516 	  9.477723341353 	  6.541156261773 	
H	 14.240341582516 	  9.477726151353 	 16.671712981773 	
H	 13.588906931864 	  6.369133070121 	  8.859264524669 	
H	 13.020362801864 	  6.369135880121 	 18.989821244669 	
H	 13.588875831864 	 12.552694830121 	  8.859261694669 	
H	 13.020331701864 	 12.552697640121 	 18.989818414669 	
H	 28.269734231864 	  6.369142300121 	  8.887394454669 	
H	 27.701190101864 	  6.369145110121 	 19.017951174669 	
H	 28.269703131864 	 12.552704060121 	  8.887391624669 	
H	 27.701159001864 	 12.552706870121 	 19.017948344669 	
H	 13.886983421585 	  2.873931279389 	  3.760152363104 	
H	 13.318439291585 	  2.873934089389 	 13.890709083104 	
H	 13.886952321585 	  9.057493039389 	  3.760149533104 	
H	 13.318408191585 	  9.057495849389 	 13.890706253104 	
H	 28.567810721585 	  2.873940509389 	  3.788282293104 	
H	 27.999266591585 	  2.873943319389 	 13.918839013104 	
H	 28.567779621585 	  9.057502269389 	  3.788279463104 	
H	 27.999235491585 	  9.057505079389 	 13.918836183104 	
H	  0.426166502813 	 -0.201049291126 	  1.413916640447 	
H	 -0.142377627187 	 -0.201046481126 	 11.544473360447 	
H	  0.426135402813 	  5.982512468874 	  1.413913810447 	
H	 -0.142408727187 	  5.982515278874 	 11.544470530447 	
H	 15.106993802813 	 -0.201040061126 	  1.442046570447 	
H	 14.538449672813 	 -0.201037251126 	 11.572603290447 	
H	 15.106962702813 	  5.982521698874 	  1.442043740447 	
H	 14.538418572813 	  5.982524508874 	 11.572600460447 	
C	  1.502002390199 	  1.396857164119 	  6.359927809383 	
C	  0.933458260199 	  1.396859974119 	 16.490484529383 	
C	  1.501971290199 	  7.580418924119 	  6.359924979383 	
C	  0.933427160199 	  7.580421734119 	 16.490481699383 	
C	 16.182829690199 	  1.396866394119 	  6.388057739383 	
C	 15.614285560199 	  1.396869204119 	 16.518614459383 	
C	 16.182798590199 	  7.580428154119 	  6.388054909383 	
C	 15.614254460199 	  7.580430964119 	 16.518611629383 	
C	 12.238887035434 	  4.489928878019 	  9.028119408816 	
C	 11.670342905434 	  4.489931688019 	 19.158676128816 	
C	 12.238855935434 	 10.673490638019 	  9.028116578816 	
C	 11.670311805434 	 10.673493448019 	 19.158673298816 	
C	 26.919714335434 	  4.489938108019 	  9.056249338816 	
C	 26.351170205434 	  4.489940918019 	 19.186806058816 	
C	 26.919683235434 	 10.673499868019 	  9.056246508816 	
C	 26.351139105434 	 10.673502678019 	 19.186803228816 	
C	 12.513070470591 	  4.771227634311 	  3.913253045037 	
C	 11.944526340591 	  4.771230444311 	 14.043809765037 	
C	 12.513039370591 	 10.954789394311 	  3.913250215037 	
C	 11.944495240591 	 10.954792204311 	 14.043806935037 	
C	 27.193897770591 	  4.771236864311 	  3.941382975037 	
C	 26.625353640591 	  4.771239674311 	 14.071939695037 	
C	 27.193866670591 	 10.954798624311 	  3.941380145037 	
C	 26.625322540591 	 10.954801434311 	 14.071936865037 	
C	  1.776186184154 	  1.678155137308 	  1.245062098663 	
C	  1.207642054154 	  1.678157947308 	 11.375618818663 	
C	  1.776155084154 	  7.861716897308 	  1.245059268663 	
C	  1.207610954154 	  7.861719707308 	 11.375615988663 	
C	 16.457013484154 	  1.678164367308 	  1.273192028663 	
C	 15.888469354154 	  1.678167177308 	 11.403748748663 	
C	 16.456982384154 	  7.861726127308 	  1.273189198663 	
C	 15.888438254154 	  7.861728937308 	 11.403745918663 	
H	  0.509847781737 	  1.256385312096 	  5.832429765263 	
H	 -0.058696348263 	  1.256388122096 	 15.962986485263 	
H	  0.509816681737 	  7.439947072096 	  5.832426935263 	
H	 -0.058727448263 	  7.439949882096 	 15.962983655263 	
H	 15.190675081737 	  1.256394542096 	  5.860559695263 	
H	 14.622130951737 	  1.256397352096 	 15.991116415263 	
H	 15.190643981737 	  7.439956302096 	  5.860556865263 	
H	 14.622099851737 	  7.439959112096 	 15.991113585263 	
H	 13.230472540954 	  4.343253780013 	  9.554734661947 	
H	 12.661928410954 	  4.343256590013 	 19.685291381947 	
H	 13.230441440954 	 10.526815540013 	  9.554731831947 	
H	 12.661897310954 	 10.526818350013 	 19.685288551947 	
H	 27.911299840954 	  4.343263010013 	  9.582864591947 	
H	 27.342755710954 	  4.343265820013 	 19.713421311947 	
H	 27.911268740954 	 10.526824770013 	  9.582861761947 	
H	 27.342724610954 	 10.526827580013 	 19.713418481947 	
H	 13.505225066180 	  4.911699143893 	  4.440751228223 	
H	 12.936680936180 	  4.911701953893 	 14.571307948223 	
H	 13.505193966180 	 11.095260903893 	  4.440748398223 	
H	 12.936649836180 	 11.095263713893 	 14.571305118223 	
H	 28.186052366180 	  4.911708373893 	  4.468881158223 	
H	 27.617508236180 	  4.911711183893 	 14.599437878223 	
H	 28.186021266180 	 11.095270133893 	  4.468878328223 	
H	 27.617477136180 	 11.095272943893 	 14.599435048223 	
H	  0.784600659729 	  1.824830187921 	  0.718446872899 	
H	  0.216056529729 	  1.824832997921 	 10.849003592899 	
H	  0.784569559729 	  8.008391947921 	  0.718444042899 	
H	  0.216025429729 	  8.008394757921 	 10.849000762899 	
H	 15.465427959729 	  1.824839417921 	  0.746576802899 	
H	 14.896883829729 	  1.824842227921 	 10.877133522899 	
H	 15.465396859729 	  8.008401177921 	  0.746573972899 	
H	 14.896852729729 	  8.008403987921 	 10.877130692899 	
H	  1.327107826905 	  0.749145719454 	  7.285043616917 	
H	  0.758563696905 	  0.749148529454 	 17.415600336917 	
H	  1.327076726905 	  6.932707479454 	  7.285040786917 	
H	  0.758532596905 	  6.932710289454 	 17.415597506917 	
H	 16.007935126905 	  0.749154949454 	  7.313173546917 	
H	 15.439390996905 	  0.749157759454 	 17.443730266917 	
H	 16.007904026905 	  6.932716709454 	  7.313170716917 	
H	 15.439359896905 	  6.932719519454 	 17.443727436917 	
H	 12.414818760463 	  3.836407272226 	  8.103303244105 	
H	 11.846274630463 	  3.836410082226 	 18.233859964105 	
H	 12.414787660463 	 10.019969032226 	  8.103300414105 	
H	 11.846243530463 	 10.019971842226 	 18.233857134105 	
H	 27.095646060463 	  3.836416502226 	  8.131433174105 	
H	 26.527101930463 	  3.836419312226 	 18.261989894105 	
H	 27.095614960463 	 10.019978262226 	  8.131430344105 	
H	 26.527070830463 	 10.019981072226 	 18.261987064105 	
H	 12.687965180617 	  5.418938603910 	  2.988136916654 	
H	 12.119421050617 	  5.418941413910 	 13.118693636654 	
H	 12.687934080617 	 11.602500363910 	  2.988134086654 	
H	 12.119389950617 	 11.602503173910 	 13.118690806654 	
H	 27.368792480617 	  5.418947833910 	  3.016266846654 	
H	 26.800248350617 	  5.418950643910 	 13.146823566654 	
H	 27.368761380617 	 11.602509593910 	  3.016264016654 	
H	 26.800217250617 	 11.602512403910 	 13.146820736654 	
H	  1.600254376402 	  2.331676549394 	  2.169878375692 	
H	  1.031710246402 	  2.331679359394 	 12.300435095692 	
H	  1.600223276402 	  8.515238309394 	  2.169875545692 	
H	  1.031679146402 	  8.515241119394 	 12.300432265692 	
H	 16.281081676402 	  2.331685779394 	  2.198008305692 	
H	 15.712537546402 	  2.331688589394 	 12.328565025692 	
H	 16.281050576402 	  8.515247539394 	  2.198005475692 	
H	 15.712506446402 	  8.515250349394 	 12.328562195692 	
H	  2.100506588278 	  0.591670688714 	  5.818104756767 	
H	  1.531962458278 	  0.591673498714 	 15.948661476767 	
H	  2.100475488278 	  6.775232448714 	  5.818101926767 	
H	  1.531931358278 	  6.775235258714 	 15.948658646767 	
H	 16.781333888278 	  0.591679918714 	  5.846234686767 	
H	 16.212789758278 	  0.591682728714 	 15.976791406767 	
H	 16.781302788278 	  6.775241678714 	  5.846231856767 	
H	 16.212758658278 	  6.775244488714 	 15.976788576767 	
H	 11.642273478662 	  3.679393911030 	  9.568852578610 	
H	 11.073729348662 	  3.679396721030 	 19.699409298610 	
H	 11.642242378662 	  9.862955671030 	  9.568849748610 	
H	 11.073698248662 	  9.862958481030 	 19.699406468610 	
H	 26.323100778662 	  3.679403141030 	  9.596982508610 	
H	 25.754556648662 	  3.679405951030 	 19.727539228610 	
H	 26.323069678662 	  9.862964901030 	  9.596979678610 	
H	 25.754525548662 	  9.862967711030 	 19.727536398610 	
H	 11.914566086819 	  5.576413918234 	  4.455076312248 	
H	 11.346021956819 	  5.576416728234 	 14.585633032248 	
H	 11.914534986819 	 11.759975678234 	  4.455073482248 	
H	 11.345990856819 	 11.759978488234 	 14.585630202248 	
H	 26.595393386819 	  5.576423148234 	  4.483206242248 	
H	 26.026849256819 	  5.576425958234 	 14.613762962248 	
H	 26.595362286819 	 11.759984908234 	  4.483203412248 	
H	 26.026818156819 	 11.759987718234 	 14.613760132248 	
H	  2.372799705239 	  2.488690340045 	  0.704329254861 	
H	  1.804255575239 	  2.488693150045 	 10.834885974861 	
H	  2.372768605239 	  8.672252100045 	  0.704326424861 	
H	  1.804224475239 	  8.672254910045 	 10.834883144861 	
H	 17.053627005239 	  2.488699570045 	  0.732459184861 	
H	 16.485082875239 	  2.488702380045 	 10.863015904861 	
H	 17.053595905239 	  8.672261330045 	  0.732456354861 	
H	 16.485051775239 	  8.672264140045 	 10.863013074861 	
768 
Energy: -9.9037560186370001e+01 
S	  8.632196221044 	  1.529703135502 	  0.070645814060 	
S	  8.063652091044 	  1.529705945502 	 10.201202534060 	
S	  8.632165121044 	  7.713264895502 	  0.070642984060 	
S	  8.063620991044 	  7.713267705502 	 10.201199704060 	
S	 23.313023521044 	  1.529712365502 	  0.098775744060 	
S	 22.744479391044 	  1.529715175502 	 10.229332464060 	
S	 23.312992421044 	  7.713274125502 	  0.098772914060 	
S	 22.744448291044 	  7.713276935502 	 10.229329634060 	
S	  5.590929642496 	  4.608429324565 	  5.127330977782 	
S	  5.022385512496 	  4.608432134565 	 15.257887697782 	
S	  5.590898542496 	 10.791991084565 	  5.127328147782 	
S	  5.022354412496 	 10.791993894565 	 15.257884867782 	
S	 20.271756942496 	  4.608438554565 	  5.155460907782 	
S	 19.703212812496 	  4.608441364565 	 15.286017627782 	
S	 20.271725842496 	 10.792000314565 	  5.155458077782 	
S	 19.703181712496 	 10.792003124565 	 15.286014797782 	
S	  5.326649811067 	  4.629418218191 	 10.268782781113 	
S	  4.758105681067 	  4.629421028191 	 20.399339501113 	
S	  5.326618711067 	 10.812979978191 	 10.268779951113 	
S	  4.758074581067 	 10.812982788191 	 20.399336671113 	
S	 20.007477111067 	  4.629427448191 	 10.296912711113 	
S	 19.438932981067 	  4.629430258191 	 20.427469431113 	
S	 20.007446011067 	 10.812989208191 	 10.296909881113 	
S	 19.438901881067 	 10.812992018191 	 20.427466601113 	
S	  8.367917009190 	  1.550692541407 	  5.212097710485 	
S	  7.799372879190 	  1.550695351407 	 15.342654430485 	
S	  8.367885909190 	  7.734254301407 	  5.212094880485 	
S	  7.799341779190 	  7.734257111407 	 15.342651600485 	
S	 23.048744309190 	  1.550701771407 	  5.240227640485 	
S	 22.480200179190 	  1.550704581407 	 15.370784360485 	
S	 23.048713209190 	  7.734263531407 	  5.240224810485 	
S	 22.480169079190 	  7.734266341407 	 15.370781530485 	
C	  6.687876508833 	  2.563887549573 	  9.948698014173 	
C	  6.119332378833 	  2.563890359573 	 20.079254734173 	
C	  6.687845408833 	  8.747449309573 	  9.948695184173 	
C	  6.119301278833 	  8.747452119573 	 20.079251904173 	
C	 21.368703808833 	  2.563896779573 	  9.976827944173 	
C	 20.800159678833 	  2.563899589573 	 20.107384664173 	
C	 21.368672708833 	  8.747458539573 	  9.976825114173 	
C	 20.800128578833 	  8.747461349573 	 20.107381834173 	
C	  7.008081252239 	  5.587063937767 	  5.574656125843 	
C	  6.439537122239 	  5.587066747767 	 15.705212845843 	
C	  7.008050152239 	 11.770625697767 	  5.574653295843 	
C	  6.439506022239 	 11.770628507767 	 15.705210015843 	
C	 21.688908552239 	  5.587073167767 	  5.602786055843 	
C	 21.120364422239 	  5.587075977767 	 15.733342775843 	
C	 21.688877452239 	 11.770634927767 	  5.602783225843 	
C	 21.120333322239 	 11.770637737767 	 15.733339945843 	
C	  7.270969565585 	  3.595233762783 	  0.390730558275 	
C	  6.702425435585 	  3.595236572783 	 10.521287278275 	
C	  7.270938465585 	  9.778795522783 	  0.390727728275 	
C	  6.702394335585 	  9.778798332783 	 10.521284448275 	
C	 21.951796865585 	  3.595242992783 	  0.418860488275 	
C	 21.383252735585 	  3.595245802783 	 10.549417208275 	
C	 21.951765765585 	  9.778804752783 	  0.418857658275 	
C	 21.383221635585 	  9.778807562783 	 10.549414378275 	
C	  6.950765259157 	  0.572058024885 	  4.764772514230 	
C	  6.382221129157 	  0.572060834885 	 14.895329234230 	
C	  6.950734159157 	  6.755619784885 	  4.764769684230 	
C	  6.382190029157 	  6.755622594885 	 14.895326404230 	
C	 21.631592559157 	  0.572067254885 	  4.792902444230 	
C	 21.063048429157 	  0.572070064885 	 14.923459164230 	
C	 21.631561459157 	  6.755629014885 	  4.792899614230 	
C	 21.063017329157 	  6.755631824885 	 14.923456334230 	
C	  5.639905225843 	  2.353789251090 	  9.009478598072 	
C	  5.071361095843 	  2.353792061090 	 19.140035318072 	
C	  5.639874125843 	  8.537351011090 	  9.009475768072 	
C	  5.071329995843 	  8.537353821090 	 19.140032488072 	
C	 20.320732525843 	  2.353798481090 	  9.037608528072 	
C	 19.752188395843 	  2.353801291090 	 19.168165248072 	
C	 20.320701425843 	  8.537360241090 	  9.037605698072 	
C	 19.752157295843 	  8.537363051090 	 19.168162418072 	
C	  8.048494086926 	  5.423479637612 	  6.471041059286 	
C	  7.479949956926 	  5.423482447612 	 16.601597779286 	
C	  8.048462986926 	 11.607041397612 	  6.471038229286 	
C	  7.479918856926 	 11.607044207612 	 16.601594949286 	
C	 22.729321386926 	  5.423488867612 	  6.499170989286 	
C	 22.160777256926 	  5.423491677612 	 16.629727709286 	
C	 22.729290286926 	 11.607050627612 	  6.499168159286 	
C	 22.160746156926 	 11.607053437612 	 16.629724879286 	
C	  8.318940672394 	  3.805332095350 	  1.329949838304 	
C	  7.750396542394 	  3.805334905350 	 11.460506558304 	
C	  8.318909572394 	  9.988893855350 	  1.329947008304 	
C	  7.750365442394 	  9.988896665350 	 11.460503728304 	
C	 22.999767972394 	  3.805341325350 	  1.358079768304 	
C	 22.431223842394 	  3.805344135350 	 11.488636488304 	
C	 22.999736872394 	  9.988903085350 	  1.358076938304 	
C	 22.431192742394 	  9.988905895350 	 11.488633658304 	
C	  5.910352326701 	  0.735642316067 	  3.868387561535 	
C	  5.341808196701 	  0.735645126067 	 13.998944281535 	
C	  5.910321226701 	  6.919204076067 	  3.868384731535 	
C	  5.341777096701 	  6.919206886067 	 13.998941451535 	
C	 20.591179626701 	  0.735651546067 	  3.896517491535 	
C	 20.022635496701 	  0.735654356067 	 14.027074211535 	
C	 20.591148526701 	  6.919213306067 	  3.896514661535 	
C	 20.022604396701 	  6.919216116067 	 14.027071381535 	
C	  4.756117151306 	  3.406043555007 	  9.039536585312 	
C	  4.187573021306 	  3.406046365007 	 19.170093305312 	
C	  4.756086051306 	  9.589605315007 	  9.039533755312 	
C	  4.187541921306 	  9.589608125007 	 19.170090475312 	
C	 19.436944451306 	  3.406052785007 	  9.067666515312 	
C	 18.868400321306 	  3.406055595007 	 19.198223235312 	
C	 19.436913351306 	  9.589614545007 	  9.067663685312 	
C	 18.868369221306 	  9.589617355007 	 19.198220405312 	
C	  8.939746481318 	  0.334653964038 	  6.442904432760 	
C	  8.371202351318 	  0.334656774038 	 16.573461152760 	
C	  8.939715381318 	  6.518215724038 	  6.442901602760 	
C	  8.371171251318 	  6.518218534038 	 16.573458322760 	
C	 23.620573781318 	  0.334663194038 	  6.471034362760 	
C	 23.052029651318 	  0.334666004038 	 16.601591082760 	
C	 23.620542681318 	  6.518224954038 	  6.471031532760 	
C	 23.051998551318 	  6.518227764038 	 16.601588252760 	
C	  9.202728740646 	  2.753077853495 	  1.299891938470 	
C	  8.634184610646 	  2.753080663495 	 11.430448658470 	
C	  9.202697640646 	  8.936639613495 	  1.299889108470 	
C	  8.634153510646 	  8.936642423495 	 11.430445828470 	
C	 23.883556040646 	  2.753087083495 	  1.328021868470 	
C	 23.315011910646 	  2.753089893495 	 11.458578588470 	
C	 23.883524940646 	  8.936648843495 	  1.328019038470 	
C	 23.314980810646 	  8.936651653495 	 11.458575758470 	
C	  5.019099977154 	  5.824467936787 	  3.896524269032 	
C	  4.450555847154 	  5.824470746787 	 14.027080989032 	
C	  5.019068877154 	 12.008029696787 	  3.896521439032 	
C	  4.450524747154 	 12.008032506787 	 14.027078159032 	
C	 19.699927277154 	  5.824477166787 	  3.924654199032 	
C	 19.131383147154 	  5.824479976787 	 14.055210919032 	
C	 19.699896177154 	 12.008038926787 	  3.924651369032 	
C	 19.131352047154 	 12.008041736787 	 14.055208089032 	
C	  3.683636942600 	  3.466130393855 	  8.300488340853 	
C	  3.115092812600 	  3.466133203855 	 18.431045060853 	
C	  3.683605842600 	  9.649692153855 	  8.300485510853 	
C	  3.115061712600 	  9.649694963855 	 18.431042230853 	
C	 18.364464242600 	  3.466139623855 	  8.328618270853 	
C	 17.795920112600 	  3.466142433855 	 18.459174990853 	
C	 18.364433142600 	  9.649701383855 	  8.328615440853 	
C	 17.795889012600 	  9.649704193855 	 18.459172160853 	
C	 10.000505711747 	  0.403049813376 	  7.166617363528 	
C	  9.431961581747 	  0.403052623376 	 17.297174083528 	
C	 10.000474611747 	  6.586611573376 	  7.166614533528 	
C	  9.431930481747 	  6.586614383376 	 17.297171253528 	
C	 24.681333011747 	  0.403059043376 	  7.194747293528 	
C	 24.112788881747 	  0.403061853376 	 17.325304013528 	
C	 24.681301911747 	  6.586620803376 	  7.194744463528 	
C	 24.112757781747 	  6.586623613376 	 17.325301183528 	
C	 10.275208994258 	  2.692991107118 	  2.038940352882 	
C	  9.706664864258 	  2.692993917118 	 12.169497072882 	
C	 10.275177894258 	  8.876552867118 	  2.038937522882 	
C	  9.706633764258 	  8.876555677118 	 12.169494242882 	
C	 24.956036294258 	  2.693000337118 	  2.067070282882 	
C	 24.387492164258 	  2.693003147118 	 12.197627002882 	
C	 24.956005194258 	  8.876562097118 	  2.067067452882 	
C	 24.387461064258 	  8.876564907118 	 12.197624172882 	
C	  3.958340616524 	  5.756072084174 	  3.172811477887 	
C	  3.389796486524 	  5.756074894174 	 13.303368197887 	
C	  3.958309516524 	 11.939633844174 	  3.172808647887 	
C	  3.389765386524 	 11.939636654174 	 13.303365367887 	
C	 18.639167916524 	  5.756081314174 	  3.200941407887 	
C	 18.070623786524 	  5.756084124174 	 13.331498127887 	
C	 18.639136816524 	 11.939643074174 	  3.200938577887 	
C	 18.070592686524 	 11.939645884174 	 13.331495297887 	
H	  2.993633872443 	  4.386540255946 	  8.380538408336 	
H	  2.425089742443 	  4.386543065946 	 18.511095128336 	
H	  2.993602772443 	 10.570102015946 	  8.380535578336 	
H	  2.425058642443 	 10.570104825946 	 18.511092298336 	
H	 17.674461172443 	  4.386549485946 	  8.408668338336 	
H	 17.105917042443 	  4.386552295946 	 18.539225058336 	
H	 17.674430072443 	 10.570111245946 	  8.408665508336 	
H	 17.105885942443 	 10.570114055946 	 18.539222228336 	
H	 10.699735038631 	  1.305033424385 	  7.102724419420 	
H	 10.131190908631 	  1.305036234385 	 17.233281139420 	
H	 10.699703938631 	  7.488595184385 	  7.102721589420 	
H	 10.131159808631 	  7.488597994385 	 17.233278309420 	
H	 25.380562338631 	  1.305042654385 	  7.130854349420 	
H	 24.812018208631 	  1.305045464385 	 17.261411069420 	
H	 25.380531238631 	  7.488604414385 	  7.130851519420 	
H	 24.811987108631 	  7.488607224385 	 17.261408239420 	
H	 10.965212018249 	  1.772581201776 	  1.958890262728 	
H	 10.396667888249 	  1.772584011776 	 12.089446982728 	
H	 10.965180918249 	  7.956142961776 	  1.958887432728 	
H	 10.396636788249 	  7.956145771776 	 12.089444152728 	
H	 25.646039318249 	  1.772590431776 	  1.987020192728 	
H	 25.077495188249 	  1.772593241776 	 12.117576912728 	
H	 25.646008218249 	  7.956152191776 	  1.987017362728 	
H	 25.077464088249 	  7.956155001776 	 12.117574082728 	
H	  3.259111414665 	  4.854088380660 	  3.236704496559 	
H	  2.690567284665 	  4.854091190660 	 13.367261216559 	
H	  3.259080314665 	 11.037650140660 	  3.236701666559 	
H	  2.690536184665 	 11.037652950660 	 13.367258386559 	
H	 17.939938714665 	  4.854097610660 	  3.264834426559 	
H	 17.371394584665 	  4.854100420660 	 13.395391146559 	
H	 17.939907614665 	 11.037659370660 	  3.264831596559 	
H	 17.371363484665 	 11.037662180660 	 13.395388316559 	
C	  3.361203467150 	  2.497250765349 	  7.456535747780 	
C	  2.792659337150 	  2.497253575349 	 17.587092467780 	
C	  3.361172367150 	  8.680812525349 	  7.456532917780 	
C	  2.792628237150 	  8.680815335349 	 17.587089637780 	
C	 18.042030767150 	  2.497259995349 	  7.484665677780 	
C	 17.473486637150 	  2.497262805349 	 17.615222397780 	
C	 18.041999667150 	  8.680821755349 	  7.484662847780 	
C	 17.473455537150 	  8.680824565349 	 17.615219567780 	
C	 10.339483119349 	  5.558526431213 	  8.039375458231 	
C	  9.770938989349 	  5.558529241213 	 18.169932178231 	
C	 10.339452019349 	 11.742088191213 	  8.039372628231 	
C	  9.770907889349 	 11.742091001213 	 18.169929348231 	
C	 25.020310419349 	  5.558535661213 	  8.067505388231 	
C	 24.451766289349 	  5.558538471213 	 18.198062108231 	
C	 25.020279319349 	 11.742097421213 	  8.067502558231 	
C	 24.451735189349 	 11.742100231213 	 18.198059278231 	
C	 10.597642291989 	  3.661870697781 	  2.882892812113 	
C	 10.029098161989 	  3.661873507781 	 13.013449532113 	
C	 10.597611191989 	  9.845432457781 	  2.882889982113 	
C	 10.029067061989 	  9.845435267781 	 13.013446702113 	
C	 25.278469591989 	  3.661879927781 	  2.911022742113 	
C	 24.709925461989 	  3.661882737781 	 13.041579462113 	
C	 25.278438491989 	  9.845441687781 	  2.911019912113 	
C	 24.709894361989 	  9.845444497781 	 13.041576632113 	
C	  3.619363176126 	  0.600595467799 	  2.300053397414 	
C	  3.050819046126 	  0.600598277799 	 12.430610117414 	
C	  3.619332076126 	  6.784157227799 	  2.300050567414 	
C	  3.050787946126 	  6.784160037799 	 12.430607287414 	
C	 18.300190476126 	  0.600604697799 	  2.328183327414 	
C	 17.731646346126 	  0.600607507799 	 12.458740047414 	
C	 18.300159376126 	  6.784166457799 	  2.328180497414 	
C	 17.731615246126 	  6.784169267799 	 12.458737217414 	
C	  4.243121299651 	  1.461310885855 	  7.391280114131 	
C	  3.674577169651 	  1.461313695855 	 17.521836834131 	
C	  4.243090199651 	  7.644872645855 	  7.391277284131 	
C	  3.674546069651 	  7.644875455855 	 17.521834004131 	
C	 18.923948599651 	  1.461320115855 	  7.419410044131 	
C	 18.355404469651 	  1.461322925855 	 17.549966764131 	
C	 18.923917499651 	  7.644881875855 	  7.419407214131 	
C	 18.355373369651 	  7.644884685855 	 17.549963934131 	
C	  9.450467274179 	  4.542912131833 	  8.088673546134 	
C	  8.881923144179 	  4.542914941833 	 18.219230266134 	
C	  9.450436174179 	 10.726473891833 	  8.088670716134 	
C	  8.881892044179 	 10.726476701833 	 18.219227436134 	
C	 24.131294574179 	  4.542921361833 	  8.116803476134 	
C	 23.562750444179 	  4.542924171833 	 18.247360196134 	
C	 24.131263474179 	 10.726483121833 	  8.116800646134 	
C	 23.562719344179 	 10.726485931833 	 18.247357366134 	
C	  9.715724420880 	  4.697810567483 	  2.948148491641 	
C	  9.147180290880 	  4.697813377483 	 13.078705211641 	
C	  9.715693320880 	 10.881372327483 	  2.948145661641 	
C	  9.147149190880 	 10.881375137483 	 13.078702381641 	
C	 24.396551720880 	  4.697819797483 	  2.976278421641 	
C	 23.828007590880 	  4.697822607483 	 13.106835141641 	
C	 24.396520620880 	 10.881381557483 	  2.976275591641 	
C	 23.827976490880 	 10.881384367483 	 13.106832311641 	
C	  4.508378863873 	  1.616209695062 	  2.250755197871 	
C	  3.939834733873 	  1.616212505062 	 12.381311917871 	
C	  4.508347763873 	  7.799771455062 	  2.250752367871 	
C	  3.939803633873 	  7.799774265062 	 12.381309087871 	
C	 19.189206163873 	  1.616218925062 	  2.278885127871 	
C	 18.620662033873 	  1.616221735062 	 12.409441847871 	
C	 19.189175063873 	  7.799780685062 	  2.278882297871 	
C	 18.620630933873 	  7.799783495062 	 12.409439017871 	
H	  4.011782978016 	  0.614653836010 	  6.648078851836 	
H	  3.443238848016 	  0.614656646010 	 16.778635571836 	
H	  4.011751878016 	  6.798215596010 	  6.648076021836 	
H	  3.443207748016 	  6.798218406010 	 16.778632741836 	
H	 18.692610278016 	  0.614663066010 	  6.676208781836 	
H	 18.124066148016 	  0.614665876010 	 16.806765501836 	
H	 18.692579178016 	  6.798224826010 	  6.676205951836 	
H	 18.124035048016 	  6.798227636010 	 16.806762671836 	
H	  9.680993284825 	  3.695236091396 	  8.832817012066 	
H	  9.112449154825 	  3.695238901396 	 18.963373732066 	
H	  9.680962184825 	  9.878797851396 	  8.832814182066 	
H	  9.112418054825 	  9.878800661396 	 18.963370902066 	
H	 24.361820584825 	  3.695245321396 	  8.860946942066 	
H	 23.793276454825 	  3.695248131396 	 18.991503662066 	
H	 24.361789484825 	  9.878807081396 	  8.860944112066 	
H	 23.793245354825 	  9.878809891396 	 18.991500832066 	
H	  9.947062770318 	  5.544467625773 	  3.691349731648 	
H	  9.378518640318 	  5.544470435773 	 13.821906451648 	
H	  9.947031670318 	 11.728029385773 	  3.691346901648 	
H	  9.378487540318 	 11.728032195773 	 13.821903621648 	
H	 24.627890070318 	  5.544476855773 	  3.719479661648 	
H	 24.059345940318 	  5.544479665773 	 13.850036381648 	
H	 24.627858970318 	 11.728038615773 	  3.719476831648 	
H	 24.059314840318 	 11.728041425773 	 13.850033551648 	
H	  4.277852771436 	  2.463885794927 	  1.506611820029 	
H	  3.709308641436 	  2.463888604927 	 11.637168540029 	
H	  4.277821671436 	  8.647447554927 	  1.506608990029 	
H	  3.709277541436 	  8.647450364927 	 11.637165710029 	
H	 18.958680071436 	  2.463895024927 	  1.534741750029 	
H	 18.390135941436 	  2.463897834927 	 11.665298470029 	
H	 18.958648971436 	  8.647456784927 	  1.534738920029 	
H	 18.390104841436 	  8.647459594927 	 11.665295640029 	
C	  5.294602270934 	  1.386738241688 	  8.098825545825 	
C	  4.726058140934 	  1.386741051688 	 18.229382265825 	
C	  5.294571170934 	  7.570300001688 	  8.098822715825 	
C	  4.726027040934 	  7.570302811688 	 18.229379435825 	
C	 19.975429570934 	  1.386747471688 	  8.126955475825 	
C	 19.406885440934 	  1.386750281688 	 18.257512195825 	
C	 19.975398470934 	  7.570309231688 	  8.126952645825 	
C	 19.406854340934 	  7.570312041688 	 18.257509365825 	
C	  8.398508407697 	  4.467999383976 	  7.380931289062 	
C	  7.829964277697 	  4.468002193976 	 17.511488009062 	
C	  8.398477307697 	 10.651561143976 	  7.380928459062 	
C	  7.829933177697 	 10.651563953976 	 17.511485179062 	
C	 23.079335707697 	  4.468008613976 	  7.409061219062 	
C	 22.510791577697 	  4.468011423976 	 17.539617939062 	
C	 23.079304607697 	 10.651570373976 	  7.409058389062 	
C	 22.510760477697 	 10.651573183976 	 17.539615109062 	
C	  8.664243535396 	  4.772383162762 	  2.240602923098 	
C	  8.095699405396 	  4.772385972762 	 12.371159643098 	
C	  8.664212435396 	 10.955944922762 	  2.240600093098 	
C	  8.095668305396 	 10.955947732762 	 12.371156813098 	
C	 23.345070835396 	  4.772392392762 	  2.268732853098 	
C	 22.776526705396 	  4.772395202762 	 12.399289573098 	
C	 23.345039735396 	 10.955954152762 	  2.268730023098 	
C	 22.776495605396 	 10.955956962762 	 12.399286743098 	
C	  5.560337916055 	  1.691122535260 	  2.958497425084 	
C	  4.991793786055 	  1.691125345260 	 13.089054145084 	
C	  5.560306816055 	  7.874684295260 	  2.958494595084 	
C	  4.991762686055 	  7.874687105260 	 13.089051315084 	
C	 20.241165216055 	  1.691131765260 	  2.986627355084 	
C	 19.672621086055 	  1.691134575260 	 13.117184075084 	
C	 20.241134116055 	  7.874693525260 	  2.986624525084 	
C	 19.672589986055 	  7.874696335260 	 13.117181245084 	
H	  6.005017401393 	  0.486250664124 	  8.005936941595 	
H	  5.436473271393 	  0.486253474124 	 18.136493661595 	
H	  6.004986301393 	  6.669812424124 	  8.005934111595 	
H	  5.436442171393 	  6.669815234124 	 18.136490831595 	
H	 20.685844701393 	  0.486259894124 	  8.034066871595 	
H	 20.117300571393 	  0.486262704124 	 18.164623591595 	
H	 20.685813601393 	  6.669821654124 	  8.034064041595 	
H	 20.117269471393 	  6.669824464124 	 18.164620761595 	
H	  7.687729662599 	  3.566227493380 	  7.474978992219 	
H	  7.119185532599 	  3.566230303380 	 17.605535712219 	
H	  7.687698562599 	  9.749789253380 	  7.474976162219 	
H	  7.119154432599 	  9.749792063380 	 17.605532882219 	
H	 22.368556962599 	  3.566236723380 	  7.503108922219 	
H	 21.800012832599 	  3.566239533380 	 17.633665642219 	
H	 22.368525862599 	  9.749798483380 	  7.503106092219 	
H	 21.799981732599 	  9.749801293380 	 17.633662812219 	
H	  7.953828329792 	  5.672870670710 	  2.333491501159 	
H	  7.385284199792 	  5.672873480710 	 12.464048221159 	
H	  7.953797229792 	 11.856432430710 	  2.333488671159 	
H	  7.385253099792 	 11.856435240710 	 12.464045391159 	
H	 22.634655629792 	  5.672879900710 	  2.361621431159 	
H	 22.066111499792 	  5.672882710710 	 12.492178151159 	
H	 22.634624529792 	 11.856441660710 	  2.361618601159 	
H	 22.066080399792 	 11.856444470710 	 12.492175321159 	
H	  6.271116611496 	  2.592894445392 	  2.864449645347 	
H	  5.702572481496 	  2.592897255392 	 12.995006365347 	
H	  6.271085511496 	  8.776456205392 	  2.864446815347 	
H	  5.702541381496 	  8.776459015392 	 12.995003535347 	
H	 20.951943911496 	  2.592903675392 	  2.892579575347 	
H	 20.383399781496 	  2.592906485392 	 13.023136295347 	
H	 20.951912811496 	  8.776465435392 	  2.892576745347 	
H	 20.383368681496 	  8.776468245392 	 13.023133465347 	
C	  1.965960443946 	  2.554051123990 	  6.518234798488 	
C	  1.397416313946 	  2.554053933990 	 16.648791518488 	
C	  1.965929343946 	  8.737612883990 	  6.518231968488 	
C	  1.397385213946 	  8.737615693990 	 16.648788688488 	
C	 16.646787743946 	  2.554060353990 	  6.546364728488 	
C	 16.078243613946 	  2.554063163990 	 16.676921448488 	
C	 16.646756643946 	  8.737622113990 	  6.546361898488 	
C	 16.078212513946 	  8.737624923990 	 16.676918618488 	
C	 11.659400004520 	  5.579545421564 	  8.910151834650 	
C	 11.090855874520 	  5.579548231564 	 19.040708554650 	
C	 11.659368904520 	 11.763107181564 	  8.910149004650 	
C	 11.090824774520 	 11.763109991564 	 19.040705724650 	
C	 26.340227304520 	  5.579554651564 	  8.938281764650 	
C	 25.771683174520 	  5.579557461564 	 19.068838484650 	
C	 26.340196204520 	 11.763116411564 	  8.938278934650 	
C	 25.771652074520 	 11.763119221564 	 19.068835654650 	
C	 11.992885538212 	  3.605070632251 	  3.821194144055 	
C	 11.424341408212 	  3.605073442251 	 13.951750864055 	
C	 11.992854438212 	  9.788632392251 	  3.821191314055 	
C	 11.424310308212 	  9.788635202251 	 13.951748034055 	
C	 26.673712838212 	  3.605079862251 	  3.849324074055 	
C	 26.105168708212 	  3.605082672251 	 13.979880794055 	
C	 26.673681738212 	  9.788641622251 	  3.849321244055 	
C	 26.105137608212 	  9.788644432251 	 13.979877964055 	
C	  2.299446186616 	  0.579576317362 	  1.429277093145 	
C	  1.730902056616 	  0.579579127362 	 11.559833813145 	
C	  2.299415086616 	  6.763138077362 	  1.429274263145 	
C	  1.730870956616 	  6.763140887362 	 11.559830983145 	
C	 16.980273486616 	  0.579585547362 	  1.457407023145 	
C	 16.411729356616 	  0.579588357362 	 11.587963743145 	
C	 16.980242386616 	  6.763147307362 	  1.457404193145 	
C	 16.411698256616 	  6.763150117362 	 11.587960913145 	
C	  2.181352733642 	  2.875723564174 	  5.446101767131 	
C	  1.612808603642 	  2.875726374174 	 15.576658487131 	
C	  2.181321633642 	  9.059285324174 	  5.446098937131 	
C	  1.612777503642 	  9.059288134174 	 15.576655657131 	
C	 16.862180033642 	  2.875732794174 	  5.474231697131 	
C	 16.293635903642 	  2.875735604174 	 15.604788417131 	
C	 16.862148933642 	  9.059294554174 	  5.474228867131 	
C	 16.293604803642 	  9.059297364174 	 15.604785587131 	
C	 11.509715936598 	 -0.188924039403 	  9.981907026267 	
C	 10.941171806598 	 -0.188921229403 	 20.112463746267 	
C	 11.509684836598 	  5.994637720597 	  9.981904196267 	
C	 10.941140706598 	  5.994640530597 	 20.112460916267 	
C	 26.190543236598 	 -0.188914809403 	 10.010036956267 	
C	 25.621999106598 	 -0.188911999403 	 20.140593676267 	
C	 26.190512136598 	  5.994646950597 	 10.010034126267 	
C	 25.621968006598 	  5.994649760597 	 20.140590846267 	
C	 11.777492121079 	  3.283397981381 	  4.893327598309 	
C	 11.208947991079 	  3.283400791381 	 15.023884318309 	
C	 11.777461021079 	  9.466959741381 	  4.893324768309 	
C	 11.208916891079 	  9.466962551381 	 15.023881488309 	
C	 26.458319421079 	  3.283407211381 	  4.921457528309 	
C	 25.889775291079 	  3.283410021381 	 15.052014248309 	
C	 26.458288321079 	  9.466968971381 	  4.921454698309 	
C	 25.889744191079 	  9.466971781381 	 15.052011418309 	
C	  2.449130199140 	  6.348046056164 	  0.357521890914 	
C	  1.880586069140 	  6.348048866164 	 10.488078610914 	
C	  2.449099099140 	 12.531607816164 	  0.357519060914 	
C	  1.880554969140 	 12.531610626164 	 10.488075780914 	
C	 17.129957499140 	  6.348055286164 	  0.385651820914 	
C	 16.561413369140 	  6.348058096164 	 10.516208540914 	
C	 17.129926399140 	 12.531617046164 	  0.385648990914 	
C	 16.561382269140 	 12.531619856164 	 10.516205710914 	
H	  2.791583073457 	  3.805876049489 	  5.266119354381 	
H	  2.223038943457 	  3.805878859489 	 15.396676074381 	
H	  2.791551973457 	  9.989437809489 	  5.266116524381 	
H	  2.223007843457 	  9.989440619489 	 15.396673244381 	
H	 17.472410373457 	  3.805885279489 	  5.294249284381 	
H	 16.903866243457 	  3.805888089489 	 15.424806004381 	
H	 17.472379273457 	  9.989447039489 	  5.294246454381 	
H	 16.903835143457 	  9.989449849489 	 15.424803174381 	
H	 10.896299625774 	  0.710847958954 	 10.219244875002 	
H	 10.327755495774 	  0.710850768954 	 20.349801595002 	
H	 10.896268525774 	  6.894409718954 	 10.219242045002 	
H	 10.327724395774 	  6.894412528954 	 20.349798765002 	
H	 25.577126925774 	  0.710857188954 	 10.247374805002 	
H	 25.008582795774 	  0.710859998954 	 20.377931525002 	
H	 25.577095825774 	  6.894418948954 	 10.247371975002 	
H	 25.008551695774 	  6.894421758954 	 20.377928695002 	
H	 11.167262571363 	  2.353244578321 	  5.073309550479 	
H	 10.598718441363 	  2.353247388321 	 15.203866270479 	
H	 11.167231471363 	  8.536806338321 	  5.073306720479 	
H	 10.598687341363 	  8.536809148321 	 15.203863440479 	
H	 25.848089871363 	  2.353253808321 	  5.101439480479 	
H	 25.279545741363 	  2.353256618321 	 15.231996200479 	
H	 25.848058771363 	  8.536815568321 	  5.101436650479 	
H	 25.279514641363 	  8.536818378321 	 15.231993370479 	
H	  3.062546516040 	  5.448274143939 	  0.120183721140 	
H	  2.494002386040 	  5.448276953939 	 10.250740441140 	
H	  3.062515416040 	 11.631835903939 	  0.120180891140 	
H	  2.493971286040 	 11.631838713939 	 10.250737611140 	
H	 17.743373816040 	  5.448283373939 	  0.148313651140 	
H	 17.174829686040 	  5.448286183939 	 10.278870371140 	
H	 17.743342716040 	 11.631845133939 	  0.148310821140 	
H	 17.174798586040 	 11.631847943939 	 10.278867541140 	
H	  1.414935101338 	  3.017154730436 	  4.629644855199 	
H	  0.846390971338 	  3.017157540436 	 14.760201575199 	
H	  1.414904001338 	  9.200716490436 	  4.629642025199 	
H	  0.846359871338 	  9.200719300436 	 14.760198745199 	
H	 16.095762401338 	  3.017163960436 	  4.657774785199 	
H	 15.527218271338 	  3.017166770436 	 14.788331505199 	
H	 16.095731301338 	  9.200725720436 	  4.657771955199 	
H	 15.527187171338 	  9.200728530436 	 14.788328675199 	
H	 12.882852478358 	 -0.047489295880 	  0.640721637967 	
H	 12.314308348358 	 -0.047486485880 	 10.771278357967 	
H	 12.882821378358 	  6.136072464120 	  0.640718807967 	
H	 12.314277248358 	  6.136075274120 	 10.771275527967 	
H	 27.563679778358 	 -0.047480065880 	  0.668851567967 	
H	 26.995135648358 	 -0.047477255880 	 10.799408287967 	
H	 27.563648678358 	  6.136081694120 	  0.668848737967 	
H	 26.995104548358 	  6.136084504120 	 10.799405457967 	
H	 12.543910155326 	  3.141967306064 	  5.709784433831 	
H	 11.975366025326 	  3.141970116064 	 15.840341153831 	
H	 12.543879055326 	  9.325529066064 	  5.709781603831 	
H	 11.975334925326 	  9.325531876064 	 15.840338323831 	
H	 27.224737455326 	  3.141976536064 	  5.737914363831 	
H	 26.656193325326 	  3.141979346064 	 15.868471083831 	
H	 27.224706355326 	  9.325538296064 	  5.737911533831 	
H	 26.656162225326 	  9.325541106064 	 15.868468253831 	
H	  1.075993667516 	  6.206611358937 	  9.698707251043 	
H	  0.507449537516 	  6.206614168937 	 19.829263971043 	
H	  1.075962567516 	 12.390173118937 	  9.698704421043 	
H	  0.507418437516 	 12.390175928937 	 19.829261141043 	
H	 15.756820967516 	  6.206620588937 	  9.726837181043 	
H	 15.188276837516 	  6.206623398937 	 19.857393901043 	
H	 15.756789867516 	 12.390182348937 	  9.726834351043 	
H	 15.188245737516 	 12.390185158937 	 19.857391071043 	
H	  2.940692206150 	  2.309931526645 	  4.834589950644 	
H	  2.372148076150 	  2.309934336645 	 14.965146670644 	
H	  2.940661106150 	  8.493493286645 	  4.834587120644 	
H	  2.372116976150 	  8.493496096645 	 14.965143840644 	
H	 17.621519506150 	  2.309940756645 	  4.862719880644 	
H	 17.052975376150 	  2.309943566645 	 14.993276600644 	
H	 17.621488406150 	  8.493502516645 	  4.862717050644 	
H	 17.052944276150 	  8.493505326645 	 14.993273770644 	
H	 11.210028464273 	  5.378212252881 	  0.417937282228 	
H	 10.641484334273 	  5.378215062881 	 10.548494002228 	
H	 11.209997364273 	 11.561774012881 	  0.417934452228 	
H	 10.641453234273 	 11.561776822881 	 10.548491172228 	
H	 25.890855764273 	  5.378221482881 	  0.446067212228 	
H	 25.322311634273 	  5.378224292881 	 10.576623932228 	
H	 25.890824664273 	 11.561783242881 	  0.446064382228 	
H	 25.322280534273 	 11.561786052881 	 10.576621102228 	
H	 11.018152541288 	  3.849190741874 	  5.504839111164 	
H	 10.449608411288 	  3.849193551874 	 15.635395831164 	
H	 11.018121441288 	 10.032752501874 	  5.504836281164 	
H	 10.449577311288 	 10.032755311874 	 15.635393001164 	
H	 25.698979841288 	  3.849199971874 	  5.532969041164 	
H	 25.130435711288 	  3.849202781874 	 15.663525761164 	
H	 25.698948741288 	 10.032761731874 	  5.532966211164 	
H	 25.130404611288 	 10.032764541874 	 15.663522931164 	
H	  2.748817734113 	  0.780909881901 	  9.921491764086 	
H	  2.180273604113 	  0.780912691901 	 20.052048484086 	
H	  2.748786634113 	  6.964471641901 	  9.921488934086 	
H	  2.180242504113 	  6.964474451901 	 20.052045654086 	
H	 17.429645034113 	  0.780919111901 	  9.949621694086 	
H	 16.861100904113 	  0.780921921901 	 20.080178414086 	
H	 17.429613934113 	  6.964480871901 	  9.949618864086 	
H	 16.861069804113 	  6.964483681901 	 20.080175584086 	
C	  1.210152009091 	  3.295938881558 	  6.945773519993 	
C	  0.641607879091 	  3.295941691558 	 17.076330239993 	
C	  1.210120909091 	  9.479500641558 	  6.945770689993 	
C	  0.641576779091 	  9.479503451558 	 17.076327409993 	
C	 15.890979309091 	  3.295948111558 	  6.973903449993 	
C	 15.322435179091 	  3.295950921558 	 17.104460169993 	
C	 15.890948209091 	  9.479509871558 	  6.973900619993 	
C	 15.322404079091 	  9.479512681558 	 17.104457339993 	
C	 12.570732064261 	  0.262908065587 	  8.517962678363 	
C	 12.002187934261 	  0.262910875587 	 18.648519398363 	
C	 12.570700964261 	  6.446469825587 	  8.517959848363 	
C	 12.002156834261 	  6.446472635587 	 18.648516568363 	
C	 27.251559364261 	  0.262917295587 	  8.546092608363 	
C	 26.683015234261 	  0.262920105587 	 18.676649328363 	
C	 27.251528264261 	  6.446479055587 	  8.546089778363 	
C	 26.682984134261 	  6.446481865587 	 18.676646498363 	
C	 12.748693997188 	  2.863182405013 	  3.393654858638 	
C	 12.180149867188 	  2.863185215013 	 13.524211578638 	
C	 12.748662897188 	  9.046744165013 	  3.393652028638 	
C	 12.180118767188 	  9.046746975013 	 13.524208748638 	
C	 27.429521297188 	  2.863191635013 	  3.421784788638 	
C	 26.860977167188 	  2.863194445013 	 13.552341508638 	
C	 27.429490197188 	  9.046753395013 	  3.421781958638 	
C	 26.860946067188 	  9.046756205013 	 13.552338678638 	
C	  1.388114146869 	  5.896213488913 	  1.821466125493 	
C	  0.819570016869 	  5.896216298913 	 11.952022845493 	
C	  1.388083046869 	 12.079775248913 	  1.821463295493 	
C	  0.819538916869 	 12.079778058913 	 11.952020015493 	
C	 16.068941446869 	  5.896222718913 	  1.849596055493 	
C	 15.500397316869 	  5.896225528913 	 11.980152775493 	
C	 16.068910346869 	 12.079784478913 	  1.849593225493 	
C	 15.500366216869 	 12.079787288913 	 11.980149945493 	
H	  1.496188650138 	  4.380179560092 	  7.114407523228 	
H	  0.927644520138 	  4.380182370092 	 17.244964243228 	
H	  1.496157550138 	 10.563741320092 	  7.114404693228 	
H	  0.927613420138 	 10.563744130092 	 17.244961413228 	
H	 16.177015950138 	  4.380188790092 	  7.142537453228 	
H	 15.608471820138 	  4.380191600092 	 17.273094173228 	
H	 16.176984850138 	 10.563750550092 	  7.142534623228 	
H	 15.608440720138 	 10.563753360092 	 17.273091343228 	
H	 12.203134981643 	  1.301104684588 	  8.357899113088 	
H	 11.634590851643 	  1.301107494588 	 18.488455833088 	
H	 12.203103881643 	  7.484666444588 	  8.357896283088 	
H	 11.634559751643 	  7.484669254588 	 18.488453003088 	
H	 26.883962281643 	  1.301113914588 	  8.386029043088 	
H	 26.315418151643 	  1.301116724588 	 18.516585763088 	
H	 26.883931181643 	  7.484675674588 	  8.386026213088 	
H	 26.315387051643 	  7.484678484588 	 18.516582933088 	
H	 12.462657363996 	  1.778941473922 	  3.225021122902 	
H	 11.894113233996 	  1.778944283922 	 13.355577842902 	
H	 12.462626263996 	  7.962503233922 	  3.225018292902 	
H	 11.894082133996 	  7.962506043922 	 13.355575012902 	
H	 27.143484663996 	  1.778950703922 	  3.253151052902 	
H	 26.574940533996 	  1.778953513922 	 13.383707772902 	
H	 27.143453563996 	  7.962512463922 	  3.253148222902 	
H	 26.574909433996 	  7.962515273922 	 13.383704942902 	
H	  1.755711347297 	  4.858016859897 	  1.981529303339 	
H	  1.187167217297 	  4.858019669897 	 12.112086023339 	
H	  1.755680247297 	 11.041578619897 	  1.981526473339 	
H	  1.187136117297 	 11.041581429897 	 12.112083193339 	
H	 16.436538647297 	  4.858026089897 	  2.009659233339 	
H	 15.867994517297 	  4.858028899897 	 12.140215953339 	
H	 16.436507547297 	 11.041587849897 	  2.009656403339 	
H	 15.867963417297 	 11.041590659897 	 12.140213123339 	
H	  0.884973231082 	  3.220673391043 	  8.029459081942 	
H	  0.316429101082 	  3.220676201043 	 18.160015801942 	
H	  0.884942131082 	  9.404235151043 	  8.029456251942 	
H	  0.316398001082 	  9.404237961043 	 18.160012971942 	
H	 15.565800531082 	  3.220682621043 	  8.057589011942 	
H	 14.997256401082 	  3.220685431043 	 18.188145731942 	
H	 15.565769431082 	  9.404244381043 	  8.057586181942 	
H	 14.997225301082 	  9.404247191043 	 18.188142901942 	
H	 12.802875342629 	  6.298597161483 	  7.456058709361 	
H	 12.234331212629 	  6.298599971483 	 17.586615429361 	
H	 12.802844242629 	 12.482158921483 	  7.456055879361 	
H	 12.234300112629 	 12.482161731483 	 17.586612599361 	
H	 27.483702642629 	  6.298606391483 	  7.484188639361 	
H	 26.915158512629 	  6.298609201483 	 17.614745359361 	
H	 27.483671542629 	 12.482168151483 	  7.484185809361 	
H	 26.915127412629 	 12.482170961483 	 17.614742529361 	
H	 13.073873441004 	  2.938448336701 	  2.309969355244 	
H	 12.505329311004 	  2.938451146701 	 12.440526075244 	
H	 13.073842341004 	  9.122010096701 	  2.309966525244 	
H	 12.505298211004 	  9.122012906701 	 12.440523245244 	
H	 27.754700741004 	  2.938457566701 	  2.338099285244 	
H	 27.186156611004 	  2.938460376701 	 12.468656005244 	
H	 27.754669641004 	  9.122019326701 	  2.338096455244 	
H	 27.186125511004 	  9.122022136701 	 12.468653175244 	
H	  1.155970994692 	 -0.139475805301 	  2.883370122695 	
H	  0.587426864692 	 -0.139472995301 	 13.013926842695 	
H	  1.155939894692 	  6.044085954699 	  2.883367292695 	
H	  0.587395764692 	  6.044088764699 	 13.013924012695 	
H	 15.836798294692 	 -0.139466575301 	  2.911500052695 	
H	 15.268254164692 	 -0.139463765301 	 13.042056772695 	
H	 15.836767194692 	  6.044095184699 	  2.911497222695 	
H	 15.268223064692 	  6.044097994699 	 13.042053942695 	
H	  0.215136073396 	  3.426672983735 	  6.429193753951 	
H	 -0.353408056604 	  3.426675793735 	 16.559750473951 	
H	  0.215104973396 	  9.610234743735 	  6.429190923951 	
H	 -0.353439156604 	  9.610237553735 	 16.559747643951 	
H	 14.895963373396 	  3.426682213735 	  6.457323683951 	
H	 14.327419243396 	  3.426685023735 	 16.587880403951 	
H	 14.895932273396 	  9.610243973735 	  6.457320853951 	
H	 14.327388143396 	  9.610246783735 	 16.587877573951 	
H	 13.459914858894 	  6.497674522052 	  9.040539432001 	
H	 12.891370728894 	  6.497677332052 	 19.171096152001 	
H	 13.459883758894 	 12.681236282052 	  9.040536602001 	
H	 12.891339628894 	 12.681239092052 	 19.171093322001 	
H	 28.140742158894 	  6.497683752052 	  9.068669362001 	
H	 27.572198028894 	  6.497686562052 	 19.199226082001 	
H	 28.140711058894 	 12.681245512052 	  9.068666532001 	
H	 27.572166928894 	 12.681248322052 	 19.199223252001 	
H	 13.743709842404 	  2.732448441856 	  3.910235067000 	
H	 13.175165712404 	  2.732451251856 	 14.040791787000 	
H	 13.743678742404 	  8.916010201856 	  3.910232237000 	
H	 13.175134612404 	  8.916013011856 	 14.040788957000 	
H	 28.424537142404 	  2.732457671856 	  3.938364997000 	
H	 27.855993012404 	  2.732460481856 	 14.068921717000 	
H	 28.424506042404 	  8.916019431856 	  3.938362167000 	
H	 27.855961912404 	  8.916022241856 	 14.068918887000 	
H	  0.498931305471 	 -0.338553038163 	  1.298889461319 	
H	 -0.069612824529 	 -0.338550228163 	 11.429446181319 	
H	  0.498900205471 	  5.845008721837 	  1.298886631319 	
H	 -0.069643924529 	  5.845011531837 	 11.429443351319 	
H	 15.179758605471 	 -0.338543808163 	  1.327019391319 	
H	 14.611214475471 	 -0.338540998163 	 11.457576111319 	
H	 15.179727505471 	  5.845017951837 	  1.327016561319 	
H	 14.611183375471 	  5.845020761837 	 11.457573281319 	
C	  1.439686498461 	  1.545520746719 	  6.463682793780 	
C	  0.871142368461 	  1.545523556719 	 16.594239513780 	
C	  1.439655398461 	  7.729082506719 	  6.463679963780 	
C	  0.871111268461 	  7.729085316719 	 16.594236683780 	
C	 16.120513798461 	  1.545529976719 	  6.491812723780 	
C	 15.551969668461 	  1.545532786719 	 16.622369443780 	
C	 16.120482698461 	  7.729091736719 	  6.491809893780 	
C	 15.551938568461 	  7.729094546719 	 16.622366613780 	
C	 12.253732689277 	  4.630928332892 	  9.020075423288 	
C	 11.685188559277 	  4.630931142892 	 19.150632143288 	
C	 12.253701589277 	 10.814490092892 	  9.020072593288 	
C	 11.685157459277 	 10.814492902892 	 19.150629313288 	
C	 26.934559989277 	  4.630937562892 	  9.048205353288 	
C	 26.366015859277 	  4.630940372892 	 19.178762073288 	
C	 26.934528889277 	 10.814499322892 	  9.048202523288 	
C	 26.365984759277 	 10.814502132892 	 19.178759243288 	
C	 12.519159070835 	  4.613601968019 	  3.875745492229 	
C	 11.950614940835 	  4.613604778019 	 14.006302212229 	
C	 12.519127970835 	 10.797163728019 	  3.875742662229 	
C	 11.950583840835 	 10.797166538019 	 14.006299382229 	
C	 27.199986370835 	  4.613611198019 	  3.903875422229 	
C	 26.631442240835 	  4.613614008019 	 14.034432142229 	
C	 27.199955270835 	 10.797172958019 	  3.903872592229 	
C	 26.631411140835 	 10.797175768019 	 14.034429312229 	
C	  1.705113326704 	  1.528193312099 	  1.319353741645 	
C	  1.136569196704 	  1.528196122099 	 11.449910461645 	
C	  1.705082226704 	  7.711755072099 	  1.319350911645 	
C	  1.136538096704 	  7.711757882099 	 11.449907631645 	
C	 16.385940626704 	  1.528202542099 	  1.347483671645 	
C	 15.817396496704 	  1.528205352099 	 11.478040391645 	
C	 16.385909526704 	  7.711764302099 	  1.347480841645 	
C	 15.817365396704 	  7.711767112099 	 11.478037561645 	
H	  0.447796264979 	  1.386394618193 	  5.953120988772 	
H	 -0.120747865021 	  1.386397428193 	 16.083677708772 	
H	  0.447765164979 	  7.569956378193 	  5.953118158772 	
H	 -0.120778965021 	  7.569959188193 	 16.083674878772 	
H	 15.128623564979 	  1.386403848193 	  5.981250918772 	
H	 14.560079434979 	  1.386406658193 	 16.111807638772 	
H	 15.128592464979 	  7.569965608193 	  5.981248088772 	
H	 14.560048334979 	  7.569968418193 	 16.111804808772 	
H	 13.243363385498 	  4.468608694091 	  9.529031365435 	
H	 12.674819255498 	  4.468611504091 	 19.659588085435 	
H	 13.243332285498 	 10.652170454091 	  9.529028535435 	
H	 12.674788155498 	 10.652173264091 	 19.659585255435 	
H	 27.924190685498 	  4.468617924091 	  9.557161295435 	
H	 27.355646555498 	  4.468620734091 	 19.687718015435 	
H	 27.924159585498 	 10.652179684091 	  9.557158465435 	
H	 27.355615455498 	 10.652182494091 	 19.687715185435 	
H	 13.511049395979 	  4.772727785983 	  4.386307568913 	
H	 12.942505265979 	  4.772730595983 	 14.516864288913 	
H	 13.511018295979 	 10.956289545983 	  4.386304738913 	
H	 12.942474165979 	 10.956292355983 	 14.516861458913 	
H	 28.191876695979 	  4.772737015983 	  4.414437498913 	
H	 27.623332565979 	  4.772739825983 	 14.544994218913 	
H	 28.191845595979 	 10.956298775983 	  4.414434668913 	
H	 27.623301465979 	 10.956301585983 	 14.544991388913 	
H	  0.715482593886 	  1.690512909576 	  0.810397877347 	
H	  0.146938463886 	  1.690515719576 	 10.940954597347 	
H	  0.715451493886 	  7.874074669576 	  0.810395047347 	
H	  0.146907363886 	  7.874077479576 	 10.940951767347 	
H	 15.396309893886 	  1.690522139576 	  0.838527807347 	
H	 14.827765763886 	  1.690524949576 	 10.969084527347 	
H	 15.396278793886 	  7.874083899576 	  0.838524977347 	
H	 14.827734663886 	  7.874086709576 	 10.969081697347 	
H	  1.255647934863 	  0.970646835158 	  7.421391043818 	
H	  0.687103804863 	  0.970649645158 	 17.551947763818 	
H	  1.255616834863 	  7.154208595158 	  7.421388213818 	
H	  0.687072704863 	  7.154211405158 	 17.551944933818 	
H	 15.936475234863 	  0.970656065158 	  7.449520973818 	
H	 15.367931104863 	  0.970658875158 	 17.580077693818 	
H	 15.936444134863 	  7.154217825158 	  7.449518143818 	
H	 15.367900004863 	  7.154220635158 	 17.580074863818 	
H	 12.436453239567 	  4.052902102287 	  8.061229025168 	
H	 11.867909109567 	  4.052904912287 	 18.191785745168 	
H	 12.436422139567 	 10.236463862287 	  8.061226195168 	
H	 11.867878009567 	 10.236466672287 	 18.191782915168 	
H	 27.117280539567 	  4.052911332287 	  8.089358955168 	
H	 26.548736409567 	  4.052914142287 	 18.219915675168 	
H	 27.117249439567 	 10.236473092287 	  8.089356125168 	
H	 26.548705309567 	 10.236475902287 	 18.219912845168 	
H	 12.703197963493 	  5.188475497262 	  2.918036796008 	
H	 12.134653833493 	  5.188478307262 	 13.048593516008 	
H	 12.703166863493 	 11.372037257262 	  2.918033966008 	
H	 12.134622733493 	 11.372040067262 	 13.048590686008 	
H	 27.384025263493 	  5.188484727262 	  2.946166726008 	
H	 26.815481133493 	  5.188487537262 	 13.076723446008 	
H	 27.383994163493 	 11.372046487262 	  2.946163896008 	
H	 26.815450033493 	 11.372049297262 	 13.076720616008 	
H	  1.522392743434 	  2.106219359712 	  2.278200215116 	
H	  0.953848613434 	  2.106222169712 	 12.408756935116 	
H	  1.522361643434 	  8.289781119712 	  2.278197385116 	
H	  0.953817513434 	  8.289783929712 	 12.408754105116 	
H	 16.203220043434 	  2.106228589712 	  2.306330145116 	
H	 15.634675913434 	  2.106231399712 	 12.436886865116 	
H	 16.203188943434 	  8.289790349712 	  2.306327315116 	
H	 15.634644813434 	  8.289793159712 	 12.436884035116 	
H	  1.976951432425 	  0.646872475328 	  6.045938003489 	
H	  1.408407302425 	  0.646875285328 	 16.176494723489 	
H	  1.976920332425 	  6.830434235328 	  6.045935173489 	
H	  1.408376202425 	  6.830437045328 	 16.176491893489 	
H	 16.657778732425 	  0.646881705328 	  6.074067933489 	
H	 16.089234602425 	  0.646884515328 	 16.204624653489 	
H	 16.657747632425 	  6.830443465328 	  6.074065103489 	
H	 16.089203502425 	  6.830446275328 	 16.204621823489 	
H	 11.715519037531 	  3.730461999178 	  9.435491382233 	
H	 11.146974907531 	  3.730464809178 	 19.566048102233 	
H	 11.715487937531 	  9.914023759178 	  9.435488552233 	
H	 11.146943807531 	  9.914026569178 	 19.566045272233 	
H	 26.396346337531 	  3.730471229178 	  9.463621312233 	
H	 25.827802207531 	  3.730474039178 	 19.594178032233 	
H	 26.396315237531 	  9.914032989178 	  9.463618482233 	
H	 25.827771107531 	  9.914035799178 	 19.594175202233 	
H	 11.981893723027 	  5.512249928500 	  4.293491176701 	
H	 11.413349593027 	  5.512252738500 	 14.424047896701 	
H	 11.981862623027 	 11.695811688500 	  4.293488346701 	
H	 11.413318493027 	 11.695814498500 	 14.424045066701 	
H	 26.662721023027 	  5.512259158500 	  4.321621106701 	
H	 26.094176893027 	  5.512261968500 	 14.452177826701 	
H	 26.662689923027 	 11.695820918500 	  4.321618276701 	
H	 26.094145793027 	 11.695823728500 	 14.452174996701 	
H	  2.243326906762 	  2.428659862163 	  0.903938185112 	
H	  1.674782776762 	  2.428662672163 	 11.034494905112 	
H	  2.243295806762 	  8.612221622163 	  0.903935355112 	
H	  1.674751676762 	  8.612224432163 	 11.034492075112 	
H	 16.924154206762 	  2.428669092163 	  0.932068115112 	
H	 16.355610076762 	  2.428671902163 	 11.062624835112 	
H	 16.924123106762 	  8.612230852163 	  0.932065285112 	
H	 16.355578976762 	  8.612233662163 	 11.062622005112 	
768 
Energy: -1.0129748199820000e+02 
S	  8.583953690549 	  1.514123668794 	  0.080227375800 	
S	  8.015409560549 	  1.514126478794 	 10.210784095800 	
S	  8.583922590549 	  7.697685428794 	  0.080224545800 	
S	  8.015378460549 	  7.697688238794 	 10.210781265800 	
S	 23.264780990549 	  1.514132898794 	  0.108357305800 	
S	 22.696236860549 	  1.514135708794 	 10.238914025800 	
S	 23.264749890549 	  7.697694658794 	  0.108354475800 	
S	 22.696205760549 	  7.697697468794 	 10.238911195800 	
S	  5.576321397209 	  4.588128719062 	  5.155973661910 	
S	  5.007777267209 	  4.588131529062 	 15.286530381910 	
S	  5.576290297209 	 10.771690479062 	  5.155970831910 	
S	  5.007746167209 	 10.771693289062 	 15.286527551910 	
S	 20.257148697209 	  4.588137949062 	  5.184103591910 	
S	 19.688604567209 	  4.588140759062 	 15.314660311910 	
S	 20.257117597209 	 10.771699709062 	  5.184100761910 	
S	 19.688573467209 	 10.771702519062 	 15.314657481910 	
S	  5.318657791741 	  4.636034206411 	 10.325457456972 	
S	  4.750113661741 	  4.636037016411 	 20.456014176972 	
S	  5.318626691741 	 10.819595966411 	 10.325454626972 	
S	  4.750082561741 	 10.819598776411 	 20.456011346972 	
S	 19.999485091741 	  4.636043436411 	 10.353587386972 	
S	 19.430940961741 	  4.636046246411 	 20.484144106972 	
S	 19.999453991741 	 10.819605196411 	 10.353584556972 	
S	 19.430909861741 	 10.819608006411 	 20.484141276972 	
S	  8.326290826628 	  1.562029587293 	  5.249711183649 	
S	  7.757746696628 	  1.562032397293 	 15.380267903649 	
S	  8.326259726628 	  7.745591347293 	  5.249708353649 	
S	  7.757715596628 	  7.745594157293 	 15.380265073649 	
S	 23.007118126628 	  1.562038817293 	  5.277841113649 	
S	 22.438573996628 	  1.562041627293 	 15.408397833649 	
S	 23.007087026628 	  7.745600577293 	  5.277838283649 	
S	 22.438542896628 	  7.745603387293 	 15.408395003649 	
C	  6.664227130479 	  2.560758746147 	 10.008282241996 	
C	  6.095683000479 	  2.560761556147 	 20.138838961996 	
C	  6.664196030479 	  8.744320506147 	 10.008279411996 	
C	  6.095651900479 	  8.744323316147 	 20.138836131996 	
C	 21.345054430479 	  2.560767976147 	 10.036412171996 	
C	 20.776510300479 	  2.560770786147 	 20.166968891996 	
C	 21.345023330479 	  8.744329736147 	 10.036409341996 	
C	 20.776479200479 	  8.744332546147 	 20.166966061996 	
C	  6.981391695284 	  5.587556142202 	  5.601589190411 	
C	  6.412847565284 	  5.587558952202 	 15.732145910411 	
C	  6.981360595284 	 11.771117902202 	  5.601586360411 	
C	  6.412816465284 	 11.771120712202 	 15.732143080411 	
C	 21.662218995284 	  5.587565372202 	  5.629719120411 	
C	 21.093674865284 	  5.587568182202 	 15.760275840411 	
C	 21.662187895284 	 11.771127132202 	  5.629716290411 	
C	 21.093643765284 	 11.771129942202 	 15.760273010411 	
C	  7.238384387730 	  3.589399092870 	  0.397402543164 	
C	  6.669840257730 	  3.589401902870 	 10.527959263164 	
C	  7.238353287730 	  9.772960852870 	  0.397399713164 	
C	  6.669809157730 	  9.772963662870 	 10.527956433164 	
C	 21.919211687730 	  3.589408322870 	  0.425532473164 	
C	 21.350667557730 	  3.589411132870 	 10.556089193164 	
C	 21.919180587730 	  9.772970082870 	  0.425529643164 	
C	 21.350636457730 	  9.772972892870 	 10.556086363164 	
C	  6.921220384787 	  0.562602253601 	  4.804095587854 	
C	  6.352676254787 	  0.562605063601 	 14.934652307854 	
C	  6.921189284787 	  6.746164013601 	  4.804092757854 	
C	  6.352645154787 	  6.746166823601 	 14.934649477854 	
C	 21.602047684787 	  0.562611483601 	  4.832225517854 	
C	 21.033503554787 	  0.562614293601 	 14.962782237854 	
C	 21.602016584787 	  6.746173243601 	  4.832222687854 	
C	 21.033472454787 	  6.746176053601 	 14.962779407854 	
C	  5.621586708922 	  2.362304106120 	  9.060963364093 	
C	  5.053042578922 	  2.362306916120 	 19.191520084093 	
C	  5.621555608922 	  8.545865866120 	  9.060960534093 	
C	  5.053011478922 	  8.545868676120 	 19.191517254093 	
C	 20.302414008922 	  2.362313336120 	  9.089093294093 	
C	 19.733869878922 	  2.362316146120 	 19.219650014093 	
C	 20.302382908922 	  8.545875096120 	  9.089090464093 	
C	 19.733838778922 	  8.545877906120 	 19.219647184093 	
C	  8.021408743969 	  5.430953415075 	  6.513747460240 	
C	  7.452864613969 	  5.430956225075 	 16.644304180240 	
C	  8.021377643969 	 11.614515175075 	  6.513744630240 	
C	  7.452833513969 	 11.614517985075 	 16.644301350240 	
C	 22.702236043969 	  5.430962645075 	  6.541877390240 	
C	 22.133691913969 	  5.430965455075 	 16.672434110240 	
C	 22.702204943969 	 11.614524405075 	  6.541874560240 	
C	 22.133660813969 	 11.614527215075 	 16.672431280240 	
C	  8.281024655640 	  3.787853774959 	  1.344721300674 	
C	  7.712480525640 	  3.787856584959 	 11.475278020674 	
C	  8.280993555640 	  9.971415534959 	  1.344718470674 	
C	  7.712449425640 	  9.971418344959 	 11.475275190674 	
C	 22.961851955640 	  3.787863004959 	  1.372851230674 	
C	 22.393307825640 	  3.787865814959 	 11.503407950674 	
C	 22.961820855640 	  9.971424764959 	  1.372848400674 	
C	 22.393276725640 	  9.971427574959 	 11.503405120674 	
C	  5.881203217329 	  0.719204981253 	  3.891937342816 	
C	  5.312659087329 	  0.719207791253 	 14.022494062816 	
C	  5.881172117329 	  6.902766741253 	  3.891934512816 	
C	  5.312627987329 	  6.902769551253 	 14.022491232816 	
C	 20.562030517329 	  0.719214211253 	  3.920067272816 	
C	 19.993486387329 	  0.719217021253 	 14.050623992816 	
C	 20.561999417329 	  6.902775971253 	  3.920064442816 	
C	 19.993455287329 	  6.902778781253 	 14.050621162816 	
C	  4.746534650724 	  3.421561252049 	  9.088661124571 	
C	  4.177990520724 	  3.421564062049 	 19.219217844571 	
C	  4.746503550724 	  9.605123012049 	  9.088658294571 	
C	  4.177959420724 	  9.605125822049 	 19.219215014571 	
C	 19.427361950724 	  3.421570482049 	  9.116791054571 	
C	 18.858817820724 	  3.421573292049 	 19.247347774571 	
C	 19.427330850724 	  9.605132242049 	  9.116788224571 	
C	 18.858786720724 	  9.605135052049 	 19.247344944571 	
C	  8.895513225866 	  0.351342907837 	  6.488038792735 	
C	  8.326969095866 	  0.351345717837 	 16.618595512735 	
C	  8.895482125866 	  6.534904667837 	  6.488035962735 	
C	  8.326937995866 	  6.534907477837 	 16.618592682735 	
C	 23.576340525866 	  0.351352137837 	  6.516168722735 	
C	 23.007796395866 	  0.351354947837 	 16.646725442735 	
C	 23.576309425866 	  6.534913897837 	  6.516165892735 	
C	 23.007765295866 	  6.534916707837 	 16.646722612735 	
C	  9.156076706276 	  2.728596669988 	  1.317023615675 	
C	  8.587532576276 	  2.728599479988 	 11.447580335675 	
C	  9.156045606276 	  8.912158429988 	  1.317020785675 	
C	  8.587501476276 	  8.912161239988 	 11.447577505675 	
C	 23.836904006276 	  2.728605899988 	  1.345153545675 	
C	 23.268359876276 	  2.728608709988 	 11.475710265675 	
C	 23.836872906276 	  8.912167659988 	  1.345150715675 	
C	 23.268328776276 	  8.912170469988 	 11.475707435675 	
C	  5.007098786700 	  5.798815442622 	  3.917646113741 	
C	  4.438554656700 	  5.798818252622 	 14.048202833741 	
C	  5.007067686700 	 11.982377202622 	  3.917643283741 	
C	  4.438523556700 	 11.982380012622 	 14.048200003741 	
C	 19.687926086700 	  5.798824672622 	  3.945776043741 	
C	 19.119381956700 	  5.798827482622 	 14.076332763741 	
C	 19.687894986700 	 11.982386432622 	  3.945773213741 	
C	 19.119350856700 	 11.982389242622 	 14.076329933741 	
C	  3.681145433350 	  3.494242840674 	  8.341608203898 	
C	  3.112601303350 	  3.494245650674 	 18.472164923898 	
C	  3.681114333350 	  9.677804600674 	  8.341605373898 	
C	  3.112570203350 	  9.677807410674 	 18.472162093898 	
C	 18.361972733350 	  3.494252070674 	  8.369738133898 	
C	 17.793428603350 	  3.494254880674 	 18.500294853898 	
C	 18.361941633350 	  9.677813830674 	  8.369735303898 	
C	 17.793397503350 	  9.677816640674 	 18.500292023898 	
C	  9.956046283629 	  0.431526316647 	  7.225466342636 	
C	  9.387502153629 	  0.431529126647 	 17.356023062636 	
C	  9.956015183629 	  6.615088076647 	  7.225463512636 	
C	  9.387471053629 	  6.615090886647 	 17.356020232636 	
C	 24.636873583629 	  0.431535546647 	  7.253596272636 	
C	 24.068329453629 	  0.431538356647 	 17.384152992636 	
C	 24.636842483629 	  6.615097306647 	  7.253593442636 	
C	 24.068298353629 	  6.615100116647 	 17.384150162636 	
C	 10.221465962949 	  2.655915187618 	  2.064076715514 	
C	  9.652921832949 	  2.655917997618 	 12.194633435514 	
C	 10.221434862949 	  8.839476947618 	  2.064073885514 	
C	  9.652890732949 	  8.839479757618 	 12.194630605514 	
C	 24.902293262949 	  2.655924417618 	  2.092206645514 	
C	 24.333749132949 	  2.655927227618 	 12.222763365514 	
C	 24.902262162949 	  8.839486177618 	  2.092203815514 	
C	 24.333718032949 	  8.839488987618 	 12.222760535514 	
C	  3.946565541984 	  5.718632046018 	  3.180218756418 	
C	  3.378021411984 	  5.718634856018 	 13.310775476418 	
C	  3.946534441984 	 11.902193806018 	  3.180215926418 	
C	  3.377990311984 	 11.902196616018 	 13.310772646418 	
C	 18.627392841984 	  5.718641276018 	  3.208348686418 	
C	 18.058848711984 	  5.718644086018 	 13.338905406418 	
C	 18.627361741984 	 11.902203036018 	  3.208345856418 	
C	 18.058817611984 	 11.902205846018 	 13.338902576418 	
H	  2.998842140222 	  4.420309644373 	  8.419960770641 	
H	  2.430298010222 	  4.420312454373 	 18.550517490641 	
H	  2.998811040222 	 10.603871404373 	  8.419957940641 	
H	  2.430266910222 	 10.603874214373 	 18.550514660641 	
H	 17.679669440222 	  4.420318874373 	  8.448090700641 	
H	 17.111125310222 	  4.420321684373 	 18.578647420641 	
H	 17.679638340222 	 10.603880634373 	  8.448087870641 	
H	 17.111094210222 	 10.603883444373 	 18.578644590641 	
H	 10.644868261492 	  1.343579328099 	  7.157179388001 	
H	 10.076324131492 	  1.343582138099 	 17.287736108001 	
H	 10.644837161492 	  7.527141088099 	  7.157176558001 	
H	 10.076293031492 	  7.527143898099 	 17.287733278001 	
H	 25.325695561492 	  1.343588558099 	  7.185309318001 	
H	 24.757151431492 	  1.343591368099 	 17.315866038001 	
H	 25.325664461492 	  7.527150318099 	  7.185306488001 	
H	 24.757120331492 	  7.527153128099 	 17.315863208001 	
H	 10.903769201403 	  1.729848326530 	  1.985724165867 	
H	 10.335225071403 	  1.729851136530 	 12.116280885867 	
H	 10.903738101403 	  7.913410086530 	  1.985721335867 	
H	 10.335193971403 	  7.913412896530 	 12.116278055867 	
H	 25.584596501403 	  1.729857556530 	  2.013854095867 	
H	 25.016052371403 	  1.729860366530 	 12.144410815867 	
H	 25.584565401403 	  7.913419316530 	  2.013851265867 	
H	 25.016021271403 	  7.913422126530 	 12.144407985867 	
H	  3.257743691573 	  4.806578946320 	  3.248505810184 	
H	  2.689199561573 	  4.806581756320 	 13.379062530184 	
H	  3.257712591573 	 10.990140706320 	  3.248502980184 	
H	  2.689168461573 	 10.990143516320 	 13.379059700184 	
H	 17.938570991573 	  4.806588176320 	  3.276635740184 	
H	 17.370026861573 	  4.806590986320 	 13.407192460184 	
H	 17.938539891573 	 10.990149936320 	  3.276632910184 	
H	 17.369995761573 	 10.990152746320 	 13.407189630184 	
C	  3.356503488124 	  2.533329338059 	  7.489199064799 	
C	  2.787959358124 	  2.533332148059 	 17.619755784799 	
C	  3.356472388124 	  8.716891098059 	  7.489196234799 	
C	  2.787928258124 	  8.716893908059 	 17.619752954799 	
C	 18.037330788124 	  2.533338568059 	  7.517328994799 	
C	 17.468786658124 	  2.533341378059 	 17.647885714799 	
C	 18.037299688124 	  8.716900328059 	  7.517326164799 	
C	 17.468755558124 	  8.716903138059 	 17.647882884799 	
C	 10.293181901668 	  5.594508976445 	  8.095821268125 	
C	  9.724637771668 	  5.594511786445 	 18.226377988125 	
C	 10.293150801668 	 11.778070736445 	  8.095818438125 	
C	  9.724606671668 	 11.778073546445 	 18.226375158125 	
C	 24.974009201668 	  5.594518206445 	  8.123951198125 	
C	 24.405465071668 	  5.594521016445 	 18.254507918125 	
C	 24.973978101668 	 11.778079966445 	  8.123948368125 	
C	 24.405433971668 	 11.778082776445 	 18.254505088125 	
C	 10.546107703359 	  3.616828680755 	  2.916485672332 	
C	  9.977563573359 	  3.616831490755 	 13.047042392332 	
C	 10.546076603359 	  9.800390440755 	  2.916482842332 	
C	  9.977532473359 	  9.800393250755 	 13.047039562332 	
C	 25.226935003359 	  3.616837910755 	  2.944615602332 	
C	 24.658390873359 	  3.616840720755 	 13.075172322332 	
C	 25.226903903359 	  9.800399670755 	  2.944612772332 	
C	 24.658359773359 	  9.800402480755 	 13.075169492332 	
C	  3.609429830669 	  0.555649406104 	  2.309863886204 	
C	  3.040885700669 	  0.555652216104 	 12.440420606204 	
C	  3.609398730669 	  6.739211166104 	  2.309861056204 	
C	  3.040854600669 	  6.739213976104 	 12.440417776204 	
C	 18.290257130669 	  0.555658636104 	  2.337993816204 	
C	 17.721713000669 	  0.555661446104 	 12.468550536204 	
C	 18.290226030669 	  6.739220396104 	  2.337990986204 	
C	 17.721681900669 	  6.739223206104 	 12.468547706204 	
C	  4.230806248108 	  1.489525069816 	  7.427953800461 	
C	  3.662262118108 	  1.489527879816 	 17.558510520461 	
C	  4.230775148108 	  7.673086829816 	  7.427950970461 	
C	  3.662231018108 	  7.673089639816 	 17.558507690461 	
C	 18.911633548108 	  1.489534299816 	  7.456083730461 	
C	 18.343089418108 	  1.489537109816 	 17.586640450461 	
C	 18.911602448108 	  7.673096059816 	  7.456080900461 	
C	 18.343058318108 	  7.673098869816 	 17.586637620461 	
C	  9.413061024242 	  4.566439040345 	  8.146378119869 	
C	  8.844516894242 	  4.566441850345 	 18.276934839869 	
C	  9.413029924242 	 10.750000800345 	  8.146375289869 	
C	  8.844485794242 	 10.750003610345 	 18.276932009869 	
C	 24.093888324242 	  4.566448270345 	  8.174508049869 	
C	 23.525344194242 	  4.566451080345 	 18.305064769869 	
C	 24.093857224242 	 10.750010030345 	  8.174505219869 	
C	 23.525313094242 	 10.750012840345 	 18.305061939869 	
C	  9.671804964312 	  4.660632948565 	  2.977730971307 	
C	  9.103260834312 	  4.660635758565 	 13.108287691307 	
C	  9.671773864312 	 10.844194708565 	  2.977728141307 	
C	  9.103229734312 	 10.844197518565 	 13.108284861307 	
C	 24.352632264312 	  4.660642178565 	  3.005860901307 	
C	 23.784088134312 	  4.660644988565 	 13.136417621307 	
C	 24.352601164312 	 10.844203938565 	  3.005858071307 	
C	 23.784057034312 	 10.844206748565 	 13.136414791307 	
C	  4.489550566978 	  1.583719264807 	  2.259306882441 	
C	  3.921006436978 	  1.583722074807 	 12.389863602441 	
C	  4.489519466978 	  7.767281024807 	  2.259304052441 	
C	  3.920975336978 	  7.767283834807 	 12.389860772441 	
C	 19.170377866978 	  1.583728494807 	  2.287436812441 	
C	 18.601833736978 	  1.583731304807 	 12.417993532441 	
C	 19.170346766978 	  7.767290254807 	  2.287433982441 	
C	 18.601802636978 	  7.767293064807 	 12.417990702441 	
H	  3.999885849636 	  0.648704900766 	  6.678472471769 	
H	  3.431341719636 	  0.648707710766 	 16.809029191769 	
H	  3.999854749636 	  6.832266660766 	  6.678469641769 	
H	  3.431310619636 	  6.832269470766 	 16.809026361769 	
H	 18.680713149636 	  0.648714130766 	  6.706602401769 	
H	 18.112169019636 	  0.648716940766 	 16.837159121769 	
H	 18.680682049636 	  6.832275890766 	  6.706599571769 	
H	 18.112137919636 	  6.832278700766 	 16.837156291769 	
H	  9.643278131473 	  3.724823107181 	  8.896858766313 	
H	  9.074734001473 	  3.724825917181 	 19.027415486313 	
H	  9.643247031473 	  9.908384867181 	  8.896855936313 	
H	  9.074702901473 	  9.908387677181 	 19.027412656313 	
H	 24.324105431473 	  3.724832337181 	  8.924988696313 	
H	 23.755561301473 	  3.724835147181 	 19.055545416313 	
H	 24.324074331473 	  9.908394097181 	  8.924985866313 	
H	 23.755530201473 	  9.908396907181 	 19.055542586313 	
H	  9.902725412963 	  5.501453155057 	  3.727212244130 	
H	  9.334181282963 	  5.501455965057 	 13.857768964130 	
H	  9.902694312963 	 11.685014915057 	  3.727209414130 	
H	  9.334150182963 	 11.685017725057 	 13.857766134130 	
H	 24.583552712963 	  5.501462385057 	  3.755342174130 	
H	 24.015008582963 	  5.501465195057 	 13.885898894130 	
H	 24.583521612963 	 11.685024145057 	  3.755339344130 	
H	 24.014977482963 	 11.685026955057 	 13.885896064130 	
H	  4.259333332274 	  2.425335271892 	  1.508826352233 	
H	  3.690789202274 	  2.425338081892 	 11.639383072233 	
H	  4.259302232274 	  8.608897031892 	  1.508823522233 	
H	  3.690758102274 	  8.608899841892 	 11.639380242233 	
H	 18.940160632274 	  2.425344501892 	  1.536956282233 	
H	 18.371616502274 	  2.425347311892 	 11.667513002233 	
H	 18.940129532274 	  8.608906261892 	  1.536953452233 	
H	 18.371585402274 	  8.608909071892 	 11.667510172233 	
C	  5.274726190035 	  1.401955270726 	  8.143370895075 	
C	  4.706182060035 	  1.401958080726 	 18.273927615075 	
C	  5.274695090035 	  7.585517030726 	  8.143368065075 	
C	  4.706150960035 	  7.585519840726 	 18.273924785075 	
C	 19.955553490035 	  1.401964500726 	  8.171500825075 	
C	 19.387009360035 	  1.401967310726 	 18.302057545075 	
C	 19.955522390035 	  7.585526260726 	  8.171497995075 	
C	 19.386978260035 	  7.585529070726 	 18.302054715075 	
C	  8.368639049632 	  4.478582421286 	  7.430689133813 	
C	  7.800094919632 	  4.478585231286 	 17.561245853813 	
C	  8.368607949632 	 10.662144181286 	  7.430686303813 	
C	  7.800063819632 	 10.662146991286 	 17.561243023813 	
C	 23.049466349632 	  4.478591651286 	  7.458819063813 	
C	 22.480922219632 	  4.478594461286 	 17.589375783813 	
C	 23.049435249632 	 10.662153411286 	  7.458816233813 	
C	 22.480891119632 	 10.662156221286 	 17.589372953813 	
C	  8.627885096618 	  4.748202686846 	  2.262313758672 	
C	  8.059340966618 	  4.748205496846 	 12.392870478672 	
C	  8.627853996618 	 10.931764446846 	  2.262310928672 	
C	  8.059309866618 	 10.931767256846 	 12.392867648672 	
C	 23.308712396618 	  4.748211916846 	  2.290443688672 	
C	 22.740168266618 	  4.748214726846 	 12.421000408672 	
C	 23.308681296618 	 10.931773676846 	  2.290440858672 	
C	 22.740137166618 	 10.931776486846 	 12.420997578672 	
C	  5.533972760825 	  1.671575956360 	  2.974995778700 	
C	  4.965428630825 	  1.671578766360 	 13.105552498700 	
C	  5.533941660825 	  7.855137716360 	  2.974992948700 	
C	  4.965397530825 	  7.855140526360 	 13.105549668700 	
C	 20.214800060825 	  1.671585186360 	  3.003125708700 	
C	 19.646255930825 	  1.671587996360 	 13.133682428700 	
C	 20.214768960825 	  7.855146946360 	  3.003122878700 	
C	 19.646224830825 	  7.855149756360 	 13.133679598700 	
H	  5.978283732525 	  0.495919342377 	  8.051738303767 	
H	  5.409739602525 	  0.495922152377 	 18.182295023767 	
H	  5.978252632525 	  6.679481102377 	  8.051735473767 	
H	  5.409708502525 	  6.679483912377 	 18.182292193767 	
H	 20.659111032525 	  0.495928572377 	  8.079868233767 	
H	 20.090566902525 	  0.495931382377 	 18.210424953767 	
H	 20.659079932525 	  6.679490332377 	  8.079865403767 	
H	 20.090535802525 	  6.679493142377 	 18.210422123767 	
H	  7.664755606996 	  3.571393322996 	  7.523389744590 	
H	  7.096211476996 	  3.571396132996 	 17.653946464590 	
H	  7.664724506996 	  9.754955082996 	  7.523386914590 	
H	  7.096180376996 	  9.754957892996 	 17.653943634590 	
H	 22.345582906996 	  3.571402552996 	  7.551519674590 	
H	 21.777038776996 	  3.571405362996 	 17.682076394590 	
H	 22.345551806996 	  9.754964312996 	  7.551516844590 	
H	 21.777007676996 	  9.754967122996 	 17.682073564590 	
H	  7.924327491291 	  5.654238562155 	  2.353946285220 	
H	  7.355783361291 	  5.654241372155 	 12.484503005220 	
H	  7.924296391291 	 11.837800322155 	  2.353943455220 	
H	  7.355752261291 	 11.837803132155 	 12.484500175220 	
H	 22.605154791291 	  5.654247792155 	  2.382076215220 	
H	 22.036610661291 	  5.654250602155 	 12.512632935220 	
H	 22.605123691291 	 11.837809552155 	  2.382073385220 	
H	 22.036579561291 	 11.837812362155 	 12.512630105220 	
H	  6.237856158943 	  2.578765067574 	  2.882295070374 	
H	  5.669312028943 	  2.578767877574 	 13.012851790374 	
H	  6.237825058943 	  8.762326827574 	  2.882292240374 	
H	  5.669280928943 	  8.762329637574 	 13.012848960374 	
H	 20.918683458943 	  2.578774297574 	  2.910425000374 	
H	 20.350139328943 	  2.578777107574 	 13.040981720374 	
H	 20.918652358943 	  8.762336057574 	  2.910422170374 	
H	 20.350108228943 	  8.762338867574 	 13.040978890374 	
C	  1.994653711235 	  2.604184218226 	  6.569516271135 	
C	  1.426109581235 	  2.604187028226 	 16.700072991135 	
C	  1.994622611235 	  8.787745978226 	  6.569513441135 	
C	  1.426078481235 	  8.787748788226 	 16.700070161135 	
C	 16.675481011235 	  2.604193448226 	  6.597646201135 	
C	 16.106936881235 	  2.604196258226 	 16.728202921135 	
C	 16.675449911235 	  8.787755208226 	  6.597643371135 	
C	 16.106905781235 	  8.787758018226 	 16.728200091135 	
C	 11.565744336576 	  5.626906973067 	  8.948601655828 	
C	 10.997200206576 	  5.626909783067 	 19.079158375828 	
C	 11.565713236576 	 11.810468733067 	  8.948598825828 	
C	 10.997169106576 	 11.810471543067 	 19.079155545828 	
C	 26.246571636576 	  5.626916203067 	  8.976731585828 	
C	 25.678027506576 	  5.626919013067 	 19.107288305828 	
C	 26.246540536576 	 11.810477963067 	  8.976728755828 	
C	 25.677996406576 	 11.810480773067 	 19.107285475828 	
C	 11.907958336405 	  3.545974157896 	  3.836169522389 	
C	 11.339414206405 	  3.545976967896 	 13.966726242389 	
C	 11.907927236405 	  9.729535917896 	  3.836166692389 	
C	 11.339383106405 	  9.729538727896 	 13.966723412389 	
C	 26.588785636405 	  3.545983387896 	  3.864299452389 	
C	 26.020241506405 	  3.545986197896 	 13.994856172389 	
C	 26.588754536405 	  9.729545147896 	  3.864296622389 	
C	 26.020210406405 	  9.729547957896 	 13.994853342389 	
C	  2.336867210708 	  0.523251233074 	  1.457083629213 	
C	  1.768323080708 	  0.523254043074 	 11.587640349213 	
C	  2.336836110708 	  6.706812993074 	  1.457080799213 	
C	  1.768291980708 	  6.706815803074 	 11.587637519213 	
C	 17.017694510708 	  0.523260463074 	  1.485213559213 	
C	 16.449150380708 	  0.523263273074 	 11.615770279213 	
C	 17.017663410708 	  6.706822223074 	  1.485210729213 	
C	 16.449119280708 	  6.706825033074 	 11.615767449213 	
C	  2.148467709881 	  2.806423518365 	  5.486360000486 	
C	  1.579923579881 	  2.806426328365 	 15.616916720486 	
C	  2.148436609881 	  8.989985278365 	  5.486357170486 	
C	  1.579892479881 	  8.989988088365 	 15.616913890486 	
C	 16.829295009881 	  2.806432748365 	  5.514489930486 	
C	 16.260750879881 	  2.806435558365 	 15.645046650486 	
C	 16.829263909881 	  8.989994508365 	  5.514487100486 	
C	 16.260719779881 	  8.989997318365 	 15.645043820486 	
C	 11.495029190559 	 -0.266333923309 	 10.027331303405 	
C	 10.926485060559 	 -0.266331113309 	 20.157888023405 	
C	 11.494998090559 	  5.917227836691 	 10.027328473405 	
C	 10.926453960559 	  5.917230646691 	 20.157885193405 	
C	 26.175856490559 	 -0.266324693309 	 10.055461233405 	
C	 25.607312360559 	 -0.266321883309 	 20.186017953405 	
C	 26.175825390559 	  5.917237066691 	 10.055458403405 	
C	 25.607281260559 	  5.917239876691 	 20.186015123405 	
C	 11.754142142902 	  3.343734492925 	  4.919325817000 	
C	 11.185598012902 	  3.343737302925 	 15.049882537000 	
C	 11.754111042902 	  9.527296252925 	  4.919322987000 	
C	 11.185566912902 	  9.527299062925 	 15.049879707000 	
C	 26.434969442902 	  3.343743722925 	  4.947455747000 	
C	 25.866425312902 	  3.343746532925 	 15.078012467000 	
C	 26.434938342902 	  9.527305482925 	  4.947452917000 	
C	 25.866394212902 	  9.527308292925 	 15.078009637000 	
C	  2.407582254864 	  6.416492385783 	  0.378353997507 	
C	  1.839038124864 	  6.416495195783 	 10.508910717507 	
C	  2.407551154864 	 12.600054145783 	  0.378351167507 	
C	  1.839007024864 	 12.600056955783 	 10.508907887507 	
C	 17.088409554864 	  6.416501615783 	  0.406483927507 	
C	 16.519865424864 	  6.416504425783 	 10.537040647507 	
C	 17.088378454864 	 12.600063375783 	  0.406481097507 	
C	 16.519834324864 	 12.600066185783 	 10.537037817507 	
H	  2.858260691429 	  3.612777571626 	  5.190340119378 	
H	  2.289716561429 	  3.612780381626 	 15.320896839378 	
H	  2.858229591429 	  9.796339331626 	  5.190337289378 	
H	  2.289685461429 	  9.796342141626 	 15.320894009378 	
H	 17.539087991429 	  3.612786801626 	  5.218470049378 	
H	 16.970543861429 	  3.612789611626 	 15.349026769378 	
H	 17.539056891429 	  9.796348561626 	  5.218467219378 	
H	 16.970512761429 	  9.796351371626 	 15.349023939378 	
H	 10.792696795244 	  0.535289366448 	 10.377718197797 	
H	 10.224152665244 	  0.535292176448 	 20.508274917797 	
H	 10.792665695244 	  6.718851126448 	 10.377715367797 	
H	 10.224121565244 	  6.718853936448 	 20.508272087797 	
H	 25.473524095244 	  0.535298596448 	 10.405848127797 	
H	 24.904979965244 	  0.535301406448 	 20.536404847797 	
H	 25.473492995244 	  6.718860356448 	 10.405845297797 	
H	 24.904948865244 	  6.718863166448 	 20.536402017797 	
H	 11.044350471518 	  2.537378484348 	  5.215344383823 	
H	 10.475806341518 	  2.537381294348 	 15.345901103823 	
H	 11.044319371518 	  8.720940244348 	  5.215341553823 	
H	 10.475775241518 	  8.720943054348 	 15.345898273823 	
H	 25.725177771518 	  2.537387714348 	  5.243474313823 	
H	 25.156633641518 	  2.537390524348 	 15.374031033823 	
H	 25.725146671518 	  8.720949474348 	  5.243471483823 	
H	 25.156602541518 	  8.720952284348 	 15.374028203823 	
H	  3.109914619506 	  5.614869224273 	  0.027966750698 	
H	  2.541370489506 	  5.614872034273 	 10.158523470698 	
H	  3.109883519506 	 11.798430984273 	  0.027963920698 	
H	  2.541339389506 	 11.798433794273 	 10.158520640698 	
H	 17.790741919506 	  5.614878454273 	  0.056096680698 	
H	 17.222197789506 	  5.614881264273 	 10.186653400698 	
H	 17.790710819506 	 11.798440214273 	  0.056093850698 	
H	 17.222166689506 	 11.798443024273 	 10.186650570698 	
H	  1.416379567845 	  2.939727169319 	  4.652212103530 	
H	  0.847835437845 	  2.939729979319 	 14.782768823530 	
H	  1.416348467845 	  9.123288929319 	  4.652209273530 	
H	  0.847804337845 	  9.123291739319 	 14.782765993530 	
H	 16.097206867845 	  2.939736399319 	  4.680342033530 	
H	 15.528662737845 	  2.939739209319 	 14.810898753530 	
H	 16.097175767845 	  9.123298159319 	  4.680339203530 	
H	 15.528631637845 	  9.123300969319 	 14.810895923530 	
H	 12.813313383981 	 -0.119877511407 	  0.661150355376 	
H	 12.244769253981 	 -0.119874701407 	 10.791707075376 	
H	 12.813282283981 	  6.063684248593 	  0.661147525376 	
H	 12.244738153981 	  6.063687058593 	 10.791704245376 	
H	 27.494140683981 	 -0.119868281407 	  0.689280285376 	
H	 26.925596553981 	 -0.119865471407 	 10.819837005376 	
H	 27.494109583981 	  6.063693478593 	  0.689277455376 	
H	 26.925565453981 	  6.063696288593 	 10.819834175376 	
H	 12.486231103370 	  3.210431284794 	  5.753473413400 	
H	 11.917686973370 	  3.210434094794 	 15.884030133400 	
H	 12.486200003370 	  9.393993044794 	  5.753470583400 	
H	 11.917655873370 	  9.393995854794 	 15.884027303400 	
H	 27.167058403370 	  3.210440514794 	  5.781603343400 	
H	 26.598514273370 	  3.210443324794 	 15.912160063400 	
H	 27.167027303370 	  9.394002274794 	  5.781600513400 	
H	 26.598483173370 	  9.394005084794 	 15.912157233400 	
H	  1.089297998948 	  6.270036065703 	  9.744534978104 	
H	  0.520753868948 	  6.270038875703 	 19.875091698104 	
H	  1.089266898948 	 12.453597825703 	  9.744532148104 	
H	  0.520722768948 	 12.453600635703 	 19.875088868104 	
H	 15.770125298948 	  6.270045295703 	  9.772664908104 	
H	 15.201581168948 	  6.270048105703 	 19.903221628104 	
H	 15.770094198948 	 12.453607055703 	  9.772662078104 	
H	 15.201550068948 	 12.453609865703 	 19.903218798104 	
H	  2.875477204347 	  2.189104730481 	  4.910427406194 	
H	  2.306933074347 	  2.189107540481 	 15.040984126194 	
H	  2.875446104347 	  8.372666490481 	  4.910424576194 	
H	  2.306901974347 	  8.372669300481 	 15.040981296194 	
H	 17.556304504347 	  2.189113960481 	  4.938557336194 	
H	 16.987760374347 	  2.189116770481 	 15.069114056194 	
H	 17.556273404347 	  8.372675720481 	  4.938554506194 	
H	 16.987729274347 	  8.372678530481 	 15.069111226194 	
H	 11.208327252925 	  5.237018193808 	  0.393745608752 	
H	 10.639783122925 	  5.237021003808 	 10.524302328752 	
H	 11.208296152925 	 11.420579953808 	  0.393742778752 	
H	 10.639752022925 	 11.420582763808 	 10.524299498752 	
H	 25.889154552925 	  5.237027423808 	  0.421875538752 	
H	 25.320610422925 	  5.237030233808 	 10.552432258752 	
H	 25.889123452925 	 11.420589183808 	  0.421872708752 	
H	 25.320579322925 	 11.420591993808 	 10.552429428752 	
H	 11.027132895627 	  3.961054635093 	  5.495257740629 	
H	 10.458588765627 	  3.961057445093 	 15.625814460629 	
H	 11.027101795627 	 10.144616395093 	  5.495254910629 	
H	 10.458557665627 	 10.144619205093 	 15.625811630629 	
H	 25.707960195627 	  3.961063865093 	  5.523387670629 	
H	 25.139416065627 	  3.961066675093 	 15.653944390629 	
H	 25.707929095627 	 10.144625625093 	  5.523384840629 	
H	 25.139384965627 	 10.144628435093 	 15.653941560629 	
H	  2.694284232258 	  0.913140450698 	 10.011939841991 	
H	  2.125740102258 	  0.913143260698 	 20.142496561991 	
H	  2.694253132258 	  7.096702210698 	 10.011937011991 	
H	  2.125709002258 	  7.096705020698 	 20.142493731991 	
H	 17.375111532258 	  0.913149680698 	 10.040069771991 	
H	 16.806567402258 	  0.913152490698 	 20.170626491991 	
H	 17.375080432258 	  7.096711440698 	 10.040066941991 	
H	 16.806536302258 	  7.096714250698 	 20.170623661991 	
C	  1.274323547068 	  3.401008591613 	  6.876846892031 	
C	  0.705779417068 	  3.401011401613 	 17.007403612031 	
C	  1.274292447068 	  9.584570351613 	  6.876844062031 	
C	  0.705748317068 	  9.584573161613 	 17.007400782031 	
C	 15.955150847068 	  3.401017821613 	  6.904976822031 	
C	 15.386606717068 	  3.401020631613 	 17.035533542031 	
C	 15.955119747068 	  9.584579581613 	  6.904973992031 	
C	 15.386575617068 	  9.584582391613 	 17.035530712031 	
C	 12.467934080279 	  0.383308979525 	  8.675194410991 	
C	 11.899389950279 	  0.383311789525 	 18.805751130991 	
C	 12.467902980279 	  6.566870739525 	  8.675191580991 	
C	 11.899358850279 	  6.566873549525 	 18.805748300991 	
C	 27.148761380279 	  0.383318209525 	  8.703324340991 	
C	 26.580217250279 	  0.383321019525 	 18.833881060991 	
C	 27.148730280279 	  6.566879969525 	  8.703321510991 	
C	 26.580186150279 	  6.566882779525 	 18.833878230991 	
C	 12.628287903759 	  2.749149288994 	  3.528837456287 	
C	 12.059743773759 	  2.749152098994 	 13.659394176287 	
C	 12.628256803759 	  8.932711048994 	  3.528834626287 	
C	 12.059712673759 	  8.932713858994 	 13.659391346287 	
C	 27.309115203759 	  2.749158518994 	  3.556967386287 	
C	 26.740571073759 	  2.749161328994 	 13.687524106287 	
C	 27.309084103759 	  8.932720278994 	  3.556964556287 	
C	 26.740539973759 	  8.932723088994 	 13.687521276287 	
C	  1.434677499221 	  5.766849097543 	  1.730490779380 	
C	  0.866133369221 	  5.766851907543 	 11.861047499380 	
C	  1.434646399221 	 11.950410857543 	  1.730487949380 	
C	  0.866102269221 	 11.950413667543 	 11.861044669380 	
C	 16.115504799221 	  5.766858327543 	  1.758620709380 	
C	 15.546960669221 	  5.766861137543 	 11.889177429380 	
C	 16.115473699221 	 11.950420087543 	  1.758617879380 	
C	 15.546929569221 	 11.950422897543 	 11.889174599380 	
H	  1.634454805910 	  4.456867854499 	  6.991134189106 	
H	  1.065910675910 	  4.456870664499 	 17.121690909106 	
H	  1.634423705910 	 10.640429614499 	  6.991131359106 	
H	  1.065879575910 	 10.640432424499 	 17.121688079106 	
H	 16.315282105910 	  4.456877084499 	  7.019264119106 	
H	 15.746737975910 	  4.456879894499 	 17.149820839106 	
H	 16.315251005910 	 10.640438844499 	  7.019261289106 	
H	 15.746706875910 	 10.640441654499 	 17.149818009106 	
H	 12.008571580426 	  1.390416966597 	  8.576654429566 	
H	 11.440027450426 	  1.390419776597 	 18.707211149566 	
H	 12.008540480426 	  7.573978726597 	  8.576651599566 	
H	 11.439996350426 	  7.573981536597 	 18.707208319566 	
H	 26.689398880426 	  1.390426196597 	  8.604784359566 	
H	 26.120854750426 	  1.390429006597 	 18.735341079566 	
H	 26.689367780426 	  7.573987956597 	  8.604781529566 	
H	 26.120823650426 	  7.573990766597 	 18.735338249566 	
H	 12.268156699846 	  1.693289687534 	  3.414550575566 	
H	 11.699612569846 	  1.693292497534 	 13.545107295566 	
H	 12.268125599846 	  7.876851447534 	  3.414547745566 	
H	 11.699581469846 	  7.876854257534 	 13.545104465566 	
H	 26.948983999846 	  1.693298917534 	  3.442680505566 	
H	 26.380439869846 	  1.693301727534 	 13.573237225566 	
H	 26.948952899846 	  7.876860677534 	  3.442677675566 	
H	 26.380408769846 	  7.876863487534 	 13.573234395566 	
H	  1.894040086879 	  4.759741114672 	  1.829030344393 	
H	  1.325495956879 	  4.759743924672 	 11.959587064393 	
H	  1.894008986879 	 10.943302874672 	  1.829027514393 	
H	  1.325464856879 	 10.943305684672 	 11.959584234393 	
H	 16.574867386879 	  4.759750344672 	  1.857160274393 	
H	 16.006323256879 	  4.759753154672 	 11.987716994393 	
H	 16.574836286879 	 10.943312104672 	  1.857157444393 	
H	 16.006292156879 	 10.943314914672 	 11.987714164393 	
H	  0.963833613465 	  3.460380884924 	  7.953828525669 	
H	  0.395289483465 	  3.460383694924 	 18.084385245669 	
H	  0.963802513465 	  9.643942644924 	  7.953825695669 	
H	  0.395258383465 	  9.643945454924 	 18.084382415669 	
H	 15.644660913465 	  3.460390114924 	  7.981958455669 	
H	 15.076116783465 	  3.460392924924 	 18.112515175669 	
H	 15.644629813465 	  9.643951874924 	  7.981955625669 	
H	 15.076085683465 	  9.643954684924 	 18.112512345669 	
H	 12.672654441292 	  6.522249781978 	  7.628913413177 	
H	 12.104110311292 	  6.522252591978 	 17.759470133177 	
H	 12.672623341292 	 12.705811541978 	  7.628910583177 	
H	 12.104079211292 	 12.705814351978 	 17.759467303177 	
H	 27.353481741292 	  6.522259011978 	  7.657043343177 	
H	 26.784937611292 	  6.522261821978 	 17.787600063177 	
H	 27.353450641292 	 12.705820771978 	  7.657040513177 	
H	 26.784906511292 	 12.705823581978 	 17.787597233177 	
H	 12.938778799503 	  2.689777853324 	  2.451855803636 	
H	 12.370234669503 	  2.689780663324 	 12.582412523636 	
H	 12.938747699503 	  8.873339613324 	  2.451852973636 	
H	 12.370203569503 	  8.873342423324 	 12.582409693636 	
H	 27.619606099503 	  2.689787083324 	  2.479985733636 	
H	 27.051061969503 	  2.689789893324 	 12.610542453636 	
H	 27.619574999503 	  8.873348843324 	  2.479982903636 	
H	 27.051030869503 	  8.873351653324 	 12.610539623636 	
H	  1.229957330125 	 -0.372091861249 	  2.776771816798 	
H	  0.661413200125 	 -0.372089051249 	 12.907328536798 	
H	  1.229926230125 	  5.811469898751 	  2.776768986798 	
H	  0.661382100125 	  5.811472708751 	 12.907325706798 	
H	 15.910784630125 	 -0.372082631249 	  2.804901746798 	
H	 15.342240500125 	 -0.372079821249 	 12.935458466798 	
H	 15.910753530125 	  5.811479128751 	  2.804898916798 	
H	 15.342209400125 	  5.811481938751 	 12.935455636798 	
H	  0.300697784751 	  3.559952784074 	  6.346177157692 	
H	 -0.267846345249 	  3.559955594074 	 16.476733877692 	
H	  0.300666684751 	  9.743514544074 	  6.346174327692 	
H	 -0.267877445249 	  9.743517354074 	 16.476731047692 	
H	 14.981525084751 	  3.559962014074 	  6.374307087692 	
H	 14.412980954751 	  3.559964824074 	 16.504863807692 	
H	 14.981493984751 	  9.743523774074 	  6.374304257692 	
H	 14.412949854751 	  9.743526584074 	 16.504860977692 	
H	 13.332244482346 	  6.628089994816 	  9.221699855734 	
H	 12.763700352346 	  6.628092804816 	 19.352256575734 	
H	 13.332213382346 	 12.811651754816 	  9.221697025734 	
H	 12.763669252346 	 12.811654564816 	 19.352253745734 	
H	 28.013071782346 	  6.628099224816 	  9.249829785734 	
H	 27.444527652346 	  6.628102034816 	 19.380386505734 	
H	 28.013040682346 	 12.811660984816 	  9.249826955734 	
H	 27.444496552346 	 12.811663794816 	 19.380383675734 	
H	 13.601913669416 	  2.590205260934 	  4.059507671456 	
H	 13.033369539416 	  2.590208070934 	 14.190064391456 	
H	 13.601882569416 	  8.773767020934 	  4.059504841456 	
H	 13.033338439416 	  8.773769830934 	 14.190061561456 	
H	 28.282740969416 	  2.590214490934 	  4.087637601456 	
H	 27.714196839416 	  2.590217300934 	 14.218194321456 	
H	 28.282709869416 	  8.773776250934 	  4.087634771456 	
H	 27.714165739416 	  8.773779060934 	 14.218191491456 	
H	  0.570367002852 	 -0.477931985083 	  1.183985492793 	
H	  0.001822872852 	 -0.477929175083 	 11.314542212793 	
H	  0.570335902852 	  5.705629774917 	  1.183982662793 	
H	  0.001791772852 	  5.705632584917 	 11.314539382793 	
H	 15.251194302852 	 -0.477922755083 	  1.212115422793 	
H	 14.682650172852 	 -0.477919945083 	 11.342672142793 	
H	 15.251163202852 	  5.705639004917 	  1.212112592793 	
H	 14.682619072852 	  5.705641814917 	 11.342669312793 	
C	  1.376306176303 	  1.677968785913 	  6.561363475795 	
C	  0.807762046303 	  1.677971595913 	 16.691920195795 	
C	  1.376275076303 	  7.861530545913 	  6.561360645795 	
C	  0.807730946303 	  7.861533355913 	 16.691917365795 	
C	 16.057133476303 	  1.677978015913 	  6.589493405795 	
C	 15.488589346303 	  1.677980825913 	 16.720050125795 	
C	 16.057102376303 	  7.861539775913 	  6.589490575795 	
C	 15.488558246303 	  7.861542585913 	 16.720047295795 	
C	 12.266107236386 	  4.762397904692 	  9.018252164777 	
C	 11.697563106386 	  4.762400714692 	 19.148808884777 	
C	 12.266076136386 	 10.945959664692 	  9.018249334777 	
C	 11.697532006386 	 10.945962474692 	 19.148806054777 	
C	 26.946934536386 	  4.762407134692 	  9.046382094777 	
C	 26.378390406386 	  4.762409944692 	 19.176938814777 	
C	 26.946903436386 	 10.945968894692 	  9.046379264777 	
C	 26.378359306386 	 10.945971704692 	 19.176935984777 	
C	 12.526304724182 	  4.472190846871 	  3.844320845420 	
C	 11.957760594182 	  4.472193656871 	 13.974877565420 	
C	 12.526273624182 	 10.655752606871 	  3.844318015420 	
C	 11.957729494182 	 10.655755416871 	 13.974874735420 	
C	 27.207132024182 	  4.472200076871 	  3.872450775420 	
C	 26.638587894182 	  4.472202886871 	 14.003007495420 	
C	 27.207100924182 	 10.655761836871 	  3.872447945420 	
C	 26.638556794182 	 10.655764646871 	 14.003004665420 	
C	  1.636504166669 	  1.387760186636 	  1.387433381838 	
C	  1.067960036669 	  1.387762996636 	 11.517990101838 	
C	  1.636473066669 	  7.571321946636 	  1.387430551838 	
C	  1.067928936669 	  7.571324756636 	 11.517987271838 	
C	 16.317331466669 	  1.387769416636 	  1.415563311838 	
C	 15.748787336669 	  1.387772226636 	 11.546120031838 	
C	 16.317300366669 	  7.571331176636 	  1.415560481838 	
C	 15.748756236669 	  7.571333986636 	 11.546117201838 	
H	  0.384978189206 	  1.514218697396 	  6.073087894576 	
H	 -0.183565940794 	  1.514221507396 	 16.203644614576 	
H	  0.384947089206 	  7.697780457396 	  6.073085064576 	
H	 -0.183597040794 	  7.697783267396 	 16.203641784576 	
H	 15.065805489206 	  1.514227927396 	  6.101217824576 	
H	 14.497261359206 	  1.514230737396 	 16.231774544576 	
H	 15.065774389206 	  7.697789687396 	  6.101214994576 	
H	 14.497230259206 	  7.697792497396 	 16.231771714576 	
H	 13.256970981243 	  4.591569488528 	  9.503830652972 	
H	 12.688426851243 	  4.591572298528 	 19.634387372972 	
H	 13.256939881243 	 10.775131248528 	  9.503827822972 	
H	 12.688395751243 	 10.775134058528 	 19.634384542972 	
H	 27.937798281243 	  4.591578718528 	  9.531960582972 	
H	 27.369254151243 	  4.591581528528 	 19.662517302972 	
H	 27.937767181243 	 10.775140478528 	  9.531957752972 	
H	 27.369223051243 	 10.775143288528 	 19.662514472972 	
H	 13.517632838014 	  4.635940462438 	  4.332596933599 	
H	 12.949088708014 	  4.635943272438 	 14.463153653599 	
H	 13.517601738014 	 10.819502222438 	  4.332594103599 	
H	 12.949057608014 	 10.819505032438 	 14.463150823599 	
H	 28.198460138014 	  4.635949692438 	  4.360726863599 	
H	 27.629916008014 	  4.635952502438 	 14.491283583599 	
H	 28.198429038014 	 10.819511452438 	  4.360724033599 	
H	 27.629884908014 	 10.819514262438 	 14.491280753599 	
H	  0.645640368333 	  1.558588570063 	  0.901855023511 	
H	  0.077096238333 	  1.558591380063 	 11.032411743511 	
H	  0.645609268333 	  7.742150330063 	  0.901852193511 	
H	  0.077065138333 	  7.742153140063 	 11.032408913511 	
H	 15.326467668333 	  1.558597800063 	  0.929984953511 	
H	 14.757923538333 	  1.558600610063 	 11.060541673511 	
H	 15.326436568333 	  7.742159560063 	  0.929982123511 	
H	 14.757892438333 	  7.742162370063 	 11.060538843511 	
H	  1.184935727631 	  1.184669831003 	  7.547443920000 	
H	  0.616391597631 	  1.184672641003 	 17.678000640000 	
H	  1.184904627631 	  7.368231591003 	  7.547441090000 	
H	  0.616360497631 	  7.368234401003 	 17.677997810000 	
H	 15.865763027631 	  1.184679061003 	  7.575573850000 	
H	 15.297218897631 	  1.184681871003 	 17.706130570000 	
H	 15.865731927631 	  7.368240821003 	  7.575571020000 	
H	 15.297187797631 	  7.368243631003 	 17.706127740000 	
H	 12.457273912039 	  4.262435361746 	  8.030007031434 	
H	 11.888729782039 	  4.262438171746 	 18.160563751434 	
H	 12.457242812039 	 10.445997121746 	  8.030004201434 	
H	 11.888698682039 	 10.445999931746 	 18.160560921434 	
H	 27.138101212039 	  4.262444591746 	  8.058136961434 	
H	 26.569557082039 	  4.262447401746 	 18.188693681434 	
H	 27.138070112039 	 10.446006351746 	  8.058134131434 	
H	 26.569525982039 	 10.446009161746 	 18.188690851434 	
H	 12.717675674812 	  4.965489114479 	  2.858239852488 	
H	 12.149131544812 	  4.965491924479 	 12.988796572488 	
H	 12.717644574812 	 11.149050874479 	  2.858237022488 	
H	 12.149100444812 	 11.149053684479 	 12.988793742488 	
H	 27.398502974812 	  4.965498344479 	  2.886369782488 	
H	 26.829958844812 	  4.965501154479 	 13.016926502488 	
H	 27.398471874812 	 11.149060104479 	  2.886366952488 	
H	 26.829927744812 	 11.149062914479 	 13.016923672488 	
H	  1.445337509779 	  1.887722590904 	  2.375678557307 	
H	  0.876793379779 	  1.887725400904 	 12.506235277307 	
H	  1.445306409779 	  8.071284350904 	  2.375675727307 	
H	  0.876762279779 	  8.071287160904 	 12.506232447307 	
H	 16.126164809779 	  1.887731820904 	  2.403808487307 	
H	 15.557620679779 	  1.887734630904 	 12.534365207307 	
H	 16.126133709779 	  8.071293580904 	  2.403805657307 	
H	 15.557589579779 	  8.071296390904 	 12.534362377307 	
H	  1.841326747529 	  0.702075209393 	  6.288381879678 	
H	  1.272782617529 	  0.702078019393 	 16.418938599678 	
H	  1.841295647529 	  6.885636969393 	  6.288379049678 	
H	  1.272751517529 	  6.885639779393 	 16.418935769678 	
H	 16.522154047529 	  0.702084439393 	  6.316511809678 	
H	 15.953609917529 	  0.702087249393 	 16.447068529678 	
H	 16.522122947529 	  6.885646199393 	  6.316508979678 	
H	 15.953578817529 	  6.885649009393 	 16.447065699678 	
H	 11.801162827873 	  3.781720569709 	  9.287738636651 	
H	 11.232618697873 	  3.781723379709 	 19.418295356651 	
H	 11.801131727873 	  9.965282329709 	  9.287735806651 	
H	 11.232587597873 	  9.965285139709 	 19.418292526651 	
H	 26.481990127873 	  3.781729799709 	  9.315868566651 	
H	 25.913445997873 	  3.781732609709 	 19.446425286651 	
H	 26.481959027873 	  9.965291559709 	  9.315865736651 	
H	 25.913414897873 	  9.965294369709 	 19.446422456651 	
H	 12.061283324104 	  5.448083780371 	  4.117304381149 	
H	 11.492739194104 	  5.448086590371 	 14.247861101149 	
H	 12.061252224104 	 11.631645540371 	  4.117301551149 	
H	 11.492708094104 	 11.631648350371 	 14.247858271149 	
H	 26.742110624104 	  5.448093010371 	  4.145434311149 	
H	 26.173566494104 	  5.448095820371 	 14.275991031149 	
H	 26.742079524104 	 11.631654770371 	  4.145431481149 	
H	 26.173535394104 	 11.631657580371 	 14.275988201149 	
H	  2.101448463884 	  2.368437702090 	  1.117947399097 	
H	  1.532904333884 	  2.368440512090 	 11.248504119097 	
H	  2.101417363884 	  8.551999462090 	  1.117944569097 	
H	  1.532873233884 	  8.552002272090 	 11.248501289097 	
H	 16.782275763884 	  2.368446932090 	  1.146077329097 	
H	 16.213731633884 	  2.368449742090 	 11.276634049097 	
H	 16.782244663884 	  8.552008692090 	  1.146074499097 	
H	 16.213700533884 	  8.552011502090 	 11.276631219097 	
768 
Energy: -1.0287248859920000e+02 
S	  8.535424638204 	  1.498437524258 	  0.089850868743 	
S	  7.966880508204 	  1.498440334258 	 10.220407588743 	
S	  8.535393538204 	  7.681999284258 	  0.089848038743 	
S	  7.966849408204 	  7.682002094258 	 10.220404758743 	
S	 23.216251938204 	  1.498446754258 	  0.117980798743 	
S	 22.647707808204 	  1.498449564258 	 10.248537518743 	
S	 23.216220838204 	  7.682008514258 	  0.117977968743 	
S	 22.647676708204 	  7.682011324258 	 10.248534688743 	
S	  5.561717116703 	  4.567831641433 	  5.184767680442 	
S	  4.993172986703 	  4.567834451433 	 15.315324400442 	
S	  5.561686016703 	 10.751393401433 	  5.184764850442 	
S	  4.993141886703 	 10.751396211433 	 15.315321570442 	
S	 20.242544416703 	  4.567840871433 	  5.212897610442 	
S	 19.674000286703 	  4.567843681433 	 15.343454330442 	
S	 20.242513316703 	 10.751402631433 	  5.212894780442 	
S	 19.673969186703 	 10.751405441433 	 15.343451500442 	
S	  5.310608429575 	  4.642702062222 	 10.382495347234 	
S	  4.742064299575 	  4.642704872222 	 20.513052067234 	
S	  5.310577329575 	 10.826263822222 	 10.382492517234 	
S	  4.742033199575 	 10.826266632222 	 20.513049237234 	
S	 19.991435729575 	  4.642711292222 	 10.410625277234 	
S	 19.422891599575 	  4.642714102222 	 20.541181997234 	
S	 19.991404629575 	 10.826273052222 	 10.410622447234 	
S	 19.422860499575 	 10.826275862222 	 20.541179167234 	
S	  8.284316815660 	  1.573308294942 	  5.287578467530 	
S	  7.715772685660 	  1.573311104942 	 15.418135187530 	
S	  8.284285715660 	  7.756870054942 	  5.287575637530 	
S	  7.715741585660 	  7.756872864942 	 15.418132357530 	
S	 22.965144115660 	  1.573317524942 	  5.315708397530 	
S	 22.396599985660 	  1.573320334942 	 15.446265117530 	
S	 22.965113015660 	  7.756879284942 	  5.315705567530 	
S	 22.396568885660 	  7.756882094942 	 15.446262287530 	
C	  6.640350688195 	  2.557215749189 	 10.068288247010 	
C	  6.071806558195 	  2.557218559189 	 20.198844967010 	
C	  6.640319588195 	  8.740777509189 	 10.068285417010 	
C	  6.071775458195 	  8.740780319189 	 20.198842137010 	
C	 21.321177988195 	  2.557224979189 	 10.096418177010 	
C	 20.752633858195 	  2.557227789189 	 20.226974897010 	
C	 21.321146888195 	  8.740786739189 	 10.096415347010 	
C	 20.752602758195 	  8.740789549189 	 20.226972067010 	
C	  6.954950421217 	  5.582333378203 	  5.634161978104 	
C	  6.386406291217 	  5.582336188203 	 15.764718698104 	
C	  6.954919321217 	 11.765895138203 	  5.634159148104 	
C	  6.386375191217 	 11.765897948203 	 15.764715868104 	
C	 21.635777721217 	  5.582342608203 	  5.662291908104 	
C	 21.067233591217 	  5.582345418203 	 15.792848628104 	
C	 21.635746621217 	 11.765904368203 	  5.662289078104 	
C	 21.067202491217 	 11.765907178203 	 15.792845798104 	
C	  7.205682409148 	  3.583923806559 	  0.404057896184 	
C	  6.637138279148 	  3.583926616559 	 10.534614616184 	
C	  7.205651309148 	  9.767485566559 	  0.404055066184 	
C	  6.637107179148 	  9.767488376559 	 10.534611786184 	
C	 21.886509709148 	  3.583933036559 	  0.432187826184 	
C	 21.317965579148 	  3.583935846559 	 10.562744546184 	
C	 21.886478609148 	  9.767494796559 	  0.432184996184 	
C	 21.317934479148 	  9.767497606559 	 10.562741716184 	
C	  6.891083363368 	  0.558806640031 	  4.838184083015 	
C	  6.322539233368 	  0.558809450031 	 14.968740803015 	
C	  6.891052263368 	  6.742368400031 	  4.838181253015 	
C	  6.322508133368 	  6.742371210031 	 14.968737973015 	
C	 21.571910663368 	  0.558815870031 	  4.866314013015 	
C	 21.003366533368 	  0.558818680031 	 14.996870733015 	
C	 21.571879563368 	  6.742377630031 	  4.866311183015 	
C	 21.003335433368 	  6.742380440031 	 14.996867903015 	
C	  5.603136401109 	  2.370841486387 	  9.112747437483 	
C	  5.034592271109 	  2.370844296387 	 19.243304157483 	
C	  5.603105301109 	  8.554403246387 	  9.112744607483 	
C	  5.034561171109 	  8.554406056387 	 19.243301327483 	
C	 20.283963701109 	  2.370850716387 	  9.140877367483 	
C	 19.715419571109 	  2.370853526387 	 19.271434087483 	
C	 20.283932601109 	  8.554412476387 	  9.140874537483 	
C	 19.715388471109 	  8.554415286387 	 19.271431257483 	
C	  7.990740690057 	  5.435325906000 	  6.556668229467 	
C	  7.422196560057 	  5.435328716000 	 16.687224949467 	
C	  7.990709590057 	 11.618887666000 	  6.556665399467 	
C	  7.422165460057 	 11.618890476000 	 16.687222119467 	
C	 22.671567990057 	  5.435335136000 	  6.584798159467 	
C	 22.103023860057 	  5.435337946000 	 16.715354879467 	
C	 22.671536890057 	 11.618896896000 	  6.584795329467 	
C	 22.102992760057 	 11.618899706000 	 16.715352049467 	
C	  8.242896565263 	  3.770298119315 	  1.359598601441 	
C	  7.674352435263 	  3.770300929315 	 11.490155321441 	
C	  8.242865465263 	  9.953859879315 	  1.359595771441 	
C	  7.674321335263 	  9.953862689315 	 11.490152491441 	
C	 22.923723865263 	  3.770307349315 	  1.387728531441 	
C	 22.355179735263 	  3.770310159315 	 11.518285251441 	
C	 22.923692765263 	  9.953869109315 	  1.387725701441 	
C	 22.355148635263 	  9.953871919315 	 11.518282421441 	
C	  5.855292954886 	  0.705814122780 	  3.915677900952 	
C	  5.286748824886 	  0.705816932780 	 14.046234620952 	
C	  5.855261854886 	  6.889375882780 	  3.915675070952 	
C	  5.286717724886 	  6.889378692780 	 14.046231790952 	
C	 20.536120254886 	  0.705823352780 	  3.943807830952 	
C	 19.967576124886 	  0.705826162780 	 14.074364550952 	
C	 20.536089154886 	  6.889385112780 	  3.943805000952 	
C	 19.967545024886 	  6.889387922780 	 14.074361720952 	
C	  4.736974016013 	  3.437227956258 	  9.138103841559 	
C	  4.168429886013 	  3.437230766258 	 19.268660561559 	
C	  4.736942916013 	  9.620789716258 	  9.138101011559 	
C	  4.168398786013 	  9.620792526258 	 19.268657731559 	
C	 19.417801316013 	  3.437237186258 	  9.166233771559 	
C	 18.849257186013 	  3.437239996258 	 19.296790491559 	
C	 19.417770216013 	  9.620798946258 	  9.166230941559 	
C	 18.849226086013 	  9.620801756258 	 19.296787661559 	
C	  8.854176678118 	  0.371125939410 	  6.533358333273 	
C	  8.285632548118 	  0.371128749410 	 16.663915053273 	
C	  8.854145578118 	  6.554687699410 	  6.533355503273 	
C	  8.285601448118 	  6.554690509410 	 16.663912223273 	
C	 23.535003978118 	  0.371135169410 	  6.561488263273 	
C	 22.966459848118 	  0.371137979410 	 16.692044983273 	
C	 23.534972878118 	  6.554696929410 	  6.561485433273 	
C	 22.966428748118 	  6.554699739410 	 16.692042153273 	
C	  9.109058941402 	  2.703911669080 	  1.334242260627 	
C	  8.540514811402 	  2.703914479080 	 11.464798980627 	
C	  9.109027841402 	  8.887473429080 	  1.334239430627 	
C	  8.540483711402 	  8.887476239080 	 11.464796150627 	
C	 23.789886241402 	  2.703920899080 	  1.362372190627 	
C	 23.221342111402 	  2.703923709080 	 11.492928910627 	
C	 23.789855141402 	  8.887482659080 	  1.362369360627 	
C	 23.221311011402 	  8.887485469080 	 11.492926080627 	
C	  4.991857023943 	  5.770014049758 	  3.938987923019 	
C	  4.423312893943 	  5.770016859758 	 14.069544643019 	
C	  4.991825923943 	 11.953575809758 	  3.938985093019 	
C	  4.423281793943 	 11.953578619758 	 14.069541813019 	
C	 19.672684323943 	  5.770023279758 	  3.967117853019 	
C	 19.104140193943 	  5.770026089758 	 14.097674573019 	
C	 19.672653223943 	 11.953585039758 	  3.967115023019 	
C	 19.104109093943 	 11.953587849758 	 14.097671743019 	
C	  3.678655471127 	  3.522622602894 	  8.383006406052 	
C	  3.110111341127 	  3.522625412894 	 18.513563126052 	
C	  3.678624371127 	  9.706184362894 	  8.383003576052 	
C	  3.110080241127 	  9.706187172894 	 18.513560296052 	
C	 18.359482771127 	  3.522631832894 	  8.411136336052 	
C	 17.790938641127 	  3.522634642894 	 18.541693056052 	
C	 18.359451671127 	  9.706193592894 	  8.411133506052 	
C	 17.790907541127 	  9.706196402894 	 18.541690226052 	
C	  9.909437636458 	  0.462970203774 	  7.281219029596 	
C	  9.340893506458 	  0.462973013774 	 17.411775749596 	
C	  9.909406536458 	  6.646531963774 	  7.281216199596 	
C	  9.340862406458 	  6.646534773774 	 17.411772919596 	
C	 24.590264936458 	  0.462979433774 	  7.309348959596 	
C	 24.021720806458 	  0.462982243774 	 17.439905679596 	
C	 24.590233836458 	  6.646541193774 	  7.309346129596 	
C	 24.021689706458 	  6.646544003774 	 17.439902849596 	
C	 10.167377520127 	  2.618517143501 	  2.089339884956 	
C	  9.598833390127 	  2.618519953501 	 12.219896604956 	
C	 10.167346420127 	  8.802078903501 	  2.089337054956 	
C	  9.598802290127 	  8.802081713501 	 12.219893774956 	
C	 24.848204820127 	  2.618526373501 	  2.117469814956 	
C	 24.279660690127 	  2.618529183501 	 12.248026534956 	
C	 24.848173720127 	  8.802088133501 	  2.117466984956 	
C	 24.279629590127 	  8.802090943501 	 12.248023704956 	
C	  3.936595822066 	  5.678169813429 	  3.191127473250 	
C	  3.368051692066 	  5.678172623429 	 13.321684193250 	
C	  3.936564722066 	 11.861731573429 	  3.191124643250 	
C	  3.368020592066 	 11.861734383429 	 13.321681363250 	
C	 18.617423122066 	  5.678179043429 	  3.219257403250 	
C	 18.048878992066 	  5.678181853429 	 13.349814123250 	
C	 18.617392022066 	 11.861740803429 	  3.219254573250 	
C	 18.048847892066 	 11.861743613429 	 13.349811293250 	
H	  3.004227274295 	  4.454273817631 	  8.460026992134 	
H	  2.435683144295 	  4.454276627631 	 18.590583712134 	
H	  3.004196174295 	 10.637835577631 	  8.460024162134 	
H	  2.435652044295 	 10.637838387631 	 18.590580882134 	
H	 17.685054574295 	  4.454283047631 	  8.488156922134 	
H	 17.116510444295 	  4.454285857631 	 18.618713642134 	
H	 17.685023474295 	 10.637844807631 	  8.488154092134 	
H	 17.116479344295 	 10.637847617631 	 18.618710812134 	
H	 10.589600806522 	  1.382188608009 	  7.211906915101 	
H	 10.021056676522 	  1.382191418009 	 17.342463635101 	
H	 10.589569706522 	  7.565750368009 	  7.211904085101 	
H	 10.021025576522 	  7.565753178009 	 17.342460805101 	
H	 25.270428106522 	  1.382197838009 	  7.240036845101 	
H	 24.701883976522 	  1.382200648009 	 17.370593565101 	
H	 25.270397006522 	  7.565759598009 	  7.240034015101 	
H	 24.701852876522 	  7.565762408009 	 17.370590735101 	
H	 10.841805650675 	  1.686865856594 	  2.012319355199 	
H	 10.273261520675 	  1.686868666594 	 12.142876075199 	
H	 10.841774550675 	  7.870427616594 	  2.012316525199 	
H	 10.273230420675 	  7.870430426594 	 12.142873245199 	
H	 25.522632950675 	  1.686875086594 	  2.040449285199 	
H	 24.954088820675 	  1.686877896594 	 12.171006005199 	
H	 25.522601850675 	  7.870436846594 	  2.040446455199 	
H	 24.954057720675 	  7.870439656594 	 12.171003175199 	
H	  3.256432779713 	  4.758951325971 	  3.260439707680 	
H	  2.687888649713 	  4.758954135971 	 13.390996427680 	
H	  3.256401679713 	 10.942513085971 	  3.260436877680 	
H	  2.687857549713 	 10.942515895971 	 13.390993597680 	
H	 17.937260079713 	  4.758960555971 	  3.288569637680 	
H	 17.368715949713 	  4.758963365971 	 13.419126357680 	
H	 17.937228979713 	 10.942522315971 	  3.288566807680 	
H	 17.368684849713 	 10.942525125971 	 13.419123527680 	
C	  3.351715550470 	  2.569711848749 	  7.522024280925 	
C	  2.783171420470 	  2.569714658749 	 17.652581000925 	
C	  3.351684450470 	  8.753273608749 	  7.522021450925 	
C	  2.783140320470 	  8.753276418749 	 17.652578170925 	
C	 18.032542850470 	  2.569721078749 	  7.550154210925 	
C	 17.463998720470 	  2.569723888749 	 17.680710930925 	
C	 18.032511750470 	  8.753282838749 	  7.550151380925 	
C	 17.463967620470 	  8.753285648749 	 17.680708100925 	
C	 10.247991211061 	  5.627721218922 	  8.156001988066 	
C	  9.679447081061 	  5.627724028922 	 18.286558708066 	
C	 10.247960111061 	 11.811282978922 	  8.155999158066 	
C	  9.679415981061 	 11.811285788922 	 18.286555878066 	
C	 24.928818511061 	  5.627730448922 	  8.184131918066 	
C	 24.360274381061 	  5.627733258922 	 18.314688638066 	
C	 24.928787411061 	 11.811292208922 	  8.184129088066 	
C	 24.360243281061 	 11.811295018922 	 18.314685808066 	
C	 10.494317201733 	  3.571427916921 	  2.950321774429 	
C	  9.925773071733 	  3.571430726921 	 13.080878494429 	
C	 10.494286101733 	  9.754989676921 	  2.950318944429 	
C	  9.925741971733 	  9.754992486921 	 13.080875664429 	
C	 25.175144501733 	  3.571437146921 	  2.978451704429 	
C	 24.606600371733 	  3.571439956921 	 13.109008424429 	
C	 25.175113401733 	  9.754998906921 	  2.978448874429 	
C	 24.606569271733 	  9.755001716921 	 13.109005594429 	
C	  3.598042091737 	  0.513418836409 	  2.316344610451 	
C	  3.029497961737 	  0.513421646409 	 12.446901330451 	
C	  3.598010991737 	  6.696980596409 	  2.316341780451 	
C	  3.029466861737 	  6.696983406409 	 12.446898500451 	
C	 18.278869391737 	  0.513428066409 	  2.344474540451 	
C	 17.710325261737 	  0.513430876409 	 12.475031260451 	
C	 18.278838291737 	  6.696989826409 	  2.344471710451 	
C	 17.710294161737 	  6.696992636409 	 12.475028430451 	
C	  4.218702549601 	  1.517689354113 	  7.464809237490 	
C	  3.650158419601 	  1.517692164113 	 17.595365957490 	
C	  4.218671449601 	  7.701251114113 	  7.464806407490 	
C	  3.650127319601 	  7.701253924113 	 17.595363127490 	
C	 18.899529849601 	  1.517698584113 	  7.492939167490 	
C	 18.330985719601 	  1.517701394113 	 17.623495887490 	
C	 18.899498749601 	  7.701260344113 	  7.492936337490 	
C	 18.330954619601 	  7.701263154113 	 17.623493057490 	
C	  9.375352629645 	  4.590212373753 	  8.204384326751 	
C	  8.806808499645 	  4.590215183753 	 18.334941046751 	
C	  9.375321529645 	 10.773774133753 	  8.204381496751 	
C	  8.806777399645 	 10.773776943753 	 18.334938216751 	
C	 24.056179929645 	  4.590221603753 	  8.232514256751 	
C	 23.487635799645 	  4.590224413753 	 18.363070976751 	
C	 24.056148829645 	 10.773783363753 	  8.232511426751 	
C	 23.487604699645 	 10.773786173753 	 18.363068146751 	
C	  9.627330289852 	  4.623450419152 	  3.007536844819 	
C	  9.058786159852 	  4.623453229152 	 13.138093564819 	
C	  9.627299189852 	 10.807012179152 	  3.007534014819 	
C	  9.058755059852 	 10.807014989152 	 13.138090734819 	
C	 24.308157589852 	  4.623459649152 	  3.035666774819 	
C	 23.739613459852 	  4.623462459152 	 13.166223494819 	
C	 24.308126489852 	 10.807021409152 	  3.035663944819 	
C	 23.739582359852 	 10.807024219152 	 13.166220664819 	
C	  4.470680550532 	  1.550927599416 	  2.267962079929 	
C	  3.902136420532 	  1.550930409416 	 12.398518799929 	
C	  4.470649450532 	  7.734489359416 	  2.267959249929 	
C	  3.902105320532 	  7.734492169416 	 12.398515969929 	
C	 19.151507850532 	  1.550936829416 	  2.296092009929 	
C	 18.582963720532 	  1.550939639416 	 12.426648729929 	
C	 19.151476750532 	  7.734498589416 	  2.296089179929 	
C	 18.582932620532 	  7.734501399416 	 12.426645899929 	
H	  3.987219848359 	  0.682993710921 	  6.708849176301 	
H	  3.418675718359 	  0.682996520921 	 16.839405896301 	
H	  3.987188748359 	  6.866555470921 	  6.708846346301 	
H	  3.418644618359 	  6.866558280921 	 16.839403066301 	
H	 18.668047148359 	  0.683002940921 	  6.736979106301 	
H	 18.099503018359 	  0.683005750921 	 16.867535826301 	
H	 18.668016048359 	  6.866564700921 	  6.736976276301 	
H	 18.099471918359 	  6.866567510921 	 16.867532996301 	
H	  9.605927034360 	  3.754830357948 	  8.961322566532 	
H	  9.037382904360 	  3.754833167948 	 19.091879286532 	
H	  9.605895934360 	  9.938392117948 	  8.961319736532 	
H	  9.037351804360 	  9.938394927948 	 19.091876456532 	
H	 24.286754334360 	  3.754839587948 	  8.989452496532 	
H	 23.718210204360 	  3.754842397948 	 19.120009216532 	
H	 24.286723234360 	  9.938401347948 	  8.989449666532 	
H	 23.718179104360 	  9.938404157948 	 19.120006386532 	
H	  9.858813063876 	  5.458146129393 	  3.763496816507 	
H	  9.290268933876 	  5.458148939393 	 13.894053536507 	
H	  9.858781963876 	 11.641707889393 	  3.763493986507 	
H	  9.290237833876 	 11.641710699393 	 13.894050706507 	
H	 24.539640363876 	  5.458155359393 	  3.791626746507 	
H	 23.971096233876 	  5.458158169393 	 13.922183466507 	
H	 24.539609263876 	 11.641717119393 	  3.791623916507 	
H	 23.971065133876 	 11.641719929393 	 13.922180636507 	
H	  4.240105971722 	  2.386309703459 	  1.511023983335 	
H	  3.671561841722 	  2.386312513459 	 11.641580703335 	
H	  4.240074871722 	  8.569871463459 	  1.511021153335 	
H	  3.671530741722 	  8.569874273459 	 11.641577873335 	
H	 18.920933271722 	  2.386318933459 	  1.539153913335 	
H	 18.352389141722 	  2.386321743459 	 11.669710633335 	
H	 18.920902171722 	  8.569880693459 	  1.539151083335 	
H	 18.352358041722 	  8.569883503459 	 11.669707803335 	
C	  5.254813996205 	  1.417200303296 	  8.188218203744 	
C	  4.686269866205 	  1.417203113296 	 18.318774923744 	
C	  5.254782896205 	  7.600762063296 	  8.188215373744 	
C	  4.686238766205 	  7.600764873296 	 18.318772093744 	
C	 19.935641296205 	  1.417209533296 	  8.216348133744 	
C	 19.367097166205 	  1.417212343296 	 18.346904853744 	
C	 19.935610196205 	  7.600771293296 	  8.216345303744 	
C	 19.367066066205 	  7.600774103296 	 18.346902023744 	
C	  8.338554091188 	  4.489344726846 	  7.480576254598 	
C	  7.770009961188 	  4.489347536846 	 17.611132974598 	
C	  8.338522991188 	 10.672906486846 	  7.480573424598 	
C	  7.769978861188 	 10.672909296846 	 17.611130144598 	
C	 23.019381391188 	  4.489353956846 	  7.508706184598 	
C	 22.450837261188 	  4.489356766846 	 17.639262904598 	
C	 23.019350291188 	 10.672915716846 	  7.508703354598 	
C	 22.450806161188 	 10.672918526846 	 17.639260074598 	
C	  8.591218906334 	  4.723939397542 	  2.284127780089 	
C	  8.022674776334 	  4.723942207542 	 12.414684500089 	
C	  8.591187806334 	 10.907501157542 	  2.284124950089 	
C	  8.022643676334 	 10.907503967542 	 12.414681670089 	
C	 23.272046206334 	  4.723948627542 	  2.312257710089 	
C	 22.703502076334 	  4.723951437542 	 12.442814430089 	
C	 23.272015106334 	 10.907510387542 	  2.312254880089 	
C	 22.703470976334 	 10.907513197542 	 12.442811600089 	
C	  5.507479341074 	  1.651795298557 	  2.991770001136 	
C	  4.938935211074 	  1.651798108557 	 13.122326721136 	
C	  5.507448241074 	  7.835357058557 	  2.991767171136 	
C	  4.938904111074 	  7.835359868557 	 13.122323891136 	
C	 20.188306641074 	  1.651804528557 	  3.019899931136 	
C	 19.619762511074 	  1.651807338557 	 13.150456651136 	
C	 20.188275541074 	  7.835366288557 	  3.019897101136 	
C	 19.619731411074 	  7.835369098557 	 13.150453821136 	
H	  5.951401388816 	  0.505660576516 	  8.097813862666 	
H	  5.382857258816 	  0.505663386516 	 18.228370582666 	
H	  5.951370288816 	  6.689222336516 	  8.097811032666 	
H	  5.382826158816 	  6.689225146516 	 18.228367752666 	
H	 20.632228688816 	  0.505669806516 	  8.125943792666 	
H	 20.063684558816 	  0.505672616516 	 18.256500512666 	
H	 20.632197588816 	  6.689231566516 	  8.125940962666 	
H	 20.063653458816 	  6.689234376516 	 18.256497682666 	
H	  7.641668046933 	  3.576649305172 	  7.572082450381 	
H	  7.073123916933 	  3.576652115172 	 17.702639170381 	
H	  7.641636946933 	  9.760211065172 	  7.572079620381 	
H	  7.073092816933 	  9.760213875172 	 17.702636340381 	
H	 22.322495346933 	  3.576658535172 	  7.600212380381 	
H	 21.753951216933 	  3.576661345172 	 17.730769100381 	
H	 22.322464246933 	  9.760220295172 	  7.600209550381 	
H	 21.753920116933 	  9.760223105172 	 17.730766270381 	
H	  7.894631463468 	  5.635479087632 	  2.374532017563 	
H	  7.326087333468 	  5.635481897632 	 12.505088737563 	
H	  7.894600363468 	 11.819040847632 	  2.374529187563 	
H	  7.326056233468 	 11.819043657632 	 12.505085907563 	
H	 22.575458763468 	  5.635488317632 	  2.402661947563 	
H	 22.006914633468 	  5.635491127632 	 12.533218667563 	
H	 22.575427663468 	 11.819050077632 	  2.402659117563 	
H	 22.006883533468 	 11.819052887632 	 12.533215837563 	
H	  6.204365346315 	  2.564490726577 	  2.900263687160 	
H	  5.635821216315 	  2.564493536577 	 13.030820407160 	
H	  6.204334246315 	  8.748052486577 	  2.900260857160 	
H	  5.635790116315 	  8.748055296577 	 13.030817577160 	
H	 20.885192646315 	  2.564499956577 	  2.928393617160 	
H	 20.316648516315 	  2.564502766577 	 13.058950337160 	
H	 20.885161546315 	  8.748061716577 	  2.928390787160 	
H	 20.316617416315 	  8.748064526577 	 13.058947507160 	
C	  2.020941126273 	  2.655188249565 	  6.621638126526 	
C	  1.452396996273 	  2.655191059565 	 16.752194846526 	
C	  2.020910026273 	  8.838750009565 	  6.621635296526 	
C	  1.452365896273 	  8.838752819565 	 16.752192016526 	
C	 16.701768426273 	  2.655197479565 	  6.649768056526 	
C	 16.133224296273 	  2.655200289565 	 16.780324776526 	
C	 16.701737326273 	  8.838759239565 	  6.649765226526 	
C	 16.133193196273 	  8.838762049565 	 16.780321946526 	
C	 11.483646446055 	  5.673842627846 	  8.996014379321 	
C	 10.915102316055 	  5.673845437846 	 19.126571099321 	
C	 11.483615346055 	 11.857404387846 	  8.996011549321 	
C	 10.915071216055 	 11.857407197846 	 19.126568269321 	
C	 26.164473746055 	  5.673851857846 	  9.024144309321 	
C	 25.595929616055 	  5.673854667846 	 19.154701029321 	
C	 26.164442646055 	 11.857413617846 	  9.024141479321 	
C	 25.595898516055 	 11.857416427846 	 19.154698199321 	
C	 11.825092992314 	  3.485951970554 	  3.850709694840 	
C	 11.256548862314 	  3.485954780554 	 13.981266414840 	
C	 11.825061892314 	  9.669513730554 	  3.850706864840 	
C	 11.256517762314 	  9.669516540554 	 13.981263584840 	
C	 26.505920292314 	  3.485961200554 	  3.878839624840 	
C	 25.937376162314 	  3.485964010554 	 14.009396344840 	
C	 26.505889192314 	  9.669522960554 	  3.878836794840 	
C	 25.937345062314 	  9.669525770554 	 14.009393514840 	
C	  2.362386599284 	  0.467297255794 	  1.476332523753 	
C	  1.793842469284 	  0.467300065794 	 11.606889243753 	
C	  2.362355499284 	  6.650859015794 	  1.476329693753 	
C	  1.793811369284 	  6.650861825794 	 11.606886413753 	
C	 17.043213899284 	  0.467306485794 	  1.504462453753 	
C	 16.474669769284 	  0.467309295794 	 11.635019173753 	
C	 17.043182799284 	  6.650868245794 	  1.504459623753 	
C	 16.474638669284 	  6.650871055794 	 11.635016343753 	
C	  2.126026192306 	  2.744817070402 	  5.524757874364 	
C	  1.557482062306 	  2.744819880402 	 15.655314594364 	
C	  2.125995092306 	  8.928378830402 	  5.524755044364 	
C	  1.557450962306 	  8.928381640402 	 15.655311764364 	
C	 16.806853492306 	  2.744826300402 	  5.552887804364 	
C	 16.238309362306 	  2.744829110402 	 15.683444524364 	
C	 16.806822392306 	  8.928388060402 	  5.552884974364 	
C	 16.238278262306 	  8.928390870402 	 15.683441694364 	
C	 11.466774273789 	 -0.349600008563 	 10.064885925719 	
C	 10.898230143789 	 -0.349597198563 	 20.195442645719 	
C	 11.466743173789 	  5.833961751437 	 10.064883095719 	
C	 10.898199043789 	  5.833964561437 	 20.195439815719 	
C	 26.147601573789 	 -0.349590778563 	 10.093015855719 	
C	 25.579057443789 	 -0.349587968563 	 20.223572575719 	
C	 26.147570473789 	  5.833970981437 	 10.093013025719 	
C	 25.579026343789 	  5.833973791437 	 20.223569745719 	
C	 11.720004905805 	  3.396322678772 	  4.947589891864 	
C	 11.151460775805 	  3.396325488772 	 15.078146611864 	
C	 11.719973805805 	  9.579884438772 	  4.947587061864 	
C	 11.151429675805 	  9.579887248772 	 15.078143781864 	
C	 26.400832205805 	  3.396331908772 	  4.975719821864 	
C	 25.832288075805 	  3.396334718772 	 15.106276541864 	
C	 26.400801105805 	  9.579893668772 	  4.975716991864 	
C	 25.832256975805 	  9.579896478772 	 15.106273711864 	
C	  2.379258799065 	  6.490739868898 	  0.407460776317 	
C	  1.810714669065 	  6.490742678898 	 10.538017496317 	
C	  2.379227699065 	 12.674301628898 	  0.407457946317 	
C	  1.810683569065 	 12.674304438898 	 10.538014666317 	
C	 17.060086099065 	  6.490749098898 	  0.435590706317 	
C	 16.491541969065 	  6.490751908898 	 10.566147426317 	
C	 17.060054999065 	 12.674310858898 	  0.435587876317 	
C	 16.491510869065 	 12.674313668898 	 10.566144596317 	
H	  2.914452295941 	  3.413097857495 	  5.119634681856 	
H	  2.345908165941 	  3.413100667495 	 15.250191401856 	
H	  2.914421195941 	  9.596659617495 	  5.119631851856 	
H	  2.345877065941 	  9.596662427495 	 15.250188571856 	
H	 17.595279595941 	  3.413107087495 	  5.147764611856 	
H	 17.026735465941 	  3.413109897495 	 15.278321331856 	
H	 17.595248495941 	  9.596668847495 	  5.147761781856 	
H	 17.026704365941 	  9.596671657495 	 15.278318501856 	
H	 10.713607551708 	  0.369863873622 	 10.526075651297 	
H	 10.145063421708 	  0.369866683622 	 20.656632371297 	
H	 10.713576451708 	  6.553425633622 	 10.526072821297 	
H	 10.145032321708 	  6.553428443622 	 20.656629541297 	
H	 25.394434851708 	  0.369873103622 	 10.554205581297 	
H	 24.825890721708 	  0.369875913622 	 20.684762301297 	
H	 25.394403751708 	  6.553434863622 	 10.554202751297 	
H	 24.825859621708 	  6.553437673622 	 20.684759471297 	
H	 10.931580214802 	  2.728038398495 	  5.352710434579 	
H	 10.363036084802 	  2.728041208495 	 15.483267154579 	
H	 10.931549114802 	  8.911600158495 	  5.352707604579 	
H	 10.363004984802 	  8.911602968495 	 15.483264324579 	
H	 25.612407514802 	  2.728047628495 	  5.380840364579 	
H	 25.043863384802 	  2.728050438495 	 15.511397084579 	
H	 25.612376414802 	  8.911609388495 	  5.380837534579 	
H	 25.043832284802 	  8.911612198495 	 15.511394254579 	
H	  3.132425354459 	  5.771276510143 	 -0.053729315689 	
H	  2.563881224459 	  5.771279320143 	 10.076827404311 	
H	  3.132394254459 	 11.954838270143 	 -0.053732145689 	
H	  2.563850124459 	 11.954841080143 	 10.076824574311 	
H	 17.813252654459 	  5.771285740143 	 -0.025599385689 	
H	 17.244708524459 	  5.771288550143 	 10.104957334311 	
H	 17.813221554459 	 11.954847500143 	 -0.025602215689 	
H	 17.244677424459 	 11.954850310143 	 10.104954504311 	
H	  1.418442288378 	  2.862207972756 	  4.674643951312 	
H	  0.849898158378 	  2.862210782756 	 14.805200671312 	
H	  1.418411188378 	  9.045769732756 	  4.674641121312 	
H	  0.849867058378 	  9.045772542756 	 14.805197841312 	
H	 16.099269588378 	  2.862217202756 	  4.702773881312 	
H	 15.530725458378 	  2.862220012756 	 14.833330601312 	
H	 16.099238488378 	  9.045778962756 	  4.702771051312 	
H	 15.530694358378 	  9.045781772756 	 14.833327771312 	
H	 12.731713089453 	 -0.193997198778 	  0.671515401884 	
H	 12.163168959453 	 -0.193994388778 	 10.802072121884 	
H	 12.731681989453 	  5.989564561222 	  0.671512571884 	
H	 12.163137859453 	  5.989567371222 	 10.802069291884 	
H	 27.412540389453 	 -0.193987968778 	  0.699645331884 	
H	 26.843996259453 	 -0.193985158778 	 10.830202051884 	
H	 27.412509289453 	  5.989573791222 	  0.699642501884 	
H	 26.843965159453 	  5.989576601222 	 10.830199221884 	
H	 12.427590074258 	  3.278932062669 	  5.797703074232 	
H	 11.859045944258 	  3.278934872669 	 15.928259794232 	
H	 12.427558974258 	  9.462493822669 	  5.797700244232 	
H	 11.859014844258 	  9.462496632669 	 15.928256964232 	
H	 27.108417374258 	  3.278941292669 	  5.825833004232 	
H	 26.539873244258 	  3.278944102669 	 15.956389724232 	
H	 27.108386274258 	  9.462503052669 	  5.825830174232 	
H	 26.539842144258 	  9.462505862669 	 15.956386894232 	
H	  1.114319615345 	  6.335137443984 	  9.800831457763 	
H	  0.545775485345 	  6.335140253984 	 19.931388177763 	
H	  1.114288515345 	 12.518699203984 	  9.800828627763 	
H	  0.545744385345 	 12.518702013984 	 19.931385347763 	
H	 15.795146915345 	  6.335146673984 	  9.828961387763 	
H	 15.226602785345 	  6.335149483984 	 19.959518107763 	
H	 15.795115815345 	 12.518708433984 	  9.828958557763 	
H	 15.226571685345 	 12.518711243984 	 19.959515277763 	
H	  2.811287272933 	  2.061782512588 	  4.981188332887 	
H	  2.242743142933 	  2.061785322588 	 15.111745052887 	
H	  2.811256172933 	  8.245344272588 	  4.981185502887 	
H	  2.242712042933 	  8.245347082588 	 15.111742222887 	
H	 17.492114572933 	  2.061791742588 	  5.009318262887 	
H	 16.923570442933 	  2.061794552588 	 15.139874982887 	
H	 17.492083472933 	  8.245353502588 	  5.009315432887 	
H	 16.923539342933 	  8.245356312588 	 15.139872152887 	
H	 11.206138662923 	  5.087505308219 	  0.387004769320 	
H	 10.637594532923 	  5.087508118219 	 10.517561489320 	
H	 11.206107562923 	 11.271067068219 	  0.387001939320 	
H	 10.637563432923 	 11.271069878219 	 10.517558659320 	
H	 25.886965962923 	  5.087514538219 	  0.415134699320 	
H	 25.318421832923 	  5.087517348219 	 10.545691419320 	
H	 25.886934862923 	 11.271076298219 	  0.415131869320 	
H	 25.318390732923 	 11.271079108219 	 10.545688589320 	
H	 11.034744326917 	  4.079359360792 	  5.491157743735 	
H	 10.466200196917 	  4.079362170792 	 15.621714463735 	
H	 11.034713226917 	 10.262921120792 	  5.491154913735 	
H	 10.466169096917 	 10.262923930792 	 15.621711633735 	
H	 25.715571626917 	  4.079368590792 	  5.519287673735 	
H	 25.147027496917 	  4.079371400792 	 15.649844393735 	
H	 25.715540526917 	 10.262930350792 	  5.519284843735 	
H	 25.146996396917 	 10.262933160792 	 15.649841563735 	
H	  2.639894036319 	  1.053635127496 	 10.085342405570 	
H	  2.071349906319 	  1.053637937496 	 20.215899125570 	
H	  2.639862936319 	  7.237196887496 	 10.085339575570 	
H	  2.071318806319 	  7.237199697496 	 20.215896295570 	
H	 17.320721336319 	  1.053644357496 	 10.113472335570 	
H	 16.752177206319 	  1.053647167496 	 20.244029055570 	
H	 17.320690236319 	  7.237206117496 	 10.113469505570 	
H	 16.752146106319 	  7.237208927496 	 20.244026225570 	
C	  1.338911936432 	  3.509949266975 	  6.813120497280 	
C	  0.770367806432 	  3.509952076975 	 16.943677217280 	
C	  1.338880836432 	  9.693511026975 	  6.813117667280 	
C	  0.770336706432 	  9.693513836975 	 16.943674387280 	
C	 16.019739236432 	  3.509958496975 	  6.841250427280 	
C	 15.451195106432 	  3.509961306975 	 16.971807147280 	
C	 16.019708136432 	  9.693520256975 	  6.841247597280 	
C	 15.451164006432 	  9.693523066975 	 16.971804317280 	
C	 12.360839629645 	  0.511952902516 	  8.830866179367 	
C	 11.792295499645 	  0.511955712516 	 18.961422899367 	
C	 12.360808529645 	  6.695514662516 	  8.830863349367 	
C	 11.792264399645 	  6.695517472516 	 18.961420069367 	
C	 27.041666929645 	  0.511962132516 	  8.858996109367 	
C	 26.473122799645 	  0.511964942516 	 18.989552829367 	
C	 27.041635829645 	  6.695523892516 	  8.858993279367 	
C	 26.473091699645 	  6.695526702516 	 18.989549999367 	
C	 12.507121157488 	  2.631190326507 	  3.659224952509 	
C	 11.938577027488 	  2.631193136507 	 13.789781672509 	
C	 12.507090057488 	  8.814752086507 	  3.659222122509 	
C	 11.938545927488 	  8.814754896507 	 13.789778842509 	
C	 27.187948457488 	  2.631199556507 	  3.687354882509 	
C	 26.619404327488 	  2.631202366507 	 13.817911602509 	
C	 27.187917357488 	  8.814761316507 	  3.687352052509 	
C	 26.619373227488 	  8.814764126507 	 13.817908772509 	
C	  1.485193449671 	  5.629186887704 	  1.641480545542 	
C	  0.916649319671 	  5.629189697704 	 11.772037265542 	
C	  1.485162349671 	 11.812748647704 	  1.641477715542 	
C	  0.916618219671 	 11.812751457704 	 11.772034435542 	
C	 16.166020749671 	  5.629196117704 	  1.669610475542 	
C	 15.597476619671 	  5.629198927704 	 11.800167195542 	
C	 16.165989649671 	 11.812757877704 	  1.669607645542 	
C	 15.597445519671 	 11.812760687704 	 11.800164365542 	
H	  1.773676110495 	  4.536687383921 	  6.862963133363 	
H	  1.205131980495 	  4.536690193921 	 16.993519853363 	
H	  1.773645010495 	 10.720249143921 	  6.862960303363 	
H	  1.205100880495 	 10.720251953921 	 16.993517023363 	
H	 16.454503410495 	  4.536696613921 	  6.891093063363 	
H	 15.885959280495 	  4.536699423921 	 17.021649783363 	
H	 16.454472310495 	 10.720258373921 	  6.891090233363 	
H	 15.885928180495 	 10.720261183921 	 17.021646953363 	
H	 11.813349838419 	  1.478846551689 	  8.801242632007 	
H	 11.244805708419 	  1.478849361689 	 18.931799352007 	
H	 11.813318738419 	  7.662408311689 	  8.801239802007 	
H	 11.244774608419 	  7.662411121689 	 18.931796522007 	
H	 26.494177138419 	  1.478855781689 	  8.829372562007 	
H	 25.925633008419 	  1.478858591689 	 18.959929282007 	
H	 26.494146038419 	  7.662417541689 	  8.829369732007 	
H	 25.925601908419 	  7.662420351689 	 18.959926452007 	
H	 12.072357066367 	  1.604451907211 	  3.609382829501 	
H	 11.503812936367 	  1.604454717211 	 13.739939549501 	
H	 12.072325966367 	  7.788013667211 	  3.609379999501 	
H	 11.503781836367 	  7.788016477211 	 13.739936719501 	
H	 26.753184366367 	  1.604461137211 	  3.637512759501 	
H	 26.184640236367 	  1.604463947211 	 13.768069479501 	
H	 26.753153266367 	  7.788022897211 	  3.637509929501 	
H	 26.184609136367 	  7.788025707211 	 13.768066649501 	
H	  2.032683309451 	  4.662293264143 	  1.671103648573 	
H	  1.464139179451 	  4.662296074143 	 11.801660368573 	
H	  2.032652209451 	 10.845855024143 	  1.671100818573 	
H	  1.464108079451 	 10.845857834143 	 11.801657538573 	
H	 16.713510609451 	  4.662302494143 	  1.699233578573 	
H	 16.144966479451 	  4.662305304143 	 11.829790298573 	
H	 16.713479509451 	 10.845864254143 	  1.699230748573 	
H	 16.144935379451 	 10.845867064143 	 11.829787468573 	
H	  1.044331015425 	  3.697917578180 	  7.874250040972 	
H	  0.475786885425 	  3.697920388180 	 18.004806760972 	
H	  1.044299915425 	  9.881479338180 	  7.874247210972 	
H	  0.475755785425 	  9.881482148180 	 18.004803930972 	
H	 15.725158315425 	  3.697926808180 	  7.902379970972 	
H	 15.156614185425 	  3.697929618180 	 18.032936690972 	
H	 15.725127215425 	  9.881488568180 	  7.902377140972 	
H	 15.156583085425 	  9.881491378180 	 18.032933860972 	
H	 12.540170201378 	  6.742360443719 	  7.807981618555 	
H	 11.971626071378 	  6.742363253719 	 17.938538338555 	
H	 12.540139101378 	 12.925922203719 	  7.807978788555 	
H	 11.971594971378 	 12.925925013719 	 17.938535508555 	
H	 27.220997501378 	  6.742369673719 	  7.836111548555 	
H	 26.652453371378 	  6.742372483719 	 17.966668268555 	
H	 27.220966401378 	 12.925931433719 	  7.836108718555 	
H	 26.652422271378 	 12.925934243719 	 17.966665438555 	
H	 12.801703301297 	  2.443223291626 	  2.598095301444 	
H	 12.233159171297 	  2.443226101626 	 12.728652021444 	
H	 12.801672201297 	  8.626785051626 	  2.598092471444 	
H	 12.233128071297 	  8.626787861626 	 12.728649191444 	
H	 27.482530601297 	  2.443232521626 	  2.626225231444 	
H	 26.913986471297 	  2.443235331626 	 12.756781951444 	
H	 27.482499501297 	  8.626794281626 	  2.626222401444 	
H	 26.913955371297 	  8.626797091626 	 12.756779121444 	
H	  1.305863132458 	 -0.601220775899 	  2.664365160506 	
H	  0.737319002458 	 -0.601217965899 	 12.794921880506 	
H	  1.305832032458 	  5.582340984101 	  2.664362330506 	
H	  0.737287902458 	  5.582343794101 	 12.794919050506 	
H	 15.986690432458 	 -0.601211545899 	  2.692495090506 	
H	 15.418146302458 	 -0.601208735899 	 12.823051810506 	
H	 15.986659332458 	  5.582350214101 	  2.692492260506 	
H	 15.418115202458 	  5.582353024101 	 12.823048980506 	
H	  0.386367695290 	  3.695131045300 	  6.263894610270 	
H	 -0.182176434710 	  3.695133855300 	 16.394451330270 	
H	  0.386336595290 	  9.878692805300 	  6.263891780270 	
H	 -0.182207534710 	  9.878695615300 	 16.394448500270 	
H	 15.067194995290 	  3.695140275300 	  6.292024540270 	
H	 14.498650865290 	  3.695143085300 	 16.422581260270 	
H	 15.067163895290 	  9.878702035300 	  6.292021710270 	
H	 14.498619765290 	  9.878704845300 	 16.422578430270 	
H	 13.200698961615 	  6.759189694104 	  9.400847599636 	
H	 12.632154831615 	  6.759192504104 	 19.531404319636 	
H	 13.200667861615 	 12.942751454104 	  9.400844769636 	
H	 12.632123731615 	 12.942754264104 	 19.531401489636 	
H	 27.881526261615 	  6.759198924104 	  9.428977529636 	
H	 27.312982131615 	  6.759201734104 	 19.559534249636 	
H	 27.881495161615 	 12.942760684104 	  9.428974699636 	
H	 27.312951031615 	 12.942763494104 	 19.559531419636 	
H	 13.459665426791 	  2.446008815481 	  4.208451370238 	
H	 12.891121296791 	  2.446011625481 	 14.339008090238 	
H	 13.459634326791 	  8.629570575481 	  4.208448540238 	
H	 12.891090196791 	  8.629573385481 	 14.339005260238 	
H	 28.140492726791 	  2.446018045481 	  4.236581300238 	
H	 27.571948596791 	  2.446020855481 	 14.367138020238 	
H	 28.140461626791 	  8.629579805481 	  4.236578470238 	
H	 27.571917496791 	  8.629582615481 	 14.367135190238 	
H	  0.645333976870 	 -0.618049966450 	  1.071499348780 	
H	  0.076789846870 	 -0.618047156450 	 11.202056068780 	
H	  0.645302876870 	  5.565511793550 	  1.071496518780 	
H	  0.076758746870 	  5.565514603550 	 11.202053238780 	
H	 15.326161276870 	 -0.618040736450 	  1.099629278780 	
H	 14.757617146870 	 -0.618037926450 	 11.230185998780 	
H	 15.326130176870 	  5.565521023550 	  1.099626448780 	
H	 14.757586046870 	  5.565523833550 	 11.230183168780 	
C	  1.318018235877 	  1.801333739687 	  6.659033717549 	
C	  0.749474105877 	  1.801336549687 	 16.789590437549 	
C	  1.317987135877 	  7.984895499687 	  6.659030887549 	
C	  0.749443005877 	  7.984898309687 	 16.789587607549 	
C	 15.998845535877 	  1.801342969687 	  6.687163647549 	
C	 15.430301405877 	  1.801345779687 	 16.817720367549 	
C	 15.998814435877 	  7.984904729687 	  6.687160817549 	
C	 15.430270305877 	  7.984907539687 	 16.817717537549 	
C	 12.270245104413 	  4.886283865408 	  9.018433558689 	
C	 11.701700974413 	  4.886286675408 	 19.148990278689 	
C	 12.270214004413 	 11.069845625408 	  9.018430728689 	
C	 11.701669874413 	 11.069848435408 	 19.148987448689 	
C	 26.951072404413 	  4.886293095408 	  9.046563488689 	
C	 26.382528274413 	  4.886295905408 	 19.177120208689 	
C	 26.951041304413 	 11.069854855408 	  9.046560658689 	
C	 26.382497174413 	 11.069857665408 	 19.177117378689 	
C	 12.528014355609 	  4.339808005416 	  3.813311625742 	
C	 11.959470225609 	  4.339810815416 	 13.943868345742 	
C	 12.527983255609 	 10.523369765416 	  3.813308795742 	
C	 11.959439125609 	 10.523372575416 	 13.943865515742 	
C	 27.208841655609 	  4.339817235416 	  3.841441555742 	
C	 26.640297525609 	  4.339820045416 	 13.971998275742 	
C	 27.208810555609 	 10.523378995416 	  3.841438725742 	
C	 26.640266425609 	 10.523381805416 	 13.971995445742 	
C	  1.575787819766 	  1.254855873409 	  1.453913524473 	
C	  1.007243689766 	  1.254858683409 	 11.584470244473 	
C	  1.575756719766 	  7.438417633409 	  1.453910694473 	
C	  1.007212589766 	  7.438420443409 	 11.584467414473 	
C	 16.256615119766 	  1.254865103409 	  1.482043454473 	
C	 15.688070989766 	  1.254867913409 	 11.612600174473 	
C	 16.256584019766 	  7.438426863409 	  1.482040624473 	
C	 15.688039889766 	  7.438429673409 	 11.612597344473 	
H	  0.321214264834 	  1.641466216593 	  6.193575493578 	
H	 -0.247329865166 	  1.641469026593 	 16.324132213578 	
H	  0.321183164834 	  7.825027976593 	  6.193572663578 	
H	 -0.247360965166 	  7.825030786593 	 16.324129383578 	
H	 15.002041564834 	  1.641475446593 	  6.221705423578 	
H	 14.433497434834 	  1.641478256593 	 16.352262143578 	
H	 15.002010464834 	  7.825037206593 	  6.221702593578 	
H	 14.433466334834 	  7.825040016593 	 16.352259313578 	
H	 13.270096166384 	  4.714019429083 	  9.478196885045 	
H	 12.701552036384 	  4.714022239083 	 19.608753605045 	
H	 13.270065066384 	 10.897581189083 	  9.478194055045 	
H	 12.701520936384 	 10.897583999083 	 19.608750775045 	
H	 27.950923466384 	  4.714028659083 	  9.506326815045 	
H	 27.382379336384 	  4.714031469083 	 19.636883535045 	
H	 27.950892366384 	 10.897590419083 	  9.506323985045 	
H	 27.382348236384 	 10.897593229083 	 19.636880705045 	
H	 13.524818312188 	  4.499674889307 	  4.278770770347 	
H	 12.956274182188 	  4.499677699307 	 14.409327490347 	
H	 13.524787212188 	 10.683236649307 	  4.278767940347 	
H	 12.956243082188 	 10.683239459307 	 14.409324660347 	
H	 28.205645612188 	  4.499684119307 	  4.306900700347 	
H	 27.637101482188 	  4.499686929307 	 14.437457420347 	
H	 28.205614512188 	 10.683245879307 	  4.306897870347 	
H	 27.637070382188 	 10.683248689307 	 14.437454590347 	
H	  0.575936687769 	  1.427120273550 	  0.994150372004 	
H	  0.007392557769 	  1.427123083550 	 11.124707092004 	
H	  0.575905587769 	  7.610682033550 	  0.994147542004 	
H	  0.007361457769 	  7.610684843550 	 11.124704262004 	
H	 15.256763987769 	  1.427129503550 	  1.022280302004 	
H	 14.688219857769 	  1.427132313550 	 11.152837022004 	
H	 15.256732887769 	  7.610691263550 	  1.022277472004 	
H	 14.688188757769 	  7.610694073550 	 11.152834192004 	
H	  1.110826398362 	  1.400255055253 	  7.678086048449 	
H	  0.542282268362 	  1.400257865253 	 17.808642768449 	
H	  1.110795298362 	  7.583816815253 	  7.678083218449 	
H	  0.542251168362 	  7.583819625253 	 17.808639938449 	
H	 15.791653698362 	  1.400264285253 	  7.706215978449 	
H	 15.223109568362 	  1.400267095253 	 17.836772698449 	
H	 15.791622598362 	  7.583826045253 	  7.706213148449 	
H	 15.223078468362 	  7.583828855253 	 17.836769868449 	
H	 12.480741716531 	  4.474081172025 	  7.996184586679 	
H	 11.912197586531 	  4.474083982025 	 18.126741306679 	
H	 12.480710616531 	 10.657642932025 	  7.996181756679 	
H	 11.912166486531 	 10.657645742025 	 18.126738476679 	
H	 27.161569016531 	  4.474090402025 	  8.024314516679 	
H	 26.593024886531 	  4.474093212025 	 18.154871236679 	
H	 27.161537916531 	 10.657652162025 	  8.024311686679 	
H	 26.592993786531 	 10.657654972025 	 18.154868406679 	
H	 12.735206620567 	  4.740885704238 	  2.794258827608 	
H	 12.166662490567 	  4.740888514238 	 12.924815547608 	
H	 12.735175520567 	 10.924447464238 	  2.794255997608 	
H	 12.166631390567 	 10.924450274238 	 12.924812717608 	
H	 27.416033920567 	  4.740894934238 	  2.822388757608 	
H	 26.847489790567 	  4.740897744238 	 12.952945477608 	
H	 27.416002820567 	 10.924456694238 	  2.822385927608 	
H	 26.847458690567 	 10.924459504238 	 12.952942647608 	
H	  1.365291267470 	  1.667058460460 	  2.476162519306 	
H	  0.796747137470 	  1.667061270460 	 12.606719239306 	
H	  1.365260167470 	  7.850620220460 	  2.476159689306 	
H	  0.796716037470 	  7.850623030460 	 12.606716409306 	
H	 16.046118567470 	  1.667067690460 	  2.504292449306 	
H	 15.477574437470 	  1.667070500460 	 12.634849169306 	
H	 16.046087467470 	  7.850629450460 	  2.504289619306 	
H	 15.477543337470 	  7.850632260460 	 12.634846339306 	
H	  1.702591165381 	  0.767187782941 	  6.531408088618 	
H	  1.134047035381 	  0.767190592941 	 16.661964808618 	
H	  1.702560065381 	  6.950749542941 	  6.531405258618 	
H	  1.134015935381 	  6.950752352941 	 16.661961978618 	
H	 16.383418465381 	  0.767197012941 	  6.559538018618 	
H	 15.814874335381 	  0.767199822941 	 16.690094738618 	
H	 16.383387365381 	  6.950758772941 	  6.559535188618 	
H	 15.814843235381 	  6.950761582941 	 16.690091908618 	
H	 11.890073207013 	  3.844411352019 	  9.139702834138 	
H	 11.321529077013 	  3.844414162019 	 19.270259554138 	
H	 11.890042107013 	 10.027973112019 	  9.139700004138 	
H	 11.321497977013 	 10.027975922019 	 19.270256724138 	
H	 26.570900507013 	  3.844420582019 	  9.167832764138 	
H	 26.002356377013 	  3.844423392019 	 19.298389484138 	
H	 26.570869407013 	 10.027982342019 	  9.167829934138 	
H	 26.002325277013 	 10.027985152019 	 19.298386654138 	
H	 12.143439757236 	  5.373953157721 	  3.940940536181 	
H	 11.574895627236 	  5.373955967721 	 14.071497256181 	
H	 12.143408657236 	 11.557514917721 	  3.940937706181 	
H	 11.574864527236 	 11.557517727721 	 14.071494426181 	
H	 26.824267057236 	  5.373962387721 	  3.969070466181 	
H	 26.255722927236 	  5.373965197721 	 14.099627186181 	
H	 26.824235957236 	 11.557524147721 	  3.969067636181 	
H	 26.255691827236 	 11.557526957721 	 14.099624356181 	
H	  1.955959572831 	  2.296728505180 	  1.332644800095 	
H	  1.387415442831 	  2.296731315180 	 11.463201520095 	
H	  1.955928472831 	  8.480290265180 	  1.332641970095 	
H	  1.387384342831 	  8.480293075180 	 11.463198690095 	
H	 16.636786872831 	  2.296737735180 	  1.360774730095 	
H	 16.068242742831 	  2.296740545180 	 11.491331450095 	
H	 16.636755772831 	  8.480299495180 	  1.360771900095 	
H	 16.068211642831 	  8.480302305180 	 11.491328620095 	
768 
Energy: -1.0254976736339999e+02 
S	  8.486439143786 	  1.482536857121 	  0.099662640889 	
S	  7.917895013786 	  1.482539667121 	 10.230219360889 	
S	  8.486408043786 	  7.666098617121 	  0.099659810889 	
S	  7.917863913786 	  7.666101427121 	 10.230216530889 	
S	 23.167266443786 	  1.482546087121 	  0.127792570889 	
S	 22.598722313786 	  1.482548897121 	 10.258349290889 	
S	 23.167235343786 	  7.666107847121 	  0.127789740889 	
S	 22.598691213786 	  7.666110657121 	 10.258346460889 	
S	  5.547000620089 	  4.547334617296 	  5.213824344408 	
S	  4.978456490089 	  4.547337427296 	 15.344381064408 	
S	  5.546969520089 	 10.730896377296 	  5.213821514408 	
S	  4.978425390089 	 10.730899187296 	 15.344378234408 	
S	 20.227827920089 	  4.547343847296 	  5.241954274408 	
S	 19.659283790089 	  4.547346657296 	 15.372510994408 	
S	 20.227796820089 	 10.730905607296 	  5.241951444408 	
S	 19.659252690089 	 10.730908417296 	 15.372508164408 	
S	  5.302479655041 	  4.649499028362 	 10.439976308484 	
S	  4.733935525041 	  4.649501838362 	 20.570533028484 	
S	  5.302448555041 	 10.833060788362 	 10.439973478484 	
S	  4.733904425041 	 10.833063598362 	 20.570530198484 	
S	 19.983306955041 	  4.649508258362 	 10.468106238484 	
S	 19.414762825041 	  4.649511068362 	 20.598662958484 	
S	 19.983275855041 	 10.833070018362 	 10.468103408484 	
S	 19.414731725041 	 10.833072828362 	 20.598660128484 	
S	  8.241919167163 	  1.584701536196 	  5.325814455488 	
S	  7.673375037162 	  1.584704346196 	 15.456371175488 	
S	  8.241888067163 	  7.768263296196 	  5.325811625488 	
S	  7.673343937163 	  7.768266106196 	 15.456368345488 	
S	 22.922746467163 	  1.584710766196 	  5.353944385488 	
S	 22.354202337163 	  1.584713576196 	 15.484501105488 	
S	 22.922715367162 	  7.768272526196 	  5.353941555488 	
S	 22.354171237163 	  7.768275336196 	 15.484498275488 	
C	  6.616511738451 	  2.553438158665 	 10.128177219765 	
C	  6.047967608451 	  2.553440968665 	 20.258733939765 	
C	  6.616480638451 	  8.736999918665 	 10.128174389765 	
C	  6.047936508451 	  8.737002728665 	 20.258731109765 	
C	 21.297339038451 	  2.553447388665 	 10.156307149765 	
C	 20.728794908451 	  2.553450198665 	 20.286863869765 	
C	 21.297307938451 	  8.737009148665 	 10.156304319765 	
C	 20.728763808451 	  8.737011958665 	 20.286861039765 	
C	  6.928466544257 	  5.574315407083 	  5.670147665491 	
C	  6.359922414257 	  5.574318217083 	 15.800704385491 	
C	  6.928435444257 	 11.757877167083 	  5.670144835491 	
C	  6.359891314257 	 11.757879977083 	 15.800701555491 	
C	 21.609293844257 	  5.574324637083 	  5.698277595491 	
C	 21.040749714257 	  5.574327447083 	 15.828834315491 	
C	 21.609262744257 	 11.757886397083 	  5.698274765491 	
C	 21.040718614257 	 11.757889207083 	 15.828831485491 	
C	  7.172407083715 	  3.578597701787 	  0.411461631251 	
C	  6.603862953715 	  3.578600511787 	 10.542018351251 	
C	  7.172375983715 	  9.762159461787 	  0.411458801251 	
C	  6.603831853715 	  9.762162271787 	 10.542015521251 	
C	 21.853234383715 	  3.578606931787 	  0.439591561251 	
C	 21.284690253715 	  3.578609741787 	 10.570148281251 	
C	 21.853203283715 	  9.762168691787 	  0.439588731251 	
C	 21.284659153715 	  9.762171501787 	 10.570145451251 	
C	  6.860453091372 	  0.557720820485 	  4.869491027350 	
C	  6.291908961372 	  0.557723630485 	 15.000047747350 	
C	  6.860421991372 	  6.741282580485 	  4.869488197350 	
C	  6.291877861372 	  6.741285390485 	 15.000044917350 	
C	 21.541280391372 	  0.557730050485 	  4.897620957350 	
C	 20.972736261372 	  0.557732860485 	 15.028177677350 	
C	 21.541249291372 	  6.741291810485 	  4.897618127350 	
C	 20.972705161372 	  6.741294620485 	 15.028174847350 	
C	  5.584521027520 	  2.379463290763 	  9.165009585077 	
C	  5.015976897520 	  2.379466100763 	 19.295566305077 	
C	  5.584489927520 	  8.563025050763 	  9.165006755077 	
C	  5.015945797520 	  8.563027860763 	 19.295563475077 	
C	 20.265348327520 	  2.379472520763 	  9.193139515077 	
C	 19.696804197520 	  2.379475330763 	 19.323696235077 	
C	 20.265317227520 	  8.563034280763 	  9.193136685077 	
C	 19.696773097520 	  8.563037090763 	 19.323693405077 	
C	  7.958234772774 	  5.438511777712 	  6.600052105364 	
C	  7.389690642774 	  5.438514587712 	 16.730608825364 	
C	  7.958203672774 	 11.622073537712 	  6.600049275364 	
C	  7.389659542774 	 11.622076347712 	 16.730605995364 	
C	 22.639062072774 	  5.438521007712 	  6.628182035364 	
C	 22.070517942774 	  5.438523817712 	 16.758738755364 	
C	 22.639030972774 	 11.622082767712 	  6.628179205364 	
C	 22.070486842774 	 11.622085577712 	 16.758735925364 	
C	  8.204397686522 	  3.752572627531 	  1.374629178321 	
C	  7.635853556522 	  3.752575437531 	 11.505185898321 	
C	  8.204366586522 	  9.936134387531 	  1.374626348321 	
C	  7.635822456522 	  9.936137197531 	 11.505183068321 	
C	 22.885224986522 	  3.752581857531 	  1.402759108321 	
C	 22.316680856522 	  3.752584667531 	 11.533315828321 	
C	 22.885193886522 	  9.936143617531 	  1.402756278321 	
C	 22.316649756522 	  9.936146427531 	 11.533312998321 	
C	  5.830684703206 	  0.693524471307 	  3.939586702010 	
C	  5.262140573206 	  0.693527281307 	 14.070143422010 	
C	  5.830653603206 	  6.877086231307 	  3.939583872010 	
C	  5.262109473206 	  6.877089041307 	 14.070140592010 	
C	 20.511512003206 	  0.693533701307 	  3.967716632010 	
C	 19.942967873206 	  0.693536511307 	 14.098273352010 	
C	 20.511480903206 	  6.877095461307 	  3.967713802010 	
C	 19.942936773206 	  6.877098271307 	 14.098270522010 	
C	  4.727333726958 	  3.453010543024 	  9.188217125137 	
C	  4.158789596958 	  3.453013353024 	 19.318773845137 	
C	  4.727302626958 	  9.636572303024 	  9.188214295137 	
C	  4.158758496958 	  9.636575113024 	 19.318771015137 	
C	 19.408161026958 	  3.453019773024 	  9.216347055137 	
C	 18.839616896958 	  3.453022583024 	 19.346903775137 	
C	 19.408129926958 	  9.636581533024 	  9.216344225137 	
C	 18.839585796958 	  9.636584343024 	 19.346900945137 	
C	  8.813969784817 	  0.392300806603 	  6.578951731857 	
C	  8.245425654817 	  0.392303616603 	 16.709508451857 	
C	  8.813938684817 	  6.575862566603 	  6.578948901857 	
C	  8.245394554817 	  6.575865376603 	 16.709505621857 	
C	 23.494797084817 	  0.392310036603 	  6.607081661857 	
C	 22.926252954817 	  0.392312846603 	 16.737638381857 	
C	 23.494765984817 	  6.575871796603 	  6.607078831857 	
C	 22.926221854817 	  6.575874606603 	 16.737635551857 	
C	  9.061584976565 	  2.679025373275 	  1.351421688756 	
C	  8.493040846565 	  2.679028183275 	 11.481978408756 	
C	  9.061553876565 	  8.862587133275 	  1.351418858756 	
C	  8.493009746565 	  8.862589943275 	 11.481975578756 	
C	 23.742412276565 	  2.679034603275 	  1.379551618756 	
C	 23.173868146565 	  2.679037413275 	 11.510108338756 	
C	 23.742381176565 	  8.862596363275 	  1.379548788756 	
C	 23.173837046565 	  8.862599173275 	 11.510105508756 	
C	  4.974949752106 	  5.739735407649 	  3.960687223848 	
C	  4.406405622106 	  5.739738217649 	 14.091243943848 	
C	  4.974918652106 	 11.923297167649 	  3.960684393848 	
C	  4.406374522106 	 11.923299977649 	 14.091241113848 	
C	 19.655777052106 	  5.739744637649 	  3.988817153848 	
C	 19.087232922106 	  5.739747447649 	 14.119373873848 	
C	 19.655745952106 	 11.923306397649 	  3.988814323848 	
C	 19.087201822106 	 11.923309207649 	 14.119371043848 	
C	  3.676108932193 	  3.551448842032 	  8.424868033666 	
C	  3.107564802193 	  3.551451652032 	 18.555424753666 	
C	  3.676077832193 	  9.735010602032 	  8.424865203666 	
C	  3.107533702193 	  9.735013412032 	 18.555421923666 	
C	 18.356936232193 	  3.551458072032 	  8.452997963666 	
C	 17.788392102193 	  3.551460882032 	 18.583554683666 	
C	 18.356905132193 	  9.735019832032 	  8.452995133666 	
C	 17.788361002193 	  9.735022642032 	 18.583551853666 	
C	  9.861473503010 	  0.496362776998 	  7.335124976668 	
C	  9.292929373010 	  0.496365586998 	 17.465681696668 	
C	  9.861442403010 	  6.679924536998 	  7.335122146668 	
C	  9.292898273010 	  6.679927346998 	 17.465678866668 	
C	 24.542300803010 	  0.496372006998 	  7.363254906668 	
C	 23.973756673010 	  0.496374816998 	 17.493811626668 	
C	 24.542269703010 	  6.679933766998 	  7.363252076668 	
C	 23.973725573010 	  6.679936576998 	 17.493808796668 	
C	 10.112809801123 	  2.580587210374 	  2.114770979607 	
C	  9.544265671123 	  2.580590020374 	 12.245327699607 	
C	 10.112778701123 	  8.764148970374 	  2.114768149607 	
C	  9.544234571123 	  8.764151780374 	 12.245324869607 	
C	 24.793637101123 	  2.580596440374 	  2.142900909607 	
C	 24.225092971123 	  2.580599250374 	 12.273457629607 	
C	 24.793606001123 	  8.764158200374 	  2.142898079607 	
C	 24.225061871123 	  8.764161010374 	 12.273454799607 	
C	  3.927445735735 	  5.635673481829 	  3.204514280910 	
C	  3.358901605735 	  5.635676291829 	 13.335071000910 	
C	  3.927414635735 	 11.819235241829 	  3.204511450910 	
C	  3.358870505735 	 11.819238051829 	 13.335068170910 	
C	 18.608273035735 	  5.635682711829 	  3.232644210910 	
C	 18.039728905735 	  5.635685521829 	 13.363200930910 	
C	 18.608241935735 	 11.819244471829 	  3.232641380910 	
C	 18.039697805735 	 11.819247281829 	 13.363198100910 	
H	  3.009539984372 	  4.488569316087 	  8.500980052938 	
H	  2.440995854372 	  4.488572126087 	 18.631536772938 	
H	  3.009508884372 	 10.672131076087 	  8.500977222938 	
H	  2.440964754372 	 10.672133886087 	 18.631533942938 	
H	 17.690367284372 	  4.488578546087 	  8.529109982938 	
H	 17.121823154372 	  4.488581356087 	 18.659666702938 	
H	 17.690336184372 	 10.672140306087 	  8.529107152938 	
H	 17.121792054372 	 10.672143116087 	 18.659663872938 	
H	 10.533775291921 	  1.421244797632 	  7.266609849931 	
H	  9.965231161921 	  1.421247607632 	 17.397166569931 	
H	 10.533744191921 	  7.604806557632 	  7.266607019931 	
H	  9.965200061921 	  7.604809367632 	 17.397163739931 	
H	 25.214602591921 	  1.421254027632 	  7.294739779931 	
H	 24.646058461921 	  1.421256837632 	 17.425296499931 	
H	 25.214571491921 	  7.604815787632 	  7.294736949931 	
H	 24.646027361921 	  7.604818597632 	 17.425293669931 	
H	 10.779378668769 	  1.643466650745 	  2.038659054376 	
H	 10.210834538769 	  1.643469460745 	 12.169215774376 	
H	 10.779347568769 	  7.827028410745 	  2.038656224376 	
H	 10.210803438769 	  7.827031220745 	 12.169212944376 	
H	 25.460205968769 	  1.643475880745 	  2.066788984376 	
H	 24.891661838769 	  1.643478690745 	 12.197345704376 	
H	 25.460174868769 	  7.827037640745 	  2.066786154376 	
H	 24.891630738769 	  7.827040450745 	 12.197342874376 	
H	  3.255144072642 	  4.710791384572 	  3.273029545486 	
H	  2.686599942642 	  4.710794194572 	 13.403586265486 	
H	  3.255112972642 	 10.894353144572 	  3.273026715486 	
H	  2.686568842642 	 10.894355954572 	 13.403583435486 	
H	 17.935971372642 	  4.710800614572 	  3.301159475486 	
H	 17.367427242642 	  4.710803424572 	 13.431716195486 	
H	 17.935940272642 	 10.894362374572 	  3.301156645486 	
H	 17.367396142642 	 10.894365184572 	 13.431713365486 	
C	  3.348403559509 	  2.606325626514 	  7.556070751679 	
C	  2.779859429509 	  2.606328436514 	 17.686627471679 	
C	  3.348372459509 	  8.789887386514 	  7.556067921679 	
C	  2.779828329509 	  8.789890196514 	 17.686624641679 	
C	 18.029230859509 	  2.606334856514 	  7.584200681679 	
C	 17.460686729509 	  2.606337666514 	 17.714757401679 	
C	 18.029199759509 	  8.789896616514 	  7.584197851679 	
C	 17.460655629509 	  8.789899426514 	 17.714754571679 	
C	 10.200783405729 	  5.659631749039 	  8.217482210347 	
C	  9.632239275729 	  5.659634559039 	 18.348038930347 	
C	 10.200752305729 	 11.843193509039 	  8.217479380347 	
C	  9.632208175729 	 11.843196319039 	 18.348036100347 	
C	 24.881610705729 	  5.659640979039 	  8.245612140347 	
C	 24.313066575729 	  5.659643789039 	 18.376168860347 	
C	 24.881579605729 	 11.843202739039 	  8.245609310347 	
C	 24.313035475729 	 11.843205549039 	 18.376166030347 	
C	 10.440514943229 	  3.525710470022 	  2.983567996999 	
C	  9.871970813229 	  3.525713280022 	 13.114124716999 	
C	 10.440483843229 	  9.709272230022 	  2.983565166999 	
C	  9.871939713229 	  9.709275040022 	 13.114121886999 	
C	 25.121342243229 	  3.525719700022 	  3.011697926999 	
C	 24.552798113229 	  3.525722510022 	 13.142254646999 	
C	 25.121311143229 	  9.709281460022 	  3.011695096999 	
C	 24.552767013229 	  9.709284270022 	 13.142251816999 	
C	  3.588135613798 	  0.472404567122 	  2.322157182366 	
C	  3.019591483798 	  0.472407377122 	 12.452713902366 	
C	  3.588104513798 	  6.655966327122 	  2.322154352366 	
C	  3.019560383798 	  6.655969137122 	 12.452711072366 	
C	 18.268962913798 	  0.472413797122 	  2.350287112366 	
C	 17.700418783798 	  0.472416607122 	 12.480843832366 	
C	 18.268931813798 	  6.655975557122 	  2.350284282366 	
C	 17.700387683798 	  6.655978367122 	 12.480841002366 	
C	  4.206155248859 	  1.546037581671 	  7.501772875326 	
C	  3.637611118859 	  1.546040391671 	 17.632329595326 	
C	  4.206124148859 	  7.729599341671 	  7.501770045326 	
C	  3.637580018859 	  7.729602151671 	 17.632326765326 	
C	 18.886982548859 	  1.546046811671 	  7.529902805326 	
C	 18.318438418859 	  1.546049621671 	 17.660459525326 	
C	 18.886951448859 	  7.729608571671 	  7.529899975326 	
C	 18.318407318859 	  7.729611381671 	 17.660456695326 	
C	  9.337513908152 	  4.614082287798 	  8.263094983344 	
C	  8.768969778152 	  4.614085097798 	 18.393651703344 	
C	  9.337482808152 	 10.797644047798 	  8.263092153344 	
C	  8.768938678152 	 10.797646857798 	 18.393648873344 	
C	 24.018341208152 	  4.614091517798 	  8.291224913344 	
C	 23.449797078152 	  4.614094327798 	 18.421781633344 	
C	 24.018310108152 	 10.797653277798 	  8.291222083344 	
C	 23.449765978152 	 10.797656087798 	 18.421778803344 	
C	  9.582763362727 	  4.585998535515 	  3.037865866135 	
C	  9.014219232727 	  4.586001345515 	 13.168422586135 	
C	  9.582732262727 	 10.769560295515 	  3.037863036135 	
C	  9.014188132727 	 10.769563105515 	 13.168419756135 	
C	 24.263590662727 	  4.586007765515 	  3.065995796135 	
C	 23.695046532727 	  4.586010575515 	 13.196552516135 	
C	 24.263559562727 	 10.769569525515 	  3.065992966135 	
C	 23.695015432727 	 10.769572335515 	 13.196549686135 	
C	  4.451405007111 	  1.517953940870 	  2.276544178524 	
C	  3.882860877111 	  1.517956750870 	 12.407100898524 	
C	  4.451373907111 	  7.701515700870 	  2.276541348524 	
C	  3.882829777111 	  7.701518510870 	 12.407098068524 	
C	 19.132232307111 	  1.517963170870 	  2.304674108524 	
C	 18.563688177111 	  1.517965980870 	 12.435230828524 	
C	 19.132201207111 	  7.701524930870 	  2.304671278524 	
C	 18.563657077111 	  7.701527740870 	 12.435227998524 	
H	  3.973620068308 	  0.717998816729 	  6.738841404198 	
H	  3.405075938308 	  0.718001626729 	 16.869398124198 	
H	  3.973588968308 	  6.901560576729 	  6.738838574198 	
H	  3.405044838308 	  6.901563386729 	 16.869395294198 	
H	 18.654447368308 	  0.718008046729 	  6.766971334198 	
H	 18.085903238308 	  0.718010856729 	 16.897528054198 	
H	 18.654416268308 	  6.901569806729 	  6.766968504198 	
H	 18.085872138308 	  6.901572616729 	 16.897525224198 	
H	  9.568954157556 	  3.785332353650 	  9.027143264038 	
H	  9.000410027556 	  3.785335163650 	 19.157699984038 	
H	  9.568923057556 	  9.968894113650 	  9.027140434038 	
H	  9.000378927556 	  9.968896923650 	 19.157697154038 	
H	 24.249781457556 	  3.785341583650 	  9.055273194038 	
H	 23.681237327556 	  3.785344393650 	 19.185829914038 	
H	 24.249750357556 	  9.968903343650 	  9.055270364038 	
H	 23.681206227556 	  9.968906153650 	 19.185827084038 	
H	  9.815298634587 	  5.414037397758 	  3.800797213642 	
H	  9.246754504587 	  5.414040207758 	 13.931353933642 	
H	  9.815267534587 	 11.597599157758 	  3.800794383642 	
H	  9.246723404587 	 11.597601967758 	 13.931351103642 	
H	 24.496125934587 	  5.414046627758 	  3.828927143642 	
H	 23.927581804587 	  5.414049437758 	 13.959483863642 	
H	 24.496094834587 	 11.597608387758 	  3.828924313642 	
H	 23.927550704587 	 11.597611197758 	 13.959481033642 	
H	  4.219964534687 	  2.346703977504 	  1.512496067347 	
H	  3.651420404687 	  2.346706787504 	 11.643052787347 	
H	  4.219933434687 	  8.530265737504 	  1.512493237347 	
H	  3.651389304687 	  8.530268547504 	 11.643049957347 	
H	 18.900791834687 	  2.346713207504 	  1.540625997347 	
H	 18.332247704687 	  2.346716017504 	 11.671182717347 	
H	 18.900760734687 	  8.530274967504 	  1.540623167347 	
H	 18.332216604687 	  8.530277777504 	 11.671179887347 	
C	  5.234830044661 	  1.432551645442 	  8.233557251596 	
C	  4.666285914661 	  1.432554455442 	 18.364113971596 	
C	  5.234798944661 	  7.616113405442 	  8.233554421596 	
C	  4.666254814661 	  7.616116215442 	 18.364111141596 	
C	 19.915657344661 	  1.432560875442 	  8.261687181596 	
C	 19.347113214661 	  1.432563685442 	 18.392243901596 	
C	 19.915626244661 	  7.616122635442 	  8.261684351596 	
C	 19.347082114661 	  7.616125445442 	 18.392241071596 	
C	  8.308090457171 	  4.500194565281 	  7.530860269226 	
C	  7.739546327171 	  4.500197375281 	 17.661416989226 	
C	  8.308059357171 	 10.683756325281 	  7.530857439226 	
C	  7.739515227171 	 10.683759135281 	 17.661414159226 	
C	 22.988917757171 	  4.500203795281 	  7.558990199226 	
C	 22.420373627171 	  4.500206605281 	 17.689546919226 	
C	 22.988886657171 	 10.683765555281 	  7.558987369226 	
C	 22.420342527171 	 10.683768365281 	 17.689544089226 	
C	  8.554088619720 	  4.699484386834 	  2.306081411999 	
C	  7.985544489720 	  4.699487196834 	 12.436638131999 	
C	  8.554057519720 	 10.883046146834 	  2.306078581999 	
C	  7.985513389720 	 10.883048956834 	 12.436635301999 	
C	 23.234915919720 	  4.699493616834 	  2.334211341999 	
C	 22.666371789720 	  4.699496426834 	 12.464768061999 	
C	 23.234884819720 	 10.883055376834 	  2.334208511999 	
C	 22.666340689720 	 10.883058186834 	 12.464765231999 	
C	  5.480828742457 	  1.631841694904 	  3.008778679023 	
C	  4.912284612457 	  1.631844504904 	 13.139335399023 	
C	  5.480797642457 	  7.815403454904 	  3.008775849023 	
C	  4.912253512457 	  7.815406264904 	 13.139332569023 	
C	 20.161656042457 	  1.631850924904 	  3.036908609023 	
C	 19.593111912457 	  1.631853734904 	 13.167465329023 	
C	 20.161624942457 	  7.815412684904 	  3.036905779023 	
C	 19.593080812457 	  7.815415494904 	 13.167462499023 	
H	  5.924269093894 	  0.515502493074 	  8.144331893201 	
H	  5.355724963894 	  0.515505303074 	 18.274888613201 	
H	  5.924237993894 	  6.699064253074 	  8.144329063201 	
H	  5.355693863894 	  6.699067063074 	 18.274885783201 	
H	 20.605096393894 	  0.515511723074 	  8.172461823201 	
H	 20.036552263894 	  0.515514533074 	 18.303018543201 	
H	 20.605065293894 	  6.699073483074 	  8.172458993201 	
H	 20.036521163894 	  6.699076293074 	 18.303015713201 	
H	  7.618358301658 	  3.581963328655 	  7.621229256573 	
H	  7.049814171658 	  3.581966138655 	 17.751785976573 	
H	  7.618327201658 	  9.765525088655 	  7.621226426573 	
H	  7.049783071658 	  9.765527898655 	 17.751783146573 	
H	 22.299185601658 	  3.581972558655 	  7.649359186573 	
H	 21.730641471658 	  3.581975368655 	 17.779915906573 	
H	 22.299154501658 	  9.765534318655 	  7.649356356573 	
H	 21.730610371658 	  9.765537128655 	 17.779913076573 	
H	  7.864649533171 	  5.616533518679 	  2.395306627511 	
H	  7.296105403171 	  5.616536328679 	 12.525863347511 	
H	  7.864618433171 	 11.800095278679 	  2.395303797511 	
H	  7.296074303171 	 11.800098088679 	 12.525860517511 	
H	 22.545476833171 	  5.616542748679 	  2.423436557511 	
H	 21.976932703171 	  5.616545558679 	 12.553993277511 	
H	 22.545445733171 	 11.800104508679 	  2.423433727511 	
H	 21.976901603171 	 11.800107318679 	 12.553990447511 	
H	  6.170560864869 	  2.550072931331 	  2.918409553076 	
H	  5.602016734869 	  2.550075741331 	 13.048966273076 	
H	  6.170529764869 	  8.733634691331 	  2.918406723076 	
H	  5.601985634869 	  8.733637501331 	 13.048963443076 	
H	 20.851388164869 	  2.550082161331 	  2.946539483076 	
H	 20.282844034869 	  2.550084971331 	 13.077096203076 	
H	 20.851357064869 	  8.733643921331 	  2.946536653076 	
H	 20.282812934869 	  8.733646731331 	 13.077093373076 	
C	  2.022265834552 	  2.705907752355 	  6.648626187227 	
C	  1.453721704552 	  2.705910562355 	 16.779182907227 	
C	  2.022234734552 	  8.889469512355 	  6.648623357227 	
C	  1.453690604552 	  8.889472322355 	 16.779180077227 	
C	 16.703093134552 	  2.705916982355 	  6.676756117227 	
C	 16.134549004552 	  2.705919792355 	 16.807312837227 	
C	 16.703062034552 	  8.889478742355 	  6.676753287227 	
C	 16.134517904552 	  8.889481552355 	 16.807310007227 	
C	 11.430072592020 	  5.709857356887 	  9.071676894887 	
C	 10.861528462020 	  5.709860166887 	 19.202233614887 	
C	 11.430041492020 	 11.893419116887 	  9.071674064887 	
C	 10.861497362020 	 11.893421926887 	 19.202230784887 	
C	 26.110899892020 	  5.709866586887 	  9.099806824887 	
C	 25.542355762020 	  5.709869396887 	 19.230363544887 	
C	 26.110868792020 	 11.893428346887 	  9.099803994887 	
C	 25.542324662020 	 11.893431156887 	 19.230360714887 	
C	 11.766654013430 	  3.426128860226 	  3.891014285916 	
C	 11.198109883430 	  3.426131670226 	 14.021571005916 	
C	 11.766622913430 	  9.609690620226 	  3.891011455916 	
C	 11.198078783430 	  9.609693430226 	 14.021568175916 	
C	 26.447481313430 	  3.426138090226 	  3.919144215916 	
C	 25.878937183430 	  3.426140900226 	 14.049700935916 	
C	 26.447450213430 	  9.609699850226 	  3.919141385916 	
C	 25.878906083430 	  9.609702660226 	 14.049698105916 	
C	  2.358846097196 	  0.422178826658 	  1.467962796892 	
C	  1.790301967196 	  0.422181636658 	 11.598519516892 	
C	  2.358814997196 	  6.605740586658 	  1.467959966892 	
C	  1.790270867196 	  6.605743396658 	 11.598516686892 	
C	 17.039673397196 	  0.422188056658 	  1.496092726892 	
C	 16.471129267196 	  0.422190866658 	 11.626649446892 	
C	 17.039642297196 	  6.605749816658 	  1.496089896892 	
C	 16.471098167196 	  6.605752626658 	 11.626646616892 	
C	  2.124863566076 	  2.684027531928 	  5.548055601156 	
C	  1.556319436076 	  2.684030341928 	 15.678612321156 	
C	  2.124832466076 	  8.867589291928 	  5.548052771156 	
C	  1.556288336076 	  8.867592101928 	 15.678609491156 	
C	 16.805690866076 	  2.684036761928 	  5.576185531156 	
C	 16.237146736076 	  2.684039571928 	 15.706742251156 	
C	 16.805659766076 	  8.867598521928 	  5.576182701156 	
C	 16.237115636076 	  8.867601331928 	 15.706739421156 	
C	 11.429858796340 	 -0.400663422510 	 10.116358212605 	
C	 10.861314666340 	 -0.400660612510 	 20.246914932605 	
C	 11.429827696340 	  5.782898337490 	 10.116355382605 	
C	 10.861283566340 	  5.782901147490 	 20.246912102605 	
C	 26.110686096340 	 -0.400654192510 	 10.144488142605 	
C	 25.542141966340 	 -0.400651382510 	 20.275044862605 	
C	 26.110654996340 	  5.782907567490 	 10.144485312605 	
C	 25.542110866340 	  5.782910377490 	 20.275042032605 	
C	 11.664053221709 	  3.448008602792 	  4.991584875084 	
C	 11.095509091709 	  3.448011412792 	 15.122141595084 	
C	 11.664022121709 	  9.631570362792 	  4.991582045084 	
C	 11.095477991709 	  9.631573172792 	 15.122138765084 	
C	 26.344880521709 	  3.448017832792 	  5.019714805084 	
C	 25.776336391709 	  3.448020642792 	 15.150271525084 	
C	 26.344849421709 	  9.631579592792 	  5.019711975084 	
C	 25.776305291709 	  9.631582402792 	 15.150268695084 	
C	  2.359059906514 	  6.532699426404 	  0.423281379854 	
C	  1.790515776514 	  6.532702236404 	 10.553838099854 	
C	  2.359028806514 	 12.716261186404 	  0.423278549854 	
C	  1.790484676514 	 12.716263996404 	 10.553835269854 	
C	 17.039887206514 	  6.532708656404 	  0.451411309854 	
C	 16.471343076514 	  6.532711466404 	 10.581968029854 	
C	 17.039856106514 	 12.716270416404 	  0.451408479854 	
C	 16.471311976514 	 12.716273226404 	 10.581965199854 	
H	  2.961168080737 	  3.241131676805 	  5.076095375573 	
H	  2.392623950737 	  3.241134486805 	 15.206652095573 	
H	  2.961136980737 	  9.424693436805 	  5.076092545573 	
H	  2.392592850737 	  9.424696246805 	 15.206649265573 	
H	 17.641995380737 	  3.241140906805 	  5.104225305573 	
H	 17.073451250737 	  3.241143716805 	 15.234782025573 	
H	 17.641964280737 	  9.424702666805 	  5.104222475573 	
H	 17.073420150737 	  9.424705476805 	 15.234779195573 	
H	 10.623550926561 	  0.209941951363 	 10.662472439013 	
H	 10.055006796561 	  0.209944761363 	 20.793029159013 	
H	 10.623519826561 	  6.393503711363 	 10.662469609013 	
H	 10.054975696561 	  6.393506521363 	 20.793026329013 	
H	 25.304378226561 	  0.209951181363 	 10.690602369013 	
H	 24.735834096561 	  0.209953991363 	 20.821159089013 	
H	 25.304347126561 	  6.393512941363 	 10.690599539013 	
H	 24.735802996561 	  6.393515751363 	 20.821156259013 	
H	 10.827749864395 	  2.890900371202 	  5.463542636655 	
H	 10.259205734395 	  2.890903181202 	 15.594099356655 	
H	 10.827718764395 	  9.074462131202 	  5.463539806655 	
H	 10.259174634395 	  9.074464941202 	 15.594096526655 	
H	 25.508577164395 	  2.890909601202 	  5.491672566655 	
H	 24.940033034395 	  2.890912411202 	 15.622229286655 	
H	 25.508546064395 	  9.074471361202 	  5.491669736655 	
H	 24.940001934395 	  9.074474171202 	 15.622226456655 	
H	  3.165367535178 	  5.922094764077 	 -0.122833255961 	
H	  2.596823405178 	  5.922097574077 	 10.007723464039 	
H	  3.165336435178 	 12.105656524077 	 -0.122836085961 	
H	  2.596792305178 	 12.105659334077 	 10.007720634039 	
H	 17.846194835178 	  5.922103994077 	 -0.094703325961 	
H	 17.277650705178 	  5.922106804077 	 10.035853394039 	
H	 17.846163735178 	 12.105665754077 	 -0.094706155961 	
H	 17.277619605178 	 12.105668564077 	 10.035850564039 	
H	  1.418035157770 	  2.784245206992 	  4.695064202410 	
H	  0.849491027770 	  2.784248016992 	 14.825620922410 	
H	  1.418004057770 	  8.967806966992 	  4.695061372410 	
H	  0.849459927770 	  8.967809776992 	 14.825618092410 	
H	 16.098862457770 	  2.784254436992 	  4.723194132410 	
H	 15.530318327770 	  2.784257246992 	 14.853750852410 	
H	 16.098831357770 	  8.967816196992 	  4.723191302410 	
H	 15.530287227770 	  8.967819006992 	 14.853748022410 	
H	 12.661760386372 	 -0.270079344830 	  0.687998772510 	
H	 12.093216256372 	 -0.270076534830 	 10.818555492510 	
H	 12.661729286372 	  5.913482415170 	  0.687995942510 	
H	 12.093185156372 	  5.913485225170 	 10.818552662510 	
H	 27.342587686372 	 -0.270070114830 	  0.716128702510 	
H	 26.774043556372 	 -0.270067304830 	 10.846685422510 	
H	 27.342556586372 	  5.913491645170 	  0.716125872510 	
H	 26.774012456372 	  5.913494455170 	 10.846682592510 	
H	 12.370882861078 	  3.347791018807 	  5.844575536642 	
H	 11.802338731078 	  3.347793828807 	 15.975132256642 	
H	 12.370851761078 	  9.531352778807 	  5.844572706642 	
H	 11.802307631078 	  9.531355588807 	 15.975129426642 	
H	 27.051710161078 	  3.347800248807 	  5.872705466642 	
H	 26.483166031078 	  3.347803058807 	 16.003262186642 	
H	 27.051679061078 	  9.531362008807 	  5.872702636642 	
H	 26.483134931078 	  9.531364818807 	 16.003259356642 	
H	  1.127157823320 	  6.402115861523 	  9.851641022144 	
H	  0.558613693320 	  6.402118671523 	 19.982197742144 	
H	  1.127126723320 	 12.585677621523 	  9.851638192144 	
H	  0.558582593320 	 12.585680431523 	 19.982194912144 	
H	 15.807985123320 	  6.402125091523 	  9.879770952144 	
H	 15.239440993320 	  6.402127901523 	 20.010327672144 	
H	 15.807954023320 	 12.585686851523 	  9.879768122144 	
H	 15.239409893320 	 12.585689661523 	 20.010324842144 	
H	  2.740013130966 	  1.897871643396 	  5.063522634281 	
H	  2.171469000966 	  1.897874453396 	 15.194079354281 	
H	  2.739982030966 	  8.081433403396 	  5.063519804281 	
H	  2.171437900966 	  8.081436213396 	 15.194076524281 	
H	 17.420840430966 	  1.897880873396 	  5.091652564281 	
H	 16.852296300966 	  1.897883683396 	 15.222209284281 	
H	 17.420809330966 	  8.081442633396 	  5.091649734281 	
H	 16.852265200966 	  8.081445443396 	 15.222206454281 	
H	 11.202730137213 	  4.906257353882 	  0.356159741792 	
H	 10.634186007213 	  4.906260163882 	 10.486716461792 	
H	 11.202699037213 	 11.089819113882 	  0.356156911792 	
H	 10.634154907213 	 11.089821923882 	 10.486713631792 	
H	 25.883557437213 	  4.906266583882 	  0.384289671792 	
H	 25.315013307213 	  4.906269393882 	 10.514846391792 	
H	 25.883526337213 	 11.089828343882 	  0.384286841792 	
H	 25.314982207213 	 11.089831153882 	 10.514843561792 	
H	 11.048904080564 	  4.234166144294 	  5.476116091571 	
H	 10.480359950564 	  4.234168954294 	 15.606672811571 	
H	 11.048872980564 	 10.417727904294 	  5.476113261571 	
H	 10.480328850564 	 10.417730714294 	 15.606669981571 	
H	 25.729731380564 	  4.234175374294 	  5.504246021571 	
H	 25.161187250564 	  4.234178184294 	 15.634802741571 	
H	 25.729700280564 	 10.417737134294 	  5.504243191571 	
H	 25.161156150564 	 10.417739944294 	 15.634799911571 	
H	  2.586188112778 	  1.225779355013 	 10.183480373102 	
H	  2.017643982778 	  1.225782165013 	 20.314037093102 	
H	  2.586157012778 	  7.409341115013 	 10.183477543102 	
H	  2.017612882778 	  7.409343925013 	 20.314034263102 	
H	 17.267015412778 	  1.225788585013 	 10.211610303102 	
H	 16.698471282778 	  1.225791395013 	 20.342167023102 	
H	 17.266984312778 	  7.409350345013 	 10.211607473102 	
H	 16.698440182778 	  7.409353155013 	 20.342164193102 	
C	  1.407868374678 	  3.624333115222 	  6.757414254236 	
C	  0.839324244678 	  3.624335925222 	 16.887970974236 	
C	  1.407837274678 	  9.807894875222 	  6.757411424236 	
C	  0.839293144678 	  9.807897685222 	 16.887968144236 	
C	 16.088695674678 	  3.624342345222 	  6.785544184236 	
C	 15.520151544678 	  3.624345155222 	 16.916100904236 	
C	 16.088664574678 	  9.807904105222 	  6.785541354236 	
C	 15.520120444678 	  9.807906915222 	 16.916098074236 	
C	 12.244389659025 	  0.654087168657 	  8.980648105661 	
C	 11.675845529025 	  0.654089978657 	 19.111204825661 	
C	 12.244358559025 	  6.837648928657 	  8.980645275661 	
C	 11.675814429025 	  6.837651738657 	 19.111201995661 	
C	 26.925216959025 	  0.654096398657 	  9.008778035661 	
C	 26.356672829025 	  0.654099208657 	 19.139334755661 	
C	 26.925185859025 	  6.837658158657 	  9.008775205661 	
C	 26.356641729025 	  6.837660968657 	 19.139331925661 	
C	 12.381050548639 	  2.507702846403 	  3.782223776006 	
C	 11.812506418639 	  2.507705656403 	 13.912780496006 	
C	 12.381019448639 	  8.691264606403 	  3.782220946006 	
C	 11.812475318639 	  8.691267416403 	 13.912777666006 	
C	 27.061877848639 	  2.507712076403 	  3.810353706006 	
C	 26.493333718639 	  2.507714886403 	 13.940910426006 	
C	 27.061846748639 	  8.691273836403 	  3.810350876006 	
C	 26.493302618639 	  8.691276646403 	 13.940907596006 	
C	  1.544529056454 	  5.477948917095 	  1.558991512086 	
C	  0.975984926454 	  5.477951727095 	 11.689548232086 	
C	  1.544497956454 	 11.661510677095 	  1.558988682086 	
C	  0.975953826454 	 11.661513487095 	 11.689545402086 	
C	 16.225356356454 	  5.477958147095 	  1.587121442086 	
C	 15.656812226454 	  5.477960957095 	 11.717678162086 	
C	 16.225325256454 	 11.661519907095 	  1.587118612086 	
C	 15.656781126454 	 11.661522717095 	 11.717675332086 	
H	  1.920200510264 	  4.615035381345 	  6.721934594617 	
H	  1.351656380264 	  4.615038191345 	 16.852491314617 	
H	  1.920169410264 	 10.798597141345 	  6.721931764617 	
H	  1.351625280264 	 10.798599951345 	 16.852488484617 	
H	 16.601027810264 	  4.615044611345 	  6.750064524617 	
H	 16.032483680264 	  4.615047421345 	 16.880621244617 	
H	 16.600996710264 	 10.798606371345 	  6.750061694617 	
H	 16.032452580264 	 10.798609181345 	 16.880618414617 	
H	 11.611707410807 	  1.565520347165 	  9.040172661307 	
H	 11.043163280807 	  1.565523157165 	 19.170729381307 	
H	 11.611676310807 	  7.749082107165 	  9.040169831307 	
H	 11.043132180807 	  7.749084917165 	 19.170726551307 	
H	 26.292534710807 	  1.565529577165 	  9.068302591307 	
H	 25.723990580807 	  1.565532387165 	 19.198859311307 	
H	 26.292503610807 	  7.749091337165 	  9.068299761307 	
H	 25.723959480807 	  7.749094147165 	 19.198856481307 	
H	 11.868718615598 	  1.517000231033 	  3.817703706476 	
H	 11.300174485598 	  1.517003041033 	 13.948260426476 	
H	 11.868687515598 	  7.700561991033 	  3.817700876476 	
H	 11.300143385598 	  7.700564801033 	 13.948257596476 	
H	 26.549545915598 	  1.517009461033 	  3.845833636476 	
H	 25.981001785598 	  1.517012271033 	 13.976390356476 	
H	 26.549514815598 	  7.700571221033 	  3.845830806476 	
H	 25.980970685598 	  7.700574031033 	 13.976387526476 	
H	  2.177211358013 	  4.566515806139 	  1.499466477010 	
H	  1.608667228013 	  4.566518616139 	 11.630023197010 	
H	  2.177180258013 	 10.750077566139 	  1.499463647010 	
H	  1.608636128013 	 10.750080376139 	 11.630020367010 	
H	 16.858038658013 	  4.566525036139 	  1.527596407010 	
H	 16.289494528013 	  4.566527846139 	 11.658153127010 	
H	 16.858007558013 	 10.750086796139 	  1.527593577010 	
H	 16.289463428013 	 10.750089606139 	 11.658150297010 	
H	  1.123266147903 	  3.927021233605 	  7.794736502169 	
H	  0.554722017903 	  3.927024043605 	 17.925293222169 	
H	  1.123235047903 	 10.110582993605 	  7.794733672169 	
H	  0.554690917903 	 10.110585803605 	 17.925290392169 	
H	 15.804093447903 	  3.927030463605 	  7.822866432169 	
H	 15.235549317903 	  3.927033273605 	 17.953423152169 	
H	 15.804062347903 	 10.110592223605 	  7.822863602169 	
H	 15.235518217903 	 10.110595033605 	 17.953420322169 	
H	 12.410815848812 	  6.956190004833 	  7.986366359952 	
H	 11.842271718812 	  6.956192814833 	 18.116923079952 	
H	 12.410784748812 	 13.139751764833 	  7.986363529952 	
H	 11.842240618812 	 13.139754574833 	 18.116920249952 	
H	 27.091643148812 	  6.956199234833 	  8.014496289952 	
H	 26.523099018812 	  6.956202044833 	 18.145053009952 	
H	 27.091612048812 	 13.139760994833 	  8.014493459952 	
H	 26.523067918812 	 13.139763804833 	 18.145050179952 	
H	 12.665654179196 	  2.205016171108 	  2.744901264210 	
H	 12.097110049196 	  2.205018981108 	 12.875457984210 	
H	 12.665623079196 	  8.388577931108 	  2.744898434210 	
H	 12.097078949196 	  8.388580741108 	 12.875455154210 	
H	 27.346481479196 	  2.205025401108 	  2.773031194210 	
H	 26.777937349196 	  2.205028211108 	 12.903587914210 	
H	 27.346450379196 	  8.388587161108 	  2.773028364210 	
H	 26.777906249196 	  8.388589971108 	 12.903585084210 	
H	  1.378103190667 	 -0.824154030532 	  2.553273335017 	
H	  0.809559060667 	 -0.824151220532 	 12.683830055017 	
H	  1.378072090667 	  5.359407729468 	  2.553270505017 	
H	  0.809527960667 	  5.359410539468 	 12.683827225017 	
H	 16.058930490667 	 -0.824144800532 	  2.581403265017 	
H	 15.490386360667 	 -0.824141990532 	 12.711959985017 	
H	 16.058899390667 	  5.359416959468 	  2.581400435017 	
H	 15.490355260667 	  5.359419769468 	 12.711957155017 	
H	  0.474816847170 	  3.832605688534 	  6.183324625355 	
H	 -0.093727282830 	  3.832608498534 	 16.313881345355 	
H	  0.474785747170 	 10.016167448534 	  6.183321795355 	
H	 -0.093758382830 	 10.016170258534 	 16.313878515355 	
H	 15.155644147170 	  3.832614918534 	  6.211454555355 	
H	 14.587100017170 	  3.832617728534 	 16.342011275355 	
H	 15.155613047170 	 10.016176678534 	  6.211451725355 	
H	 14.587068917170 	 10.016179488534 	 16.342008445355 	
H	 13.063782610078 	  6.891628779470 	  9.578094262418 	
H	 12.495238480078 	  6.891631589470 	 19.708650982418 	
H	 13.063751510078 	 13.075190539470 	  9.578091432418 	
H	 12.495207380078 	 13.075193349470 	 19.708648152418 	
H	 27.744609910078 	  6.891638009470 	  9.606224192418 	
H	 27.176065780078 	  6.891640819470 	 19.736780912418 	
H	 27.744578810078 	 13.075199769470 	  9.606221362418 	
H	 27.176034680078 	 13.075202579470 	 19.736778082418 	
H	 13.314102136197 	  2.299430574865 	  4.356313884253 	
H	 12.745558006197 	  2.299433384865 	 14.486870604253 	
H	 13.314071036197 	  8.482992334865 	  4.356311054253 	
H	 12.745526906197 	  8.482995144865 	 14.486867774253 	
H	 27.994929436197 	  2.299439804865 	  4.384443814253 	
H	 27.426385306197 	  2.299442614865 	 14.515000534253 	
H	 27.994898336197 	  8.483001564865 	  4.384440984253 	
H	 27.426354206197 	  8.483004374865 	 14.514997704253 	
H	  0.725135920717 	 -0.759592745816 	  0.961545633199 	
H	  0.156591790717 	 -0.759589935816 	 11.092102353199 	
H	  0.725104820717 	  5.423969014184 	  0.961542803199 	
H	  0.156560690717 	  5.423971824184 	 11.092099523199 	
H	 15.405963220717 	 -0.759583515816 	  0.989675563199 	
H	 14.837419090717 	 -0.759580705816 	 11.120232283199 	
H	 15.405932120717 	  5.423978244184 	  0.989672733199 	
H	 14.837387990717 	  5.423981054184 	 11.120229453199 	
C	  1.262065630853 	  1.910770003054 	  6.770470768533 	
C	  0.693521500853 	  1.910772813054 	 16.901027488533 	
C	  1.262034530853 	  8.094331763054 	  6.770467938533 	
C	  0.693490400853 	  8.094334573054 	 16.901024658533 	
C	 15.942892930853 	  1.910779233054 	  6.798600698533 	
C	 15.374348800853 	  1.910782043054 	 16.929157418533 	
C	 15.942861830853 	  8.094340993054 	  6.798597868533 	
C	 15.374317700853 	  8.094343803054 	 16.929154588533 	
C	 12.275554353961 	  4.989300266057 	  9.003401452509 	
C	 11.707010223961 	  4.989303076057 	 19.133958172509 	
C	 12.275523253961 	 11.172862026057 	  9.003398622509 	
C	 11.706979123961 	 11.172864836057 	 19.133955342509 	
C	 26.956381653961 	  4.989309496057 	  9.031531382509 	
C	 26.387837523961 	  4.989312306057 	 19.162088102509 	
C	 26.956350553961 	 11.172871256057 	  9.031528552509 	
C	 26.387806423961 	 11.172874066057 	 19.162085272509 	
C	 12.526852656669 	  4.221268147043 	  3.769167330322 	
C	 11.958308526669 	  4.221270957043 	 13.899724050322 	
C	 12.526821556669 	 10.404829907043 	  3.769164500322 	
C	 11.958277426669 	 10.404832717043 	 13.899721220322 	
C	 27.207679956669 	  4.221277377043 	  3.797297260322 	
C	 26.639135826669 	  4.221280187043 	 13.927853980322 	
C	 27.207648856669 	 10.404839137043 	  3.797294430322 	
C	 26.639104726669 	 10.404841947043 	 13.927851150322 	
C	  1.513364228606 	  1.142735724203 	  1.536238534989 	
C	  0.944820098606 	  1.142738534203 	 11.666795254989 	
C	  1.513333128606 	  7.326297484203 	  1.536235704989 	
C	  0.944788998606 	  7.326300294203 	 11.666792424989 	
C	 16.194191528606 	  1.142744954203 	  1.564368464989 	
C	 15.625647398606 	  1.142747764203 	 11.694925184989 	
C	 16.194160428606 	  7.326306714203 	  1.564365634989 	
C	 15.625616298606 	  7.326309524203 	 11.694922354989 	
H	  0.257037962368 	  1.769291915958 	  6.315810134156 	
H	 -0.311506167632 	  1.769294725958 	 16.446366854156 	
H	  0.257006862368 	  7.952853675958 	  6.315807304156 	
H	 -0.311537267632 	  7.952856485958 	 16.446364024156 	
H	 14.937865262368 	  1.769301145958 	  6.343940064156 	
H	 14.369321132368 	  1.769303955958 	 16.474496784156 	
H	 14.937834162368 	  7.952862905958 	  6.343937234156 	
H	 14.369290032368 	  7.952865715958 	 16.474493954156 	
H	 13.284041239145 	  4.836657413973 	  9.451907882145 	
H	 12.715497109145 	  4.836660223973 	 19.582464602145 	
H	 13.284010139145 	 11.020219173973 	  9.451905052145 	
H	 12.715466009145 	 11.020221983973 	 19.582461772145 	
H	 27.964868539145 	  4.836666643973 	  9.480037812145 	
H	 27.396324409145 	  4.836669453973 	 19.610594532145 	
H	 27.964837439145 	 11.020228403973 	  9.480034982145 	
H	 27.396293309145 	 11.020231213973 	 19.610591702145 	
H	 13.531880282215 	  4.362745736907 	  4.223828907875 	
H	 12.963336152215 	  4.362748546907 	 14.354385627875 	
H	 13.531849182215 	 10.546307496907 	  4.223826077875 	
H	 12.963305052215 	 10.546310306907 	 14.354382797875 	
H	 28.212707582215 	  4.362754966907 	  4.251958837875 	
H	 27.644163452215 	  4.362757776907 	 14.382515557875 	
H	 28.212676482215 	 10.546316726907 	  4.251956007875 	
H	 27.644132352215 	 10.546319536907 	 14.382512727875 	
H	  0.504877264400 	  1.295378519462 	  1.087732306687 	
H	 -0.063666865600 	  1.295381329462 	 11.218289026687 	
H	  0.504846164400 	  7.478940279462 	  1.087729476687 	
H	 -0.063697965600 	  7.478943089462 	 11.218286196687 	
H	 15.185704564400 	  1.295387749462 	  1.115862236687 	
H	 14.617160434400 	  1.295390559462 	 11.246418956687 	
H	 15.185673464400 	  7.478949509462 	  1.115859406687 	
H	 14.617129334400 	  7.478952319462 	 11.246416126687 	
H	  1.029694136472 	  1.632870944849 	  7.824525437600 	
H	  0.461150006472 	  1.632873754849 	 17.955082157600 	
H	  1.029663036472 	  7.816432704849 	  7.824522607600 	
H	  0.461118906472 	  7.816435514849 	 17.955079327600 	
H	 15.710521436472 	  1.632880174849 	  7.852655367600 	
H	 15.141977306472 	  1.632882984849 	 17.983212087600 	
H	 15.710490336472 	  7.816441934849 	  7.852652537600 	
H	 15.141946206472 	  7.816444744849 	 17.983209257600 	
H	 12.511519943348 	  4.701170016424 	  7.945533788318 	
H	 11.942975813348 	  4.701172826424 	 18.076090508318 	
H	 12.511488843348 	 10.884731776424 	  7.945530958318 	
H	 11.942944713348 	 10.884734586424 	 18.076087678318 	
H	 27.192347243348 	  4.701179246424 	  7.973663718318 	
H	 26.623803113348 	  4.701182056424 	 18.104220438318 	
H	 27.192316143348 	 10.884741006424 	  7.973660888318 	
H	 26.623772013348 	 10.884743816424 	 18.104217608318 	
H	 12.759224473833 	  4.499166475411 	  2.715112367445 	
H	 12.190680343833 	  4.499169285411 	 12.845669087445 	
H	 12.759193373833 	 10.682728235411 	  2.715109537445 	
H	 12.190649243833 	 10.682731045411 	 12.845666257445 	
H	 27.440051773833 	  4.499175705411 	  2.743242297445 	
H	 26.871507643833 	  4.499178515411 	 12.873799017445 	
H	 27.440020673833 	 10.682737465411 	  2.743239467445 	
H	 26.871476543833 	 10.682740275411 	 12.873796187445 	
H	  1.277398734953 	  1.430865844693 	  2.594106214844 	
H	  0.708854604953 	  1.430868654693 	 12.724662934844 	
H	  1.277367634953 	  7.614427604693 	  2.594103384844 	
H	  0.708823504953 	  7.614430414693 	 12.724660104844 	
H	 15.958226034953 	  1.430875074693 	  2.622236144844 	
H	 15.389681904953 	  1.430877884693 	 12.752792864844 	
H	 15.958194934953 	  7.614436834693 	  2.622233314844 	
H	 15.389650804953 	  7.614439644693 	 12.752790034844 	
H	  1.578261709953 	  0.845786581289 	  6.751995483091 	
H	  1.009717579953 	  0.845789391289 	 16.882552203091 	
H	  1.578230609953 	  7.029348341289 	  6.751992653091 	
H	  1.009686479953 	  7.029351151289 	 16.882549373091 	
H	 16.259089009953 	  0.845795811289 	  6.780125413091 	
H	 15.690544879953 	  0.845798621289 	 16.910682133091 	
H	 16.259057909953 	  7.029357571289 	  6.780122583091 	
H	 15.690513779953 	  7.029360381289 	 16.910679303091 	
H	 11.963730497354 	  3.918308890995 	  9.015045954408 	
H	 11.395186367354 	  3.918311700995 	 19.145602674408 	
H	 11.963699397354 	 10.101870650995 	  9.015043124408 	
H	 11.395155267354 	 10.101873460995 	 19.145599844408 	
H	 26.644557797354 	  3.918318120995 	  9.043175884408 	
H	 26.076013667354 	  3.918320930995 	 19.173732604408 	
H	 26.644526697354 	 10.101879880995 	  9.043173054408 	
H	 26.075982567354 	 10.101882690995 	 19.173729774408 	
H	 12.210654790113 	  5.286251195545 	  3.787646129805 	
H	 11.642110660113 	  5.286254005545 	 13.918202849805 	
H	 12.210623690113 	 11.469812955545 	  3.787643299805 	
H	 11.642079560113 	 11.469815765545 	 13.918200019805 	
H	 26.891482090113 	  5.286260425545 	  3.815776059805 	
H	 26.322937960113 	  5.286263235545 	 13.946332779805 	
H	 26.891450990113 	 11.469822185545 	  3.815773229805 	
H	 26.322906860113 	 11.469824995545 	 13.946329949805 	
H	  1.825187947216 	  2.213727147366 	  1.524594584154 	
H	  1.256643817216 	  2.213729957366 	 11.655151304154 	
H	  1.825156847216 	  8.397288907366 	  1.524591754154 	
H	  1.256612717216 	  8.397291717366 	 11.655148474154 	
H	 16.506015247216 	  2.213736377366 	  1.552724514154 	
H	 15.937471117216 	  2.213739187366 	 11.683281234154 	
H	 16.505984147216 	  8.397298137366 	  1.552721684154 	
H	 15.937440017216 	  8.397300947366 	 11.683278404154 	
768 
Energy: -1.0016661641400000e+02 
S	  8.438111742604 	  1.466819515198 	  0.109327941760 	
S	  7.869567612604 	  1.466822325198 	 10.239884661760 	
S	  8.438080642604 	  7.650381275198 	  0.109325111760 	
S	  7.869536512604 	  7.650384085198 	 10.239881831760 	
S	 23.118939042604 	  1.466828745198 	  0.137457871760 	
S	 22.550394912604 	  1.466831555198 	 10.268014591760 	
S	 23.118907942604 	  7.650390505198 	  0.137455041760 	
S	 22.550363812604 	  7.650393315198 	 10.268011761760 	
S	  5.532591520260 	  4.527046082521 	  5.242522138348 	
S	  4.964047390260 	  4.527048892521 	 15.373078858348 	
S	  5.532560420260 	 10.710607842521 	  5.242519308348 	
S	  4.964016290260 	 10.710610652521 	 15.373076028348 	
S	 20.213418820260 	  4.527055312521 	  5.270652068348 	
S	 19.644874690260 	  4.527058122521 	 15.401208788348 	
S	 20.213387720260 	 10.710617072521 	  5.270649238348 	
S	 19.644843590260 	 10.710619882521 	 15.401205958348 	
S	  5.294616713380 	  4.656259938033 	 10.496515159907 	
S	  4.726072583380 	  4.656262748033 	 20.627071879907 	
S	  5.294585613380 	 10.839821698033 	 10.496512329907 	
S	  4.726041483380 	 10.839824508033 	 20.627069049907 	
S	 19.975444013380 	  4.656269168033 	 10.524645089907 	
S	 19.406899883380 	  4.656271978033 	 20.655201809907 	
S	 19.975412913380 	 10.839830928033 	 10.524642259907 	
S	 19.406868783380 	 10.839833738033 	 20.655198979907 	
S	  8.200138045343 	  1.596033558043 	  5.363320733709 	
S	  7.631593915343 	  1.596036368043 	 15.493877453709 	
S	  8.200106945343 	  7.779595318043 	  5.363317903709 	
S	  7.631562815343 	  7.779598128043 	 15.493874623709 	
S	 22.880965345343 	  1.596042788043 	  5.391450663709 	
S	 22.312421215343 	  1.596045598043 	 15.522007383709 	
S	 22.880934245343 	  7.779604548043 	  5.391447833709 	
S	 22.312390115343 	  7.779607358043 	 15.522004553709 	
C	  6.593556854562 	  2.549724670895 	 10.186236699893 	
C	  6.025012724562 	  2.549727480895 	 20.316793419893 	
C	  6.593525754562 	  8.733286430895 	 10.186233869893 	
C	  6.024981624562 	  8.733289240895 	 20.316790589893 	
C	 21.274384154562 	  2.549733900895 	 10.214366629893 	
C	 20.705840024562 	  2.549736710895 	 20.344923349893 	
C	 21.274353054562 	  8.733295660895 	 10.214363799893 	
C	 20.705808924562 	  8.733298470895 	 20.344920519893 	
C	  6.902200590760 	  5.567591786345 	  5.705024563510 	
C	  6.333656460760 	  5.567594596345 	 15.835581283510 	
C	  6.902169490760 	 11.751153546345 	  5.705021733510 	
C	  6.333625360760 	 11.751156356345 	 15.835578453510 	
C	 21.583027890760 	  5.567601016345 	  5.733154493510 	
C	 21.014483760760 	  5.567603826345 	 15.863711213510 	
C	 21.582996790760 	 11.751162776345 	  5.733151663510 	
C	 21.014452660760 	 11.751165586345 	 15.863708383510 	
C	  7.139171618725 	  3.573354763044 	  0.419606278100 	
C	  6.570627488725 	  3.573357573044 	 10.550162998100 	
C	  7.139140518725 	  9.756916523044 	  0.419603448100 	
C	  6.570596388725 	  9.756919333044 	 10.550160168100 	
C	 21.819998918725 	  3.573363993044 	  0.447736208100 	
C	 21.251454788725 	  3.573366803044 	 10.578292928100 	
C	 21.819967818725 	  9.756925753044 	  0.447733378100 	
C	 21.251423688725 	  9.756928563044 	 10.578290098100 	
C	  6.830528819877 	  0.555487920709 	  4.900818181261 	
C	  6.261984689877 	  0.555490730709 	 15.031374901261 	
C	  6.830497719877 	  6.739049680709 	  4.900815351261 	
C	  6.261953589877 	  6.739052490709 	 15.031372071261 	
C	 21.511356119877 	  0.555497150709 	  4.928948111261 	
C	 20.942811989877 	  0.555499960709 	 15.059504831261 	
C	 21.511325019877 	  6.739058910709 	  4.928945281261 	
C	 20.942780889877 	  6.739061720709 	 15.059502001261 	
C	  5.566220459948 	  2.387957672722 	  9.216398170037 	
C	  4.997676329948 	  2.387960482722 	 19.346954890037 	
C	  5.566189359948 	  8.571519432722 	  9.216395340037 	
C	  4.997645229948 	  8.571522242722 	 19.346952060037 	
C	 20.247047759948 	  2.387966902722 	  9.244528100037 	
C	 19.678503629948 	  2.387969712722 	 19.375084820037 	
C	 20.247016659948 	  8.571528662722 	  9.244525270037 	
C	 19.678472529948 	  8.571531472722 	 19.375081990037 	
C	  7.927163815771 	  5.443136577155 	  6.642922227261 	
C	  7.358619685771 	  5.443139387155 	 16.773478947261 	
C	  7.927132715771 	 11.626698337155 	  6.642919397261 	
C	  7.358588585771 	 11.626701147155 	 16.773476117261 	
C	 22.607991115771 	  5.443145807155 	  6.671052157261 	
C	 22.039446985771 	  5.443148617155 	 16.801608877261 	
C	 22.607960015771 	 11.626707567155 	  6.671049327261 	
C	 22.039415885771 	 11.626710377155 	 16.801606047261 	
C	  8.166507927694 	  3.735121826851 	  1.389444737138 	
C	  7.597963797694 	  3.735124636851 	 11.520001457138 	
C	  8.166476827694 	  9.918683586851 	  1.389441907138 	
C	  7.597932697694 	  9.918686396851 	 11.519998627138 	
C	 22.847335227694 	  3.735131056851 	  1.417574667138 	
C	 22.278791097694 	  3.735133866851 	 11.548131387138 	
C	 22.847304127694 	  9.918692816851 	  1.417571837138 	
C	 22.278759997694 	  9.918695626851 	 11.548128557138 	
C	  5.805565415242 	  0.679943161340 	  3.962920677390 	
C	  5.237021285242 	  0.679945971340 	 14.093477397390 	
C	  5.805534315242 	  6.863504921340 	  3.962917847390 	
C	  5.236990185242 	  6.863507731340 	 14.093474567390 	
C	 20.486392715242 	  0.679952391340 	  3.991050607390 	
C	 19.917848585242 	  0.679955201340 	 14.121607327390 	
C	 20.486361615242 	  6.863514151340 	  3.991047777390 	
C	 19.917817485242 	  6.863516961340 	 14.121604497390 	
C	  4.717905352678 	  3.468551026979 	  9.237555574260 	
C	  4.149361222678 	  3.468553836979 	 19.368112294260 	
C	  4.717874252678 	  9.652112786979 	  9.237552744260 	
C	  4.149330122678 	  9.652115596979 	 19.368109464260 	
C	 19.398732652678 	  3.468560256979 	  9.265685504260 	
C	 18.830188522678 	  3.468563066979 	 19.396242224260 	
C	 19.398701552678 	  9.652122016979 	  9.265682674260 	
C	 18.830157422678 	  9.652124826979 	 19.396239394260 	
C	  8.773620412094 	  0.411738751389 	  6.623592680545 	
C	  8.205076282094 	  0.411741561389 	 16.754149400545 	
C	  8.773589312094 	  6.595300511389 	  6.623589850545 	
C	  8.205045182094 	  6.595303321389 	 16.754146570545 	
C	 23.454447712094 	  0.411747981389 	  6.651722610545 	
C	 22.885903582094 	  0.411750791389 	 16.782279330545 	
C	 23.454416612094 	  6.595309741389 	  6.651719780545 	
C	 22.885872482094 	  6.595312551389 	 16.782276500545 	
C	  9.014823022728 	  2.654528449095 	  1.368287370436 	
C	  8.446278892728 	  2.654531259095 	 11.498844090436 	
C	  9.014791922728 	  8.838090209095 	  1.368284540436 	
C	  8.446247792728 	  8.838093019095 	 11.498841260436 	
C	 23.695650322728 	  2.654537679095 	  1.396417300436 	
C	 23.127106192728 	  2.654540489095 	 11.526974020436 	
C	 23.695619222728 	  8.838099439095 	  1.396414470436 	
C	 23.127075092728 	  8.838102249095 	 11.526971190436 	
C	  4.959108884476 	  5.711340958669 	  3.982250393556 	
C	  4.390564754476 	  5.711343768669 	 14.112807113556 	
C	  4.959077784476 	 11.894902718669 	  3.982247563556 	
C	  4.390533654476 	 11.894905528669 	 14.112804283556 	
C	 19.639936184476 	  5.711350188669 	  4.010380323556 	
C	 19.071392054476 	  5.711352998669 	 14.140937043556 	
C	 19.639905084476 	 11.894911948669 	  4.010377493556 	
C	 19.071360954476 	 11.894914758669 	 14.140934213556 	
C	  3.673693002405 	  3.579777523760 	  8.466095970759 	
C	  3.105148872405 	  3.579780333760 	 18.596652690759 	
C	  3.673661902405 	  9.763339283760 	  8.466093140759 	
C	  3.105117772405 	  9.763342093760 	 18.596649860759 	
C	 18.354520302405 	  3.579786753760 	  8.494225900759 	
C	 17.785976172405 	  3.579789563760 	 18.624782620759 	
C	 18.354489202405 	  9.763348513760 	  8.494223070759 	
C	 17.785945072405 	  9.763351323760 	 18.624779790759 	
C	  9.814442413413 	  0.528778868242 	  7.387824640882 	
C	  9.245898283413 	  0.528781678242 	 17.518381360882 	
C	  9.814411313413 	  6.712340628242 	  7.387821810882 	
C	  9.245867183413 	  6.712343438242 	 17.518378530882 	
C	 24.495269713413 	  0.528788098242 	  7.415954570882 	
C	 23.926725583413 	  0.528790908242 	 17.546511290882 	
C	 24.495238613413 	  6.712349858242 	  7.415951740882 	
C	 23.926694483413 	  6.712352668242 	 17.546508460882 	
C	 10.059035400074 	  2.543302103584 	  2.139747184682 	
C	  9.490491270074 	  2.543304913584 	 12.270303904682 	
C	 10.059004300074 	  8.726863863584 	  2.139744354682 	
C	  9.490460170074 	  8.726866673584 	 12.270301074682 	
C	 24.739862700074 	  2.543311333584 	  2.167877114682 	
C	 24.171318570074 	  2.543314143584 	 12.298433834682 	
C	 24.739831600074 	  8.726873093584 	  2.167874284682 	
C	 24.171287470074 	  8.726875903584 	 12.298431004682 	
C	  3.918286530694 	  5.594300901591 	  3.218018789807 	
C	  3.349742400694 	  5.594303711591 	 13.348575509807 	
C	  3.918255430694 	 11.777862661591 	  3.218015959807 	
C	  3.349711300694 	 11.777865471591 	 13.348572679807 	
C	 18.599113830694 	  5.594310131591 	  3.246148719807 	
C	 18.030569700694 	  5.594312941591 	 13.376705439807 	
C	 18.599082730694 	 11.777871891591 	  3.246145889807 	
C	 18.030538600694 	 11.777874701591 	 13.376702609807 	
H	  3.014806786828 	  4.522326895377 	  8.541074691517 	
H	  2.446262656828 	  4.522329705377 	 18.671631411517 	
H	  3.014775686828 	 10.705888655377 	  8.541071861517 	
H	  2.446231556828 	 10.705891465377 	 18.671628581517 	
H	 17.695634086828 	  4.522336125377 	  8.569204621517 	
H	 17.127089956828 	  4.522338935377 	 18.699761341517 	
H	 17.695602986828 	 10.705897885377 	  8.569201791517 	
H	 17.127058856828 	 10.705900695377 	 18.699758511517 	
H	 10.478710278235 	  1.459551330569 	  7.320449214614 	
H	  9.910166148235 	  1.459554140569 	 17.451005934614 	
H	 10.478679178235 	  7.643113090569 	  7.320446384614 	
H	  9.910135048235 	  7.643115900569 	 17.451003104614 	
H	 25.159537578235 	  1.459560560569 	  7.348579144614 	
H	 24.590993448235 	  1.459563370569 	 17.479135864614 	
H	 25.159506478235 	  7.643122320569 	  7.348576314614 	
H	 24.590962348235 	  7.643125130569 	 17.479133034614 	
H	 10.717921521766 	  1.600752635657 	  2.064768593922 	
H	 10.149377391766 	  1.600755445657 	 12.195325313922 	
H	 10.717890421766 	  7.784314395657 	  2.064765763922 	
H	 10.149346291766 	  7.784317205657 	 12.195322483922 	
H	 25.398748821766 	  1.600761865657 	  2.092898523922 	
H	 24.830204691766 	  1.600764675657 	 12.223455243922 	
H	 25.398717721766 	  7.784323625657 	  2.092895693922 	
H	 24.830173591766 	  7.784326435657 	 12.223452413922 	
H	  3.254018790034 	  4.663528368748 	  3.285394373095 	
H	  2.685474660034 	  4.663531178748 	 13.415951093095 	
H	  3.253987690034 	 10.847090128748 	  3.285391543095 	
H	  2.685443560034 	 10.847092938748 	 13.415948263095 	
H	 17.934846090034 	  4.663537598748 	  3.313524303095 	
H	 17.366301960034 	  4.663540408748 	 13.444081023095 	
H	 17.934814990034 	 10.847099358748 	  3.313521473095 	
H	 17.366270860034 	 10.847102168748 	 13.444078193095 	
C	  3.346569647208 	  2.642201561868 	  7.590463691619 	
C	  2.778025517208 	  2.642204371868 	 17.721020411619 	
C	  3.346538547208 	  8.825763321868 	  7.590460861619 	
C	  2.777994417208 	  8.825766131868 	 17.721017581619 	
C	 18.027396947208 	  2.642210791868 	  7.618593621619 	
C	 17.458852817208 	  2.642213601868 	 17.749150341619 	
C	 18.027365847208 	  8.825772551868 	  7.618590791619 	
C	 17.458821717208 	  8.825775361868 	 17.749147511619 	
C	 10.151888093195 	  5.691502331299 	  8.276633002751 	
C	  9.583343963195 	  5.691505141299 	 18.407189722751 	
C	 10.151856993195 	 11.875064091299 	  8.276630172751 	
C	  9.583312863195 	 11.875066901299 	 18.407186892751 	
C	 24.832715393195 	  5.691511561299 	  8.304762932751 	
C	 24.264171263195 	  5.691514371299 	 18.435319652751 	
C	 24.832684293195 	 11.875073321299 	  8.304760102751 	
C	 24.264140163195 	 11.875076131299 	 18.435316822751 	
C	 10.386158572207 	  3.480878127674 	  3.015379194183 	
C	  9.817614442207 	  3.480880937674 	 13.145935914183 	
C	 10.386127472207 	  9.664439887674 	  3.015376364183 	
C	  9.817583342207 	  9.664442697674 	 13.145933084183 	
C	 25.066985872207 	  3.480887357674 	  3.043509124183 	
C	 24.498441742207 	  3.480890167674 	 13.174065844183 	
C	 25.066954772207 	  9.664449117674 	  3.043506294183 	
C	 24.498410642207 	  9.664451927674 	 13.174063014183 	
C	  3.580840569055 	  0.431577514828 	  2.329210600625 	
C	  3.012296439055 	  0.431580324828 	 12.459767320625 	
C	  3.580809469055 	  6.615139274828 	  2.329207770625 	
C	  3.012265339055 	  6.615142084828 	 12.459764490625 	
C	 18.261667869055 	  0.431586744828 	  2.357340530625 	
C	 17.693123739055 	  0.431589554828 	 12.487897250625 	
C	 18.261636769055 	  6.615148504828 	  2.357337700625 	
C	 17.693092639055 	  6.615151314828 	 12.487894420625 	
C	  4.193538380445 	  1.573799651780 	  7.537903925134 	
C	  3.624994250445 	  1.573802461780 	 17.668460645134 	
C	  4.193507280445 	  7.757361411780 	  7.537901095134 	
C	  3.624963150445 	  7.757364221780 	 17.668457815134 	
C	 18.874365680445 	  1.573808881780 	  7.566033855134 	
C	 18.305821550445 	  1.573811691780 	 17.696590575134 	
C	 18.874334580445 	  7.757370641780 	  7.566031025134 	
C	 18.305790450445 	  7.757373451780 	 17.696587745134 	
C	  9.300461596929 	  4.637240859314 	  8.321217485773 	
C	  8.731917466929 	  4.637243669314 	 18.451774205773 	
C	  9.300430496929 	 10.820802619314 	  8.321214655773 	
C	  8.731886366929 	 10.820805429314 	 18.451771375773 	
C	 23.981288896929 	  4.637250089314 	  8.349347415773 	
C	 23.412744766929 	  4.637252899314 	 18.479904135773 	
C	 23.981257796929 	 10.820811849314 	  8.349344585773 	
C	 23.412713666929 	 10.820814659314 	 18.479901305773 	
C	  9.539189927318 	  4.549280078214 	  3.067938894783 	
C	  8.970645797318 	  4.549282888214 	 13.198495614783 	
C	  9.539158827318 	 10.732841838214 	  3.067936064783 	
C	  8.970614697318 	 10.732844648214 	 13.198492784783 	
C	 24.220017227318 	  4.549289308214 	  3.096068824783 	
C	 23.651473097318 	  4.549292118214 	 13.226625544783 	
C	 24.219986127318 	 10.732851068214 	  3.096065994783 	
C	 23.651441997318 	 10.732853878214 	 13.226622714783 	
C	  4.432266979948 	  1.485838894544 	  2.284625850411 	
C	  3.863722849948 	  1.485841704544 	 12.415182570411 	
C	  4.432235879948 	  7.669400654544 	  2.284623020411 	
C	  3.863691749948 	  7.669403464544 	 12.415179740411 	
C	 19.113094279948 	  1.485848124544 	  2.312755780411 	
C	 18.544550149948 	  1.485850934544 	 12.443312500411 	
C	 19.113063179948 	  7.669409884544 	  2.312752950411 	
C	 18.544519049948 	  7.669412694544 	 12.443309670411 	
H	  3.960422724308 	  0.751935260146 	  6.768243108106 	
H	  3.391878594308 	  0.751938070146 	 16.898799828106 	
H	  3.960391624308 	  6.935497020146 	  6.768240278106 	
H	  3.391847494308 	  6.935499830146 	 16.898796998106 	
H	 18.641250024308 	  0.751944490146 	  6.796373038106 	
H	 18.072705894308 	  0.751947300146 	 16.926929758106 	
H	 18.641218924308 	  6.935506250146 	  6.796370208106 	
H	 18.072674794308 	  6.935509060146 	 16.926926928106 	
H	  9.532908026124 	  3.814974238513 	  9.092375472138 	
H	  8.964363896124 	  3.814977048513 	 19.222932192138 	
H	  9.532876926124 	  9.998535998513 	  9.092372642138 	
H	  8.964332796124 	  9.998538808513 	 19.222929362138 	
H	 24.213735326124 	  3.814983468513 	  9.120505402138 	
H	 23.645191196124 	  3.814986278513 	 19.251062122138 	
H	 24.213704226124 	  9.998545228513 	  9.120502572138 	
H	 23.645160096124 	  9.998548038513 	 19.251059292138 	
H	  9.772305689494 	  5.371144597264 	  3.837599554648 	
H	  9.203761559494 	  5.371147407264 	 13.968156274648 	
H	  9.772274589494 	 11.554706357264 	  3.837596724648 	
H	  9.203730459494 	 11.554709167264 	 13.968153444648 	
H	 24.453132989494 	  5.371153827264 	  3.865729484648 	
H	 23.884588859494 	  5.371156637264 	 13.996286204648 	
H	 24.453101889494 	 11.554715587264 	  3.865726654648 	
H	 23.884557759494 	 11.554718397264 	 13.996283374648 	
H	  4.199820278016 	  2.308105631817 	  1.513468059234 	
H	  3.631276148016 	  2.308108441817 	 11.644024779234 	
H	  4.199789178016 	  8.491667391817 	  1.513465229234 	
H	  3.631245048016 	  8.491670201817 	 11.644021949234 	
H	 18.880647578016 	  2.308114861817 	  1.541597989234 	
H	 18.312103448016 	  2.308117671817 	 11.672154709234 	
H	 18.880616478016 	  8.491676621817 	  1.541595159234 	
H	 18.312072348016 	  8.491679431817 	 11.672151879234 	
C	  5.215278220665 	  1.447620886496 	  8.278222954846 	
C	  4.646734090665 	  1.447623696496 	 18.408779674846 	
C	  5.215247120665 	  7.631182646496 	  8.278220124846 	
C	  4.646702990665 	  7.631185456496 	 18.408776844846 	
C	 19.896105520665 	  1.447630116496 	  8.306352884846 	
C	 19.327561390665 	  1.447632926496 	 18.436909604846 	
C	 19.896074420665 	  7.631191876496 	  8.306350054846 	
C	 19.327530290665 	  7.631194686496 	 18.436906774846 	
C	  8.278000572840 	  4.510717618164 	  7.580393273177 	
C	  7.709456442840 	  4.510720428164 	 17.710949993177 	
C	  8.277969472840 	 10.694279378164 	  7.580390443177 	
C	  7.709425342840 	 10.694282188164 	 17.710947163177 	
C	 22.958827872840 	  4.510726848164 	  7.608523203177 	
C	 22.390283742840 	  4.510729658164 	 17.739079923177 	
C	 22.958796772840 	 10.694288608164 	  7.608520373177 	
C	 22.390252642840 	 10.694291418164 	 17.739077093177 	
C	  8.517450131215 	  4.675458745517 	  2.327619808316 	
C	  7.948906001215 	  4.675461555517 	 12.458176528316 	
C	  8.517419031215 	 10.859020505517 	  2.327616978316 	
C	  7.948874901215 	 10.859023315517 	 12.458173698316 	
C	 23.198277431215 	  4.675467975517 	  2.355749738316 	
C	 22.629733301215 	  4.675470785517 	 12.486306458316 	
C	 23.198246331215 	 10.859029735517 	  2.355746908316 	
C	 22.629702201215 	 10.859032545517 	 12.486303628316 	
C	  5.454728319126 	  1.612362146524 	  3.025449786546 	
C	  4.886184189126 	  1.612364956524 	 13.156006506546 	
C	  5.454697219126 	  7.795923906524 	  3.025446956546 	
C	  4.886153089126 	  7.795926716524 	 13.156003676546 	
C	 20.135555619126 	  1.612371376524 	  3.053579716546 	
C	 19.567011489126 	  1.612374186524 	 13.184136436546 	
C	 20.135524519126 	  7.795933136524 	  3.053576886546 	
C	 19.566980389126 	  7.795935946524 	 13.184133606546 	
H	  5.897565373501 	  0.525196132338 	  8.190113612217 	
H	  5.329021243501 	  0.525198942338 	 18.320670332217 	
H	  5.897534273501 	  6.708757892338 	  8.190110782217 	
H	  5.328990143501 	  6.708760702338 	 18.320667502217 	
H	 20.578392673501 	  0.525205362338 	  8.218243542217 	
H	 20.009848543501 	  0.525208172338 	 18.348800262217 	
H	 20.578361573501 	  6.708767122338 	  8.218240712217 	
H	 20.009817443501 	  6.708769932338 	 18.348797432217 	
H	  7.595400117007 	  3.587161654528 	  7.669584128782 	
H	  7.026855987007 	  3.587164464528 	 17.800140848782 	
H	  7.595369017007 	  9.770723414528 	  7.669581298782 	
H	  7.026824887007 	  9.770726224528 	 17.800138018782 	
H	 22.276227417007 	  3.587170884528 	  7.697714058782 	
H	 21.707683287007 	  3.587173694528 	 17.828270778782 	
H	 22.276196317007 	  9.770732644528 	  7.697711228782 	
H	 21.707652187007 	  9.770735454528 	 17.828267948782 	
H	  7.835162954002 	  5.597883494741 	  2.415728969309 	
H	  7.266618824002 	  5.597886304741 	 12.546285689309 	
H	  7.835131854002 	 11.781445254741 	  2.415726139309 	
H	  7.266587724002 	 11.781448064741 	 12.546282859309 	
H	 22.515990254002 	  5.597892724741 	  2.443858899309 	
H	 21.947446124002 	  5.597895534741 	 12.574415619309 	
H	 22.515959154002 	 11.781454484741 	  2.443856069309 	
H	 21.947415024002 	 11.781457294741 	 12.574412789309 	
H	  6.137328748161 	  2.535918103575 	  2.936258772785 	
H	  5.568784618161 	  2.535920913575 	 13.066815492785 	
H	  6.137297648161 	  8.719479863575 	  2.936255942785 	
H	  5.568753518161 	  8.719482673575 	 13.066812662785 	
H	 20.818156048161 	  2.535927333575 	  2.964388702785 	
H	 20.249611918161 	  2.535930143575 	 13.094945422785 	
H	 20.818124948161 	  8.719489093575 	  2.964385872785 	
H	 20.249580818161 	  8.719491903575 	 13.094942592785 	
C	  1.999229211567 	  2.753542637334 	  6.651312205155 	
C	  1.430685081567 	  2.753545447334 	 16.781868925155 	
C	  1.999198111567 	  8.937104397334 	  6.651309375155 	
C	  1.430653981567 	  8.937107207334 	 16.781866095155 	
C	 16.680056511567 	  2.753551867334 	  6.679442135155 	
C	 16.111512381567 	  2.753554677334 	 16.809998855155 	
C	 16.680025411567 	  8.937113627334 	  6.679439305155 	
C	 16.111481281567 	  8.937116437334 	 16.809996025155 	
C	 11.410793825385 	  5.731215726100 	  9.168364617117 	
C	 10.842249695385 	  5.731218536100 	 19.298921337117 	
C	 11.410762725385 	 11.914777486100 	  9.168361787117 	
C	 10.842218595385 	 11.914780296100 	 19.298918507117 	
C	 26.091621125385 	  5.731224956100 	  9.196494547117 	
C	 25.523076995385 	  5.731227766100 	 19.327051267117 	
C	 26.091590025385 	 11.914786716100 	  9.196491717117 	
C	 25.523045895385 	 11.914789526100 	 19.327048437117 	
C	 11.733499797662 	  3.369537509198 	  3.954531682412 	
C	 11.164955667662 	  3.369540319198 	 14.085088402412 	
C	 11.733468697662 	  9.553099269198 	  3.954528852412 	
C	 11.164924567662 	  9.553102079198 	 14.085085572412 	
C	 26.414327097662 	  3.369546739198 	  3.982661612412 	
C	 25.845782967662 	  3.369549549198 	 14.113218332412 	
C	 26.414295997662 	  9.553108499198 	  3.982658782412 	
C	 25.845751867662 	  9.553111309198 	 14.113215502412 	
C	  2.321934422745 	  0.391863999707 	  1.437479300640 	
C	  1.753390292745 	  0.391866809707 	 11.568036020640 	
C	  2.321903322745 	  6.575425759707 	  1.437476470640 	
C	  1.753359192745 	  6.575428569707 	 11.568033190640 	
C	 17.002761722745 	  0.391873229707 	  1.465609230640 	
C	 16.434217592745 	  0.391876039707 	 11.596165950640 	
C	 17.002730622745 	  6.575434989707 	  1.465606400640 	
C	 16.434186492745 	  6.575437799707 	 11.596163120640 	
C	  2.142385336602 	  2.617041288329 	  5.556144137014 	
C	  1.573841206602 	  2.617044098329 	 15.686700857014 	
C	  2.142354236602 	  8.800603048329 	  5.556141307014 	
C	  1.573810106602 	  8.800605858329 	 15.686698027014 	
C	 16.823212636602 	  2.617050518329 	  5.584274067014 	
C	 16.254668506602 	  2.617053328329 	 15.714830787014 	
C	 16.823181536602 	  8.800612278329 	  5.584271237014 	
C	 16.254637406602 	  8.800615088329 	 15.714827957014 	
C	 11.367385044067 	 -0.380128109633 	 10.199626685233 	
C	 10.798840914067 	 -0.380125299633 	 20.330183405233 	
C	 11.367353944067 	  5.803433650367 	 10.199623855233 	
C	 10.798809814067 	  5.803436460367 	 20.330180575233 	
C	 26.048212344067 	 -0.380118879633 	 10.227756615233 	
C	 25.479668214067 	 -0.380116069633 	 20.358313335233 	
C	 26.048181244067 	  5.803442880367 	 10.227753785233 	
C	 25.479637114067 	  5.803445690367 	 20.358310505233 	
C	 11.590341308955 	  3.506038333616 	  5.049699913123 	
C	 11.021797178955 	  3.506041143616 	 15.180256633123 	
C	 11.590310208955 	  9.689600093616 	  5.049697083123 	
C	 11.021766078955 	  9.689602903616 	 15.180253803123 	
C	 26.271168608955 	  3.506047563616 	  5.077829843123 	
C	 25.702624478955 	  3.506050373616 	 15.208386563123 	
C	 26.271137508955 	  9.689609323616 	  5.077827013123 	
C	 25.702593378955 	  9.689612133616 	 15.208383733123 	
C	  2.365342992936 	  6.503207985398 	  0.406217274225 	
C	  1.796798862936 	  6.503210795398 	 10.536773994225 	
C	  2.365311892936 	 12.686769745398 	  0.406214444225 	
C	  1.796767762936 	 12.686772555398 	 10.536771164225 	
C	 17.046170292936 	  6.503217215398 	  0.434347204225 	
C	 16.477626162936 	  6.503220025398 	 10.564903924225 	
C	 17.046139192936 	 12.686778975398 	  0.434344374225 	
C	 16.477595062936 	 12.686781785398 	 10.564901094225 	
H	  3.006725389080 	  3.107418559061 	  5.051531355382 	
H	  2.438181259080 	  3.107421369061 	 15.182088075382 	
H	  3.006694289080 	  9.290980319061 	  5.051528525382 	
H	  2.438150159080 	  9.290983129061 	 15.182085245382 	
H	 17.687552689080 	  3.107427789061 	  5.079661285382 	
H	 17.119008559080 	  3.107430599061 	 15.210218005382 	
H	 17.687521589080 	  9.290989549061 	  5.079658455382 	
H	 17.118977459080 	  9.290992359061 	 15.210215175382 	
H	 10.507227997192 	  0.033188782893 	 10.795033284073 	
H	  9.938683867192 	  0.033191592893 	 20.925590004073 	
H	 10.507196897192 	  6.216750542893 	 10.795030454073 	
H	  9.938652767192 	  6.216753352893 	 20.925587174073 	
H	 25.188055297192 	  0.033198012893 	 10.823163214073 	
H	 24.619511167192 	  0.033200822893 	 20.953719934073 	
H	 25.188024197192 	  6.216759772893 	 10.823160384073 	
H	 24.619480067192 	  6.216762582893 	 20.953717104073 	
H	 10.726002196938 	  3.015657689031 	  5.554311524435 	
H	 10.157458066938 	  3.015660499031 	 15.684868244435 	
H	 10.725971096938 	  9.199219449031 	  5.554308694435 	
H	 10.157426966938 	  9.199222259031 	 15.684865414435 	
H	 25.406829496938 	  3.015666919031 	  5.582441454435 	
H	 24.838285366938 	  3.015669729031 	 15.712998174435 	
H	 25.406798396938 	  9.199228679031 	  5.582438624435 	
H	 24.838254266938 	  9.199231489031 	 15.712995344435 	
H	  3.225499851214 	  6.089891309336 	 -0.189189691104 	
H	  2.656955721214 	  6.089894119336 	  9.941367028896 	
H	  3.225468751214 	 12.273453069336 	 -0.189192521104 	
H	  2.656924621214 	 12.273455879336 	  9.941364198896 	
H	 17.906327151214 	  6.089900539336 	 -0.161059761104 	
H	 17.337783021214 	  6.089903349336 	  9.969496958896 	
H	 17.906296051214 	 12.273462299336 	 -0.161062591104 	
H	 17.337751921214 	 12.273465109336 	  9.969494128896 	
H	  1.414860706582 	  2.707809111647 	  4.712602137859 	
H	  0.846316576582 	  2.707811921647 	 14.843158857859 	
H	  1.414829606582 	  8.891370871647 	  4.712599307859 	
H	  0.846285476582 	  8.891373681647 	 14.843156027859 	
H	 16.095688006582 	  2.707818341647 	  4.740732067859 	
H	 15.527143876582 	  2.707821151647 	 14.871288787859 	
H	 16.095656906582 	  8.891380101647 	  4.740729237859 	
H	 15.527112776582 	  8.891382911647 	 14.871285957859 	
H	 12.614261082496 	 -0.347234606855 	  0.715327068903 	
H	 12.045716952496 	 -0.347231796855 	 10.845883788903 	
H	 12.614229982496 	  5.836327153145 	  0.715324238903 	
H	 12.045685852496 	  5.836329963145 	 10.845880958903 	
H	 27.295088382496 	 -0.347225376855 	  0.743456998903 	
H	 26.726544252496 	 -0.347222566855 	 10.874013718903 	
H	 27.295057282496 	  5.836336383145 	  0.743454168903 	
H	 26.726513152496 	  5.836339193145 	 10.874010888903 	
H	 12.317866719556 	  3.415270606197 	  5.893241587765 	
H	 11.749322589556 	  3.415273416197 	 16.023798307765 	
H	 12.317835619556 	  9.598832366197 	  5.893238757765 	
H	 11.749291489556 	  9.598835176197 	 16.023795477765 	
H	 26.998694019556 	  3.415279836197 	  5.921371517765 	
H	 26.430149889556 	  3.415282646197 	 16.051928237765 	
H	 26.998662919556 	  9.598841596197 	  5.921368687765 	
H	 26.430118789556 	  9.598844406197 	 16.051925407765 	
H	  1.118466624371 	  6.470314646282 	  9.890517145724 	
H	  0.549922494371 	  6.470317456282 	 20.021073865724 	
H	  1.118435524371 	 12.653876406282 	  9.890514315724 	
H	  0.549891394371 	 12.653879216282 	 20.021071035724 	
H	 15.799293924371 	  6.470323876282 	  9.918647075724 	
H	 15.230749794371 	  6.470326686282 	 20.049203795724 	
H	 15.799262824371 	 12.653885636282 	  9.918644245724 	
H	 15.230718694371 	 12.653888446282 	 20.049200965724 	
H	  2.656153507154 	  1.709768800216 	  5.164183751789 	
H	  2.087609377154 	  1.709771610216 	 15.294740471789 	
H	  2.656122407154 	  7.893330560216 	  5.164180921789 	
H	  2.087578277154 	  7.893333370216 	 15.294737641789 	
H	 17.336980807154 	  1.709778030216 	  5.192313681789 	
H	 16.768436677154 	  1.709780840216 	 15.322870401789 	
H	 17.336949707154 	  7.893339790216 	  5.192310851789 	
H	 16.768405577154 	  7.893342600216 	 15.322867571789 	
H	 11.222352754132 	  4.694861835536 	  0.270496253303 	
H	 10.653808624132 	  4.694864645536 	 10.401052973303 	
H	 11.222321654132 	 10.878423595536 	  0.270493423303 	
H	 10.653777524132 	 10.878426405536 	 10.401050143303 	
H	 25.903180054132 	  4.694871065536 	  0.298626183303 	
H	 25.334635924132 	  4.694873875536 	 10.429182903303 	
H	 25.903148954132 	 10.878432825536 	  0.298623353303 	
H	 25.334604824132 	 10.878435635536 	 10.429180073303 	
H	 11.076572941425 	  4.413311254932 	  5.441659736778 	
H	 10.508028811425 	  4.413314064932 	 15.572216456778 	
H	 11.076541841425 	 10.596873014932 	  5.441656906778 	
H	 10.507997711425 	 10.596875824932 	 15.572213626778 	
H	 25.757400241425 	  4.413320484932 	  5.469789666778 	
H	 25.188856111425 	  4.413323294932 	 15.600346386778 	
H	 25.757369141425 	 10.596882244932 	  5.469786836778 	
H	 25.188825011425 	 10.596885054932 	 15.600343556778 	
H	  2.510375203702 	  1.428218250414 	 10.335347952907 	
H	  1.941831073702 	  1.428221060414 	 20.465904672907 	
H	  2.510344103702 	  7.611780010414 	 10.335345122907 	
H	  1.941799973702 	  7.611782820414 	 20.465901842907 	
H	 17.191202503702 	  1.428227480414 	 10.363477882907 	
H	 16.622658373702 	  1.428230290414 	 20.494034602907 	
H	 17.191171403702 	  7.611789240414 	 10.363475052907 	
H	 16.622627273702 	  7.611792050414 	 20.494031772907 	
C	  1.480279321261 	  3.742082339747 	  6.709628521009 	
C	  0.911735191261 	  3.742085149747 	 16.840185241009 	
C	  1.480248221261 	  9.925644099747 	  6.709625691009 	
C	  0.911704091261 	  9.925646909747 	 16.840182411009 	
C	 16.161106621261 	  3.742091569747 	  6.737758451009 	
C	 15.592562491261 	  3.742094379747 	 16.868315171009 	
C	 16.161075521261 	  9.925653329747 	  6.737755621009 	
C	 15.592531391261 	  9.925656139747 	 16.868312341009 	
C	 12.113805609904 	  0.799883187283 	  9.126610140150 	
C	 11.545261479904 	  0.799885997283 	 19.257166860150 	
C	 12.113774509904 	  6.983444947283 	  9.126607310150 	
C	 11.545230379904 	  6.983447757283 	 19.257164030150 	
C	 26.794632909904 	  0.799892417283 	  9.154740070150 	
C	 26.226088779904 	  0.799895227283 	 19.285296790150 	
C	 26.794601809904 	  6.983454177283 	  9.154737240150 	
C	 26.226057679904 	  6.983456987283 	 19.285293960150 	
C	 12.252449420526 	  2.380997346895 	  3.896213604385 	
C	 11.683905290526 	  2.381000156895 	 14.026770324385 	
C	 12.252418320526 	  8.564559106895 	  3.896210774385 	
C	 11.683874190526 	  8.564561916895 	 14.026767494385 	
C	 26.933276720526 	  2.381006576895 	  3.924343534385 	
C	 26.364732590526 	  2.381009386895 	 14.054900254385 	
C	 26.933245620526 	  8.564568336895 	  3.924340704385 	
C	 26.364701490526 	  8.564571146895 	 14.054897424385 	
C	  1.618922684965 	  5.323196485910 	  1.479233776799 	
C	  1.050378554965 	  5.323199295910 	 11.609790496799 	
C	  1.618891584965 	 11.506758245910 	  1.479230946799 	
C	  1.050347454965 	 11.506761055910 	 11.609787666799 	
C	 16.299749984965 	  5.323205715910 	  1.507363706799 	
C	 15.731205854965 	  5.323208525910 	 11.637920426799 	
C	 16.299718884965 	 11.506767475910 	  1.507360876799 	
C	 15.731174754965 	 11.506770285910 	 11.637917596799 	
H	  2.070091370791 	  4.685650357212 	  6.573127373084 	
H	  1.501547240791 	  4.685653167212 	 16.703684093084 	
H	  2.070060270791 	 10.869212117212 	  6.573124543084 	
H	  1.501516140791 	 10.869214927212 	 16.703681263084 	
H	 16.750918670791 	  4.685659587212 	  6.601257303084 	
H	 16.182374540791 	  4.685662397212 	 16.731814023084 	
H	 16.750887570791 	 10.869221347212 	  6.601254473084 	
H	 16.182343440791 	 10.869224157212 	 16.731811193084 	
H	 11.409975324595 	  1.642825542786 	  9.286868961952 	
H	 10.841431194595 	  1.642828352786 	 19.417425681952 	
H	 11.409944224595 	  7.826387302786 	  9.286866131952 	
H	 10.841400094595 	  7.826390112786 	 19.417422851952 	
H	 26.090802624595 	  1.642834772786 	  9.314998891952 	
H	 25.522258494595 	  1.642837582786 	 19.445555611952 	
H	 26.090771524595 	  7.826396532786 	  9.314996061952 	
H	 25.522227394595 	  7.826399342786 	 19.445552781952 	
H	 11.662637730798 	  1.437428769144 	  4.032714522988 	
H	 11.094093600798 	  1.437431579144 	 14.163271242988 	
H	 11.662606630798 	  7.620990529144 	  4.032711692988 	
H	 11.094062500798 	  7.620993339144 	 14.163268412988 	
H	 26.343465030798 	  1.437437999144 	  4.060844452988 	
H	 25.774920900798 	  1.437440809144 	 14.191401172988 	
H	 26.343433930798 	  7.620999759144 	  4.060841622988 	
H	 25.774889800798 	  7.621002569144 	 14.191398342988 	
H	  2.322752979324 	  4.480254220172 	  1.318974458243 	
H	  1.754208849324 	  4.480257030172 	 11.449531178243 	
H	  2.322721879324 	 10.663815980172 	  1.318971628243 	
H	  1.754177749324 	 10.663818790172 	 11.449528348243 	
H	 17.003580279324 	  4.480263450172 	  1.347104388243 	
H	 16.435036149324 	  4.480266260172 	 11.477661108243 	
H	 17.003549179324 	 10.663825210172 	  1.347101558243 	
H	 16.435005049324 	 10.663828020172 	 11.477658278243 	
H	  1.196591570679 	  4.143442400603 	  7.719655165785 	
H	  0.628047440679 	  4.143445210603 	 17.850211885785 	
H	  1.196560470679 	 10.327004160603 	  7.719652335785 	
H	  0.628016340679 	 10.327006970603 	 17.850209055785 	
H	 15.877418870679 	  4.143451630603 	  7.747785095785 	
H	 15.308874740679 	  4.143454440603 	 17.878341815785 	
H	 15.877387770679 	 10.327013390603 	  7.747782265785 	
H	 15.308843640679 	 10.327016200603 	 17.878338985785 	
H	 12.290926314670 	  7.165859839662 	  8.155096817725 	
H	 11.722382184670 	  7.165862649662 	 18.285653537725 	
H	 12.290895214670 	 13.349421599662 	  8.155093987725 	
H	 11.722351084670 	 13.349424409662 	 18.285650707725 	
H	 26.971753614670 	  7.165869069662 	  8.183226747725 	
H	 26.403209484670 	  7.165871879662 	 18.313783467725 	
H	 26.971722514670 	 13.349430829662 	  8.183223917725 	
H	 26.403178384670 	 13.349433639662 	 18.313780637725 	
H	 12.536138604390 	  1.979638658103 	  2.886186550129 	
H	 11.967594474390 	  1.979641468103 	 13.016743270129 	
H	 12.536107504390 	  8.163200418103 	  2.886183720129 	
H	 11.967563374390 	  8.163203228103 	 13.016740440129 	
H	 27.216965904390 	  1.979647888103 	  2.914316480129 	
H	 26.648421774390 	  1.979650698103 	 13.044873200129 	
H	 27.216934804390 	  8.163209648103 	  2.914313650129 	
H	 26.648390674390 	  8.163212458103 	 13.044870370129 	
H	  1.441802363856 	 -1.042780322444 	  2.450747221026 	
H	  0.873258233856 	 -1.042777512444 	 12.581303941026 	
H	  1.441771263856 	  5.140781437556 	  2.450744391026 	
H	  0.873227133856 	  5.140784247556 	 12.581301111026 	
H	 16.122629663856 	 -1.042771092444 	  2.478877151026 	
H	 15.554085533856 	 -1.042768282444 	 12.609433871026 	
H	 16.122598563856 	  5.140790667556 	  2.478874321026 	
H	 15.554054433856 	  5.140793477556 	 12.609431041026 	
H	  0.563781189036 	  3.968917669276 	  6.106373871707 	
H	 -0.004762940964 	  3.968920479276 	 16.236930591707 	
H	  0.563750089036 	 10.152479429276 	  6.106371041707 	
H	 -0.004794040964 	 10.152482239276 	 16.236927761707 	
H	 15.244608489036 	  3.968926899276 	  6.134503801707 	
H	 14.676064359036 	  3.968929709276 	 16.265060521707 	
H	 15.244577389036 	 10.152488659276 	  6.134500971707 	
H	 14.676033259036 	 10.152491469276 	 16.265057691707 	
H	 12.925218822498 	  7.022605525916 	  9.749422315708 	
H	 12.356674692498 	  7.022608335916 	 19.879979035708 	
H	 12.925187722498 	 13.206167285916 	  9.749419485708 	
H	 12.356643592498 	 13.206170095916 	 19.879976205708 	
H	 27.606046122498 	  7.022614755916 	  9.777552245708 	
H	 27.037501992498 	  7.022617565916 	 19.908108965708 	
H	 27.606015022498 	 13.206176515916 	  9.777549415708 	
H	 27.037470892498 	 13.206179325916 	 19.908106135708 	
H	 13.168947620869 	  2.154162259968 	  4.499468619039 	
H	 12.600403490869 	  2.154165069968 	 14.630025339039 	
H	 13.168916520869 	  8.337724019968 	  4.499465789039 	
H	 12.600372390869 	  8.337726829968 	 14.630022509039 	
H	 27.849774920869 	  2.154171489968 	  4.527598549039 	
H	 27.281230790869 	  2.154174299968 	 14.658155269039 	
H	 27.849743820869 	  8.337733249968 	  4.527595719039 	
H	 27.281199690869 	  8.337736059968 	 14.658152439039 	
H	  0.807509224271 	 -0.899525918782 	  0.856421937277 	
H	  0.238965094271 	 -0.899523108782 	 10.986978657277 	
H	  0.807478124271 	  5.284035841218 	  0.856419107277 	
H	  0.238933994271 	  5.284038651218 	 10.986975827277 	
H	 15.488336524271 	 -0.899516688782 	  0.884551867277 	
H	 14.919792394271 	 -0.899513878782 	 11.015108587277 	
H	 15.488305424271 	  5.284045071218 	  0.884549037277 	
H	 14.919761294271 	  5.284047881218 	 11.015105757277 	
C	  1.207259197510 	  2.008209726219 	  6.895885637719 	
C	  0.638715067510 	  2.008212536219 	 17.026442357719 	
C	  1.207228097510 	  8.191771486219 	  6.895882807719 	
C	  0.638683967510 	  8.191774296219 	 17.026439527719 	
C	 15.888086497510 	  2.008218956219 	  6.924015567719 	
C	 15.319542367510 	  2.008221766219 	 17.054572287719 	
C	 15.888055397510 	  8.191780716219 	  6.924012737719 	
C	 15.319511267510 	  8.191783526219 	 17.054569457719 	
C	 12.286513453385 	  5.074408789343 	  8.967948983395 	
C	 11.717969323385 	  5.074411599343 	 19.098505703395 	
C	 12.286482353385 	 11.257970549343 	  8.967946153395 	
C	 11.717938223385 	 11.257973359343 	 19.098502873395 	
C	 26.967340753385 	  5.074418019343 	  8.996078913395 	
C	 26.398796623385 	  5.074420829343 	 19.126635633395 	
C	 26.967309653385 	 11.257979779343 	  8.996076083395 	
C	 26.398765523385 	 11.257982589343 	 19.126632803395 	
C	 12.525468565923 	  4.114871963643 	  3.709957029576 	
C	 11.956924435923 	  4.114874773643 	 13.840513749576 	
C	 12.525437465923 	 10.298433723643 	  3.709954199576 	
C	 11.956893335923 	 10.298436533643 	 13.840510919576 	
C	 27.206295865923 	  4.114881193643 	  3.738086959576 	
C	 26.637751735923 	  4.114884003643 	 13.868643679576 	
C	 27.206264765923 	 10.298442953643 	  3.738084129576 	
C	 26.637720635923 	 10.298445763643 	 13.868640849576 	
C	  1.446214735882 	  1.048670722278 	  1.637895314357 	
C	  0.877670605882 	  1.048673532278 	 11.768452034357 	
C	  1.446183635882 	  7.232232482278 	  1.637892484357 	
C	  0.877639505882 	  7.232235292278 	 11.768449204357 	
C	 16.127042035882 	  1.048679952278 	  1.666025244357 	
C	 15.558497905882 	  1.048682762278 	 11.796581964357 	
C	 16.127010935882 	  7.232241712278 	  1.666022414357 	
C	 15.558466805882 	  7.232244522278 	 11.796579134357 	
H	  0.193843867529 	  1.894687233329 	  6.436793142776 	
H	 -0.374700262471 	  1.894690043329 	 16.567349862776 	
H	  0.193812767529 	  8.078248993329 	  6.436790312776 	
H	 -0.374731362471 	  8.078251803329 	 16.567347032776 	
H	 14.874671167529 	  1.894696463329 	  6.464923072776 	
H	 14.306127037529 	  1.894699273329 	 16.595479792776 	
H	 14.874640067529 	  8.078258223329 	  6.464920242776 	
H	 14.306095937529 	  8.078261033329 	 16.595476962776 	
H	 13.298934920165 	  4.956857583787 	  9.425382945719 	
H	 12.730390790165 	  4.956860393787 	 19.555939665719 	
H	 13.298903820165 	 11.140419343787 	  9.425380115719 	
H	 12.730359690165 	 11.140422153787 	 19.555936835719 	
H	 27.979762220165 	  4.956866813787 	  9.453512875719 	
H	 27.411218090165 	  4.956869623787 	 19.584069595719 	
H	 27.979731120165 	 11.140428573787 	  9.453510045719 	
H	 27.411186990165 	 11.140431383787 	 19.584066765719 	
H	 13.538883958101 	  4.228394243898 	  4.169050089094 	
H	 12.970339828101 	  4.228397053898 	 14.299606809094 	
H	 13.538852858101 	 10.411956003898 	  4.169047259094 	
H	 12.970308728101 	 10.411958813898 	 14.299603979094 	
H	 28.219711258101 	  4.228403473898 	  4.197180019094 	
H	 27.651167128101 	  4.228406283898 	 14.327736739094 	
H	 28.219680158101 	 10.411965233898 	  4.197177189094 	
H	 27.651136028101 	 10.411968043898 	 14.327733909094 	
H	  0.433793165467 	  1.166221850328 	  1.180461590270 	
H	 -0.134750964533 	  1.166224660328 	 11.311018310270 	
H	  0.433762065467 	  7.349783610328 	  1.180458760270 	
H	 -0.134782064533 	  7.349786420328 	 11.311015480270 	
H	 15.114620465467 	  1.166231080328 	  1.208591520270 	
H	 14.546076335467 	  1.166233890328 	 11.339148240270 	
H	 15.114589365467 	  7.349792840328 	  1.208588690270 	
H	 14.546045235467 	  7.349795650328 	 11.339145410270 	
H	  0.946748770187 	  1.880160276700 	  7.976866275029 	
H	  0.378204640187 	  1.880163086700 	 18.107422995029 	
H	  0.946717670187 	  8.063722036700 	  7.976863445029 	
H	  0.378173540187 	  8.063724846700 	 18.107420165029 	
H	 15.627576070187 	  1.880169506700 	  8.004996205029 	
H	 15.059031940187 	  1.880172316700 	 18.135552925029 	
H	 15.627544970187 	  8.063731266700 	  8.004993375029 	
H	 15.059000840187 	  8.063734076700 	 18.135550095029 	
H	 12.545435720277 	  4.942826669508 	  7.884657731689 	
H	 11.976891590277 	  4.942829479508 	 18.015214451689 	
H	 12.545404620277 	 11.126388429508 	  7.884654901689 	
H	 11.976860490277 	 11.126391239508 	 18.015211621689 	
H	 27.226263020277 	  4.942835899508 	  7.912787661689 	
H	 26.657718890277 	  4.942838709508 	 18.043344381689 	
H	 27.226231920277 	 11.126397659508 	  7.912784831689 	
H	 26.657687790277 	 11.126400469508 	 18.043341551689 	
H	 12.785979277937 	  4.242921469833 	  2.628976174826 	
H	 12.217435147937 	  4.242924279833 	 12.759532894826 	
H	 12.785948177937 	 10.426483229833 	  2.628973344826 	
H	 12.217404047937 	 10.426486039833 	 12.759530064826 	
H	 27.466806577937 	  4.242930699833 	  2.657106104826 	
H	 26.898262447937 	  4.242933509833 	 12.787662824826 	
H	 27.466775477937 	 10.426492459833 	  2.657103274826 	
H	 26.898231347937 	 10.426495269833 	 12.787659994826 	
H	  1.187292583777 	  1.180252639621 	  2.721186581677 	
H	  0.618748453777 	  1.180255449621 	 12.851743301677 	
H	  1.187261483777 	  7.363814399621 	  2.721183751677 	
H	  0.618717353777 	  7.363817209621 	 12.851740471677 	
H	 15.868119883777 	  1.180261869621 	  2.749316511677 	
H	 15.299575753777 	  1.180264679621 	 12.879873231677 	
H	 15.868088783777 	  7.363823629621 	  2.749313681677 	
H	 15.299544653777 	  7.363826439621 	 12.879870401677 	
H	  1.471874793074 	  0.925030373206 	  6.944669980462 	
H	  0.903330663074 	  0.925033183206 	 17.075226700462 	
H	  1.471843693074 	  7.108592133206 	  6.944667150462 	
H	  0.903299563074 	  7.108594943206 	 17.075223870462 	
H	 16.152702093074 	  0.925039603206 	  6.972799910462 	
H	 15.584157963074 	  0.925042413206 	 17.103356630462 	
H	 16.152670993074 	  7.108601363206 	  6.972797080462 	
H	 15.584126863074 	  7.108604173206 	 17.103353800462 	
H	 12.020187627688 	  3.989932498936 	  8.916171334504 	
H	 11.451643497688 	  3.989935308936 	 19.046728054504 	
H	 12.020156527688 	 10.173494258936 	  8.916168504504 	
H	 11.451612397688 	 10.173497068936 	 19.046725224504 	
H	 26.701014927688 	  3.989941728936 	  8.944301264504 	
H	 26.132470797688 	  3.989944538936 	 19.074857984504 	
H	 26.700983827688 	 10.173503488936 	  8.944298434504 	
H	 26.132439697688 	 10.173506298936 	 19.074855154504 	
H	 12.260851749973 	  5.198051406938 	  3.661175376741 	
H	 11.692307619973 	  5.198054216938 	 13.791732096741 	
H	 12.260820649973 	 11.381613166938 	  3.661172546741 	
H	 11.692276519973 	 11.381615976938 	 13.791729266741 	
H	 26.941679049973 	  5.198060636938 	  3.689305306741 	
H	 26.373134919973 	  5.198063446938 	 13.819862026741 	
H	 26.941647949973 	 11.381622396938 	  3.689302476741 	
H	 26.373103819973 	 11.381625206938 	 13.819859196741 	
H	  1.712540420437 	  2.133147022389 	  1.689673504636 	
H	  1.143996290437 	  2.133149832389 	 11.820230224636 	
H	  1.712509320437 	  8.316708782389 	  1.689670674636 	
H	  1.143965190437 	  8.316711592389 	 11.820227394636 	
H	 16.393367720437 	  2.133156252389 	  1.717803434636 	
H	 15.824823590437 	  2.133159062389 	 11.848360154636 	
H	 16.393336620437 	  8.316718012389 	  1.717800604636 	
H	 15.824792490437 	  8.316720822389 	 11.848357324636 	
768 
Energy: -9.6551819058869995e+01 
S	  8.390252557383 	  1.451244361591 	  0.119195495466 	
S	  7.821708427383 	  1.451247171591 	 10.249752215466 	
S	  8.390221457383 	  7.634806121591 	  0.119192665466 	
S	  7.821677327383 	  7.634808931591 	 10.249749385466 	
S	 23.071079857383 	  1.451253591591 	  0.147325425466 	
S	 22.502535727383 	  1.451256401591 	 10.277882145466 	
S	 23.071048757383 	  7.634815351591 	  0.147322595466 	
S	 22.502504627383 	  7.634818161591 	 10.277879315466 	
S	  5.517991522165 	  4.506923798322 	  5.270814199365 	
S	  4.949447392165 	  4.506926608322 	 15.401370919365 	
S	  5.517960422165 	 10.690485558322 	  5.270811369365 	
S	  4.949416292165 	 10.690488368322 	 15.401368089365 	
S	 20.198818822165 	  4.506933028322 	  5.298944129365 	
S	 19.630274692165 	  4.506935838322 	 15.429500849365 	
S	 20.198787722165 	 10.690494788322 	  5.298941299365 	
S	 19.630243592165 	 10.690497598322 	 15.429498019365 	
S	  5.286572712954 	  4.662924430704 	 10.552513426268 	
S	  4.718028582954 	  4.662927240704 	 20.683070146268 	
S	  5.286541612954 	 10.846486190704 	 10.552510596268 	
S	  4.717997482954 	 10.846489000704 	 20.683067316268 	
S	 19.967400012954 	  4.662933660704 	 10.580643356268 	
S	 19.398855882954 	  4.662936470704 	 20.711200076268 	
S	 19.967368912954 	 10.846495420704 	 10.580640526268 	
S	 19.398824782954 	 10.846498230704 	 20.711197246268 	
S	  8.158834978154 	  1.607245101049 	  5.400894412974 	
S	  7.590290848154 	  1.607247911049 	 15.531451132974 	
S	  8.158803878154 	  7.790806861049 	  5.400891582974 	
S	  7.590259748154 	  7.790809671049 	 15.531448302974 	
S	 22.839662278154 	  1.607254331049 	  5.429024342974 	
S	 22.271118148154 	  1.607257141049 	 15.559581062974 	
S	 22.839631178154 	  7.790816091049 	  5.429021512974 	
S	 22.271087048154 	  7.790818901049 	 15.559578232974 	
C	  6.570784094292 	  2.546008956414 	 10.244045998988 	
C	  6.002239964292 	  2.546011766414 	 20.374602718988 	
C	  6.570752994292 	  8.729570716414 	 10.244043168988 	
C	  6.002208864292 	  8.729573526414 	 20.374599888988 	
C	 21.251611394292 	  2.546018186414 	 10.272175928988 	
C	 20.683067264292 	  2.546020996414 	 20.402732648988 	
C	 21.251580294292 	  8.729579946414 	 10.272173098988 	
C	 20.683036164292 	  8.729582756414 	 20.402729818988 	
C	  6.876319974388 	  5.558327664453 	  5.742117236920 	
C	  6.307775844388 	  5.558330474453 	 15.872673956920 	
C	  6.876288874388 	 11.741889424453 	  5.742114406920 	
C	  6.307744744388 	 11.741892234453 	 15.872671126920 	
C	 21.557147274388 	  5.558336894453 	  5.770247166920 	
C	 20.988603144388 	  5.558339704453 	 15.900803886920 	
C	 21.557116174388 	 11.741898654453 	  5.770244336920 	
C	 20.988572044388 	 11.741901464453 	 15.900801056920 	
C	  7.106041187409 	  3.568159822393 	  0.427662773710 	
C	  6.537497057409 	  3.568162632393 	 10.558219493710 	
C	  7.106010087409 	  9.751721582393 	  0.427659943710 	
C	  6.537465957409 	  9.751724392393 	 10.558216663710 	
C	 21.786868487409 	  3.568169052393 	  0.455792703710 	
C	 21.218324357409 	  3.568171862393 	 10.586349423710 	
C	 21.786837387409 	  9.751730812393 	  0.455789873710 	
C	 21.218293257409 	  9.751733622393 	 10.586346593710 	
C	  6.800506367625 	  0.555841293811 	  4.929591227720 	
C	  6.231962237625 	  0.555844103811 	 15.060147947720 	
C	  6.800475267625 	  6.739403053811 	  4.929588397720 	
C	  6.231931137625 	  6.739405863811 	 15.060145117720 	
C	 21.481333667625 	  0.555850523811 	  4.957721157720 	
C	 20.912789537625 	  0.555853333811 	 15.088277877720 	
C	 21.481302567625 	  6.739412283811 	  4.957718327720 	
C	 20.912758437625 	  6.739415093811 	 15.088275047720 	
C	  5.548006446526 	  2.396401569833 	  9.267504535317 	
C	  4.979462316526 	  2.396404379833 	 19.398061255317 	
C	  5.547975346526 	  8.579963329833 	  9.267501705317 	
C	  4.979431216526 	  8.579966139833 	 19.398058425317 	
C	 20.228833746526 	  2.396410799833 	  9.295634465317 	
C	 19.660289616526 	  2.396413609833 	 19.426191185317 	
C	 20.228802646526 	  8.579972559833 	  9.295631635317 	
C	 19.660258516526 	  8.579975369833 	 19.426188355317 	
C	  7.894651234533 	  5.446058971279 	  6.685565504361 	
C	  7.326107104533 	  5.446061781279 	 16.816122224361 	
C	  7.894620134533 	 11.629620731279 	  6.685562674361 	
C	  7.326076004533 	 11.629623541279 	 16.816119394361 	
C	 22.575478534533 	  5.446068201279 	  6.713695434361 	
C	 22.006934404533 	  5.446071011279 	 16.844252154361 	
C	 22.575447434533 	 11.629629961279 	  6.713692604361 	
C	 22.006903304533 	 11.629632771279 	 16.844249324361 	
C	  8.128818772050 	  3.717767282458 	  1.404204183759 	
C	  7.560274642050 	  3.717770092458 	 11.534760903759 	
C	  8.128787672050 	  9.901329042458 	  1.404201353759 	
C	  7.560243542050 	  9.901331852458 	 11.534758073759 	
C	 22.809646072050 	  3.717776512458 	  1.432334113759 	
C	 22.241101942050 	  3.717779322458 	 11.562890833759 	
C	 22.809614972050 	  9.901338272458 	  1.432331283759 	
C	 22.241070842050 	  9.901341082458 	 11.562888003759 	
C	  5.782174909653 	  0.668110029618 	  3.986143165580 	
C	  5.213630779653 	  0.668112839618 	 14.116699885580 	
C	  5.782143809653 	  6.851671789618 	  3.986140335580 	
C	  5.213599679652 	  6.851674599618 	 14.116697055580 	
C	 20.463002209653 	  0.668119259618 	  4.014273095580 	
C	 19.894458079653 	  0.668122069618 	 14.144829815580 	
C	 20.462971109652 	  6.851681019618 	  4.014270265580 	
C	 19.894426979653 	  6.851683829618 	 14.144826985580 	
C	  4.708603493680 	  3.484064361809 	  9.286734243386 	
C	  4.140059363680 	  3.484067171809 	 19.417290963386 	
C	  4.708572393680 	  9.667626121809 	  9.286731413386 	
C	  4.140028263680 	  9.667628931809 	 19.417288133386 	
C	 19.389430793680 	  3.484073591809 	  9.314864173386 	
C	 18.820886663680 	  3.484076401809 	 19.445420893386 	
C	 19.389399693680 	  9.667635351809 	  9.314861343386 	
C	 18.820855563680 	  9.667638161809 	 19.445418063386 	
C	  8.734919642035 	  0.432719521987 	  6.667945749676 	
C	  8.166375512035 	  0.432722331987 	 16.798502469676 	
C	  8.734888542035 	  6.616281281987 	  6.667942919676 	
C	  8.166344412035 	  6.616284091987 	 16.798499639676 	
C	 23.415746942035 	  0.432728751987 	  6.696075679676 	
C	 22.847202812035 	  0.432731561987 	 16.826632399676 	
C	 23.415715842035 	  6.616290511987 	  6.696072849676 	
C	 22.847171712035 	  6.616293321987 	 16.826629569676 	
C	  8.968221710745 	  2.630104445306 	  1.384974499874 	
C	  8.399677580745 	  2.630107255306 	 11.515531219874 	
C	  8.968190610745 	  8.813666205306 	  1.384971669874 	
C	  8.399646480745 	  8.813669015306 	 11.515528389874 	
C	 23.649049010745 	  2.630113675306 	  1.413104429874 	
C	 23.080504880745 	  2.630116485306 	 11.543661149874 	
C	 23.649017910745 	  8.813675435306 	  1.413101599874 	
C	 23.080473780745 	  8.813678245306 	 11.543658319874 	
C	  4.941906569115 	  5.681449454289 	  4.003763110613 	
C	  4.373362439115 	  5.681452264289 	 14.134319830613 	
C	  4.941875469115 	 11.865011214289 	  4.003760280613 	
C	  4.373331339115 	 11.865014024289 	 14.134317000613 	
C	 19.622733869115 	  5.681458684289 	  4.031893040613 	
C	 19.054189739115 	  5.681461494289 	 14.162449760613 	
C	 19.622702769115 	 11.865020444289 	  4.031890210613 	
C	 19.054158639115 	 11.865023254289 	 14.162446930613 	
C	  3.671164819415 	  3.608181957946 	  8.507192426624 	
C	  3.102620689415 	  3.608184767946 	 18.637749146624 	
C	  3.671133719415 	  9.791743717946 	  8.507189596624 	
C	  3.102589589415 	  9.791746527946 	 18.637746316624 	
C	 18.351992119415 	  3.608191187946 	  8.535322356624 	
C	 17.783447989415 	  3.608193997946 	 18.665879076624 	
C	 18.351961019415 	  9.791752947946 	  8.535319526624 	
C	 17.783416889415 	  9.791755757946 	 18.665876246624 	
C	  9.767100009189 	  0.562297596779 	  7.438945760002 	
C	  9.198555879189 	  0.562300406779 	 17.569502480002 	
C	  9.767068909189 	  6.745859356779 	  7.438942930002 	
C	  9.198524779189 	  6.745862166779 	 17.569499650002 	
C	 24.447927309189 	  0.562306826779 	  7.467075690002 	
C	 23.879383179189 	  0.562309636779 	 17.597632410002 	
C	 24.447896209189 	  6.745868586779 	  7.467072860002 	
C	 23.879352079189 	  6.745871396779 	 17.597629580002 	
C	 10.005660410251 	  2.505987015390 	  2.164516539419 	
C	  9.437116280251 	  2.505989825390 	 12.295073259419 	
C	 10.005629310251 	  8.689548775390 	  2.164513709419 	
C	  9.437085180251 	  8.689551585390 	 12.295070429419 	
C	 24.686487710251 	  2.505996245390 	  2.192646469419 	
C	 24.117943580251 	  2.505999055390 	 12.323203189419 	
C	 24.686456610251 	  8.689558005390 	  2.192643639419 	
C	 24.117912480251 	  8.689560815390 	 12.323200359419 	
C	  3.909725798576 	  5.551871455648 	  3.232763511866 	
C	  3.341181668576 	  5.551874265648 	 13.363320231866 	
C	  3.909694698576 	 11.735433215648 	  3.232760681866 	
C	  3.341150568576 	 11.735436025648 	 13.363317401866 	
C	 18.590553098576 	  5.551880685648 	  3.260893441866 	
C	 18.022008968576 	  5.551883495648 	 13.391450161866 	
C	 18.590521998576 	 11.735442445648 	  3.260890611866 	
C	 18.021977868576 	 11.735445255648 	 13.391447331866 	
H	  3.020202269139 	  4.556420897551 	  8.581377857801 	
H	  2.451658139139 	  4.556423707551 	 18.711934577801 	
H	  3.020171169139 	 10.739982657551 	  8.581375027801 	
H	  2.451627039139 	 10.739985467551 	 18.711931747801 	
H	 17.701029569139 	  4.556430127551 	  8.609507787801 	
H	 17.132485439139 	  4.556432937551 	 18.740064507801 	
H	 17.700998469139 	 10.739991887551 	  8.609504957801 	
H	 17.132454339139 	 10.739994697551 	 18.740061677801 	
H	 10.423725327449 	  1.498051952616 	  7.373677403809 	
H	  9.855181197450 	  1.498054762616 	 17.504234123809 	
H	 10.423694227450 	  7.681613712616 	  7.373674573809 	
H	  9.855150097450 	  7.681616522616 	 17.504231293809 	
H	 25.104552627450 	  1.498061182616 	  7.401807333809 	
H	 24.536008497450 	  1.498063992616 	 17.532364053809 	
H	 25.104521527449 	  7.681622942616 	  7.401804503809 	
H	 24.535977397449 	  7.681625752616 	 17.532361223809 	
H	 10.656622857065 	  1.557747971129 	  2.090331273345 	
H	 10.088078727065 	  1.557750781129 	 12.220887993345 	
H	 10.656591757065 	  7.741309731129 	  2.090328443345 	
H	 10.088047627065 	  7.741312541129 	 12.220885163345 	
H	 25.337450157065 	  1.557757201129 	  2.118461203345 	
H	 24.768906027065 	  1.557760011129 	 12.249017923345 	
H	 25.337419057065 	  7.741318961129 	  2.118458373345 	
H	 24.768874927065 	  7.741321771129 	 12.249015093345 	
H	  3.253100602095 	  4.616117035143 	  3.298032043806 	
H	  2.684556472095 	  4.616119845143 	 13.428588763806 	
H	  3.253069502095 	 10.799678795143 	  3.298029213806 	
H	  2.684525372095 	 10.799681605143 	 13.428585933806 	
H	 17.933927902095 	  4.616126265143 	  3.326161973806 	
H	 17.365383772095 	  4.616129075143 	 13.456718693806 	
H	 17.933896802095 	 10.799688025143 	  3.326159143806 	
H	 17.365352672095 	 10.799690835143 	 13.456715863806 	
C	  3.344652976940 	  2.677852771339 	  7.624602957740 	
C	  2.776108846940 	  2.677855581339 	 17.755159677740 	
C	  3.344621876940 	  8.861414531339 	  7.624600127740 	
C	  2.776077746940 	  8.861417341339 	 17.755156847740 	
C	 18.025480276940 	  2.677862001339 	  7.652732887740 	
C	 17.456936146940 	  2.677864811339 	 17.783289607740 	
C	 18.025449176940 	  8.861423761339 	  7.652730057740 	
C	 17.456905046940 	  8.861426571339 	 17.783286777740 	
C	 10.103858434095 	  5.722099988295 	  8.336783215085 	
C	  9.535314304095 	  5.722102798295 	 18.467339935085 	
C	 10.103827334095 	 11.905661748295 	  8.336780385085 	
C	  9.535283204095 	 11.905664558295 	 18.467337105085 	
C	 24.784685734095 	  5.722109218295 	  8.364913145085 	
C	 24.216141604095 	  5.722112028295 	 18.495469865085 	
C	 24.784654634095 	 11.905670978295 	  8.364910315085 	
C	 24.216110504095 	 11.905673788295 	 18.495467035085 	
C	 10.332172107218 	  3.436316281891 	  3.047105728469 	
C	  9.763627977218 	  3.436319091891 	 13.177662448469 	
C	 10.332141007218 	  9.619878041891 	  3.047102898469 	
C	  9.763596877218 	  9.619880851891 	 13.177659618469 	
C	 25.012999407218 	  3.436325511891 	  3.075235658469 	
C	 24.444455277218 	  3.436328321891 	 13.205792378469 	
C	 25.012968307218 	  9.619887271891 	  3.075232828469 	
C	 24.444424177218 	  9.619890081891 	 13.205789548469 	
C	  3.572967025372 	  0.392069158954 	  2.334926264716 	
C	  3.004422895372 	  0.392071968954 	 12.465482984716 	
C	  3.572935925372 	  6.575630918954 	  2.334923434716 	
C	  3.004391795372 	  6.575633728954 	 12.465480154716 	
C	 18.253794325372 	  0.392078388954 	  2.363056194716 	
C	 17.685250195372 	  0.392081198954 	 12.493612914716 	
C	 18.253763225372 	  6.575640148954 	  2.363053364716 	
C	 17.685219095372 	  6.575642958954 	 12.493610084716 	
C	  4.180753670945 	  1.601416596465 	  7.573594833786 	
C	  3.612209540945 	  1.601419406465 	 17.704151553786 	
C	  4.180722570945 	  7.784978356465 	  7.573592003786 	
C	  3.612178440945 	  7.784981166465 	 17.704148723786 	
C	 18.861580970945 	  1.601425826465 	  7.601724763786 	
C	 18.293036840945 	  1.601428636465 	 17.732281483786 	
C	 18.861549870945 	  7.784987586465 	  7.601721933786 	
C	 18.293005740945 	  7.784990396465 	 17.732278653786 	
C	  9.263719273333 	  4.660270905326 	  8.379133433951 	
C	  8.695175143333 	  4.660273715326 	 18.509690153951 	
C	  9.263688173333 	 10.843832665326 	  8.379130603951 	
C	  8.695144043333 	 10.843835475326 	 18.509687323951 	
C	 23.944546573333 	  4.660280135326 	  8.407263363951 	
C	 23.376002443333 	  4.660282945326 	 18.537820083951 	
C	 23.944515473333 	 10.843841895326 	  8.407260533951 	
C	 23.375971343333 	 10.843844705326 	 18.537817253951 	
C	  9.496071489781 	  4.512752517490 	  3.098113732810 	
C	  8.927527359781 	  4.512755327490 	 13.228670452810 	
C	  9.496040389781 	 10.696314277490 	  3.098110902810 	
C	  8.927496259781 	 10.696317087490 	 13.228667622810 	
C	 24.176898789781 	  4.512761747490 	  3.126243662810 	
C	 23.608354659781 	  4.512764557490 	 13.256800382810 	
C	 24.176867689781 	 10.696323507490 	  3.126240832810 	
C	 23.608323559781 	 10.696326317490 	 13.256797552810 	
C	  4.413106123046 	  1.453898145319 	  2.292575744953 	
C	  3.844561993046 	  1.453900955319 	 12.423132464953 	
C	  4.413075023046 	  7.637459905319 	  2.292572914953 	
C	  3.844530893046 	  7.637462715319 	 12.423129634953 	
C	 19.093933423046 	  1.453907375319 	  2.320705674953 	
C	 18.525389293046 	  1.453910185319 	 12.451262394953 	
C	 19.093902323046 	  7.637469135319 	  2.320702844953 	
C	 18.525358193046 	  7.637471945319 	 12.451259564953 	
H	  3.946293196035 	  0.786242508432 	  6.797029270618 	
H	  3.377749066035 	  0.786245318432 	 16.927585990618 	
H	  3.946262096035 	  6.969804268432 	  6.797026440618 	
H	  3.377717966035 	  6.969807078432 	 16.927583160618 	
H	 18.627120496035 	  0.786251738432 	  6.825159200618 	
H	 18.058576366035 	  0.786254548432 	 16.955715920618 	
H	 18.627089396035 	  6.969813498432 	  6.825156370618 	
H	 18.058545266035 	  6.969816308432 	 16.955713090618 	
H	  9.498016864536 	  3.844732632012 	  9.157517848120 	
H	  8.929472734536 	  3.844735442012 	 19.288074568120 	
H	  9.497985764536 	 10.028294392012 	  9.157515018120 	
H	  8.929441634536 	 10.028297202012 	 19.288071738120 	
H	 24.178844164536 	  3.844741862012 	  9.185647778120 	
H	 23.610300034536 	  3.844744672012 	 19.316204498120 	
H	 24.178813064536 	 10.028303622012 	  9.185644948120 	
H	 23.610268934536 	 10.028306432012 	 19.316201668120 	
H	  9.730532087125 	  5.327926763253 	  3.874679106552 	
H	  9.161987957125 	  5.327929573253 	 14.005235826552 	
H	  9.730500987125 	 11.511488523253 	  3.874676276552 	
H	  9.161956857125 	 11.511491333253 	 14.005232996552 	
H	 24.411359387125 	  5.327935993253 	  3.902809036552 	
H	 23.842815257125 	  5.327938803253 	 14.033365756552 	
H	 24.411328287125 	 11.511497753253 	  3.902806206552 	
H	 23.842784157125 	 11.511500563253 	 14.033362926552 	
H	  4.178808208781 	  2.269436549304 	  1.514191551299 	
H	  3.610264078781 	  2.269439359304 	 11.644748271299 	
H	  4.178777108781 	  8.452998309304 	  1.514188721299 	
H	  3.610232978781 	  8.453001119304 	 11.644745441299 	
H	 18.859635508781 	  2.269445779304 	  1.542321481299 	
H	 18.291091378781 	  2.269448589304 	 11.672878201299 	
H	 18.859604408781 	  8.453007539304 	  1.542318651299 	
H	 18.291060278781 	  8.453010349304 	 11.672875371299 	
C	  5.195964677371 	  1.462556882972 	  8.322716718639 	
C	  4.627420547371 	  1.462559692972 	 18.453273438639 	
C	  5.195933577371 	  7.646118642972 	  8.322713888639 	
C	  4.627389447371 	  7.646121452972 	 18.453270608639 	
C	 19.876791977371 	  1.462566112972 	  8.350846648639 	
C	 19.308247847371 	  1.462568922972 	 18.481403368639 	
C	 19.876760877371 	  7.646127872972 	  8.350843818639 	
C	 19.308216747371 	  7.646130682972 	 18.481400538639 	
C	  8.247909885539 	  4.521243624812 	  7.629565304030 	
C	  7.679365755539 	  4.521246434812 	 17.760122024030 	
C	  8.247878785539 	 10.704805384812 	  7.629562474030 	
C	  7.679334655539 	 10.704808194812 	 17.760119194030 	
C	 22.928737185539 	  4.521252854812 	  7.657695234030 	
C	 22.360193055539 	  4.521255664812 	 17.788251954030 	
C	 22.928706085539 	 10.704814614812 	  7.657692404030 	
C	 22.360161955539 	 10.704817424812 	 17.788249124030 	
C	  8.480860519176 	  4.651612119889 	  2.348991812187 	
C	  7.912316389176 	  4.651614929889 	 12.479548532187 	
C	  8.480829419176 	 10.835173879889 	  2.348988982187 	
C	  7.912285289176 	 10.835176689889 	 12.479545702187 	
C	 23.161687819176 	  4.651621349889 	  2.377121742187 	
C	 22.593143689176 	  4.651624159889 	 12.507678462187 	
C	 23.161656719176 	 10.835183109889 	  2.377118912187 	
C	 22.593112589176 	 10.835185919889 	 12.507675632187 	
C	  5.428915855354 	  1.592925415824 	  3.042143534523 	
C	  4.860371725354 	  1.592928225824 	 13.172700254523 	
C	  5.428884755354 	  7.776487175824 	  3.042140704523 	
C	  4.860340625354 	  7.776489985824 	 13.172697424523 	
C	 20.109743155354 	  1.592934645824 	  3.070273464523 	
C	 19.541199025354 	  1.592937455824 	 13.200830184523 	
C	 20.109712055354 	  7.776496405824 	  3.070270634523 	
C	 19.541167925354 	  7.776499215824 	 13.200827354523 	
H	  5.871044289007 	  0.534812249426 	  8.235657785056 	
H	  5.302500159007 	  0.534815059426 	 18.366214505056 	
H	  5.871013189007 	  6.718374009426 	  8.235654955056 	
H	  5.302469059007 	  6.718376819426 	 18.366211675056 	
H	 20.551871589007 	  0.534821479426 	  8.263787715056 	
H	 19.983327459007 	  0.534824289426 	 18.394344435056 	
H	 20.551840489007 	  6.718383239426 	  8.263784885056 	
H	 19.983296359007 	  6.718386049426 	 18.394341605056 	
H	  7.572571919840 	  3.592357965170 	  7.717679472453 	
H	  7.004027789840 	  3.592360775170 	 17.848236192453 	
H	  7.572540819840 	  9.775919725170 	  7.717676642453 	
H	  7.003996689840 	  9.775922535170 	 17.848233362453 	
H	 22.253399219840 	  3.592367195170 	  7.745809402453 	
H	 21.684855089840 	  3.592370005170 	 17.876366122453 	
H	 22.253368119840 	  9.775928955170 	  7.745806572453 	
H	 21.684823989840 	  9.775931765170 	 17.876363292453 	
H	  7.805780896178 	  5.579356763827 	  2.436050525458 	
H	  7.237236766178 	  5.579359573827 	 12.566607245458 	
H	  7.805749796178 	 11.762918523827 	  2.436047695458 	
H	  7.237205666178 	 11.762921333827 	 12.566604415458 	
H	 22.486608196178 	  5.579365993827 	  2.464180455458 	
H	 21.918064066178 	  5.579368803827 	 12.594737175458 	
H	 22.486577096178 	 11.762927753827 	  2.464177625458 	
H	 21.918032966178 	 11.762930563827 	 12.594734345458 	
H	  6.104253800960 	  2.521811062653 	  2.954029189030 	
H	  5.535709670960 	  2.521813872653 	 13.084585909030 	
H	  6.104222700960 	  8.705372822653 	  2.954026359030 	
H	  5.535678570960 	  8.705375632653 	 13.084583079030 	
H	 20.785081100960 	  2.521820292653 	  2.982159119030 	
H	 20.216536970960 	  2.521823102653 	 13.112715839030 	
H	 20.785050000960 	  8.705382052653 	  2.982156289030 	
H	 20.216505870960 	  8.705384862653 	 13.112713009030 	
C	  1.975133787326 	  2.801113532439 	  6.655005810101 	
C	  1.406589657326 	  2.801116342439 	 16.785562530101 	
C	  1.975102687326 	  8.984675292439 	  6.655002980101 	
C	  1.406558557326 	  8.984678102439 	 16.785559700101 	
C	 16.655961087326 	  2.801122762439 	  6.683135740101 	
C	 16.087416957326 	  2.801125572439 	 16.813692460101 	
C	 16.655929987326 	  8.984684522439 	  6.683132910101 	
C	 16.087385857326 	  8.984687332439 	 16.813689630101 	
C	 11.401577684620 	  5.750428863784 	  9.277752495483 	
C	 10.833033554620 	  5.750431673784 	 19.408309215483 	
C	 11.401546584620 	 11.933990623784 	  9.277749665483 	
C	 10.833002454620 	 11.933993433784 	 19.408306385483 	
C	 26.082404984620 	  5.750438093784 	  9.305882425483 	
C	 25.513860854620 	  5.750440903784 	 19.436439145483 	
C	 26.082373884620 	 11.933999853784 	  9.305879595483 	
C	 25.513829754620 	 11.934002663784 	 19.436436315483 	
C	 11.701691390903 	  3.313055915283 	  4.016703257744 	
C	 11.133147260903 	  3.313058725283 	 14.147259977744 	
C	 11.701660290903 	  9.496617675283 	  4.016700427744 	
C	 11.133116160903 	  9.496620485283 	 14.147257147744 	
C	 26.382518690903 	  3.313065145283 	  4.044833187744 	
C	 25.813974560903 	  3.313067955283 	 14.175389907744 	
C	 26.382487590903 	  9.496626905283 	  4.044830357744 	
C	 25.813943460903 	  9.496629715283 	 14.175387077744 	
C	  2.275247279720 	  0.363740202472 	  1.393957400412 	
C	  1.706703149720 	  0.363743012472 	 11.524514120412 	
C	  2.275216179720 	  6.547301962472 	  1.393954570412 	
C	  1.706672049720 	  6.547304772472 	 11.524511290412 	
C	 16.956074579720 	  0.363749432472 	  1.422087330412 	
C	 16.387530449720 	  0.363752242472 	 11.552644050412 	
C	 16.956043479720 	  6.547311192472 	  1.422084500412 	
C	 16.387499349720 	  6.547314002472 	 11.552641220412 	
C	  2.167958207946 	  2.541773277076 	  5.561320735823 	
C	  1.599414077946 	  2.541776087076 	 15.691877455823 	
C	  2.167927107946 	  8.725335037076 	  5.561317905823 	
C	  1.599382977946 	  8.725337847076 	 15.691874625823 	
C	 16.848785507946 	  2.541782507076 	  5.589450665823 	
C	 16.280241377946 	  2.541785317076 	 15.720007385823 	
C	 16.848754407946 	  8.725344267076 	  5.589447835823 	
C	 16.280210277946 	  8.725347077076 	 15.720004555823 	
C	 11.278762425383 	 -0.391432002684 	 10.289204392909 	
C	 10.710218295383 	 -0.391429192684 	 20.419761112909 	
C	 11.278731325383 	  5.792129757316 	 10.289201562909 	
C	 10.710187195383 	  5.792132567316 	 20.419758282909 	
C	 25.959589725383 	 -0.391422772684 	 10.317334322909 	
C	 25.391045595383 	 -0.391419962684 	 20.447891042909 	
C	 25.959558625383 	  5.792138987316 	 10.317331492909 	
C	 25.391014495383 	  5.792141797316 	 20.447888212909 	
C	 11.508865512501 	  3.572395475065 	  5.110388901794 	
C	 10.940321382501 	  3.572398285065 	 15.240945621794 	
C	 11.508834412501 	  9.755957235065 	  5.110386071794 	
C	 10.940290282501 	  9.755960045065 	 15.240942791794 	
C	 26.189692812501 	  3.572404705065 	  5.138518831794 	
C	 25.621148682501 	  3.572407515065 	 15.269075551794 	
C	 26.189661712501 	  9.755966465065 	  5.138516001794 	
C	 25.621117582501 	  9.755969275065 	 15.269072721794 	
C	  2.398062280098 	  6.505601233039 	  0.382505501207 	
C	  1.829518150098 	  6.505604043039 	 10.513062221207 	
C	  2.398031180098 	 12.689162993039 	  0.382502671207 	
C	  1.829487050098 	 12.689165803039 	 10.513059391207 	
C	 17.078889580098 	  6.505610463039 	  0.410635431207 	
C	 16.510345450098 	  6.505613273039 	 10.541192151207 	
C	 17.078858480098 	 12.689172223039 	  0.410632601207 	
C	 16.510314350098 	 12.689175033039 	 10.541189321207 	
H	  3.055082005933 	  2.980446652191 	  5.021334134839 	
H	  2.486537875933 	  2.980449462191 	 15.151890854839 	
H	  3.055050905933 	  9.164008412191 	  5.021331304839 	
H	  2.486506775933 	  9.164011222191 	 15.151888024839 	
H	 17.735909305933 	  2.980455882191 	  5.049464064839 	
H	 17.167365175933 	  2.980458692191 	 15.180020784839 	
H	 17.735878205933 	  9.164017642191 	  5.049461234839 	
H	 17.167334075933 	  9.164020452191 	 15.180017954839 	
H	 10.401337864346 	 -0.094380133785 	 10.923124218425 	
H	  9.832793734346 	 -0.094377323785 	 21.053680938425 	
H	 10.401306764346 	  6.089181626215 	 10.923121388425 	
H	  9.832762634346 	  6.089184436215 	 21.053678108425 	
H	 25.082165164346 	 -0.094370903785 	 10.951254148425 	
H	 24.513621034346 	 -0.094368093785 	 21.081810868425 	
H	 25.082134064346 	  6.089190856215 	 10.951251318425 	
H	 24.513589934346 	  6.089193666215 	 21.081808038425 	
H	 10.621742382820 	  3.133719357287 	  5.650374869511 	
H	 10.053198252820 	  3.133722167287 	 15.780931589511 	
H	 10.621711282820 	  9.317281117288 	  5.650372039511 	
H	 10.053167152820 	  9.317283927287 	 15.780928759511 	
H	 25.302569682820 	  3.133728587287 	  5.678504799511 	
H	 24.734025552820 	  3.133731397287 	 15.809061519511 	
H	 25.302538582820 	  9.317290347287 	  5.678501969511 	
H	 24.733994452820 	  9.317293157287 	 15.809058689511 	
H	  3.275486611944 	  6.208549499426 	 -0.251414684136 	
H	  2.706942481944 	  6.208552309426 	  9.879142035864 	
H	  3.275455511944 	 12.392111259426 	 -0.251417514136 	
H	  2.706911381944 	 12.392114069426 	  9.879139205864 	
H	 17.956313911944 	  6.208558729426 	 -0.223284754136 	
H	 17.387769781944 	  6.208561539426 	  9.907271965864 	
H	 17.956282811944 	 12.392120489426 	 -0.223287584136 	
H	 17.387738681944 	 12.392123299426 	  9.907269135864 	
H	  1.412412910427 	  2.631827423621 	  4.728461043688 	
H	  0.843868780427 	  2.631830233621 	 14.859017763688 	
H	  1.412381810427 	  8.815389183621 	  4.728458213688 	
H	  0.843837680427 	  8.815391993621 	 14.859014933688 	
H	 16.093240210427 	  2.631836653621 	  4.756590973688 	
H	 15.524696080427 	  2.631839463621 	 14.887147693688 	
H	 16.093209110427 	  8.815398413621 	  4.756588143688 	
H	 15.524664980427 	  8.815401223621 	 14.887144863688 	
H	 12.561613851370 	 -0.420967641644 	  0.734992654992 	
H	 11.993069721370 	 -0.420964831644 	 10.865549374992 	
H	 12.561582751370 	  5.762594118356 	  0.734989824992 	
H	 11.993038621370 	  5.762596928356 	 10.865546544992 	
H	 27.242441151370 	 -0.420958411644 	  0.763122584992 	
H	 26.673897021370 	 -0.420955601644 	 10.893679304992 	
H	 27.242410051370 	  5.762603348356 	  0.763119754992 	
H	 26.673865921370 	  5.762606158356 	 10.893676474992 	
H	 12.264411215587 	  3.482341541380 	  5.943248459133 	
H	 11.695867085587 	  3.482344351380 	 16.073805179133 	
H	 12.264380115587 	  9.665903301380 	  5.943245629133 	
H	 11.695835985587 	  9.665906111380 	 16.073802349133 	
H	 26.945238515587 	  3.482350771380 	  5.971378389133 	
H	 26.376694385587 	  3.482353581380 	 16.101935109133 	
H	 26.945207415587 	  9.665912531380 	  5.971375559133 	
H	 26.376663285587 	  9.665915341380 	 16.101932279133 	
H	  1.115210466747 	  6.535136988127 	  9.936717592342 	
H	  0.546666336747 	  6.535139798127 	 20.067274312342 	
H	  1.115179366747 	 12.718698748127 	  9.936714762342 	
H	  0.546635236747 	 12.718701558127 	 20.067271482342 	
H	 15.796037766747 	  6.535146218127 	  9.964847522342 	
H	 15.227493636747 	  6.535149028127 	 20.095404242342 	
H	 15.796006666747 	 12.718707978127 	  9.964844692342 	
H	 15.227462536747 	 12.718710788127 	 20.095401412342 	
H	  2.563681089879 	  1.527432037504 	  5.271608149056 	
H	  1.995136959879 	  1.527434847504 	 15.402164869056 	
H	  2.563649989879 	  7.710993797504 	  5.271605319056 	
H	  1.995105859879 	  7.710996607504 	 15.402162039056 	
H	 17.244508389879 	  1.527441267504 	  5.299738079056 	
H	 16.675964259879 	  1.527444077504 	 15.430294799056 	
H	 17.244477289879 	  7.711003027504 	  5.299735249056 	
H	 16.675933159879 	  7.711005837504 	 15.430291969056 	
H	 11.264635540949 	  4.470731484791 	  0.174382571742 	
H	 10.696091410949 	  4.470734294791 	 10.304939291742 	
H	 11.264604440949 	 10.654293244791 	  0.174379741742 	
H	 10.696060310949 	 10.654296054791 	 10.304936461742 	
H	 25.945462840949 	  4.470740714791 	  0.202512501742 	
H	 25.376918710949 	  4.470743524791 	 10.333069221742 	
H	 25.945431740949 	 10.654302474791 	  0.202509671742 	
H	 25.376887610949 	 10.654305284791 	 10.333066391742 	
H	 11.113141538547 	  4.586736517713 	  5.400101745864 	
H	 10.544597408547 	  4.586739327713 	 15.530658465864 	
H	 11.113110438547 	 10.770298277713 	  5.400098915864 	
H	 10.544566308547 	 10.770301087713 	 15.530655635864 	
H	 25.793968838547 	  4.586745747713 	  5.428231675864 	
H	 25.225424708547 	  4.586748557713 	 15.558788395864 	
H	 25.793937738547 	 10.770307507713 	  5.428228845864 	
H	 25.225393608547 	 10.770310317713 	 15.558785565864 	
H	  2.412189091039 	  1.643437877280 	 10.497327597611 	
H	  1.843644961039 	  1.643440687280 	 20.627884317611 	
H	  2.412157991039 	  7.826999637280 	 10.497324767611 	
H	  1.843613861039 	  7.827002447280 	 20.627881487611 	
H	 17.093016391039 	  1.643447107280 	 10.525457527611 	
H	 16.524472261039 	  1.643449917280 	 20.656014247611 	
H	 17.092985291039 	  7.827008867280 	 10.525454697611 	
H	 16.524441161039 	  7.827011677280 	 20.656011417611 	
C	  1.554732091284 	  3.865314535671 	  6.664545130224 	
C	  0.986187961284 	  3.865317345671 	 16.795101850224 	
C	  1.554700991284 	 10.048876295671 	  6.664542300224 	
C	  0.986156861284 	 10.048879105671 	 16.795099020224 	
C	 16.235559391284 	  3.865323765671 	  6.692675060224 	
C	 15.667015261284 	  3.865326575671 	 16.823231780224 	
C	 16.235528291284 	 10.048885525671 	  6.692672230224 	
C	 15.666984161284 	 10.048888335671 	 16.823228950224 	
C	 11.974476215245 	  0.940364958733 	  9.279301044441 	
C	 11.405932085245 	  0.940367768733 	 19.409857764441 	
C	 11.974445115245 	  7.123926718733 	  9.279298214441 	
C	 11.405900985245 	  7.123929528733 	 19.409854934441 	
C	 26.655303515245 	  0.940374188733 	  9.307430974441 	
C	 26.086759385245 	  0.940376998733 	 19.437987694441 	
C	 26.655272415245 	  7.123935948733 	  9.307428144441 	
C	 26.086728285245 	  7.123938758733 	 19.437984864441 	
C	 12.122093695575 	  2.248854575119 	  4.007162728801 	
C	 11.553549565575 	  2.248857385119 	 14.137719448801 	
C	 12.122062595575 	  8.432416335119 	  4.007159898801 	
C	 11.553518465575 	  8.432419145119 	 14.137716618801 	
C	 26.802920995575 	  2.248863805119 	  4.035292658801 	
C	 26.234376865575 	  2.248866615119 	 14.165849378801 	
C	 26.802889895575 	  8.432425565119 	  4.035289828801 	
C	 26.234345765575 	  8.432428375119 	 14.165846548801 	
C	  1.702348804830 	  5.173804067559 	  1.392408832071 	
C	  1.133804674830 	  5.173806877559 	 11.522965552071 	
C	  1.702317704830 	 11.357365827559 	  1.392406002071 	
C	  1.133773574830 	 11.357368637559 	 11.522962722071 	
C	 16.383176104830 	  5.173813297559 	  1.420538762071 	
C	 15.814631974830 	  5.173816107559 	 11.551095482071 	
C	 16.383145004830 	 11.357375057559 	  1.420535932071 	
C	 15.814600874830 	 11.357377867559 	 11.551092652071 	
H	  2.219292588233 	  4.750694634007 	  6.423046851445 	
H	  1.650748458233 	  4.750697444007 	 16.553603571445 	
H	  2.219261488233 	 10.934256394007 	  6.423044021445 	
H	  1.650717358233 	 10.934259204007 	 16.553600741445 	
H	 16.900119888233 	  4.750703864007 	  6.451176781445 	
H	 16.331575758233 	  4.750706674007 	 16.581733501445 	
H	 16.900088788233 	 10.934265624007 	  6.451173951445 	
H	 16.331544658233 	 10.934268434007 	 16.581730671445 	
H	 11.213270531263 	  1.709298613479 	  9.533500095288 	
H	 10.644726401263 	  1.709301423479 	 19.664056815288 	
H	 11.213239431263 	  7.892860373479 	  9.533497265288 	
H	 10.644695301263 	  7.892863183479 	 19.664053985288 	
H	 25.894097831263 	  1.709307843479 	  9.561630025288 	
H	 25.325553701263 	  1.709310653479 	 19.692186745288 	
H	 25.894066731263 	  7.892869603479 	  9.561627195288 	
H	 25.325522601263 	  7.892872413479 	 19.692183915288 	
H	 11.457533651700 	  1.363473715279 	  4.248660304118 	
H	 10.888989521700 	  1.363476525279 	 14.379217024118 	
H	 11.457502551700 	  7.547035475279 	  4.248657474118 	
H	 10.888958421700 	  7.547038285279 	 14.379214194118 	
H	 26.138360951700 	  1.363482945279 	  4.276790234118 	
H	 25.569816821700 	  1.363485755279 	 14.407346954118 	
H	 26.138329851700 	  7.547044705279 	  4.276787404118 	
H	 25.569785721700 	  7.547047515279 	 14.407344124118 	
H	  2.463554452857 	  4.404870520757 	  1.138209289971 	
H	  1.895010322857 	  4.404873330757 	 11.268766009971 	
H	  2.463523352857 	 10.588432280757 	  1.138206459971 	
H	  1.894979222857 	 10.588435090757 	 11.268763179971 	
H	 17.144381752857 	  4.404879750757 	  1.166339219971 	
H	 16.575837622857 	  4.404882560757 	 11.296895939971 	
H	 17.144350652857 	 10.588441510757 	  1.166336389971 	
H	 16.575806522857 	 10.588444320757 	 11.296893109971 	
H	  1.265940901391 	  4.357793707928 	  7.645836549858 	
H	  0.697396771391 	  4.357796517928 	 17.776393269858 	
H	  1.265909801391 	 10.541355467928 	  7.645833719858 	
H	  0.697365671391 	 10.541358277928 	 17.776390439858 	
H	 15.946768201391 	  4.357802937928 	  7.673966479858 	
H	 15.378224071391 	  4.357805747928 	 17.804523199858 	
H	 15.946737101391 	 10.541364697928 	  7.673963649858 	
H	 15.378192971391 	 10.541367507928 	 17.804520369858 	
H	 12.175870511959 	  7.382793728134 	  8.316207012573 	
H	 11.607326381959 	  7.382796538134 	 18.446763732573 	
H	 12.175839411959 	 13.566355488134 	  8.316204182573 	
H	 11.607295281959 	 13.566358298134 	 18.446760902573 	
H	 26.856697811959 	  7.382802958134 	  8.344336942573 	
H	 26.288153681959 	  7.382805768134 	 18.474893662573 	
H	 26.856666711959 	 13.566364718134 	  8.344334112573 	
H	 26.288122581959 	 13.566367528134 	 18.474890832573 	
H	 12.410886224199 	  1.756376762694 	  3.025870835661 	
H	 11.842342094199 	  1.756379572694 	 13.156427555661 	
H	 12.410855124199 	  7.939938522694 	  3.025868005661 	
H	 11.842310994199 	  7.939941332694 	 13.156424725661 	
H	 27.091713524199 	  1.756385992694 	  3.054000765661 	
H	 26.523169394199 	  1.756388802694 	 13.184557485661 	
H	 27.091682424199 	  7.939947752694 	  3.053997935661 	
H	 26.523138294199 	  7.939950562694 	 13.184554655661 	
H	  1.500954977972 	 -1.268624903697 	  2.355503016219 	
H	  0.932410847972 	 -1.268622093697 	 12.486059736219 	
H	  1.500923877972 	  4.914936856303 	  2.355500186219 	
H	  0.932379747972 	  4.914939666303 	 12.486056906219 	
H	 16.181782277972 	 -1.268615673697 	  2.383632946219 	
H	 15.613238147972 	 -1.268612863697 	 12.514189666219 	
H	 16.181751177972 	  4.914946086303 	  2.383630116219 	
H	 15.613207047972 	  4.914948896303 	 12.514186836219 	
H	  0.652529283116 	  4.106336926382 	  6.030657448071 	
H	  0.083985153116 	  4.106339736382 	 16.161214168071 	
H	  0.652498183116 	 10.289898686382 	  6.030654618071 	
H	  0.083954053116 	 10.289901496382 	 16.161211338071 	
H	 15.333356583116 	  4.106346156382 	  6.058787378071 	
H	 14.764812453116 	  4.106348966382 	 16.189344098071 	
H	 15.333325483116 	 10.289907916382 	  6.058784548071 	
H	 14.764781353116 	 10.289910726382 	 16.189341268071 	
H	 12.783387799350 	  7.153675411489 	  9.916771419095 	
H	 12.214843669350 	  7.153678221489 	 20.047328139095 	
H	 12.783356699350 	 13.337237171489 	  9.916768589095 	
H	 12.214812569350 	 13.337239981489 	 20.047325309095 	
H	 27.464215099350 	  7.153684641489 	  9.944901349095 	
H	 26.895670969350 	  7.153687451489 	 20.075458069095 	
H	 27.464183999350 	 13.337246401489 	  9.944898519095 	
H	 26.895639869350 	 13.337249211489 	 20.075455239095 	
H	 13.024296502109 	  2.007832445989 	  4.641050691687 	
H	 12.455752372109 	  2.007835255989 	 14.771607411687 	
H	 13.024265402109 	  8.191394205989 	  4.641047861687 	
H	 12.455721272109 	  8.191397015989 	 14.771604581687 	
H	 27.705123802109 	  2.007841675989 	  4.669180621687 	
H	 27.136579672109 	  2.007844485989 	 14.799737341687 	
H	 27.705092702109 	  8.191403435989 	  4.669177791687 	
H	 27.136548572109 	  8.191406245989 	 14.799734511687 	
H	  0.893436926549 	 -1.039506457473 	  0.754938858353 	
H	  0.324892796549 	 -1.039503647473 	 10.885495578353 	
H	  0.893405826549 	  5.144055302527 	  0.754936028353 	
H	  0.324861696549 	  5.144058112527 	 10.885492748353 	
H	 15.574264226549 	 -1.039497227473 	  0.783068788353 	
H	 15.005720096549 	 -1.039494417473 	 10.913625508353 	
H	 15.574233126549 	  5.144064532527 	  0.783065958353 	
H	 15.005688996549 	  5.144067342527 	 10.913622678353 	
C	  1.152897442273 	  2.100893036690 	  7.028108609815 	
C	  0.584353312273 	  2.100895846690 	 17.158665329815 	
C	  1.152866342273 	  8.284454796690 	  7.028105779815 	
C	  0.584322212273 	  8.284457606690 	 17.158662499815 	
C	 15.833724742273 	  2.100902266690 	  7.056238539815 	
C	 15.265180612273 	  2.100905076690 	 17.186795259815 	
C	 15.833693642273 	  8.284464026690 	  7.056235709815 	
C	 15.265149512273 	  8.284466836690 	 17.186792429815 	
C	 12.292455139100 	  5.158542796747 	  8.926768303832 	
C	 11.723911009100 	  5.158545606747 	 19.057325023832 	
C	 12.292424039100 	 11.342104556747 	  8.926765473832 	
C	 11.723879909100 	 11.342107366747 	 19.057322193832 	
C	 26.973282439100 	  5.158552026747 	  8.954898233832 	
C	 26.404738309100 	  5.158554836747 	 19.085454953832 	
C	 26.973251339100 	 11.342113786747 	  8.954895403832 	
C	 26.404707209100 	 11.342116596747 	 19.085452123832 	
C	 12.523927142663 	  4.013278052697 	  3.643600190902 	
C	 11.955383012663 	  4.013280862697 	 13.774156910902 	
C	 12.523896042663 	 10.196839812697 	  3.643597360902 	
C	 11.955351912663 	 10.196842622697 	 13.774154080902 	
C	 27.204754442663 	  4.013287282697 	  3.671730120902 	
C	 26.636210312663 	  4.013290092697 	 13.802286840902 	
C	 27.204723342663 	 10.196849042697 	  3.671727290902 	
C	 26.636179212663 	 10.196851852697 	 13.802284010902 	
C	  1.384369804470 	  0.955626020787 	  1.744941982828 	
C	  0.815825674470 	  0.955628830787 	 11.875498702828 	
C	  1.384338704470 	  7.139187780787 	  1.744939152828 	
C	  0.815794574470 	  7.139190590787 	 11.875495872828 	
C	 16.065197104470 	  0.955635250787 	  1.773071912828 	
C	 15.496652974470 	  0.955638060787 	 11.903628632828 	
C	 16.065166004470 	  7.139197010787 	  1.773069082828 	
C	 15.496621874470 	  7.139199820787 	 11.903625802828 	
H	  0.130072821361 	  2.018946192652 	  6.557812739737 	
H	 -0.438471308639 	  2.018949002652 	 16.688369459737 	
H	  0.130041721361 	  8.202507952652 	  6.557809909737 	
H	 -0.438502408639 	  8.202510762652 	 16.688366629737 	
H	 14.810900121361 	  2.018955422652 	  6.585942669737 	
H	 14.242355991361 	  2.018958232652 	 16.716499389737 	
H	 14.810869021361 	  8.202517182652 	  6.585939839737 	
H	 14.242324891361 	  8.202519992652 	 16.716496559737 	
H	 13.312937290892 	  5.076277253194 	  9.397470340278 	
H	 12.744393160892 	  5.076280063194 	 19.528027060278 	
H	 13.312906190892 	 11.259839013194 	  9.397467510278 	
H	 12.744362060892 	 11.259841823194 	 19.528024230278 	
H	 27.993764590892 	  5.076286483194 	  9.425600270278 	
H	 27.425220460892 	  5.076289293194 	 19.556156990278 	
H	 27.993733490892 	 11.259848243194 	  9.425597440278 	
H	 27.425189360892 	 11.259851053194 	 19.556154160278 	
H	 13.546751789615 	  4.095224876697 	  4.113896367501 	
H	 12.978207659615 	  4.095227686697 	 14.244453087501 	
H	 13.546720689615 	 10.278786636697 	  4.113893537501 	
H	 12.978176559615 	 10.278789446697 	 14.244450257501 	
H	 28.227579089615 	  4.095234106697 	  4.142026297501 	
H	 27.659034959615 	  4.095236916697 	 14.272583017501 	
H	 28.227547989615 	 10.278795866697 	  4.142023467501 	
H	 27.659003859615 	 10.278798676697 	 14.272580187501 	
H	  0.363887528349 	  1.037891454703 	  1.274240207203 	
H	 -0.204656601651 	  1.037894264703 	 11.404796927203 	
H	  0.363856428349 	  7.221453214703 	  1.274237377203 	
H	 -0.204687701651 	  7.221456024703 	 11.404794097203 	
H	 15.044714828349 	  1.037900684703 	  1.302370137203 	
H	 14.476170698349 	  1.037903494703 	 11.432926857203 	
H	 15.044683728349 	  7.221462444703 	  1.302367307203 	
H	 14.476139598349 	  7.221465254703 	 11.432924027203 	
H	  0.866139470689 	  2.133019044124 	  8.122852910889 	
H	  0.297595340689 	  2.133021854124 	 18.253409630889 	
H	  0.866108370689 	  8.316580804124 	  8.122850080889 	
H	  0.297564240689 	  8.316583614124 	 18.253406800889 	
H	 15.546966770689 	  2.133028274124 	  8.150982840889 	
H	 14.978422640689 	  2.133031084124 	 18.281539560889 	
H	 15.546935670689 	  8.316590034124 	  8.150980010889 	
H	 14.978391540689 	  8.316592844124 	 18.281536730889 	
H	 12.576862010807 	  5.190828227531 	  7.831832388338 	
H	 12.008317880807 	  5.190831037531 	 17.962389108338 	
H	 12.576830910807 	 11.374389987531 	  7.831829558338 	
H	 12.008286780807 	 11.374392797531 	 17.962386278338 	
H	 27.257689310807 	  5.190837457531 	  7.859962318338 	
H	 26.689145180807 	  5.190840267531 	 17.990519038338 	
H	 27.257658210807 	 11.374399217531 	  7.859959488338 	
H	 26.689114080807 	 11.374402027531 	 17.990516208338 	
H	 12.810685274320 	  3.981152951438 	  2.548855646264 	
H	 12.242141144320 	  3.981155761438 	 12.679412366264 	
H	 12.810654174320 	 10.164714711438 	  2.548852816264 	
H	 12.242110044320 	 10.164717521438 	 12.679409536264 	
H	 27.491512574320 	  3.981162181438 	  2.576985576264 	
H	 26.922968444320 	  3.981164991438 	 12.707542296264 	
H	 27.491481474320 	 10.164723941438 	  2.576982746264 	
H	 26.922937344320 	 10.164726751438 	 12.707539466264 	
H	  1.099963085421 	  0.923340278416 	  2.839877893772 	
H	  0.531418955421 	  0.923343088416 	 12.970434613772 	
H	  1.099931985421 	  7.106902038416 	  2.839875063772 	
H	  0.531387855421 	  7.106904848416 	 12.970431783772 	
H	 15.780790385421 	  0.923349508416 	  2.868007823772 	
H	 15.212246255421 	  0.923352318416 	 12.998564543772 	
H	 15.780759285421 	  7.106911268416 	  2.868004993772 	
H	 15.212215155421 	  7.106914078416 	 12.998561713772 	
H	  1.365967007145 	  0.997309153971 	  7.134336216185 	
H	  0.797422877145 	  0.997311963971 	 17.264892936185 	
H	  1.365935907145 	  7.180870913971 	  7.134333386185 	
H	  0.797391777145 	  7.180873723971 	 17.264890106185 	
H	 16.046794307145 	  0.997318383971 	  7.162466146185 	
H	 15.478250177145 	  0.997321193971 	 17.293022866185 	
H	 16.046763207145 	  7.180880143971 	  7.162463316185 	
H	 15.478219077145 	  7.180882953971 	 17.293020036185 	
H	 12.076660775014 	  4.056475313227 	  8.819968617623 	
H	 11.508116645014 	  4.056478123227 	 18.950525337623 	
H	 12.076629675014 	 10.240037073227 	  8.819965787623 	
H	 11.508085545014 	 10.240039883227 	 18.950522507623 	
H	 26.757488075014 	  4.056484543227 	  8.848098547623 	
H	 26.188943945014 	  4.056487353227 	 18.978655267623 	
H	 26.757456975014 	 10.240046303227 	  8.848095717623 	
H	 26.188912845014 	 10.240049113227 	 18.978652437623 	
H	 12.310856555366 	  5.116862196245 	  3.537374695961 	
H	 11.742312425366 	  5.116865006245 	 13.667931415961 	
H	 12.310825455366 	 11.300423956245 	  3.537371865961 	
H	 11.742281325366 	 11.300426766245 	 13.667928585961 	
H	 26.991683855366 	  5.116871426245 	  3.565504625961 	
H	 26.423139725366 	  5.116874236245 	 13.696061345961 	
H	 26.991652755366 	 11.300433186245 	  3.565501795961 	
H	 26.423108625366 	 11.300435996245 	 13.696058515961 	
H	  1.600164025964 	  2.057693489201 	  1.851742199826 	
H	  1.031619895964 	  2.057696299201 	 11.982298919826 	
H	  1.600132925964 	  8.241255249201 	  1.851739369826 	
H	  1.031588795964 	  8.241258059201 	 11.982296089826 	
H	 16.280991325964 	  2.057702719201 	  1.879872129826 	
H	 15.712447195964 	  2.057705529201 	 12.010428849826 	
H	 16.280960225964 	  8.241264479201 	  1.879869299826 	
H	 15.712416095964 	  8.241267289201 	 12.010426019826 	
768 
Energy: -9.1994948316489996e+01 
S	  8.342348925666 	  1.435797153339 	  0.128823304087 	
S	  7.773804795666 	  1.435799963339 	 10.259380024087 	
S	  8.342317825666 	  7.619358913339 	  0.128820474087 	
S	  7.773773695666 	  7.619361723339 	 10.259377194087 	
S	 23.023176225666 	  1.435806383339 	  0.156953234087 	
S	 22.454632095666 	  1.435809193339 	 10.287509954087 	
S	 23.023145125666 	  7.619368143339 	  0.156950404087 	
S	 22.454600995666 	  7.619370953339 	 10.287507124087 	
S	  5.503604165319 	  4.486974373512 	  5.299178903350 	
S	  4.935060035319 	  4.486977183512 	 15.429735623350 	
S	  5.503573065319 	 10.670536133512 	  5.299176073350 	
S	  4.935028935319 	 10.670538943512 	 15.429732793350 	
S	 20.184431465319 	  4.486983603512 	  5.327308833350 	
S	 19.615887335319 	  4.486986413512 	 15.457865553350 	
S	 20.184400365319 	 10.670545363512 	  5.327306003350 	
S	 19.615856235319 	 10.670548173512 	 15.457862723350 	
S	  5.278816015499 	  4.669499688006 	 10.608465301161 	
S	  4.710271885499 	  4.669502498006 	 20.739022021161 	
S	  5.278784915499 	 10.853061448006 	 10.608462471161 	
S	  4.710240785499 	 10.853064258006 	 20.739019191161 	
S	 19.959643315499 	  4.669508918006 	 10.636595231161 	
S	 19.391099185499 	  4.669511728006 	 20.767151951161 	
S	 19.959612215499 	 10.853070678006 	 10.636592401161 	
S	 19.391068085499 	 10.853073488006 	 20.767149121161 	
S	  8.117562125599 	  1.618322494753 	  5.438109312858 	
S	  7.549017995599 	  1.618325304753 	 15.568666032858 	
S	  8.117531025599 	  7.801884254753 	  5.438106482858 	
S	  7.548986895599 	  7.801887064753 	 15.568663202858 	
S	 22.798389425599 	  1.618331724753 	  5.466239242858 	
S	 22.229845295599 	  1.618334534753 	 15.596795962858 	
S	 22.798358325599 	  7.801893484753 	  5.466236412858 	
S	 22.229814195599 	  7.801896294753 	 15.596793132858 	
C	  6.548126090599 	  2.543462741400 	 10.302545061833 	
C	  5.979581960599 	  2.543465551400 	 20.433101781833 	
C	  6.548094990599 	  8.727024501400 	 10.302542231833 	
C	  5.979550860599 	  8.727027311400 	 20.433098951833 	
C	 21.228953390599 	  2.543471971400 	 10.330674991833 	
C	 20.660409260599 	  2.543474781400 	 20.461231711833 	
C	 21.228922290599 	  8.727033731400 	 10.330672161833 	
C	 20.660378160599 	  8.727036541400 	 20.461228881833 	
C	  6.850621738757 	  5.548389267103 	  5.779610926305 	
C	  6.282077608757 	  5.548392077103 	 15.910167646305 	
C	  6.850590638757 	 11.731951027103 	  5.779608096305 	
C	  6.282046508757 	 11.731953837103 	 15.910164816305 	
C	 21.531449038757 	  5.548398497103 	  5.807740856305 	
C	 20.962904908757 	  5.548401307103 	 15.938297576305 	
C	 21.531417938757 	 11.731960257103 	  5.807738026305 	
C	 20.962873808757 	 11.731963067103 	 15.938294746305 	
C	  7.073038856078 	  3.561834092385 	  0.434743369050 	
C	  6.504494726078 	  3.561836902385 	 10.565300089050 	
C	  7.073007756078 	  9.745395852385 	  0.434740539050 	
C	  6.504463626078 	  9.745398662385 	 10.565297259050 	
C	 21.753866156078 	  3.561843322385 	  0.462873299050 	
C	 21.185322026078 	  3.561846132385 	 10.593430019050 	
C	 21.753835056078 	  9.745405082385 	  0.462870469050 	
C	 21.185290926078 	  9.745407892385 	 10.593427189050 	
C	  6.770544390378 	  0.556907652718 	  4.957677121703 	
C	  6.202000260378 	  0.556910462718 	 15.088233841703 	
C	  6.770513290378 	  6.740469412718 	  4.957674291703 	
C	  6.201969160378 	  6.740472222718 	 15.088231011703 	
C	 21.451371690378 	  0.556916882718 	  4.985807051703 	
C	 20.882827560378 	  0.556919692718 	 15.116363771703 	
C	 21.451340590378 	  6.740478642718 	  4.985804221703 	
C	 20.882796460378 	  6.740481452718 	 15.116360941703 	
C	  5.529851090780 	  2.404782890232 	  9.318359337045 	
C	  4.961306960780 	  2.404785700232 	 19.448916057045 	
C	  5.529819990780 	  8.588344650232 	  9.318356507045 	
C	  4.961275860780 	  8.588347460232 	 19.448913227045 	
C	 20.210678390780 	  2.404792120232 	  9.346489267045 	
C	 19.642134260780 	  2.404794930232 	 19.477045987045 	
C	 20.210647290780 	  8.588353880232 	  9.346486437045 	
C	 19.642103160780 	  8.588356690232 	 19.477043157045 	
C	  7.861461886674 	  5.448123077608 	  6.728000653335 	
C	  7.292917756674 	  5.448125887608 	 16.858557373335 	
C	  7.861430786674 	 11.631684837608 	  6.727997823335 	
C	  7.292886656674 	 11.631687647608 	 16.858554543335 	
C	 22.542289186674 	  5.448132307608 	  6.756130583335 	
C	 21.973745056674 	  5.448135117608 	 16.886687303335 	
C	 22.542258086674 	 11.631694067608 	  6.756127753335 	
C	 21.973713956674 	 11.631696877608 	 16.886684473335 	
C	  8.091313815263 	  3.700514024814 	  1.418929057724 	
C	  7.522769685263 	  3.700516834814 	 11.549485777724 	
C	  8.091282715263 	  9.884075784814 	  1.418926227724 	
C	  7.522738585263 	  9.884078594814 	 11.549482947724 	
C	 22.772141115263 	  3.700523254814 	  1.447058987724 	
C	 22.203596985263 	  3.700526064814 	 11.577615707724 	
C	 22.772110015263 	  9.884085014814 	  1.447056157724 	
C	 22.203565885263 	  9.884087824814 	 11.577612877724 	
C	  5.759704028224 	  0.657173897596 	  4.009287645595 	
C	  5.191159898224 	  0.657176707596 	 14.139844365595 	
C	  5.759672928224 	  6.840735657596 	  4.009284815595 	
C	  5.191128798224 	  6.840738467596 	 14.139841535595 	
C	 20.440531328224 	  0.657183127596 	  4.037417575595 	
C	 19.871987198224 	  0.657185937596 	 14.167974295595 	
C	 20.440500228224 	  6.840744887596 	  4.037414745595 	
C	 19.871956098224 	  6.840747697596 	 14.167971465595 	
C	  4.699427174374 	  3.499564573812 	  9.335815129284 	
C	  4.130883044374 	  3.499567383812 	 19.466371849284 	
C	  4.699396074374 	  9.683126333812 	  9.335812299284 	
C	  4.130851944374 	  9.683129143812 	 19.466369019284 	
C	 19.380254474374 	  3.499573803812 	  9.363945059284 	
C	 18.811710344374 	  3.499576613812 	 19.494501779284 	
C	 19.380223374374 	  9.683135563812 	  9.363942229284 	
C	 18.811679244374 	  9.683138373812 	 19.494498949284 	
C	  8.696968519036 	  0.454421322028 	  6.711960467344 	
C	  8.128424389036 	  0.454424132028 	 16.842517187344 	
C	  8.696937419036 	  6.637983082028 	  6.711957637344 	
C	  8.128393289036 	  6.637985892028 	 16.842514357344 	
C	 23.377795819036 	  0.454430552028 	  6.740090397344 	
C	 22.809251689036 	  0.454433362028 	 16.870647117344 	
C	 23.377764719036 	  6.637992312028 	  6.740087567344 	
C	 22.809220589036 	  6.637995122028 	 16.870644287344 	
C	  8.921737715449 	  2.605732274341 	  1.401473276021 	
C	  8.353193585449 	  2.605735084341 	 11.532029996021 	
C	  8.921706615449 	  8.789294034341 	  1.401470446021 	
C	  8.353162485449 	  8.789296844341 	 11.532027166021 	
C	 23.602565015449 	  2.605741504341 	  1.429603206021 	
C	 23.034020885449 	  2.605744314341 	 11.560159926021 	
C	 23.602533915449 	  8.789303264341 	  1.429600376021 	
C	 23.033989785449 	  8.789306074341 	 11.560157096021 	
C	  4.924197460964 	  5.650875629186 	  4.025328042394 	
C	  4.355653330964 	  5.650878439186 	 14.155884762394 	
C	  4.924166360964 	 11.834437389186 	  4.025325212394 	
C	  4.355622230964 	 11.834440199186 	 14.155881932394 	
C	 19.605024760964 	  5.650884859186 	  4.053457972394 	
C	 19.036480630964 	  5.650887669186 	 14.184014692394 	
C	 19.604993660964 	 11.834446619186 	  4.053455142394 	
C	 19.036449530964 	 11.834449429186 	 14.184011862394 	
C	  3.668570169768 	  3.636557803880 	  8.548146729397 	
C	  3.100026039768 	  3.636560613880 	 18.678703449397 	
C	  3.668539069768 	  9.820119563880 	  8.548143899397 	
C	  3.099994939768 	  9.820122373880 	 18.678700619397 	
C	 18.349397469768 	  3.636567033880 	  8.576276659397 	
C	 17.780853339768 	  3.636569843880 	 18.706833379397 	
C	 18.349366369768 	  9.820128793880 	  8.576273829397 	
C	 17.780822239768 	  9.820131603880 	 18.706830549397 	
C	  9.720189734773 	  0.595694187843 	  7.489951236144 	
C	  9.151645604773 	  0.595696997843 	 17.620507956144 	
C	  9.720158634773 	  6.779255947843 	  7.489948406144 	
C	  9.151614504773 	  6.779258757843 	 17.620505126144 	
C	 24.401017034773 	  0.595703417843 	  7.518081166144 	
C	 23.832472904773 	  0.595706227843 	 17.648637886144 	
C	 24.400985934773 	  6.779265177843 	  7.518078336144 	
C	 23.832441804773 	  6.779267987843 	 17.648635056144 	
C	  9.952594744189 	  2.468739224699 	  2.189141911127 	
C	  9.384050614189 	  2.468742034699 	 12.319698631127 	
C	  9.952563644189 	  8.652300984699 	  2.189139081127 	
C	  9.384019514189 	  8.652303794699 	 12.319695801127 	
C	 24.633422044189 	  2.468748454699 	  2.217271841127 	
C	 24.064877914189 	  2.468751264699 	 12.347828561127 	
C	 24.633390944189 	  8.652310214699 	  2.217269011127 	
C	 24.064846814189 	  8.652313024699 	 12.347825731127 	
C	  3.900975793672 	  5.509602857017 	  3.247337740595 	
C	  3.332431663672 	  5.509605667017 	 13.377894460595 	
C	  3.900944693672 	 11.693164617017 	  3.247334910595 	
C	  3.332400563672 	 11.693167427017 	 13.377891630595 	
C	 18.581803093672 	  5.509612087017 	  3.275467670595 	
C	 18.013258963672 	  5.509614897017 	 13.406024390595 	
C	 18.581771993672 	 11.693173847017 	  3.275464840595 	
C	 18.013227863672 	 11.693176657017 	 13.406021560595 	
H	  3.025847775463 	  4.590509270489 	  8.621587173233 	
H	  2.457303645463 	  4.590512080489 	 18.752143893233 	
H	  3.025816675463 	 10.774071030489 	  8.621584343233 	
H	  2.457272545463 	 10.774073840489 	 18.752141063233 	
H	 17.706675075463 	  4.590518500489 	  8.649717103233 	
H	 17.138130945463 	  4.590521310489 	 18.780273823233 	
H	 17.706643975463 	 10.774080260489 	  8.649714273233 	
H	 17.138099845463 	 10.774083070489 	 18.780270993233 	
H	 10.368643071425 	  1.536326196648 	  7.426828685309 	
H	  9.800098941425 	  1.536329006648 	 17.557385405309 	
H	 10.368611971425 	  7.719887956648 	  7.426825855309 	
H	  9.800067841425 	  7.719890766648 	 17.557382575309 	
H	 25.049470371425 	  1.536335426648 	  7.454958615309 	
H	 24.480926241425 	  1.536338236648 	 17.585515335309 	
H	 25.049439271425 	  7.719897186648 	  7.454955785309 	
H	 24.480895141425 	  7.719899996648 	 17.585512505309 	
H	 10.595317031160 	  1.514787647298 	  2.115701670734 	
H	 10.026772901160 	  1.514790457298 	 12.246258390734 	
H	 10.595285931160 	  7.698349407298 	  2.115698840734 	
H	 10.026741801160 	  7.698352217298 	 12.246255560734 	
H	 25.276144331160 	  1.514796877298 	  2.143831600734 	
H	 24.707600201160 	  1.514799687298 	 12.274388320734 	
H	 25.276113231160 	  7.698358637298 	  2.143828770734 	
H	 24.707569101160 	  7.698361447298 	 12.274385490734 	
H	  3.252522575727 	  4.568970789467 	  3.310460486226 	
H	  2.683978445727 	  4.568973599467 	 13.441017206226 	
H	  3.252491475727 	 10.752532549467 	  3.310457656226 	
H	  2.683947345727 	 10.752535359467 	 13.441014376226 	
H	 17.933349875727 	  4.568980019467 	  3.338590416226 	
H	 17.364805745727 	  4.568982829467 	 13.469147136226 	
H	 17.933318775727 	 10.752541779467 	  3.338587586226 	
H	 17.364774645727 	 10.752544589467 	 13.469144306226 	
C	  3.341808358714 	  2.713386184729 	  7.657887663297 	
C	  2.773264228714 	  2.713388994729 	 17.788444383297 	
C	  3.341777258714 	  8.896947944729 	  7.657884833297 	
C	  2.773233128714 	  8.896950754729 	 17.788441553297 	
C	 18.022635658714 	  2.713395414729 	  7.686017593297 	
C	 17.454091528714 	  2.713398224729 	 17.816574313297 	
C	 18.022604558714 	  8.896957174729 	  7.686014763297 	
C	 17.454060428714 	  8.896959984729 	 17.816571483297 	
C	 10.057322556551 	  5.752836988304 	  8.397394509615 	
C	  9.488778426551 	  5.752839798304 	 18.527951229615 	
C	 10.057291456551 	 11.936398748304 	  8.397391679615 	
C	  9.488747326551 	 11.936401558304 	 18.527948399615 	
C	 24.738149856551 	  5.752846218304 	  8.425524439615 	
C	 24.169605726551 	  5.752849028304 	 18.556081159615 	
C	 24.738118756551 	 11.936407978304 	  8.425521609615 	
C	 24.169574626551 	 11.936410788304 	 18.556078329615 	
C	 10.279356427422 	  3.391910944013 	  3.079400674777 	
C	  9.710812297422 	  3.391913754013 	 13.209957394777 	
C	 10.279325327422 	  9.575472704013 	  3.079397844777 	
C	  9.710781197422 	  9.575475514013 	 13.209954564777 	
C	 24.960183727422 	  3.391920174013 	  3.107530604777 	
C	 24.391639597422 	  3.391922984013 	 13.238087324777 	
C	 24.960152627422 	  9.575481934013 	  3.107527774777 	
C	 24.391608497422 	  9.575484744013 	 13.238084494777 	
C	  3.563842556986 	  0.352460170079 	  2.339894710128 	
C	  2.995298426986 	  0.352462980079 	 12.470451430128 	
C	  3.563811456986 	  6.536021930079 	  2.339891880128 	
C	  2.995267326986 	  6.536024740079 	 12.470448600128 	
C	 18.244669856986 	  0.352469400079 	  2.368024640128 	
C	 17.676125726986 	  0.352472210079 	 12.498581360128 	
C	 18.244638756986 	  6.536031160079 	  2.368021810128 	
C	 17.676094626986 	  6.536033970079 	 12.498578530128 	
C	  4.167822356236 	  1.628878172258 	  7.608821042881 	
C	  3.599278226236 	  1.628880982258 	 17.739377762881 	
C	  4.167791256236 	  7.812439932258 	  7.608818212881 	
C	  3.599247126236 	  7.812442742258 	 17.739374932881 	
C	 18.848649656236 	  1.628887402258 	  7.636950972881 	
C	 18.280105526236 	  1.628890212258 	 17.767507692881 	
C	 18.848618556236 	  7.812449162258 	  7.636948142881 	
C	 18.280074426236 	  7.812451972258 	 17.767504862881 	
C	  9.227433908099 	  4.683283568274 	  8.437154697082 	
C	  8.658889778099 	  4.683286378274 	 18.567711417082 	
C	  9.227402808099 	 10.866845328274 	  8.437151867082 	
C	  8.658858678099 	 10.866848138274 	 18.567708587082 	
C	 23.908261208099 	  4.683292798274 	  8.465284627082 	
C	 23.339717078099 	  4.683295608274 	 18.595841347082 	
C	 23.908230108099 	 10.866854558274 	  8.465281797082 	
C	 23.339685978099 	 10.866857368274 	 18.595838517082 	
C	  9.453342513459 	  4.476419035666 	  3.128467133958 	
C	  8.884798383459 	  4.476421845666 	 13.259023853958 	
C	  9.453311413459 	 10.659980795666 	  3.128464303958 	
C	  8.884767283459 	 10.659983605666 	 13.259021023958 	
C	 24.134169813459 	  4.476428265666 	  3.156597063958 	
C	 23.565625683459 	  4.476431075666 	 13.287153783958 	
C	 24.134138713459 	 10.659990025666 	  3.156594233958 	
C	 23.565594583459 	 10.659992835666 	 13.287150953958 	
C	  4.393731164534 	  1.422013489248 	  2.300134188780 	
C	  3.825187034534 	  1.422016299248 	 12.430690908780 	
C	  4.393700064534 	  7.605575249248 	  2.300131358780 	
C	  3.825155934534 	  7.605578059248 	 12.430688078780 	
C	 19.074558464534 	  1.422022719248 	  2.328264118780 	
C	 18.506014334534 	  1.422025529248 	 12.458820838780 	
C	 19.074527364534 	  7.605584479248 	  2.328261288780 	
C	 18.505983234534 	  7.605587289248 	 12.458818008780 	
H	  3.932158520408 	  0.819905942008 	  6.825715394413 	
H	  3.363614390408 	  0.819908752008 	 16.956272114413 	
H	  3.932127420408 	  7.003467702008 	  6.825712564413 	
H	  3.363583290408 	  7.003470512008 	 16.956269284413 	
H	 18.612985820408 	  0.819915172008 	  6.853845324413 	
H	 18.044441690408 	  0.819917982008 	 16.984402044413 	
H	 18.612954720408 	  7.003476932008 	  6.853842494413 	
H	 18.044410590408 	  7.003479742008 	 16.984399214413 	
H	  9.463672041327 	  3.874310393649 	  9.222575506575 	
H	  8.895127911327 	  3.874313203649 	 19.353132226575 	
H	  9.463640941327 	 10.057872153649 	  9.222572676575 	
H	  8.895096811327 	 10.057874963649 	 19.353129396575 	
H	 24.144499341327 	  3.874319623649 	  9.250705436575 	
H	 23.575955211327 	  3.874322433649 	 19.381262156575 	
H	 24.144468241327 	 10.057881383649 	  9.250702606575 	
H	 23.575924111327 	 10.057884193649 	 19.381259326575 	
H	  9.689006491920 	  5.285391452131 	  3.911572564626 	
H	  9.120462361920 	  5.285394262131 	 14.042129284626 	
H	  9.688975391920 	 11.468953212131 	  3.911569734626 	
H	  9.120431261920 	 11.468956022131 	 14.042126454626 	
H	 24.369833791920 	  5.285400682131 	  3.939702494626 	
H	 23.801289661920 	  5.285403492131 	 14.070259214626 	
H	 24.369802691920 	 11.468962442131 	  3.939699664626 	
H	 23.801258561920 	 11.468965252131 	 14.070256384626 	
H	  4.157492658339 	  2.230986809547 	  1.514713625540 	
H	  3.588948528339 	  2.230989619547 	 11.645270345540 	
H	  4.157461558339 	  8.414548569547 	  1.514710795540 	
H	  3.588917428339 	  8.414551379547 	 11.645267515540 	
H	 18.838319958339 	  2.230996039547 	  1.542843555540 	
H	 18.269775828339 	  2.230998849547 	 11.673400275540 	
H	 18.838288858339 	  8.414557799547 	  1.542840725540 	
H	 18.269744728339 	  8.414560609547 	 11.673397445540 	
C	  5.176913724990 	  1.477347313681 	  8.367113656066 	
C	  4.608369594990 	  1.477350123681 	 18.497670376066 	
C	  5.176882624990 	  7.660909073681 	  8.367110826066 	
C	  4.608338494990 	  7.660911883681 	 18.497667546066 	
C	 19.857741024990 	  1.477356543681 	  8.395243586066 	
C	 19.289196894990 	  1.477359353681 	 18.525800306066 	
C	 19.857709924990 	  7.660918303681 	  8.395240756066 	
C	 19.289165794990 	  7.660921113681 	 18.525797476066 	
C	  8.217835853155 	  4.531660512062 	  7.678405941582 	
C	  7.649291723155 	  4.531663322062 	 17.808962661582 	
C	  8.217804753155 	 10.715222272062 	  7.678403111582 	
C	  7.649260623155 	 10.715225082062 	 17.808959831582 	
C	 22.898663153155 	  4.531669742062 	  7.706535871582 	
C	 22.330119023155 	  4.531672552062 	 17.837092591582 	
C	 22.898632053155 	 10.715231502062 	  7.706533041582 	
C	 22.330087923155 	 10.715234312062 	 17.837089761582 	
C	  8.444251172684 	  4.627949769888 	  2.370174506222 	
C	  7.875707042684 	  4.627952579888 	 12.500731226222 	
C	  8.444220072684 	 10.811511529888 	  2.370171676222 	
C	  7.875675942684 	 10.811514339888 	 12.500728396222 	
C	 23.125078472684 	  4.627958999888 	  2.398304436222 	
C	 22.556534342684 	  4.627961809888 	 12.528861156222 	
C	 23.125047372684 	 10.811520759888 	  2.398301606222 	
C	 22.556503242684 	 10.811523569888 	 12.528858326222 	
C	  5.403329592577 	  1.573636514607 	  3.058882538865 	
C	  4.834785462577 	  1.573639324607 	 13.189439258865 	
C	  5.403298492577 	  7.757198274607 	  3.058879708865 	
C	  4.834754362577 	  7.757201084607 	 13.189436428865 	
C	 20.084156892577 	  1.573645744607 	  3.087012468865 	
C	 19.515612762577 	  1.573648554607 	 13.217569188865 	
C	 20.084125792577 	  7.757207504607 	  3.087009638865 	
C	 19.515581662577 	  7.757210314607 	 13.217566358865 	
H	  5.844634451673 	  0.544379371233 	  8.281017815542 	
H	  5.276090321673 	  0.544382181233 	 18.411574535542 	
H	  5.844603351673 	  6.727941131233 	  8.281014985542 	
H	  5.276059221673 	  6.727943941233 	 18.411571705542 	
H	 20.525461751673 	  0.544388601233 	  8.309147745542 	
H	 19.956917621673 	  0.544391411233 	 18.439704465542 	
H	 20.525430651673 	  6.727950361233 	  8.309144915542 	
H	 19.956886521673 	  6.727953171233 	 18.439701635542 	
H	  7.549824586680 	  3.597513297420 	  7.765558527384 	
H	  6.981280456680 	  3.597516107420 	 17.896115247384 	
H	  7.549793486680 	  9.781075057420 	  7.765555697384 	
H	  6.981249356680 	  9.781077867420 	 17.896112417384 	
H	 22.230651886680 	  3.597522527420 	  7.793688457384 	
H	 21.662107756680 	  3.597525337420 	 17.924245177384 	
H	 22.230620786680 	  9.781084287420 	  7.793685627384 	
H	 21.662076656680 	  9.781087097420 	 17.924242347384 	
H	  7.776530447745 	  5.560917737714 	  2.456270087741 	
H	  7.207986317745 	  5.560920547714 	 12.586826807741 	
H	  7.776499347745 	 11.744479497714 	  2.456267257741 	
H	  7.207955217745 	 11.744482307714 	 12.586823977741 	
H	 22.457357747745 	  5.560926967714 	  2.484400017741 	
H	 21.888813617745 	  5.560929777714 	 12.614956737741 	
H	 22.457326647745 	 11.744488727714 	  2.484397187741 	
H	 21.888782517745 	 11.744491537714 	 12.614953907741 	
H	  6.071340845995 	  2.507783710363 	  2.971729757678 	
H	  5.502796715995 	  2.507786520363 	 13.102286477678 	
H	  6.071309745995 	  8.691345470363 	  2.971726927678 	
H	  5.502765615995 	  8.691348280363 	 13.102283647678 	
H	 20.752168145995 	  2.507792940363 	  2.999859687678 	
H	 20.183624015995 	  2.507795750363 	 13.130416407678 	
H	 20.752137045995 	  8.691354700363 	  2.999856857678 	
H	 20.183592915995 	  8.691357510363 	 13.130413577678 	
C	  1.978463986421 	  2.849671032204 	  6.680714505794 	
C	  1.409919856421 	  2.849673842204 	 16.811271225794 	
C	  1.978432886421 	  9.033232792204 	  6.680711675794 	
C	  1.409888756421 	  9.033235602204 	 16.811268395794 	
C	 16.659291286421 	  2.849680262204 	  6.708844435794 	
C	 16.090747156421 	  2.849683072204 	 16.839401155794 	
C	 16.659260186421 	  9.033242022204 	  6.708841605794 	
C	 16.090716056421 	  9.033244832204 	 16.839398325794 	
C	 11.374967547052 	  5.797649667546 	  9.355775000849 	
C	 10.806423417052 	  5.797652477546 	 19.486331720849 	
C	 11.374936447052 	 11.981211427546 	  9.355772170849 	
C	 10.806392317052 	 11.981214237546 	 19.486328890849 	
C	 26.055794847052 	  5.797658897546 	  9.383904930849 	
C	 25.487250717052 	  5.797661707546 	 19.514461650849 	
C	 26.055763747052 	 11.981220657546 	  9.383902100849 	
C	 25.487219617052 	 11.981223467546 	 19.514458820849 	
C	 11.642700486333 	  3.255626480540 	  4.056573953523 	
C	 11.074156356333 	  3.255629290540 	 14.187130673523 	
C	 11.642669386333 	  9.439188240540 	  4.056571123523 	
C	 11.074125256333 	  9.439191050540 	 14.187127843523 	
C	 26.323527786333 	  3.255635710540 	  4.084703883523 	
C	 25.754983656333 	  3.255638520540 	 14.215260603523 	
C	 26.323496686333 	  9.439197470540 	  4.084701053523 	
C	 25.754952556333 	  9.439200280540 	 14.215257773523 	
C	  2.246197005636 	  0.307647405949 	  1.381514773627 	
C	  1.677652875636 	  0.307650215949 	 11.512071493627 	
C	  2.246165905636 	  6.491209165949 	  1.381511943627 	
C	  1.677621775636 	  6.491211975949 	 11.512068663627 	
C	 16.927024305636 	  0.307656635949 	  1.409644703627 	
C	 16.358480175636 	  0.307659445949 	 11.540201423627 	
C	 16.926993205636 	  6.491218395949 	  1.409641873627 	
C	 16.358449075636 	  6.491221205949 	 11.540198593627 	
C	  2.194789022412 	  2.455455590834 	  5.555348389287 	
C	  1.626244892412 	  2.455458400834 	 15.685905109287 	
C	  2.194757922412 	  8.639017350834 	  5.555345559287 	
C	  1.626213792412 	  8.639020160834 	 15.685902279287 	
C	 16.875616322412 	  2.455464820834 	  5.583478319287 	
C	 16.307072192412 	  2.455467630834 	 15.714035039287 	
C	 16.875585222412 	  8.639026580834 	  5.583475489287 	
C	 16.307041092412 	  8.639029390834 	 15.714032209287 	
C	 11.186010775955 	 -0.443156423710 	 10.398138022316 	
C	 10.617466645955 	 -0.443153613710 	 20.528694742316 	
C	 11.185979675955 	  5.740405336290 	 10.398135192316 	
C	 10.617435545955 	  5.740408146290 	 20.528691912316 	
C	 25.866838075955 	 -0.443147193710 	 10.426267952316 	
C	 25.298293945955 	 -0.443144383710 	 20.556824672316 	
C	 25.866806975955 	  5.740414566290 	 10.426265122316 	
C	 25.298262845955 	  5.740417376290 	 20.556821842316 	
C	 11.426374445392 	  3.649840994803 	  5.181940872372 	
C	 10.857830315392 	  3.649843804803 	 15.312497592372 	
C	 11.426343345392 	  9.833402754803 	  5.181938042372 	
C	 10.857799215392 	  9.833405564803 	 15.312494762372 	
C	 26.107201745392 	  3.649850224803 	  5.210070802372 	
C	 25.538657615392 	  3.649853034803 	 15.340627522372 	
C	 26.107170645392 	  9.833411984803 	  5.210067972372 	
C	 25.538626515392 	  9.833414794803 	 15.340624692372 	
C	  2.435153457024 	  6.548453724456 	  0.339151623730 	
C	  1.866609327024 	  6.548456534456 	 10.469708343730 	
C	  2.435122357024 	 12.732015484456 	  0.339148793730 	
C	  1.866578227024 	 12.732018294456 	 10.469705513730 	
C	 17.115980757024 	  6.548462954456 	  0.367281553730 	
C	 16.547436627024 	  6.548465764456 	 10.497838273730 	
C	 17.115949657024 	 12.732024714456 	  0.367278723730 	
C	 16.547405527024 	 12.732027524456 	 10.497835443730 	
H	  3.102802085949 	  2.838506790698 	  4.980811392457 	
H	  2.534257955949 	  2.838509600698 	 15.111368112457 	
H	  3.102770985949 	  9.022068550698 	  4.980808562457 	
H	  2.534226855949 	  9.022071360698 	 15.111365282457 	
H	 17.783629385949 	  2.838516020698 	  5.008941322457 	
H	 17.215085255949 	  2.838518830698 	 15.139498042457 	
H	 17.783598285949 	  9.022077780698 	  5.008938492457 	
H	 17.215054155949 	  9.022080590698 	 15.139495212457 	
H	 10.294226506247 	 -0.221520170101 	 11.060592236221 	
H	  9.725682376247 	 -0.221517360101 	 21.191148956221 	
H	 10.294195406247 	  5.962041589899 	 11.060589406221 	
H	  9.725651276247 	  5.962044399899 	 21.191146126221 	
H	 24.975053806247 	 -0.221510940101 	 11.088722166221 	
H	 24.406509676247 	 -0.221508130101 	 21.219278886221 	
H	 24.975022706247 	  5.962050819899 	 11.088719336221 	
H	 24.406478576247 	  5.962053629899 	 21.219276056221 	
H	 10.518362016476 	  3.266787361202 	  5.756477318273 	
H	  9.949817886476 	  3.266790171202 	 15.887034038273 	
H	 10.518330916476 	  9.450349121202 	  5.756474488273 	
H	  9.949786786476 	  9.450351931202 	 15.887031208273 	
H	 25.199189316476 	  3.266796591202 	  5.784607248273 	
H	 24.630645186476 	  3.266799401202 	 15.915163968273 	
H	 25.199158216476 	  9.450358351202 	  5.784604418273 	
H	 24.630614086476 	  9.450361161202 	 15.915161138273 	
H	  3.326937472459 	  6.326817529563 	 -0.323302909032 	
H	  2.758393342459 	  6.326820339563 	  9.807253810968 	
H	  3.326906372459 	 12.510379289563 	 -0.323305739032 	
H	  2.758362242459 	 12.510382099563 	  9.807250980968 	
H	 18.007764772459 	  6.326826759563 	 -0.295172979032 	
H	 17.439220642459 	  6.326829569563 	  9.835383740968 	
H	 18.007733672459 	 12.510388519563 	 -0.295175809032 	
H	 17.439189542459 	 12.510391329563 	  9.835380910968 	
H	  1.410576044981 	  2.555622365780 	  4.743128504840 	
H	  0.842031914981 	  2.555625175780 	 14.873685224840 	
H	  1.410544944981 	  8.739184125780 	  4.743125674840 	
H	  0.842000814981 	  8.739186935780 	 14.873682394840 	
H	 16.091403344981 	  2.555631595780 	  4.771258434840 	
H	 15.522859214981 	  2.555634405780 	 14.901815154840 	
H	 16.091372244981 	  8.739193355780 	  4.771255604840 	
H	 15.522828114981 	  8.739196165780 	 14.901812324840 	
H	 12.510397155715 	 -0.491067573444 	  0.756601811729 	
H	 11.941853025715 	 -0.491064763444 	 10.887158531729 	
H	 12.510366055715 	  5.692494186556 	  0.756598981729 	
H	 11.941821925715 	  5.692496996556 	 10.887155701729 	
H	 27.191224455715 	 -0.491058343444 	  0.784731741729 	
H	 26.622680325715 	 -0.491055533444 	 10.915288461729 	
H	 27.191193355715 	  5.692503416556 	  0.784728911729 	
H	 26.622649225715 	  5.692506226556 	 10.915285631729 	
H	 12.210587633928 	  3.549674556368 	  5.994160618149 	
H	 11.642043503928 	  3.549677366368 	 16.124717338149 	
H	 12.210556533928 	  9.733236316368 	  5.994157788149 	
H	 11.642012403928 	  9.733239126368 	 16.124714508149 	
H	 26.891414933928 	  3.549683786368 	  6.022290548149 	
H	 26.322870803928 	  3.549686596368 	 16.152847268149 	
H	 26.891383833928 	  9.733245546368 	  6.022287718149 	
H	 26.322839703928 	  9.733248356368 	 16.152844438149 	
H	  1.110766621880 	  6.596364938969 	  9.980688322400 	
H	  0.542222491880 	  6.596367748969 	 20.111245042400 	
H	  1.110735521880 	 12.779926698969 	  9.980685492400 	
H	  0.542191391880 	 12.779929508969 	 20.111242212400 	
H	 15.791593921880 	  6.596374168969 	 10.008818252400 	
H	 15.223049791880 	  6.596376978969 	 20.139374972400 	
H	 15.791562821880 	 12.779935928969 	 10.008815422400 	
H	 15.223018691880 	 12.779938738969 	 20.139372142400 	
H	  2.474598114821 	  1.365785935325 	  5.371495436375 	
H	  1.906053984821 	  1.365788745325 	 15.502052156375 	
H	  2.474567014821 	  7.549347695325 	  5.371492606375 	
H	  1.906022884821 	  7.549350505325 	 15.502049326375 	
H	 17.155425414821 	  1.365795165325 	  5.399625366375 	
H	 16.586881284821 	  1.365797975325 	 15.530182086375 	
H	 17.155394314821 	  7.549356925325 	  5.399622536375 	
H	 16.586850184821 	  7.549359735325 	 15.530179256375 	
H	 11.310035548903 	  4.273667993781 	  0.081798586599 	
H	 10.741491418903 	  4.273670803781 	 10.212355306599 	
H	 11.310004448903 	 10.457229753781 	  0.081795756599 	
H	 10.741460318903 	 10.457232563781 	 10.212352476599 	
H	 25.990862848903 	  4.273677223781 	  0.109928516599 	
H	 25.422318718903 	  4.273680033781 	 10.240485236599 	
H	 25.990831748903 	 10.457238983781 	  0.109925686599 	
H	 25.422287618903 	 10.457241793781 	 10.240482406599 	
H	 11.146563666406 	  4.739510160680 	  5.365794551297 	
H	 10.578019536406 	  4.739512970680 	 15.496351271297 	
H	 11.146532566406 	 10.923071920680 	  5.365791721297 	
H	 10.577988436406 	 10.923074730680 	 15.496348441297 	
H	 25.827390966406 	  4.739519390680 	  5.393924481297 	
H	 25.258846836406 	  4.739522200680 	 15.524481201297 	
H	 25.827359866406 	 10.923081150680 	  5.393921651297 	
H	 25.258815736406 	 10.923083960680 	 15.524478371297 	
H	  2.311128604640 	  1.831629368997 	 10.655491419935 	
H	  1.742584474640 	  1.831632178997 	 20.786048139935 	
H	  2.311097504640 	  8.015191128997 	 10.655488589935 	
H	  1.742553374640 	  8.015193938997 	 20.786045309935 	
H	 16.991955904640 	  1.831638598997 	 10.683621349935 	
H	 16.423411774640 	  1.831641408997 	 20.814178069935 	
H	 16.991924804640 	  8.015200358997 	 10.683618519935 	
H	 16.423380674640 	  8.015203168997 	 20.814175239935 	
C	  1.627149535859 	  4.008286841305 	  6.618434473815 	
C	  1.058605405859 	  4.008289651305 	 16.748991193815 	
C	  1.627118435859 	 10.191848601305 	  6.618431643815 	
C	  1.058574305859 	 10.191851411305 	 16.748988363815 	
C	 16.307976835859 	  4.008296071305 	  6.646564403815 	
C	 15.739432705859 	  4.008298881305 	 16.777121123815 	
C	 16.307945735859 	 10.191857831305 	  6.646561573815 	
C	 15.739401605859 	 10.191860641305 	 16.777118293815 	
C	 11.832421610035 	  1.074104321490 	  9.433422804764 	
C	 11.263877480035 	  1.074107131490 	 19.563979524764 	
C	 11.832390510035 	  7.257666081490 	  9.433419974764 	
C	 11.263846380035 	  7.257668891490 	 19.563976694764 	
C	 26.513248910035 	  1.074113551490 	  9.461552734764 	
C	 25.944704780035 	  1.074116361490 	 19.592109454764 	
C	 26.513217810035 	  7.257675311490 	  9.461549904764 	
C	 25.944673680035 	  7.257678121490 	 19.592106624764 	
C	 11.994016147824 	  2.097010336031 	  4.118852912970 	
C	 11.425472017824 	  2.097013146031 	 14.249409632970 	
C	 11.993985047824 	  8.280572096031 	  4.118850082970 	
C	 11.425440917824 	  8.280574906031 	 14.249406802970 	
C	 26.674843447824 	  2.097019566031 	  4.146982842970 	
C	 26.106299317824 	  2.097022376031 	 14.277539562970 	
C	 26.674812347824 	  8.280581326031 	  4.146980012970 	
C	 26.106268217824 	  8.280584136031 	 14.277536732970 	
C	  1.788742987644 	  5.031192737536 	  1.303866929150 	
C	  1.220198857644 	  5.031195547536 	 11.434423649150 	
C	  1.788711887644 	 11.214754497536 	  1.303864099150 	
C	  1.220167757644 	 11.214757307536 	 11.434420819150 	
C	 16.469570287644 	  5.031201967536 	  1.331996859150 	
C	 15.901026157644 	  5.031204777536 	 11.462553579150 	
C	 16.469539187644 	 11.214763727536 	  1.331994029150 	
C	 15.900995057644 	 11.214766537536 	 11.462550749150 	
H	  2.360089897289 	  4.814438705171 	  6.280233182820 	
H	  1.791545767289 	  4.814441515171 	 16.410789902820 	
H	  2.360058797289 	 10.998000465171 	  6.280230352820 	
H	  1.791514667289 	 10.998003275171 	 16.410787072820 	
H	 17.040917197289 	  4.814447935171 	  6.308363112820 	
H	 16.472373067289 	  4.814450745171 	 16.438919832820 	
H	 17.040886097289 	 10.998009695171 	  6.308360282820 	
H	 16.472341967289 	 10.998012505171 	 16.438917002820 	
H	 11.028573013781 	  1.770158914118 	  9.769801075223 	
H	 10.460028883781 	  1.770161724118 	 19.900357795223 	
H	 11.028541913781 	  7.953720674118 	  9.769798245223 	
H	 10.459997783781 	  7.953723484118 	 19.900354965223 	
H	 25.709400313781 	  1.770168144118 	  9.797931005223 	
H	 25.140856183781 	  1.770170954118 	 19.928487725223 	
H	 25.709369213781 	  7.953729904118 	  9.797928175223 	
H	 25.140825083781 	  7.953732714118 	 19.928484895223 	
H	 11.261076275497 	  1.290857618443 	  4.457053202619 	
H	 10.692532145497 	  1.290860428443 	 14.587609922619 	
H	 11.261045175497 	  7.474419378443 	  4.457050372619 	
H	 10.692501045497 	  7.474422188443 	 14.587607092619 	
H	 25.941903575497 	  1.290866848443 	  4.485183132619 	
H	 25.373359445497 	  1.290869658443 	 14.615739852619 	
H	 25.941872475497 	  7.474428608443 	  4.485180302619 	
H	 25.373328345497 	  7.474431418443 	 14.615737022619 	
H	  2.592591505228 	  4.335138286981 	  0.967488150208 	
H	  2.024047375228 	  4.335141096981 	 11.098044870208 	
H	  2.592560405228 	 10.518700046981 	  0.967485320208 	
H	  2.024016275228 	 10.518702856981 	 11.098042040208 	
H	 17.273418805228 	  4.335147516981 	  0.995618080208 	
H	 16.704874675228 	  4.335150326981 	 11.126174800208 	
H	 17.273387705228 	 10.518709276981 	  0.995615250208 	
H	 16.704843575228 	 10.518712086981 	 11.126171970208 	
H	  1.335390679913 	  4.574975465767 	  7.565969528373 	
H	  0.766846549913 	  4.574978275767 	 17.696526248373 	
H	  1.335359579913 	 10.758537225767 	  7.565966698373 	
H	  0.766815449913 	 10.758540035767 	 17.696523418373 	
H	 16.016217979913 	  4.574984695767 	  7.594099458373 	
H	 15.447673849913 	  4.574987505767 	 17.724656178373 	
H	 16.016186879913 	 10.758546455767 	  7.594096628373 	
H	 15.447642749913 	 10.758549265767 	 17.724653348373 	
H	 12.058130898613 	  7.603530891878 	  8.488075029440 	
H	 11.489586768613 	  7.603533701878 	 18.618631749440 	
H	 12.058099798613 	 13.787092651878 	  8.488072199440 	
H	 11.489555668613 	 13.787095461878 	 18.618628919440 	
H	 26.738958198613 	  7.603540121878 	  8.516204959440 	
H	 26.170414068613 	  7.603542931878 	 18.646761679440 	
H	 26.738927098613 	 13.787101881878 	  8.516202129440 	
H	 26.170382968613 	 13.787104691878 	 18.646758849440 	
H	 12.285776250693 	  1.530323220667 	  3.171317366891 	
H	 11.717232120693 	  1.530326030667 	 13.301874086891 	
H	 12.285745150693 	  7.713884980667 	  3.171314536891 	
H	 11.717201020693 	  7.713887790667 	 13.301871256891 	
H	 26.966603550693 	  1.530332450667 	  3.199447296891 	
H	 26.398059420693 	  1.530335260667 	 13.330004016891 	
H	 26.966572450693 	  7.713894210667 	  3.199444466891 	
H	 26.398028320693 	  7.713897020667 	 13.330001186891 	
H	  1.563034267859 	 -1.498234006882 	  2.249214801683 	
H	  0.994490137859 	 -1.498231196882 	 12.379771521683 	
H	  1.563003167859 	  4.685327753118 	  2.249211971683 	
H	  0.994459037859 	  4.685330563118 	 12.379768691683 	
H	 16.243861567859 	 -1.498224776882 	  2.277344731683 	
H	 15.675317437859 	 -1.498221966882 	 12.407901451683 	
H	 16.243830467859 	  4.685336983118 	  2.277341901683 	
H	 15.675286337859 	  4.685339793118 	 12.407898621683 	
H	  0.740349564025 	  4.244314974398 	  5.954629297632 	
H	  0.171805434025 	  4.244317784398 	 16.085186017632 	
H	  0.740318464025 	 10.427876734398 	  5.954626467632 	
H	  0.171774334025 	 10.427879544398 	 16.085183187632 	
H	 15.421176864025 	  4.244324204398 	  5.982759227632 	
H	 14.852632734025 	  4.244327014398 	 16.113315947632 	
H	 15.421145764025 	 10.427885964398 	  5.982756397632 	
H	 14.852601634025 	 10.427888774398 	 16.113313117632 	
H	 12.638664316880 	  7.285094761838 	 10.080214488937 	
H	 12.070120186880 	  7.285097571838 	 20.210771208937 	
H	 12.638633216880 	 13.468656521838 	 10.080211658937 	
H	 12.070089086880 	 13.468659331838 	 20.210768378937 	
H	 27.319491616880 	  7.285103991838 	 10.108344418937 	
H	 26.750947486880 	  7.285106801838 	 20.238901138937 	
H	 27.319460516880 	 13.468665751838 	 10.108341588937 	
H	 26.750916386880 	 13.468668561838 	 20.238898308937 	
H	 12.880816025490 	  1.860982563856 	  4.782658335933 	
H	 12.312271895490 	  1.860985373856 	 14.913215055933 	
H	 12.880784925490 	  8.044544323856 	  4.782655505933 	
H	 12.312240795490 	  8.044547133856 	 14.913212225933 	
H	 27.561643325490 	  1.860991793856 	  4.810788265933 	
H	 26.993099195490 	  1.860994603856 	 14.941344985933 	
H	 27.561612225490 	  8.044553553856 	  4.810785435933 	
H	 26.993068095490 	  8.044556363856 	 14.941342155933 	
H	  0.982499949783 	 -1.179797750114 	  0.657075676411 	
H	  0.413955819783 	 -1.179794940114 	 10.787632396411 	
H	  0.982468849783 	  5.003764009886 	  0.657072846411 	
H	  0.413924719783 	  5.003766819886 	 10.787629566411 	
H	 15.663327249783 	 -1.179788520114 	  0.685205606411 	
H	 15.094783119783 	 -1.179785710114 	 10.815762326411 	
H	 15.663296149783 	  5.003773239886 	  0.685202776411 	
H	 15.094752019783 	  5.003776049886 	 10.815759496411 	
C	  1.085780863120 	  2.185968684999 	  7.170260920779 	
C	  0.517236733120 	  2.185971494999 	 17.300817640779 	
C	  1.085749763120 	  8.369530444999 	  7.170258090779 	
C	  0.517205633120 	  8.369533254999 	 17.300814810779 	
C	 15.766608163120 	  2.185977914999 	  7.198390850779 	
C	 15.198064033120 	  2.185980724999 	 17.328947570779 	
C	 15.766577063120 	  8.369539674999 	  7.198388020779 	
C	 15.198032933120 	  8.369542484999 	 17.328944740779 	
C	 12.306422325782 	  5.240321583687 	  8.878534408013 	
C	 11.737878195782 	  5.240324393687 	 19.009091128013 	
C	 12.306391225782 	 11.423883343687 	  8.878531578013 	
C	 11.737847095782 	 11.423886153687 	 19.009088298013 	
C	 26.987249625782 	  5.240330813687 	  8.906664338013 	
C	 26.418705495782 	  5.240333623687 	 19.037221058013 	
C	 26.987218525782 	 11.423892573687 	  8.906661508013 	
C	 26.418674395782 	 11.423895383687 	 19.037218228013 	
C	 12.535383427207 	  3.919330671056 	  3.567027736245 	
C	 11.966839297207 	  3.919333481056 	 13.697584456245 	
C	 12.535352327207 	 10.102892431056 	  3.567024906245 	
C	 11.966808197207 	 10.102895241056 	 13.697581626245 	
C	 27.216210727207 	  3.919339901056 	  3.595157666245 	
C	 26.647666597207 	  3.919342711056 	 13.725714386245 	
C	 27.216179627207 	 10.102901661056 	  3.595154836245 	
C	 26.647635497207 	 10.102904471056 	 13.725711556245 	
C	  1.314742218128 	  0.864975249746 	  1.858755734851 	
C	  0.746198088128 	  0.864978059746 	 11.989312454851 	
C	  1.314711118128 	  7.048537009746 	  1.858752904851 	
C	  0.746166988128 	  7.048539819746 	 11.989309624851 	
C	 15.995569518128 	  0.864984479746 	  1.886885664851 	
C	 15.427025388128 	  0.864987289746 	 12.017442384851 	
C	 15.995538418128 	  7.048546239746 	  1.886882834851 	
C	 15.426994288128 	  7.048549049746 	 12.017439554851 	
H	  0.064971914790 	  2.142364734870 	  6.679191073534 	
H	 -0.503572215210 	  2.142367544870 	 16.809747793534 	
H	  0.064940814790 	  8.325926494870 	  6.679188243534 	
H	 -0.503603315210 	  8.325929304870 	 16.809744963534 	
H	 14.745799214790 	  2.142373964870 	  6.707321003534 	
H	 14.177255084790 	  2.142376774870 	 16.837877723534 	
H	 14.745768114790 	  8.325935724870 	  6.707318173534 	
H	 14.177223984790 	  8.325938534870 	 16.837874893534 	
H	 13.328368554518 	  5.195064686654 	  9.368516690776 	
H	 12.759824424518 	  5.195067496654 	 19.499073410776 	
H	 13.328337454518 	 11.378626446654 	  9.368513860776 	
H	 12.759793324518 	 11.378629256654 	 19.499070580776 	
H	 28.009195854518 	  5.195073916654 	  9.396646620776 	
H	 27.440651724518 	  5.195076726654 	 19.527203340776 	
H	 28.009164754518 	 11.378635676654 	  9.396643790776 	
H	 27.440620624518 	 11.378638486654 	 19.527200510776 	
H	 13.556192293447 	  3.962934629857 	  4.058097757201 	
H	 12.987648163447 	  3.962937439857 	 14.188654477201 	
H	 13.556161193447 	 10.146496389857 	  4.058094927201 	
H	 12.987617063447 	 10.146499199857 	 14.188651647201 	
H	 28.237019593447 	  3.962943859857 	  4.086227687201 	
H	 27.668475463447 	  3.962946669857 	 14.216784407201 	
H	 28.236988493447 	 10.146505619857 	  4.086224857201 	
H	 27.668444363447 	 10.146508429857 	 14.216781577201 	
H	  0.292795851903 	  0.910232006396 	  1.368773729528 	
H	 -0.275748278097 	  0.910234816396 	 11.499330449528 	
H	  0.292764751903 	  7.093793766396 	  1.368770899528 	
H	 -0.275779378097 	  7.093796576396 	 11.499327619528 	
H	 14.973623151903 	  0.910241236396 	  1.396903659528 	
H	 14.405079021903 	  0.910244046396 	 11.527460379528 	
H	 14.973592051903 	  7.093802996396 	  1.396900829528 	
H	 14.405047921903 	  7.093805806396 	 11.527457549528 	
H	  0.787985407908 	  2.374622667788 	  8.255479755761 	
H	  0.219441277908 	  2.374625477788 	 18.386036475761 	
H	  0.787954307908 	  8.558184427788 	  8.255476925761 	
H	  0.219410177908 	  8.558187237788 	 18.386033645761 	
H	 15.468812707908 	  2.374631897788 	  8.283609685761 	
H	 14.900268577908 	  2.374634707788 	 18.414166405761 	
H	 15.468781607908 	  8.558193657788 	  8.283606855761 	
H	 14.900237477908 	  8.558196467788 	 18.414163575761 	
H	 12.605744100936 	  5.427991309859 	  7.792423386580 	
H	 12.037199970936 	  5.427994119859 	 17.922980106580 	
H	 12.605713000936 	 11.611553069859 	  7.792420556580 	
H	 12.037168870936 	 11.611555879859 	 17.922977276580 	
H	 27.286571400936 	  5.428000539859 	  7.820553316580 	
H	 26.718027270936 	  5.428003349859 	 17.951110036580 	
H	 27.286540300936 	 11.611562299859 	  7.820550486580 	
H	 26.717996170936 	 11.611565109859 	 17.951107206580 	
H	 12.833178929506 	  3.730678109915 	  2.481808644319 	
H	 12.264634799506 	  3.730680919915 	 12.612365364319 	
H	 12.833147829506 	  9.914239869915 	  2.481805814319 	
H	 12.264603699506 	  9.914242679915 	 12.612362534319 	
H	 27.514006229506 	  3.730687339915 	  2.509938574319 	
H	 26.945462099506 	  3.730690149915 	 12.640495294319 	
H	 27.513975129506 	  9.914249099915 	  2.509935744319 	
H	 26.945430999506 	  9.914251909915 	 12.640492464319 	
H	  1.015420646237 	  0.677305118676 	  2.944866728394 	
H	  0.446876516237 	  0.677307928676 	 13.075423448394 	
H	  1.015389546237 	  6.860866878676 	  2.944863898394 	
H	  0.446845416237 	  6.860869688676 	 13.075420618394 	
H	 15.696247946237 	  0.677314348676 	  2.972996658394 	
H	 15.127703816237 	  0.677317158676 	 13.103553378394 	
H	 15.696216846237 	  6.860876108676 	  2.972993828394 	
H	 15.127672716237 	  6.860878918676 	 13.103550548394 	
H	  1.251134436150 	  1.068772944196 	  7.334470958812 	
H	  0.682590306150 	  1.068775754196 	 17.465027678812 	
H	  1.251103336150 	  7.252334704196 	  7.334468128812 	
H	  0.682559206150 	  7.252337514196 	 17.465024848812 	
H	 15.931961736150 	  1.068782174196 	  7.362600888812 	
H	 15.363417606150 	  1.068784984196 	 17.493157608812 	
H	 15.931930636150 	  7.252343934196 	  7.362598058812 	
H	 15.363386506150 	  7.252346744196 	 17.493154778812 	
H	 12.142398291933 	  4.123207403964 	  8.713178068905 	
H	 11.573854161933 	  4.123210213964 	 18.843734788905 	
H	 12.142367191933 	 10.306769163964 	  8.713175238905 	
H	 11.573823061933 	 10.306771973964 	 18.843731958905 	
H	 26.823225591933 	  4.123216633964 	  8.741307998905 	
H	 26.254681461933 	  4.123219443964 	 18.871864718905 	
H	 26.823194491933 	 10.306778393964 	  8.741305168905 	
H	 26.254650361933 	 10.306781203964 	 18.871861888905 	
H	 12.370028833574 	  5.036526579926 	  3.402819626494 	
H	 11.801484703574 	  5.036529389926 	 13.533376346494 	
H	 12.369997733574 	 11.220088339926 	  3.402816796494 	
H	 11.801453603574 	 11.220091149926 	 13.533373516494 	
H	 27.050856133574 	  5.036535809926 	  3.430949556494 	
H	 26.482312003574 	  5.036538619926 	 13.561506276494 	
H	 27.050825033574 	 11.220097569926 	  3.430946726494 	
H	 26.482280903574 	 11.220100379926 	 13.561503446494 	
H	  1.478766109555 	  1.982089384223 	  2.024112600592 	
H	  0.910221979555 	  1.982092194223 	 12.154669320592 	
H	  1.478735009555 	  8.165651144223 	  2.024109770592 	
H	  0.910190879555 	  8.165653954223 	 12.154666490592 	
H	 16.159593409555 	  1.982098614223 	  2.052242530592 	
H	 15.591049279555 	  1.982101424223 	 12.182799250592 	
H	 16.159562309555 	  8.165660374223 	  2.052239700592 	
H	 15.591018179555 	  8.165663184223 	 12.182796420592 	
768 
Energy: -8.6512610101619998e+01 
S	  8.297715902052 	  1.416954407439 	  0.136775278420 	
S	  7.729171772052 	  1.416957217439 	 10.267331998420 	
S	  8.297684802052 	  7.600516167439 	  0.136772448420 	
S	  7.729140672052 	  7.600518977439 	 10.267329168420 	
S	 22.978543202052 	  1.416963637439 	  0.164905208420 	
S	 22.409999072052 	  1.416966447439 	 10.295461928420 	
S	 22.978512102052 	  7.600525397439 	  0.164902378420 	
S	 22.409967972052 	  7.600528207439 	 10.295459098420 	
S	  5.488407057222 	  4.463893309872 	  5.327777430829 	
S	  4.919862927222 	  4.463896119872 	 15.458334150829 	
S	  5.488375957222 	 10.647455069872 	  5.327774600829 	
S	  4.919831827222 	 10.647457879872 	 15.458331320829 	
S	 20.169234357222 	  4.463902539872 	  5.355907360829 	
S	 19.600690227222 	  4.463905349872 	 15.486464080829 	
S	 20.169203257222 	 10.647464299872 	  5.355904530829 	
S	 19.600659127222 	 10.647467109872 	 15.486461250829 	
S	  5.269807843567 	  4.679792321679 	 10.663714039697 	
S	  4.701263713567 	  4.679795131679 	 20.794270759697 	
S	  5.269776743567 	 10.863354081679 	 10.663711209697 	
S	  4.701232613567 	 10.863356891679 	 20.794267929697 	
S	 19.950635143567 	  4.679801551679 	 10.691843969697 	
S	 19.382091013567 	  4.679804361679 	 20.822400689697 	
S	 19.950604043567 	 10.863363311679 	 10.691841139697 	
S	 19.382059913567 	 10.863366121679 	 20.822397859697 	
S	  8.079118154178 	  1.632853367141 	  5.472711422151 	
S	  7.510574024178 	  1.632856177141 	 15.603268142151 	
S	  8.079087054178 	  7.816415127141 	  5.472708592151 	
S	  7.510542924178 	  7.816417937141 	 15.603265312151 	
S	 22.759945454178 	  1.632862597141 	  5.500841352151 	
S	 22.191401324178 	  1.632865407141 	 15.631398072151 	
S	 22.759914354178 	  7.816424357141 	  5.500838522151 	
S	 22.191370224178 	  7.816427167141 	 15.631395242151 	
C	  6.531426894199 	  2.535918755805 	 10.360370874485 	
C	  5.962882764199 	  2.535921565805 	 20.490927594485 	
C	  6.531395794199 	  8.719480515805 	 10.360368044485 	
C	  5.962851664199 	  8.719483325805 	 20.490924764485 	
C	 21.212254194199 	  2.535927985805 	 10.388500804485 	
C	 20.643710064199 	  2.535930795805 	 20.519057524485 	
C	 21.212223094199 	  8.719489745805 	 10.388497974485 	
C	 20.643678964199 	  8.719492555805 	 20.519054694485 	
C	  6.819258189411 	  5.541491123805 	  5.804739692625 	
C	  6.250714059411 	  5.541493933805 	 15.935296412625 	
C	  6.819227089411 	 11.725052883805 	  5.804736862625 	
C	  6.250682959411 	 11.725055693805 	 15.935293582625 	
C	 21.500085489411 	  5.541500353805 	  5.832869622625 	
C	 20.931541359411 	  5.541503163805 	 15.963426342625 	
C	 21.500054389411 	 11.725062113805 	  5.832866792625 	
C	 20.931510259411 	 11.725064923805 	 15.963423512625 	
C	  7.036096853279 	  3.560827970951 	  0.440118245329 	
C	  6.467552723279 	  3.560830780951 	 10.570674965329 	
C	  7.036065753279 	  9.744389730951 	  0.440115415329 	
C	  6.467521623279 	  9.744392540951 	 10.570672135329 	
C	 21.716924153279 	  3.560837200951 	  0.468248175329 	
C	 21.148380023279 	  3.560840010951 	 10.598804895329 	
C	 21.716893053279 	  9.744398960951 	  0.468245345329 	
C	 21.148348923279 	  9.744401770951 	 10.598802065329 	
C	  6.748266861542 	  0.555255600401 	  4.995748970498 	
C	  6.179722731542 	  0.555258410401 	 15.126305690498 	
C	  6.748235761542 	  6.738817360401 	  4.995746140498 	
C	  6.179691631542 	  6.738820170401 	 15.126302860498 	
C	 21.429094161542 	  0.555264830401 	  5.023878900498 	
C	 20.860550031542 	  0.555267640401 	 15.154435620498 	
C	 21.429063061542 	  6.738826590401 	  5.023876070498 	
C	 20.860518931542 	  6.738829400401 	 15.154432790498 	
C	  5.514511383252 	  2.411175115081 	  9.368537863566 	
C	  4.945967253252 	  2.411177925081 	 19.499094583566 	
C	  5.514480283252 	  8.594736875081 	  9.368535033566 	
C	  4.945936153252 	  8.594739685081 	 19.499091753566 	
C	 20.195338683252 	  2.411184345081 	  9.396667793566 	
C	 19.626794553252 	  2.411187155081 	 19.527224513566 	
C	 20.195307583252 	  8.594746105081 	  9.396664963566 	
C	 19.626763453252 	  8.594748915081 	 19.527221683566 	
C	  7.832944685834 	  5.453981501433 	  6.767718783788 	
C	  7.264400555834 	  5.453984311433 	 16.898275503788 	
C	  7.832913585834 	 11.637543261433 	  6.767715953788 	
C	  7.264369455834 	 11.637546071433 	 16.898272673788 	
C	 22.513771985834 	  5.453990731433 	  6.795848713788 	
C	 21.945227855834 	  5.453993541433 	 16.926405433788 	
C	 22.513740885834 	 11.637552491433 	  6.795845883788 	
C	 21.945196755834 	 11.637555301433 	 16.926402603788 	
C	  8.053012345668 	  3.685571696211 	  1.431951238047 	
C	  7.484468215668 	  3.685574506211 	 11.562507958047 	
C	  8.052981245668 	  9.869133456211 	  1.431948408047 	
C	  7.484437115668 	  9.869136266211 	 11.562505128047 	
C	 22.733839645668 	  3.685580926211 	  1.460081168047 	
C	 22.165295515668 	  3.685583736211 	 11.590637888047 	
C	 22.733808545668 	  9.869142686211 	  1.460078338047 	
C	 22.165264415668 	  9.869145496211 	 11.590635058047 	
C	  5.734580127912 	  0.642765288312 	  4.032770174387 	
C	  5.166035997912 	  0.642768098312 	 14.163326894387 	
C	  5.734549027912 	  6.826327048312 	  4.032767344387 	
C	  5.166004897912 	  6.826329858312 	 14.163324064387 	
C	 20.415407427912 	  0.642774518312 	  4.060900104387 	
C	 19.846863297912 	  0.642777328312 	 14.191456824387 	
C	 20.415376327912 	  6.826336278312 	  4.060897274387 	
C	 19.846832197912 	  6.826339088312 	 14.191453994387 	
C	  4.693802445320 	  3.520854538183 	  9.390219210075 	
C	  4.125258315320 	  3.520857348183 	 19.520775930075 	
C	  4.693771345320 	  9.704416298183 	  9.390216380075 	
C	  4.125227215320 	  9.704419108183 	 19.520773100075 	
C	 19.374629745320 	  3.520863768183 	  9.418349140075 	
C	 18.806085615320 	  3.520866578183 	 19.548905860075 	
C	 19.374598645320 	  9.704425528183 	  9.418346310075 	
C	 18.806054515320 	  9.704428338183 	 19.548903030075 	
C	  8.651429283954 	  0.476354988241 	  6.746963260938 	
C	  8.082885153954 	  0.476357798241 	 16.877519980938 	
C	  8.651398183954 	  6.659916748241 	  6.746960430938 	
C	  8.082854053954 	  6.659919558241 	 16.877517150938 	
C	 23.332256583954 	  0.476364218241 	  6.775093190938 	
C	 22.763712453954 	  0.476367028241 	 16.905649910938 	
C	 23.332225483954 	  6.659925978241 	  6.775090360938 	
C	 22.763681353954 	  6.659928788241 	 16.905647080938 	
C	  8.873721267480 	  2.575892190471 	  1.410269890068 	
C	  8.305177137480 	  2.575895000471 	 11.540826610068 	
C	  8.873690167480 	  8.759453950471 	  1.410267060068 	
C	  8.305146037480 	  8.759456760471 	 11.540823780068 	
C	 23.554548567480 	  2.575901420471 	  1.438399820068 	
C	 22.986004437480 	  2.575904230471 	 11.568956540068 	
C	 23.554517467480 	  8.759463180471 	  1.438396990068 	
C	 22.985973337480 	  8.759465990471 	 11.568953710068 	
C	  4.916095603755 	  5.620391781319 	  4.053525921272 	
C	  4.347551473755 	  5.620394591319 	 14.184082641272 	
C	  4.916064503755 	 11.803953541319 	  4.053523091272 	
C	  4.347520373755 	 11.803956351319 	 14.184079811272 	
C	 19.596922903755 	  5.620401011319 	  4.081655851272 	
C	 19.028378773755 	  5.620403821319 	 14.212212571272 	
C	 19.596891803755 	 11.803962771319 	  4.081653021272 	
C	 19.028347673755 	 11.803965581319 	 14.212209741272 	
C	  3.660412954749 	  3.672295659293 	  8.588398499853 	
C	  3.091868824749 	  3.672298469293 	 18.718955219853 	
C	  3.660381854749 	  9.855857419293 	  8.588395669853 	
C	  3.091837724749 	  9.855860229293 	 18.718952389853 	
C	 18.341240254749 	  3.672304889293 	  8.616528429853 	
C	 17.772696124749 	  3.672307699293 	 18.747085149853 	
C	 18.341209154749 	  9.855866649293 	  8.616525599853 	
C	 17.772665024749 	  9.855869459293 	 18.747082319853 	
C	  9.683738620302 	  0.631668183484 	  7.545280514972 	
C	  9.115194490302 	  0.631670993484 	 17.675837234972 	
C	  9.683707520302 	  6.815229943484 	  7.545277684972 	
C	  9.115163390302 	  6.815232753484 	 17.675834404972 	
C	 24.364565920302 	  0.631677413484 	  7.573410444972 	
C	 23.796021790302 	  0.631680223484 	 17.703967164972 	
C	 24.364534820302 	  6.815239173484 	  7.573407614972 	
C	 23.795990690302 	  6.815241983484 	 17.703964334972 	
C	  9.907110777889 	  2.424451252930 	  2.212090842718 	
C	  9.338566647889 	  2.424454062930 	 12.342647562718 	
C	  9.907079677889 	  8.608013012930 	  2.212088012718 	
C	  9.338535547889 	  8.608015822930 	 12.342644732718 	
C	 24.587938077889 	  2.424460482930 	  2.240220772718 	
C	 24.019393947889 	  2.424463292930 	 12.370777492718 	
C	 24.587906977889 	  8.608022242930 	  2.240217942718 	
C	 24.019362847889 	  8.608025052930 	 12.370774662718 	
C	  3.883785758396 	  5.465078698316 	  3.255209198388 	
C	  3.315241628396 	  5.465081508316 	 13.385765918388 	
C	  3.883754658396 	 11.648640458316 	  3.255206368388 	
C	  3.315210528396 	 11.648643268316 	 13.385763088388 	
C	 18.564613058396 	  5.465087928316 	  3.283339128388 	
C	 17.996068928396 	  5.465090738316 	 13.413895848388 	
C	 18.564581958396 	 11.648649688316 	  3.283336298388 	
C	 17.996037828396 	 11.648652498316 	 13.413893018388 	
H	  3.030533748064 	  4.626458188647 	  8.661847382438 	
H	  2.461989618064 	  4.626460998647 	 18.792404102438 	
H	  3.030502648064 	 10.810019948647 	  8.661844552438 	
H	  2.461958518064 	 10.810022758647 	 18.792401272438 	
H	 17.711361048064 	  4.626467418647 	  8.689977312438 	
H	 17.142816918064 	  4.626470228647 	 18.820534032438 	
H	 17.711329948064 	 10.810029178647 	  8.689974482438 	
H	 17.142785818064 	 10.810031988647 	 18.820531202438 	
H	 10.316407998931 	  1.576248510031 	  7.476103889804 	
H	  9.747863868931 	  1.576251320031 	 17.606660609804 	
H	 10.316376898931 	  7.759810270031 	  7.476101059804 	
H	  9.747832768931 	  7.759813080031 	 17.606657779804 	
H	 24.997235298931 	  1.576257740031 	  7.504233819804 	
H	 24.428691168931 	  1.576260550031 	 17.634790539804 	
H	 24.997204198931 	  7.759819500031 	  7.504230989804 	
H	 24.428660068931 	  7.759822310031 	 17.634787709804 	
H	 10.536989871964 	  1.470288620995 	  2.138642210641 	
H	  9.968445741964 	  1.470291430995 	 12.269198930641 	
H	 10.536958771964 	  7.653850380995 	  2.138639380641 	
H	  9.968414641964 	  7.653853190995 	 12.269196100641 	
H	 25.217817171964 	  1.470297850995 	  2.166772140641 	
H	 24.649273041964 	  1.470300660995 	 12.297328860641 	
H	 25.217786071964 	  7.653859610995 	  2.166769310641 	
H	 24.649241941964 	  7.653862420995 	 12.297326030641 	
H	  3.251116500723 	  4.520498315461 	  3.324386039020 	
H	  2.682572370723 	  4.520501125461 	 13.454942759020 	
H	  3.251085400723 	 10.704060075461 	  3.324383209020 	
H	  2.682541270723 	 10.704062885461 	 13.454939929020 	
H	 17.931943800723 	  4.520507545461 	  3.352515969020 	
H	 17.363399670723 	  4.520510355461 	 13.483072689020 	
H	 17.931912700723 	 10.704069305461 	  3.352513139020 	
H	 17.363368570723 	 10.704072115461 	 13.483069859020 	
C	  3.333164241455 	  2.747862963543 	  7.684668522032 	
C	  2.764620111455 	  2.747865773543 	 17.815225242032 	
C	  3.333133141455 	  8.931424723543 	  7.684665692032 	
C	  2.764589011455 	  8.931427533543 	 17.815222412032 	
C	 18.013991541455 	  2.747872193543 	  7.712798452032 	
C	 17.445447411455 	  2.747875003543 	 17.843355172032 	
C	 18.013960441455 	  8.931433953543 	  7.712795622032 	
C	 17.445416311455 	  8.931436763543 	 17.843352342032 	
C	 10.015761324367 	  5.787919177559 	  8.454362622830 	
C	  9.447217194367 	  5.787921987559 	 18.584919342830 	
C	 10.015730224367 	 11.971480937559 	  8.454359792830 	
C	  9.447186094367 	 11.971483747559 	 18.584916512830 	
C	 24.696588624367 	  5.787928407559 	  8.482492552830 	
C	 24.128044494367 	  5.787931217559 	 18.613049272830 	
C	 24.696557524367 	 11.971490167559 	  8.482489722830 	
C	 24.128013394367 	 11.971492977559 	 18.613046442830 	
C	 10.234359367775 	  3.348884082968 	  3.115820492210 	
C	  9.665815237775 	  3.348886892968 	 13.246377212210 	
C	 10.234328267775 	  9.532445842968 	  3.115817662210 	
C	  9.665784137775 	  9.532448652968 	 13.246374382210 	
C	 24.915186667775 	  3.348893312968 	  3.143950422210 	
C	 24.346642537775 	  3.348896122968 	 13.274507142210 	
C	 24.915155567775 	  9.532455072968 	  3.143947592210 	
C	 24.346611437775 	  9.532457882968 	 13.274504312210 	
C	  3.551762577386 	  0.308827828820 	  2.346127370851 	
C	  2.983218447386 	  0.308830638820 	 12.476684090851 	
C	  3.551731477386 	  6.492389588820 	  2.346124540851 	
C	  2.983187347386 	  6.492392398820 	 12.476681260851 	
C	 18.232589877386 	  0.308837058820 	  2.374257300851 	
C	 17.664045747386 	  0.308839868820 	 12.504814020851 	
C	 18.232558777386 	  6.492398818820 	  2.374254470851 	
C	 17.664014647386 	  6.492401628820 	 12.504811190851 	
C	  4.152255503011 	  1.649092532475 	  7.635620413650 	
C	  3.583711373011 	  1.649095342475 	 17.766177133650 	
C	  4.152224403011 	  7.832654292475 	  7.635617583650 	
C	  3.583680273011 	  7.832657102475 	 17.766174303650 	
C	 18.833082803011 	  1.649101762475 	  7.663750343650 	
C	 18.264538673011 	  1.649104572475 	 17.794307063650 	
C	 18.833051703011 	  7.832663522475 	  7.663747513650 	
C	 18.264507573011 	  7.832666332475 	 17.794304233650 	
C	  9.195267927200 	  4.698949987467 	  8.500399303580 	
C	  8.626723797200 	  4.698952797467 	 18.630956023580 	
C	  9.195236827200 	 10.882511747467 	  8.500396473580 	
C	  8.626692697200 	 10.882514557467 	 18.630953193580 	
C	 23.876095227200 	  4.698959217467 	  8.528529233580 	
C	 23.307551097200 	  4.698962027467 	 18.659085953580 	
C	 23.876064127200 	 10.882520977467 	  8.528526403580 	
C	 23.307519997200 	 10.882523787467 	 18.659083123580 	
C	  9.415268210637 	  4.447654612127 	  3.164868406648 	
C	  8.846724080637 	  4.447657422127 	 13.295425126648 	
C	  9.415237110637 	 10.631216372127 	  3.164865576648 	
C	  8.846692980637 	 10.631219182127 	 13.295422296648 	
C	 24.096095510637 	  4.447663842127 	  3.192998336648 	
C	 23.527551380637 	  4.447666652127 	 13.323555056648 	
C	 24.096064410637 	 10.631225602127 	  3.192995506648 	
C	 23.527520280637 	 10.631228412127 	 13.323552226648 	
C	  4.372255953915 	  1.397796921499 	  2.300090318542 	
C	  3.803711823915 	  1.397799731499 	 12.430647038542 	
C	  4.372224853915 	  7.581358681499 	  2.300087488542 	
C	  3.803680723915 	  7.581361491499 	 12.430644208542 	
C	 19.053083253915 	  1.397806151499 	  2.328220248542 	
C	 18.484539123915 	  1.397808961499 	 12.458776968542 	
C	 19.053052153915 	  7.581367911499 	  2.328217418542 	
C	 18.484508023915 	  7.581370721499 	 12.458774138542 	
H	  3.918662761428 	  0.849241536178 	  6.851509885068 	
H	  3.350118631428 	  0.849244346178 	 16.982066605068 	
H	  3.918631661428 	  7.032803296178 	  6.851507055068 	
H	  3.350087531428 	  7.032806106178 	 16.982063775068 	
H	 18.599490061428 	  0.849250766178 	  6.879639815068 	
H	 18.030945931428 	  0.849253576178 	 17.010196535068 	
H	 18.599458961428 	  7.032812526178 	  6.879636985068 	
H	 18.030914831428 	  7.032815336178 	 17.010193705068 	
H	  9.429823657399 	  3.899134152317 	  9.286484430533 	
H	  8.861279527399 	  3.899136962317 	 19.417041150533 	
H	  9.429792557399 	 10.082695912317 	  9.286481600533 	
H	  8.861248427399 	 10.082698722317 	 19.417038320533 	
H	 24.110650957399 	  3.899143382317 	  9.314614360533 	
H	 23.542106827399 	  3.899146192317 	 19.445171080533 	
H	 24.110619857399 	 10.082705142317 	  9.314611530533 	
H	 23.542075727399 	 10.082707952317 	 19.445168250533 	
H	  9.648861115955 	  5.247505815769 	  3.948978686007 	
H	  9.080316985955 	  5.247508625769 	 14.079535406007 	
H	  9.648830015955 	 11.431067575769 	  3.948975856007 	
H	  9.080285885955 	 11.431070385769 	 14.079532576007 	
H	 24.329688415955 	  5.247515045769 	  3.977108616007 	
H	 23.761144285955 	  5.247517855769 	 14.107665336007 	
H	 24.329657315955 	 11.431076805769 	  3.977105786007 	
H	 23.761113185955 	 11.431079615769 	 14.107662506007 	
H	  4.137699806729 	  2.197612911470 	  1.514005466529 	
H	  3.569155676729 	  2.197615721470 	 11.644562186529 	
H	  4.137668706729 	  8.381174671470 	  1.514002636529 	
H	  3.569124576729 	  8.381177481470 	 11.644559356529 	
H	 18.818527106729 	  2.197622141470 	  1.542135396529 	
H	 18.249982976729 	  2.197624951470 	 11.672692116529 	
H	 18.818496006729 	  8.381183901470 	  1.542132566529 	
H	 18.249951876729 	  8.381186711470 	 11.672689286529 	
C	  5.165531067659 	  1.483550509272 	  8.410745922326 	
C	  4.596986937659 	  1.483553319272 	 18.541302642326 	
C	  5.165499967659 	  7.667112269272 	  8.410743092326 	
C	  4.596955837659 	  7.667115079272 	 18.541299812326 	
C	 19.846358367659 	  1.483559739272 	  8.438875852326 	
C	 19.277814237659 	  1.483562549272 	 18.569432572326 	
C	 19.846327267659 	  7.667121499272 	  8.438873022326 	
C	 19.277783137659 	  7.667124309272 	 18.569429742326 	
C	  8.181719462849 	  4.533415511855 	  7.724941989679 	
C	  7.613175332849 	  4.533418321855 	 17.855498709679 	
C	  8.181688362849 	 10.716977271855 	  7.724939159679 	
C	  7.613144232849 	 10.716980081855 	 17.855495879679 	
C	 22.862546762849 	  4.533424741855 	  7.753071919679 	
C	 22.294002632849 	  4.533427551855 	 17.883628639679 	
C	 22.862515662849 	 10.716986501855 	  7.753069089679 	
C	 22.293971532849 	 10.716989311855 	 17.883625809679 	
C	  8.401992666265 	  4.613196493790 	  2.389742902390 	
C	  7.833448536265 	  4.613199303790 	 12.520299622390 	
C	  8.401961566265 	 10.796758253790 	  2.389740072390 	
C	  7.833417436265 	 10.796761063790 	 12.520296792390 	
C	 23.082819966265 	  4.613205723790 	  2.417872832390 	
C	 22.514275836265 	  4.613208533790 	 12.548429552390 	
C	 23.082788866265 	 10.796767483790 	  2.417870002390 	
C	 22.514244736265 	 10.796770293790 	 12.548426722390 	
C	  5.385804820883 	  1.563331339384 	  3.075547161928 	
C	  4.817260690883 	  1.563334149384 	 13.206103881928 	
C	  5.385773720883 	  7.746893099384 	  3.075544331928 	
C	  4.817229590883 	  7.746895909384 	 13.206101051928 	
C	 20.066632120883 	  1.563340569384 	  3.103677091928 	
C	 19.498087990883 	  1.563343379384 	 13.234233811928 	
C	 20.066601020883 	  7.746902329384 	  3.103674261928 	
C	 19.498056890883 	  7.746905139384 	 13.234230981928 	
H	  5.821682126668 	  0.550206210145 	  8.324709182023 	
H	  5.253137996668 	  0.550209020145 	 18.455265902023 	
H	  5.821651026668 	  6.733767970145 	  8.324706352023 	
H	  5.253106896668 	  6.733770780145 	 18.455263072023 	
H	 20.502509426668 	  0.550215440145 	  8.352839112023 	
H	 19.933965296668 	  0.550218250145 	 18.483395832023 	
H	 20.502478326668 	  6.733777200145 	  8.352836282023 	
H	 19.933934196668 	  6.733780010145 	 18.483393002023 	
H	  7.525391248476 	  3.599057523320 	  7.811731185688 	
H	  6.956847118476 	  3.599060333320 	 17.942287905688 	
H	  7.525360148476 	  9.782619283320 	  7.811728355688 	
H	  6.956816018476 	  9.782622093320 	 17.942285075688 	
H	 22.206218548476 	  3.599066753320 	  7.839861115688 	
H	 21.637674418476 	  3.599069563320 	 17.970417835688 	
H	 22.206187448476 	  9.782628513320 	  7.839858285688 	
H	 21.637643318476 	  9.782631323320 	 17.970415005688 	
H	  7.745841619913 	  5.546540833295 	  2.475779346573 	
H	  7.177297489913 	  5.546543643295 	 12.606336066573 	
H	  7.745810519913 	 11.730102593295 	  2.475776516573 	
H	  7.177266389913 	 11.730105403295 	 12.606333236573 	
H	 22.426668919913 	  5.546550063295 	  2.503909276573 	
H	 21.858124789913 	  5.546552873295 	 12.634465996573 	
H	 22.426637819913 	 11.730111823295 	  2.503906446573 	
H	 21.858093689913 	 11.730114633295 	 12.634463166573 	
H	  6.042133030228 	  2.497689306826 	  2.988757754366 	
H	  5.473588900228 	  2.497692116826 	 13.119314474366 	
H	  6.042101930228 	  8.681251066826 	  2.988754924366 	
H	  5.473557800228 	  8.681253876826 	 13.119311644366 	
H	 20.722960330228 	  2.497698536826 	  3.016887684366 	
H	 20.154416200228 	  2.497701346826 	 13.147444404366 	
H	 20.722929230228 	  8.681260296826 	  3.016884854366 	
H	 20.154385100228 	  8.681263106826 	 13.147441574366 	
C	  2.013024979239 	  2.893034966731 	  6.727210570874 	
C	  1.444480849239 	  2.893037776731 	 16.857767290874 	
C	  2.012993879239 	  9.076596726731 	  6.727207740874 	
C	  1.444449749239 	  9.076599536731 	 16.857764460874 	
C	 16.693852279239 	  2.893044196731 	  6.755340500874 	
C	 16.125308149239 	  2.893047006731 	 16.885897220874 	
C	 16.693821179239 	  9.076605956731 	  6.755337670874 	
C	 16.125277049239 	  9.076608766731 	 16.885894390874 	
C	 11.325833351716 	  5.909141571378 	  9.396899685818 	
C	 10.757289221716 	  5.909144381378 	 19.527456405818 	
C	 11.325802251716 	 12.092703331378 	  9.396896855818 	
C	 10.757258121716 	 12.092706141378 	 19.527453575818 	
C	 26.006660651716 	  5.909150801378 	  9.425029615818 	
C	 25.438116521716 	  5.909153611378 	 19.555586335818 	
C	 26.006629551716 	 12.092712561378 	  9.425026785818 	
C	 25.438085421716 	 12.092715371378 	 19.555583505818 	
C	 11.554498334854 	  3.203712473297 	  4.073278599096 	
C	 10.985954204854 	  3.203715283297 	 14.203835319096 	
C	 11.554467234854 	  9.387274233297 	  4.073275769096 	
C	 10.985923104854 	  9.387277043297 	 14.203832489096 	
C	 26.235325634854 	  3.203721703297 	  4.101408529096 	
C	 25.666781504854 	  3.203724513297 	 14.231965249096 	
C	 26.235294534854 	  9.387283463297 	  4.101405699096 	
C	 25.666750404854 	  9.387286273297 	 14.231962419096 	
C	  2.241689953523 	  0.187605368551 	  1.403590925505 	
C	  1.673145823523 	  0.187608178551 	 11.534147645505 	
C	  2.241658853523 	  6.371167128551 	  1.403588095505 	
C	  1.673114723523 	  6.371169938551 	 11.534144815505 	
C	 16.922517253523 	  0.187614598551 	  1.431720855505 	
C	 16.353973123523 	  0.187617408551 	 11.562277575505 	
C	 16.922486153523 	  6.371176358551 	  1.431718025505 	
C	 16.353942023523 	  6.371179168551 	 11.562274745505 	
C	  2.227252878753 	  2.349066378797 	  5.522081997523 	
C	  1.658708748753 	  2.349069188797 	 15.652638717523 	
C	  2.227221778753 	  8.532628138797 	  5.522079167523 	
C	  1.658677648753 	  8.532630948797 	 15.652635887523 	
C	 16.908080178753 	  2.349075608797 	  5.550211927523 	
C	 16.339536048753 	  2.349078418797 	 15.680768647523 	
C	 16.908049078753 	  8.532637368797 	  5.550209097523 	
C	 16.339504948753 	  8.532640178797 	 15.680765817523 	
C	 11.090212819989 	 -0.553887907866 	 10.556603368451 	
C	 10.521668689989 	 -0.553885097866 	 20.687160088451 	
C	 11.090181719989 	  5.629673852134 	 10.556600538451 	
C	 10.521637589989 	  5.629676662134 	 20.687157258451 	
C	 25.771040119989 	 -0.553878677866 	 10.584733298451 	
C	 25.202495989989 	 -0.553875867866 	 20.715290018451 	
C	 25.771009019989 	  5.629683082134 	 10.584730468451 	
C	 25.202464889989 	  5.629685892134 	 20.715287188451 	
C	 11.340269380234 	  3.747679787147 	  5.278407860445 	
C	 10.771725250234 	  3.747682597147 	 15.408964580445 	
C	 11.340238280234 	  9.931241547147 	  5.278405030445 	
C	 10.771694150234 	  9.931244357147 	 15.408961750445 	
C	 26.021096680234 	  3.747689017147 	  5.306537790445 	
C	 25.452552550234 	  3.747691827147 	 15.437094510445 	
C	 26.021065580234 	  9.931250777147 	  5.306534960445 	
C	 25.452521450234 	  9.931253587147 	 15.437091680445 	
C	  2.477310040737 	  6.650635104811 	  0.243887108185 	
C	  1.908765910737 	  6.650637914811 	 10.374443828185 	
C	  2.477278940737 	 12.834196864811 	  0.243884278185 	
C	  1.908734810737 	 12.834199674811 	 10.374440998185 	
C	 17.158137340737 	  6.650644334811 	  0.272017038185 	
C	 16.589593210737 	  6.650647144811 	 10.402573758185 	
C	 17.158106240737 	 12.834206094811 	  0.272014208185 	
C	 16.589562110737 	 12.834208904811 	 10.402570928185 	
H	  3.138995195867 	  2.682620102872 	  4.941030238043 	
H	  2.570451065867 	  2.682622912872 	 15.071586958043 	
H	  3.138964095867 	  8.866181862872 	  4.941027408043 	
H	  2.570419965867 	  8.866184672872 	 15.071584128043 	
H	 17.819822495867 	  2.682629332872 	  4.969160168043 	
H	 17.251278365867 	  2.682632142872 	 15.099716888043 	
H	 17.819791395867 	  8.866191092872 	  4.969157338043 	
H	 17.251247265867 	  8.866193902872 	 15.099714058043 	
H	 10.198382113113 	 -0.365458622044 	 11.198772974770 	
H	  9.629837983113 	 -0.365455812044 	 21.329329694770 	
H	 10.198351013113 	  5.818103137956 	 11.198770144770 	
H	  9.629806883113 	  5.818105947956 	 21.329326864770 	
H	 24.879209413113 	 -0.365449392044 	 11.226902904770 	
H	 24.310665283113 	 -0.365446582044 	 21.357459624770 	
H	 24.879178313113 	  5.818112367956 	 11.226900074770 	
H	 24.310634183113 	  5.818115177956 	 21.357456794770 	
H	 10.428527654531 	  3.414123706500 	  5.859459121204 	
H	  9.859983524531 	  3.414126516500 	 15.990015841204 	
H	 10.428496554531 	  9.597685466500 	  5.859456291204 	
H	  9.859952424531 	  9.597688276500 	 15.990013011204 	
H	 25.109354954531 	  3.414132936500 	  5.887589051204 	
H	 24.540810824531 	  3.414135746500 	 16.018145771204 	
H	 25.109323854531 	  9.597694696500 	  5.887586221204 	
H	 24.540779724531 	  9.597697506500 	 16.018142941204 	
H	  3.369140497612 	  6.462205839009 	 -0.398282816596 	
H	  2.800596367612 	  6.462208649009 	  9.732273903404 	
H	  3.369109397612 	 12.645767599009 	 -0.398285646596 	
H	  2.800565267612 	 12.645770409009 	  9.732271073404 	
H	 18.049967797612 	  6.462215069009 	 -0.370152886596 	
H	 17.481423667612 	  6.462217879009 	  9.760403833404 	
H	 18.049936697612 	 12.645776829009 	 -0.370155716596 	
H	 17.481392567612 	 12.645779639009 	  9.760401003404 	
H	  1.410190958053 	  2.481199094109 	  4.757924429051 	
H	  0.841646828053 	  2.481201904109 	 14.888481149051 	
H	  1.410159858053 	  8.664760854109 	  4.757921599051 	
H	  0.841615728053 	  8.664763664109 	 14.888478319051 	
H	 16.091018258053 	  2.481208324109 	  4.786054359051 	
H	 15.522474128053 	  2.481211134109 	 14.916611079051 	
H	 16.090987158053 	  8.664770084109 	  4.786051529051 	
H	 15.522443028053 	  8.664772894109 	 14.916608249051 	
H	 12.451174193513 	 -0.559677237815 	  0.768673984728 	
H	 11.882630063513 	 -0.559674427815 	 10.899230704728 	
H	 12.451143093513 	  5.623884522185 	  0.768671154728 	
H	 11.882598963513 	  5.623887332185 	 10.899227874728 	
H	 27.132001493513 	 -0.559668007815 	  0.796803914728 	
H	 26.563457363513 	 -0.559665197815 	 10.927360634728 	
H	 27.131970393513 	  5.623893752185 	  0.796801084728 	
H	 26.563426263513 	  5.623896562185 	 10.927357804728 	
H	 12.157331440626 	  3.615547618269 	  6.042565354876 	
H	 11.588787310626 	  3.615550428269 	 16.173122074876 	
H	 12.157300340626 	  9.799109378269 	  6.042562524876 	
H	 11.588756210626 	  9.799112188269 	 16.173119244876 	
H	 26.838158740626 	  3.615556848269 	  6.070695284876 	
H	 26.269614610626 	  3.615559658269 	 16.201252004876 	
H	 26.838127640626 	  9.799118608269 	  6.070692454876 	
H	 26.269583510626 	  9.799121418269 	 16.201249174876 	
H	  1.116348207853 	  6.656424466057 	 10.031817064221 	
H	  0.547804077853 	  6.656427276057 	 20.162373784221 	
H	  1.116317107853 	 12.839986226057 	 10.031814234221 	
H	  0.547772977853 	 12.839989036057 	 20.162370954221 	
H	 15.797175507853 	  6.656433696057 	 10.059946994221 	
H	 15.228631377853 	  6.656436506057 	 20.190503714221 	
H	 15.797144407853 	 12.839995456057 	 10.059944164221 	
H	 15.228600277853 	 12.839998266057 	 20.190500884221 	
H	  2.394854142139 	  1.232955017251 	  5.456778341184 	
H	  1.826310012139 	  1.232957827251 	 15.587335061184 	
H	  2.394823042139 	  7.416516777251 	  5.456775511184 	
H	  1.826278912139 	  7.416519587251 	 15.587332231184 	
H	 17.075681442139 	  1.232964247251 	  5.484908271184 	
H	 16.507137312139 	  1.232967057251 	 15.615464991184 	
H	 17.075650342139 	  7.416526007251 	  5.484905441184 	
H	 16.507106212139 	  7.416528817251 	 15.615462161184 	
H	 11.356509128533 	  4.130579058410 	  0.006481845317 	
H	 10.787964998533 	  4.130581868410 	 10.137038565317 	
H	 11.356478028533 	 10.314140818410 	  0.006479015317 	
H	 10.787933898533 	 10.314143628410 	 10.137035735317 	
H	 26.037336428533 	  4.130588288410 	  0.034611775317 	
H	 25.468792298533 	  4.130591098410 	 10.165168495317 	
H	 26.037305328533 	 10.314150048410 	  0.034608945317 	
H	 25.468761198533 	 10.314152858410 	 10.165165665317 	
H	 11.172666113781 	  4.863790759997 	  5.343712540932 	
H	 10.604121983781 	  4.863793569997 	 15.474269260932 	
H	 11.172635013781 	 11.047352519997 	  5.343709710932 	
H	 10.604090883781 	 11.047355329997 	 15.474266430932 	
H	 25.853493413781 	  4.863799989997 	  5.371842470932 	
H	 25.284949283781 	  4.863802799997 	 15.502399190932 	
H	 25.853462313781 	 11.047361749997 	  5.371839640932 	
H	 25.284918183781 	 11.047364559997 	 15.502396360932 	
H	  2.211013681121 	  1.966168120878 	 10.794009009149 	
H	  1.642469551121 	  1.966170930878 	 20.924565729149 	
H	  2.210982581121 	  8.149729880878 	 10.794006179149 	
H	  1.642438451121 	  8.149732690878 	 20.924562899149 	
H	 16.891840981121 	  1.966177350878 	 10.822138939149 	
H	 16.323296851121 	  1.966180160878 	 20.952695659149 	
H	 16.891809881121 	  8.149739110878 	 10.822136109149 	
H	 16.323265751121 	  8.149741920878 	 20.952692829149 	
C	  1.695150125219 	  4.186088726014 	  6.566417056607 	
C	  1.126605995219 	  4.186091536014 	 16.696973776607 	
C	  1.695119025219 	 10.369650486014 	  6.566414226607 	
C	  1.126574895219 	 10.369653296014 	 16.696970946607 	
C	 16.375977425219 	  4.186097956014 	  6.594546986607 	
C	 15.807433295219 	  4.186100766014 	 16.725103706607 	
C	 16.375946325219 	 10.369659716014 	  6.594544156607 	
C	 15.807402195219 	 10.369662526014 	 16.725100876607 	
C	 11.690516184642 	  1.204049953532 	  9.565110993288 	
C	 11.121972054642 	  1.204052763532 	 19.695667713288 	
C	 11.690485084642 	  7.387611713532 	  9.565108163288 	
C	 11.121940954642 	  7.387614523532 	 19.695664883288 	
C	 26.371343484642 	  1.204059183532 	  9.593240923288 	
C	 25.802799354642 	  1.204061993532 	 19.723797643288 	
C	 26.371312384642 	  7.387620943532 	  9.593238093288 	
C	 25.802768254642 	  7.387623753532 	 19.723794813288 	
C	 11.872374572327 	  1.910658564272 	  4.234070828777 	
C	 11.303830442327 	  1.910661374272 	 14.364627548777 	
C	 11.872343472327 	  8.094220324272 	  4.234067998777 	
C	 11.303799342327 	  8.094223134272 	 14.364624718777 	
C	 26.553201872327 	  1.910667794272 	  4.262200758777 	
C	 25.984657742327 	  1.910670604272 	 14.392757478777 	
C	 26.553170772327 	  8.094229554272 	  4.262197928777 	
C	 25.984626642327 	  8.094232364272 	 14.392754648777 	
C	  1.877007150864 	  4.892696981914 	  1.235379606212 	
C	  1.308463020864 	  4.892699791914 	 11.365936326212 	
C	  1.876976050864 	 11.076258741914 	  1.235376776212 	
C	  1.308431920864 	 11.076261551914 	 11.365933496212 	
C	 16.557834450864 	  4.892706211914 	  1.263509536212 	
C	 15.989290320864 	  4.892709021914 	 11.394066256212 	
C	 16.557803350864 	 11.076267971914 	  1.263506706212 	
C	 15.989259220864 	 11.076270781914 	 11.394063426212 	
H	  2.486792847075 	  4.875684183955 	  6.150224754125 	
H	  1.918248717075 	  4.875686993955 	 16.280781474125 	
H	  2.486761747075 	 11.059245943955 	  6.150221924125 	
H	  1.918217617075 	 11.059248753955 	 16.280778644125 	
H	 17.167620147075 	  4.875693413955 	  6.178354684125 	
H	 16.599076017075 	  4.875696223955 	 16.308911404125 	
H	 17.167589047075 	 11.059255173955 	  6.178351854125 	
H	 16.599044917075 	 11.059257983955 	 16.308908574125 	
H	 10.862194281159 	  1.827012942295 	  9.986135484499 	
H	 10.293650151159 	  1.827015752295 	 20.116692204499 	
H	 10.862163181159 	  8.010574702295 	  9.986132654499 	
H	 10.293619051159 	  8.010577512295 	 20.116689374499 	
H	 25.543021581159 	  1.827022172295 	 10.014265414499 	
H	 24.974477451159 	  1.827024982295 	 20.144822134499 	
H	 25.542990481159 	  8.010583932295 	 10.014262584499 	
H	 24.974446351159 	  8.010586742295 	 20.144819304499 	
H	 11.080732286137 	  1.221061981561 	  4.650262012852 	
H	 10.512188156137 	  1.221064791561 	 14.780818732852 	
H	 11.080701186137 	  7.404623741561 	  4.650259182852 	
H	 10.512157056137 	  7.404626551561 	 14.780815902852 	
H	 25.761559586137 	  1.221071211561 	  4.678391942852 	
H	 25.193015456137 	  1.221074021561 	 14.808948662852 	
H	 25.761528486137 	  7.404632971561 	  4.678389112852 	
H	 25.192984356137 	  7.404635781561 	 14.808945832852 	
H	  2.705328924951 	  4.269734155258 	  0.814354602947 	
H	  2.136784794951 	  4.269736965258 	 10.944911322947 	
H	  2.705297824951 	 10.453295915258 	  0.814351772947 	
H	  2.136753694951 	 10.453298725258 	 10.944908492947 	
H	 17.386156224951 	  4.269743385258 	  0.842484532947 	
H	 16.817612094951 	  4.269746195258 	 10.973041252947 	
H	 17.386125124951 	 10.453305145258 	  0.842481702947 	
H	 16.817580994951 	 10.453307955258 	 10.973038422947 	
H	  1.404558185933 	  4.784602078935 	  7.480477620499 	
H	  0.836014055933 	  4.784604888935 	 17.611034340499 	
H	  1.404527085933 	 10.968163838935 	  7.480474790499 	
H	  0.835982955933 	 10.968166648935 	 17.611031510499 	
H	 16.085385485933 	  4.784611308935 	  7.508607550499 	
H	 15.516841355933 	  4.784614118935 	 17.639164270499 	
H	 16.085354385933 	 10.968173068935 	  7.508604720499 	
H	 15.516810255933 	 10.968175878935 	 17.639161440499 	
H	 11.936235596137 	  7.803875825248 	  8.681210311390 	
H	 11.367691466137 	  7.803878635248 	 18.811767031390 	
H	 11.936204496137 	 13.987437585248 	  8.681207481390 	
H	 11.367660366137 	 13.987440395248 	 18.811764201390 	
H	 26.617062896137 	  7.803885055248 	  8.709340241390 	
H	 26.048518766137 	  7.803887865248 	 18.839896961390 	
H	 26.617031796137 	 13.987446815248 	  8.709337411390 	
H	 26.048487666137 	 13.987449625248 	 18.839894131390 	
H	 12.162967720318 	  1.312146700739 	  3.320009714929 	
H	 11.594423590318 	  1.312149510739 	 13.450566434929 	
H	 12.162936620318 	  7.495708460739 	  3.320006884929 	
H	 11.594392490318 	  7.495711270739 	 13.450563604929 	
H	 26.843795020318 	  1.312155930739 	  3.348139644929 	
H	 26.275250890318 	  1.312158740739 	 13.478696364929 	
H	 26.843763920318 	  7.495717690739 	  3.348136814929 	
H	 26.275219790318 	  7.495720500739 	 13.478693534929 	
H	  1.631288355349 	 -1.707129029608 	  2.119280368443 	
H	  1.062744225349 	 -1.707126219608 	 12.249837088443 	
H	  1.631257255349 	  4.476432730392 	  2.119277538443 	
H	  1.062713125349 	  4.476435540392 	 12.249834258443 	
H	 16.312115655349 	 -1.707119799608 	  2.147410298443 	
H	 15.743571525349 	 -1.707116989608 	 12.277967018443 	
H	 16.312084555349 	  4.476441960392 	  2.147407468443 	
H	 15.743540425349 	  4.476444770392 	 12.277964188443 	
H	  0.823717211349 	  4.378566574762 	  5.879924459737 	
H	  0.255173081349 	  4.378569384762 	 16.010481179737 	
H	  0.823686111349 	 10.562128334762 	  5.879921629737 	
H	  0.255141981349 	 10.562131144762 	 16.010478349737 	
H	 15.504544511349 	  4.378575804762 	  5.908054389737 	
H	 14.936000381349 	  4.378578614762 	 16.038611109737 	
H	 15.504513411349 	 10.562137564762 	  5.908051559737 	
H	 14.935969281349 	 10.562140374762 	 16.038608279737 	
H	 12.499510150360 	  7.414928845769 	 10.237787090999 	
H	 11.930966020360 	  7.414931655769 	 20.368343810999 	
H	 12.499479050360 	 13.598490605769 	 10.237784260999 	
H	 11.930934920360 	 13.598493415769 	 20.368340980999 	
H	 27.180337450360 	  7.414938075769 	 10.265917020999 	
H	 26.611793320360 	  7.414940885769 	 20.396473740999 	
H	 27.180306350360 	 13.598499835769 	 10.265914190999 	
H	 26.611762220360 	 13.598502645769 	 20.396470910999 	
H	 12.743807310158 	  1.718180974192 	  4.920563698393 	
H	 12.175263180158 	  1.718183784192 	 15.051120418393 	
H	 12.743776210158 	  7.901742734192 	  4.920560868393 	
H	 12.175232080158 	  7.901745544192 	 15.051117588393 	
H	 27.424634610158 	  1.718190204192 	  4.948693628393 	
H	 26.856090480158 	  1.718193014192 	 15.079250348393 	
H	 27.424603510158 	  7.901751964192 	  4.948690798393 	
H	 26.856059380158 	  7.901754774192 	 15.079247518393 	
H	  1.068012794217 	 -1.318181939056 	  0.562703980994 	
H	  0.499468664217 	 -1.318179129056 	 10.693260700994 	
H	  1.067981694217 	  4.865379820944 	  0.562701150994 	
H	  0.499437564217 	  4.865382630944 	 10.693257870994 	
H	 15.748840094217 	 -1.318172709056 	  0.590833910994 	
H	 15.180295964217 	 -1.318169899056 	 10.721390630994 	
H	 15.748808994217 	  4.865389050944 	  0.590831080994 	
H	 15.180264864217 	  4.865391860944 	 10.721387800994 	
C	  0.994098914947 	  2.253682272216 	  7.331032606037 	
C	  0.425554784947 	  2.253685082216 	 17.461589326037 	
C	  0.994067814947 	  8.437244032216 	  7.331029776037 	
C	  0.425523684947 	  8.437246842216 	 17.461586496037 	
C	 15.674926214947 	  2.253691502216 	  7.359162536037 	
C	 15.106382084947 	  2.253694312216 	 17.489719256037 	
C	 15.674895114947 	  8.437253262216 	  7.359159706037 	
C	 15.106350984947 	  8.437256072216 	 17.489716426037 	
C	 12.351288864069 	  5.303717042161 	  8.806728724793 	
C	 11.782744734069 	  5.303719852161 	 18.937285444793 	
C	 12.351257764069 	 11.487278802161 	  8.806725894793 	
C	 11.782713634069 	 11.487281612161 	 18.937282614793 	
C	 27.032116164069 	  5.303726272161 	  8.834858654793 	
C	 26.463572034069 	  5.303729082161 	 18.965415374793 	
C	 27.032085064069 	 11.487288032161 	  8.834855824793 	
C	 26.463540934069 	 11.487290842161 	 18.965412544793 	
C	 12.573424029752 	  3.843067165068 	  3.469457019757 	
C	 12.004879899752 	  3.843069975068 	 13.600013739757 	
C	 12.573392929752 	 10.026628925068 	  3.469454189757 	
C	 12.004848799752 	 10.026631735068 	 13.600010909757 	
C	 27.254251329752 	  3.843076395068 	  3.497586949757 	
C	 26.685707199752 	  3.843079205068 	 13.628143669757 	
C	 27.254220229752 	 10.026638155068 	  3.497584119757 	
C	 26.685676099752 	 10.026640965068 	 13.628140839757 	
C	  1.216234418402 	  0.793029623232 	  1.993762318533 	
C	  0.647690288402 	  0.793032433232 	 12.124319038533 	
C	  1.216203318402 	  6.976591383232 	  1.993759488533 	
C	  0.647659188402 	  6.976594193232 	 12.124316208533 	
C	 15.897061718402 	  0.793038853232 	  2.021892248533 	
C	 15.328517588402 	  0.793041663232 	 12.152448968533 	
C	 15.897030618402 	  6.976600613232 	  2.021889418533 	
C	 15.328486488402 	  6.976603423232 	 12.152446138533 	
H	  0.002300012178 	  2.261601403045 	  6.797038073346 	
H	 -0.566244117822 	  2.261604213045 	 16.927594793346 	
H	  0.002268912178 	  8.445163163045 	  6.797035243346 	
H	 -0.566275217822 	  8.445165973045 	 16.927591963346 	
H	 14.683127312178 	  2.261610633045 	  6.825168003346 	
H	 14.114583182178 	  2.261613443045 	 16.955724723346 	
H	 14.683096212178 	  8.445172393045 	  6.825165173346 	
H	 14.114552082178 	  8.445175203045 	 16.955721893346 	
H	 13.344085480809 	  5.310338020072 	  9.339931569222 	
H	 12.775541350809 	  5.310340830072 	 19.470488289222 	
H	 13.344054380809 	 11.493899780072 	  9.339928739222 	
H	 12.775510250809 	 11.493902590072 	 19.470485459222 	
H	 28.024912780809 	  5.310347250072 	  9.368061499222 	
H	 27.456368650809 	  5.310350060072 	 19.498618219222 	
H	 28.024881680809 	 11.493909010072 	  9.368058669222 	
H	 27.456337550809 	 11.493911820072 	 19.498615389222 	
H	 13.565222927236 	  3.835148083302 	  4.003451518852 	
H	 12.996678797236 	  3.835150893302 	 14.134008238852 	
H	 13.565191827236 	 10.018709843302 	  4.003448688852 	
H	 12.996647697236 	 10.018712653302 	 14.134005408852 	
H	 28.246050227236 	  3.835157313302 	  4.031581448852 	
H	 27.677506097236 	  3.835160123302 	 14.162138168852 	
H	 28.246019127236 	 10.018719073302 	  4.031578618852 	
H	 27.677474997236 	 10.018721883302 	 14.162135338852 	
H	  0.223437656986 	  0.786408500744 	  1.460559749221 	
H	 -0.345106473014 	  0.786411310744 	 11.591116469221 	
H	  0.223406556986 	  6.969970260744 	  1.460556919221 	
H	 -0.345137573014 	  6.969973070744 	 11.591113639221 	
H	 14.904264956986 	  0.786417730744 	  1.488689679221 	
H	 14.335720826986 	  0.786420540744 	 11.619246399221 	
H	 14.904233856986 	  6.969979490744 	  1.488686849221 	
H	 14.335689726986 	  6.969982300744 	 11.619243569221 	
H	  0.714949519002 	  2.593319160764 	  8.371275008939 	
H	  0.146405389002 	  2.593321970764 	 18.501831728939 	
H	  0.714918419002 	  8.776880920764 	  8.371272178939 	
H	  0.146374289002 	  8.776883730764 	 18.501828898939 	
H	 15.395776819002 	  2.593328390764 	  8.399404938939 	
H	 14.827232689002 	  2.593331200764 	 18.529961658939 	
H	 15.395745719002 	  8.776890150764 	  8.399402108939 	
H	 14.827201589002 	  8.776892960764 	 18.529958828939 	
H	 12.631558513912 	  5.642620125015 	  7.765982074299 	
H	 12.063014383912 	  5.642622935015 	 17.896538794299 	
H	 12.631527413912 	 11.826181885015 	  7.765979244299 	
H	 12.062983283912 	 11.826184695015 	 17.896535964299 	
H	 27.312385813912 	  5.642629355015 	  7.794112004299 	
H	 26.743841683912 	  5.642632165015 	 17.924668724299 	
H	 27.312354713912 	 11.826191115015 	  7.794109174299 	
H	 26.743810583912 	 11.826193925015 	 17.924665894299 	
H	 12.852573559458 	  3.503431980443 	  2.429214127303 	
H	 12.284029429458 	  3.503434790443 	 12.559770847303 	
H	 12.852542459458 	  9.686993740443 	  2.429211297303 	
H	 12.283998329458 	  9.686996550443 	 12.559768017303 	
H	 27.533400859458 	  3.503441210443 	  2.457344057303 	
H	 26.964856729458 	  3.503444020443 	 12.587900777303 	
H	 27.533369759458 	  9.687002970443 	  2.457341227303 	
H	 26.964825629458 	  9.687005780443 	 12.587897947303 	
H	  0.935965016988 	  0.454126099859 	  3.034508888296 	
H	  0.367420886988 	  0.454128909859 	 13.165065608296 	
H	  0.935933916988 	  6.637687859859 	  3.034506058296 	
H	  0.367389786988 	  6.637690669859 	 13.165062778296 	
H	 15.616792316988 	  0.454135329859 	  3.062638818296 	
H	 15.048248186988 	  0.454138139859 	 13.193195538296 	
H	 15.616761216988 	  6.637697089859 	  3.062635988296 	
H	 15.048217086988 	  6.637699899859 	 13.193192708296 	
H	  1.131206680012 	  1.149194249166 	  7.535838929098 	
H	  0.562662550012 	  1.149197059166 	 17.666395649098 	
H	  1.131175580012 	  7.332756009166 	  7.535836099098 	
H	  0.562631450012 	  7.332758819166 	 17.666392819098 	
H	 15.812033980012 	  1.149203479166 	  7.563968859098 	
H	 15.243489850012 	  1.149206289166 	 17.694525579098 	
H	 15.812002880012 	  7.332765239166 	  7.563966029098 	
H	 15.243458750012 	  7.332768049166 	 17.694522749098 	
H	 12.215220760846 	  4.198744022268 	  8.601375575510 	
H	 11.646676630846 	  4.198746832268 	 18.731932295510 	
H	 12.215189660846 	 10.382305782268 	  8.601372745510 	
H	 11.646645530846 	 10.382308592268 	 18.731929465510 	
H	 26.896048060846 	  4.198753252268 	  8.629505505510 	
H	 26.327503930846 	  4.198756062268 	 18.760062225510 	
H	 26.896016960846 	 10.382315012268 	  8.629502675510 	
H	 26.327472830846 	 10.382317822268 	 18.760059395510 	
H	 12.436315281740 	  4.947555375933 	  3.264652545327 	
H	 11.867771151740 	  4.947558185933 	 13.395209265327 	
H	 12.436284181740 	 11.131117135933 	  3.264649715327 	
H	 11.867740051740 	 11.131119945933 	 13.395206435327 	
H	 27.117142581740 	  4.947564605933 	  3.292782475327 	
H	 26.548598451740 	  4.947567415933 	 13.423339195327 	
H	 27.117111481740 	 11.131126365933 	  3.292779645327 	
H	 26.548567351740 	 11.131129175933 	 13.423336365327 	
H	  1.352302377746 	  1.898002570227 	  2.199115972203 	
H	  0.783758247746 	  1.898005380227 	 12.329672692203 	
H	  1.352271277746 	  8.081564330227 	  2.199113142203 	
H	  0.783727147746 	  8.081567140227 	 12.329669862203 	
H	 16.033129677746 	  1.898011800227 	  2.227245902203 	
H	 15.464585547746 	  1.898014610227 	 12.357802622203 	
H	 16.033098577746 	  8.081573560227 	  2.227243072203 	
H	 15.464554447746 	  8.081576370227 	 12.357799792203 	
768 
Energy: -7.3846297469649997e+01 
S	  8.274226964800 	  1.377175302200 	  0.134797036600 	
S	  7.705682834800 	  1.377178112200 	 10.265353756600 	
S	  8.274195864800 	  7.560737062200 	  0.134794206600 	
S	  7.705651734800 	  7.560739872200 	 10.265350926600 	
S	 22.955054264800 	  1.377184532200 	  0.162926966600 	
S	 22.386510134800 	  1.377187342200 	 10.293483686600 	
S	 22.955023164800 	  7.560746292200 	  0.162924136600 	
S	 22.386479034800 	  7.560749102200 	 10.293480856600 	
S	  5.468105551400 	  4.422280389300 	  5.357839294400 	
S	  4.899561421400 	  4.422283199300 	 15.488396014400 	
S	  5.468074451400 	 10.605842149300 	  5.357836464400 	
S	  4.899530321400 	 10.605844959300 	 15.488393184400 	
S	 20.148932851400 	  4.422289619300 	  5.385969224400 	
S	 19.580388721400 	  4.422292429300 	 15.516525944400 	
S	 20.148901751400 	 10.605851379300 	  5.385966394400 	
S	 19.580357621400 	 10.605854189300 	 15.516523114400 	
S	  5.252181867800 	  4.713017932400 	 10.714134363300 	
S	  4.683637737800 	  4.713020742400 	 20.844691083300 	
S	  5.252150767800 	 10.896579692400 	 10.714131533300 	
S	  4.683606637800 	 10.896582502400 	 20.844688253300 	
S	 19.933009167800 	  4.713027162400 	 10.742264293300 	
S	 19.364465037800 	  4.713029972400 	 20.872821013300 	
S	 19.932978067800 	 10.896588922400 	 10.742261463300 	
S	 19.364433937800 	 10.896591732400 	 20.872818183300 	
S	  8.058304838100 	  1.667912723500 	  5.491091585000 	
S	  7.489760708100 	  1.667915533500 	 15.621648305000 	
S	  8.058273738100 	  7.851474483500 	  5.491088755000 	
S	  7.489729608100 	  7.851477293500 	 15.621645475000 	
S	 22.739132138100 	  1.667921953500 	  5.519221515000 	
S	 22.170588008100 	  1.667924763500 	 15.649778235000 	
S	 22.739101038100 	  7.851483713500 	  5.519218685000 	
S	 22.170556908100 	  7.851486523500 	 15.649775405000 	
C	  6.549448319000 	  2.468400911100 	 10.397561804200 	
C	  5.980904189000 	  2.468403721100 	 20.528118524200 	
C	  6.549417219000 	  8.651962671100 	 10.397558974200 	
C	  5.980873089000 	  8.651965481100 	 20.528115694200 	
C	 21.230275619000 	  2.468410141100 	 10.425691734200 	
C	 20.661731489000 	  2.468412951100 	 20.556248454200 	
C	 21.230244519000 	  8.651971901100 	 10.425688904200 	
C	 20.661700389000 	  8.651974711100 	 20.556245624200 	
C	  6.761044788800 	  5.513514746100 	  5.807719306500 	
C	  6.192500658800 	  5.513517556100 	 15.938276026500 	
C	  6.761013688800 	 11.697076506100 	  5.807716476500 	
C	  6.192469558800 	 11.697079316100 	 15.938273196500 	
C	 21.441872088800 	  5.513523976100 	  5.835849236500 	
C	 20.873327958800 	  5.513526786100 	 15.966405956500 	
C	 21.441840988800 	 11.697085736100 	  5.835846406500 	
C	 20.873296858800 	 11.697088546100 	 15.966403126500 	
C	  6.976960522100 	  3.621792323500 	  0.451369381500 	
C	  6.408416392100 	  3.621795133500 	 10.581926101500 	
C	  6.976929422100 	  9.805354083500 	  0.451366551500 	
C	  6.408385292100 	  9.805356893500 	 10.581923271500 	
C	 21.657787822100 	  3.621801553500 	  0.479499311500 	
C	 21.089243692100 	  3.621804363500 	 10.610056031500 	
C	 21.657756722100 	  9.805363313500 	  0.479496481500 	
C	 21.089212592100 	  9.805366123500 	 10.610053201500 	
C	  6.765365469800 	  0.576678427600 	  5.041211357200 	
C	  6.196821339800 	  0.576681237600 	 15.171768077200 	
C	  6.765334369800 	  6.760240187600 	  5.041208527200 	
C	  6.196790239800 	  6.760242997600 	 15.171765247200 	
C	 21.446192769800 	  0.576687657600 	  5.069341287200 	
C	 20.877648639800 	  0.576690467600 	 15.199898007200 	
C	 21.446161669800 	  6.760249417600 	  5.069338457200 	
C	 20.877617539800 	  6.760252227600 	 15.199895177200 	
C	  5.514830661500 	  2.406236873400 	  9.413614614800 	
C	  4.946286531500 	  2.406239683400 	 19.544171334800 	
C	  5.514799561500 	  8.589798633400 	  9.413611784800 	
C	  4.946255431500 	  8.589801443400 	 19.544168504800 	
C	 20.195657961500 	  2.406246103400 	  9.441744544800 	
C	 19.627113831500 	  2.406248913400 	 19.572301264800 	
C	 20.195626861500 	  8.589807863400 	  9.441741714800 	
C	 19.627082731500 	  8.589810673400 	 19.572298434800 	
C	  7.795666071200 	  5.451341527800 	  6.791658665300 	
C	  7.227121941200 	  5.451344337800 	 16.922215385300 	
C	  7.795634971200 	 11.634903287800 	  6.791655835300 	
C	  7.227090841200 	 11.634906097800 	 16.922212555300 	
C	 22.476493371200 	  5.451350757800 	  6.819788595300 	
C	 21.907949241200 	  5.451353567800 	 16.950345315300 	
C	 22.476462271200 	 11.634912517800 	  6.819785765300 	
C	 21.907918141200 	 11.634915327800 	 16.950342485300 	
C	  8.011578179700 	  3.683956422100 	  1.435316571000 	
C	  7.443034049700 	  3.683959232100 	 11.565873291000 	
C	  8.011547079700 	  9.867518182100 	  1.435313741000 	
C	  7.443002949700 	  9.867520992100 	 11.565870461000 	
C	 22.692405479700 	  3.683965652100 	  1.463446501000 	
C	 22.123861349700 	  3.683968462100 	 11.594003221000 	
C	 22.692374379700 	  9.867527412100 	  1.463443671000 	
C	 22.123830249700 	  9.867530222100 	 11.594000391000 	
C	  5.730743895300 	  0.638851706800 	  4.057272317100 	
C	  5.162199765300 	  0.638854516800 	 14.187829037100 	
C	  5.730712795300 	  6.822413466800 	  4.057269487100 	
C	  5.162168665300 	  6.822416276800 	 14.187826207100 	
C	 20.411571195300 	  0.638860936800 	  4.085402247100 	
C	 19.843027065300 	  0.638863746800 	 14.215958967100 	
C	 20.411540095300 	  6.822422696800 	  4.085399417100 	
C	 19.842995965300 	  6.822425506800 	 14.215956137100 	
C	  4.708186547100 	  3.575057243500 	  9.473887592500 	
C	  4.139642417100 	  3.575060053500 	 19.604444312500 	
C	  4.708155447100 	  9.758619003500 	  9.473884762500 	
C	  4.139611317100 	  9.758621813500 	 19.604441482500 	
C	 19.389013847100 	  3.575066473500 	  9.502017522500 	
C	 18.820469717100 	  3.575069283500 	 19.632574242500 	
C	 19.388982747100 	  9.758628233500 	  9.502014692500 	
C	 18.820438617100 	  9.758631043500 	 19.632571412500 	
C	  8.602283030900 	  0.529944629900 	  6.731329322300 	
C	  8.033738900900 	  0.529947439900 	 16.861886042300 	
C	  8.602251930900 	  6.713506389900 	  6.731326492300 	
C	  8.033707800900 	  6.713509199900 	 16.861883212300 	
C	 23.283110330900 	  0.529953859900 	  6.759459252300 	
C	 22.714566200900 	  0.529956669900 	 16.890015972300 	
C	 23.283079230900 	  6.713515619900 	  6.759456422300 	
C	 22.714535100900 	  6.713518429900 	 16.890013142300 	
C	  8.818222294000 	  2.515135991100 	  1.375043593200 	
C	  8.249678164000 	  2.515138801100 	 11.505600313200 	
C	  8.818191194000 	  8.698697751100 	  1.375040763200 	
C	  8.249647064000 	  8.698700561100 	 11.505597483200 	
C	 23.499049594000 	  2.515145221100 	  1.403173523200 	
C	 22.930505464000 	  2.515148031100 	 11.533730243200 	
C	 23.499018494000 	  8.698706981100 	  1.403170693200 	
C	 22.930474364000 	  8.698709791100 	 11.533727413200 	
C	  4.924127066500 	  5.560248604700 	  4.117601875700 	
C	  4.355582936500 	  5.560251414700 	 14.248158595700 	
C	  4.924095966500 	 11.743810364700 	  4.117599045700 	
C	  4.355551836500 	 11.743813174700 	 14.248155765700 	
C	 19.604954366500 	  5.560257834700 	  4.145731805700 	
C	 19.036410236500 	  5.560260644700 	 14.276288525700 	
C	 19.604923266500 	 11.743819594700 	  4.145728975700 	
C	 19.036379136500 	 11.743822404700 	 14.276285695700 	
C	  3.616380389000 	  3.755832070100 	  8.624223372800 	
C	  3.047836259000 	  3.755834880100 	 18.754780092800 	
C	  3.616349289000 	  9.939393830100 	  8.624220542800 	
C	  3.047805159000 	  9.939396640100 	 18.754777262800 	
C	 18.297207689000 	  3.755841300100 	  8.652353302800 	
C	 17.728663559000 	  3.755844110100 	 18.782910022800 	
C	 18.297176589000 	  9.939403060100 	  8.652350472800 	
C	 17.728632459000 	  9.939405870100 	 18.782907192800 	
C	  9.694110263800 	  0.710702205100 	  7.580976645800 	
C	  9.125566133800 	  0.710705015100 	 17.711533365800 	
C	  9.694079163800 	  6.894263965100 	  7.580973815800 	
C	  9.125535033800 	  6.894266775100 	 17.711530535800 	
C	 24.374937563800 	  0.710711435100 	  7.609106575800 	
C	 23.806393433800 	  0.710714245100 	 17.739663295800 	
C	 24.374906463800 	  6.894273195100 	  7.609103745800 	
C	 23.806362333800 	  6.894276005100 	 17.739660465800 	
C	  9.910028443500 	  2.334361286300 	  2.224708027200 	
C	  9.341484313500 	  2.334364096300 	 12.355264747200 	
C	  9.909997343500 	  8.517923046300 	  2.224705197200 	
C	  9.341453213500 	  8.517925856300 	 12.355261917200 	
C	 24.590855743500 	  2.334370516300 	  2.252837957200 	
C	 24.022311613500 	  2.334373326300 	 12.383394677200 	
C	 24.590824643500 	  8.517932276300 	  2.252835127200 	
C	 24.022280513500 	  8.517935086300 	 12.383391847200 	
C	  3.832299249400 	  5.379491151300 	  3.267955189500 	
C	  3.263755119400 	  5.379493961300 	 13.398511909500 	
C	  3.832268149400 	 11.563052911300 	  3.267952359500 	
C	  3.263724019400 	 11.563055721300 	 13.398509079500 	
C	 18.513126549400 	  5.379500381300 	  3.296085119500 	
C	 17.944582419400 	  5.379503191300 	 13.426641839500 	
C	 18.513095449400 	 11.563062141300 	  3.296082289500 	
C	 17.944551319400 	 11.563064951300 	 13.426639009500 	
H	  3.030192363400 	  4.667840350300 	  8.698825072800 	
H	  2.461648233400 	  4.667843160300 	 18.829381792800 	
H	  3.030161263400 	 10.851402110300 	  8.698822242800 	
H	  2.461617133400 	 10.851404920300 	 18.829378962800 	
H	 17.711019663400 	  4.667849580300 	  8.726955002800 	
H	 17.142475533400 	  4.667852390300 	 18.857511722800 	
H	 17.710988563400 	 10.851411340300 	  8.726952172800 	
H	 17.142444433400 	 10.851414150300 	 18.857508892800 	
H	 10.280332020700 	  1.622693456600 	  7.506360722100 	
H	  9.711787890700 	  1.622696266600 	 17.636917442100 	
H	 10.280300920700 	  7.806255216600 	  7.506357892100 	
H	  9.711756790700 	  7.806258026600 	 17.636914612100 	
H	 24.961159320700 	  1.622702686600 	  7.534490652100 	
H	 24.392615190700 	  1.622705496600 	 17.665047372100 	
H	 24.961128220700 	  7.806264446600 	  7.534487822100 	
H	 24.392584090700 	  7.806267256600 	 17.665044542100 	
H	 10.496216316600 	  1.422353006100 	  2.150106647200 	
H	  9.927672186600 	  1.422355816100 	 12.280663367200 	
H	 10.496185216600 	  7.605914766100 	  2.150103817200 	
H	  9.927641086600 	  7.605917576100 	 12.280660537200 	
H	 25.177043616600 	  1.422362236100 	  2.178236577200 	
H	 24.608499486600 	  1.422365046100 	 12.308793297200 	
H	 25.177012516600 	  7.605923996100 	  2.178233747200 	
H	 24.608468386600 	  7.605926806100 	 12.308790467200 	
H	  3.246077623500 	  4.467499838900 	  3.342571328800 	
H	  2.677533493500 	  4.467502648900 	 13.473128048800 	
H	  3.246046523500 	 10.651061598900 	  3.342568498800 	
H	  2.677502393500 	 10.651064408900 	 13.473125218800 	
H	 17.926904923500 	  4.467509068900 	  3.370701258800 	
H	 17.358360793500 	  4.467511878900 	 13.501257978800 	
H	 17.926873823500 	 10.651070828900 	  3.370698428800 	
H	 17.358329693500 	 10.651073638900 	 13.501255148800 	
C	  3.297673659000 	  2.774949442900 	  7.678024848600 	
C	  2.729129529000 	  2.774952252900 	 17.808581568600 	
C	  3.297642559000 	  8.958511202900 	  7.678022018600 	
C	  2.729098429000 	  8.958514012900 	 17.808578738600 	
C	 17.978500959000 	  2.774958672900 	  7.706154778600 	
C	 17.409956829000 	  2.774961482900 	 17.836711498600 	
C	 17.978469859000 	  8.958520432900 	  7.706151948600 	
C	 17.409925729000 	  8.958523242900 	 17.836708668600 	
C	 10.012846383800 	  5.820031992100 	  8.527231920200 	
C	  9.444302253800 	  5.820034802100 	 18.657788640200 	
C	 10.012815283800 	 12.003593752100 	  8.527229090200 	
C	  9.444271153800 	 12.003596562100 	 18.657785810200 	
C	 24.693673683800 	  5.820041222100 	  8.555361850200 	
C	 24.125129553800 	  5.820044032100 	 18.685918570200 	
C	 24.693642583800 	 12.003602982100 	  8.555359020200 	
C	 24.125098453800 	 12.003605792100 	 18.685915740200 	
C	 10.228735046900 	  3.315244157100 	  3.170906228600 	
C	  9.660190916900 	  3.315246967100 	 13.301462948600 	
C	 10.228703946900 	  9.498805917100 	  3.170903398600 	
C	  9.660159816900 	  9.498808727100 	 13.301460118600 	
C	 24.909562346900 	  3.315253387100 	  3.199036158600 	
C	 24.341018216900 	  3.315256197100 	 13.329592878600 	
C	 24.909531246900 	  9.498815147100 	  3.199033328600 	
C	 24.340987116900 	  9.498817957100 	 13.329590048600 	
C	  3.513562558100 	  0.270161486100 	  2.321700231000 	
C	  2.945018428100 	  0.270164296100 	 12.452256951000 	
C	  3.513531458100 	  6.453723246100 	  2.321697401000 	
C	  2.944987328100 	  6.453726056100 	 12.452254121000 	
C	 18.194389858100 	  0.270170716100 	  2.349830161000 	
C	 17.625845728100 	  0.270173526100 	 12.480386881000 	
C	 18.194358758100 	  6.453732476100 	  2.349827331000 	
C	 17.625814628100 	  6.453735286100 	 12.480384051000 	
C	  4.115613367000 	  1.624442344200 	  7.606279463600 	
C	  3.547069237000 	  1.624445154200 	 17.736836183600 	
C	  4.115582267000 	  7.808004104200 	  7.606276633600 	
C	  3.547038137000 	  7.808006914200 	 17.736833353600 	
C	 18.796440667000 	  1.624451574200 	  7.634409393600 	
C	 18.227896537000 	  1.624454384200 	 17.764966113600 	
C	 18.796409567000 	  7.808013334200 	  7.634406563600 	
C	 18.227865437000 	  7.808016144200 	 17.764963283600 	
C	  9.194872439700 	  4.669544365100 	  8.598991286000 	
C	  8.626328309700 	  4.669547175100 	 18.729548006000 	
C	  9.194841339700 	 10.853106125100 	  8.598988456000 	
C	  8.626297209700 	 10.853108935100 	 18.729545176000 	
C	 23.875699739700 	  4.669553595100 	  8.627121216000 	
C	 23.307155609700 	  4.669556405100 	 18.757677936000 	
C	 23.875668639700 	 10.853115355100 	  8.627118386000 	
C	 23.307124509700 	 10.853118165100 	 18.757675106000 	
C	  9.410795487100 	  4.465751377700 	  3.242651400700 	
C	  8.842251357100 	  4.465754187700 	 13.373208120700 	
C	  9.410764387100 	 10.649313137700 	  3.242648570700 	
C	  8.842220257100 	 10.649315947700 	 13.373205290700 	
C	 24.091622787100 	  4.465760607700 	  3.270781330700 	
C	 23.523078657100 	  4.465763417700 	 13.401338050700 	
C	 24.091591687100 	 10.649322367700 	  3.270778500700 	
C	 23.523047557100 	 10.649325177700 	 13.401335220700 	
C	  4.331536519400 	  1.420649052200 	  2.249940436700 	
C	  3.762992389400 	  1.420651862200 	 12.380497156700 	
C	  4.331505419400 	  7.604210812200 	  2.249937606700 	
C	  3.762961289400 	  7.604213622200 	 12.380494326700 	
C	 19.012363819400 	  1.420658282200 	  2.278070366700 	
C	 18.443819689400 	  1.420661092200 	 12.408627086700 	
C	 19.012332719400 	  7.604220042200 	  2.278067536700 	
C	 18.443788589400 	  7.604222852200 	 12.408624256700 	
H	  3.910307630800 	  0.858337997200 	  6.862660610300 	
H	  3.341763500800 	  0.858340807200 	 16.993217330300 	
H	  3.910276530800 	  7.041899757200 	  6.862657780300 	
H	  3.341732400800 	  7.041902567200 	 16.993214500300 	
H	 18.591134930800 	  0.858347227200 	  6.890790540300 	
H	 18.022590800800 	  0.858350037200 	 17.021347260300 	
H	 18.591103830800 	  7.041908987200 	  6.890787710300 	
H	 18.022559700800 	  7.041911797200 	 17.021344430300 	
H	  9.400179503700 	  3.903433024400 	  9.342599275100 	
H	  8.831635373700 	  3.903435834400 	 19.473155995100 	
H	  9.400148403700 	 10.086994784400 	  9.342596445100 	
H	  8.831604273700 	 10.086997594400 	 19.473153165100 	
H	 24.081006803700 	  3.903442254400 	  9.370729205100 	
H	 23.512462673700 	  3.903445064400 	 19.501285925100 	
H	 24.080975703700 	 10.087004014400 	  9.370726375100 	
H	 23.512431573700 	 10.087006824400 	 19.501283095100 	
H	  9.616101375900 	  5.231855907300 	  3.986269934100 	
H	  9.047557245900 	  5.231858717300 	 14.116826654100 	
H	  9.616070275900 	 11.415417667300 	  3.986267104100 	
H	  9.047526145900 	 11.415420477300 	 14.116823824100 	
H	 24.296928675900 	  5.231865137300 	  4.014399864100 	
H	 23.728384545900 	  5.231867947300 	 14.144956584100 	
H	 24.296897575900 	 11.415426897300 	  4.014397034100 	
H	 23.728353445900 	 11.415429707300 	 14.144953754100 	
H	  4.126229023800 	  2.186760514700 	  1.506332765000 	
H	  3.557684893800 	  2.186763324700 	 11.636889485000 	
H	  4.126197923800 	  8.370322274700 	  1.506329935000 	
H	  3.557653793800 	  8.370325084700 	 11.636886655000 	
H	 18.807056323800 	  2.186769744700 	  1.534462695000 	
H	 18.238512193800 	  2.186772554700 	 11.665019415000 	
H	 18.807025223800 	  8.370331504700 	  1.534459865000 	
H	 18.238481093800 	  8.370334314700 	 11.665016585000 	
C	  5.203863858000 	  1.434679543400 	  8.448323302000 	
C	  4.635319728000 	  1.434682353400 	 18.578880022000 	
C	  5.203832758000 	  7.618241303400 	  8.448320472000 	
C	  4.635288628000 	  7.618244113400 	 18.578877192000 	
C	 19.884691158000 	  1.434688773400 	  8.476453232000 	
C	 19.316147028000 	  1.434691583400 	 18.607009952000 	
C	 19.884660058000 	  7.618250533400 	  8.476450402000 	
C	 19.316115928000 	  7.618253343400 	 18.607007122000 	
C	  8.106607985800 	  4.479790023800 	  7.756956459800 	
C	  7.538063855800 	  4.479792833800 	 17.887513179800 	
C	  8.106576885800 	 10.663351783800 	  7.756953629800 	
C	  7.538032755800 	 10.663354593800 	 17.887510349800 	
C	 22.787435285800 	  4.479799253800 	  7.785086389800 	
C	 22.218891155800 	  4.479802063800 	 17.915643109800 	
C	 22.787404185800 	 10.663361013800 	  7.785083559800 	
C	 22.218860055800 	 10.663363823800 	 17.915640279800 	
C	  8.322544996100 	  4.655513995700 	  2.400607562400 	
C	  7.754000866100 	  4.655516805700 	 12.531164282400 	
C	  8.322513896100 	 10.839075755700 	  2.400604732400 	
C	  7.753969766100 	 10.839078565700 	 12.531161452400 	
C	 23.003372296100 	  4.655523225700 	  2.428737492400 	
C	 22.434828166100 	  4.655526035700 	 12.559294212400 	
C	 23.003341196100 	 10.839084985700 	  2.428734662400 	
C	 22.434797066100 	 10.839087795700 	 12.559291382400 	
C	  5.419801413700 	  1.610403271700 	  3.091974731400 	
C	  4.851257283700 	  1.610406081700 	 13.222531451400 	
C	  5.419770313700 	  7.793965031700 	  3.091971901400 	
C	  4.851226183700 	  7.793967841700 	 13.222528621400 	
C	 20.100628713700 	  1.610412501700 	  3.120104661400 	
C	 19.532084583700 	  1.610415311700 	 13.250661381400 	
C	 20.100597613700 	  7.793974261700 	  3.120101831400 	
C	 19.532053483700 	  7.793977071700 	 13.250658551400 	
H	  5.815280580100 	  0.539366990000 	  8.358446190600 	
H	  5.246736450100 	  0.539369800000 	 18.489002910600 	
H	  5.815249480100 	  6.722928750000 	  8.358443360600 	
H	  5.246705350100 	  6.722931560000 	 18.489000080600 	
H	 20.496107880100 	  0.539376220000 	  8.386576120600 	
H	 19.927563750100 	  0.539379030000 	 18.517132840600 	
H	 20.496076780100 	  6.722937980000 	  8.386573290600 	
H	 19.927532650100 	  6.722940790000 	 18.517130010600 	
H	  7.495164244800 	  3.584488939300 	  7.846838885500 	
H	  6.926620114800 	  3.584491749300 	 17.977395605500 	
H	  7.495133144800 	  9.768050699300 	  7.846836055500 	
H	  6.926589014800 	  9.768053509300 	 17.977392775500 	
H	 22.175991544800 	  3.584498169300 	  7.874968815500 	
H	 21.607447414800 	  3.584500979300 	 18.005525535500 	
H	 22.175960444800 	  9.768059929300 	  7.874965985500 	
H	 21.607416314800 	  9.768062739300 	 18.005522705500 	
H	  7.711128287000 	  5.550826610000 	  2.490484352400 	
H	  7.142584157000 	  5.550829420000 	 12.621041072400 	
H	  7.711097187000 	 11.734388370000 	  2.490481522400 	
H	  7.142553057000 	 11.734391180000 	 12.621038242400 	
H	 22.391955587000 	  5.550835840000 	  2.518614282400 	
H	 21.823411457000 	  5.550838650000 	 12.649171002400 	
H	 22.391924487000 	 11.734397600000 	  2.518611452400 	
H	 21.823380357000 	 11.734400410000 	 12.649168172400 	
H	  6.031245163400 	  2.505704356200 	  3.002092091400 	
H	  5.462701033400 	  2.505707166200 	 13.132648811400 	
H	  6.031214063400 	  8.689266116200 	  3.002089261400 	
H	  5.462669933400 	  8.689268926200 	 13.132645981400 	
H	 20.712072463400 	  2.505713586200 	  3.030222021400 	
H	 20.143528333400 	  2.505716396200 	 13.160778741400 	
H	 20.712041363400 	  8.689275346200 	  3.030219191400 	
H	 20.143497233400 	  8.689278156200 	 13.160775911400 	
C	  2.060699965000 	  2.923971898300 	  6.778256047500 	
C	  1.492155835000 	  2.923974708300 	 16.908812767500 	
C	  2.060668865000 	  9.107533658300 	  6.778253217500 	
C	  1.492124735000 	  9.107536468300 	 16.908809937500 	
C	 16.741527265000 	  2.923981128300 	  6.806385977500 	
C	 16.172983135000 	  2.923983938300 	 16.936942697500 	
C	 16.741496165000 	  9.107542888300 	  6.806383147500 	
C	 16.172952035000 	  9.107545698300 	 16.936939867500 	
C	 11.249821980800 	  5.969055390200 	  9.426999575200 	
C	 10.681277850800 	  5.969058200200 	 19.557556295200 	
C	 11.249790880800 	 12.152617150200 	  9.426996745200 	
C	 10.681246750800 	 12.152619960200 	 19.557553465200 	
C	 25.930649280800 	  5.969064620200 	  9.455129505200 	
C	 25.362105150800 	  5.969067430200 	 19.585686225200 	
C	 25.930618180800 	 12.152626380200 	  9.455126675200 	
C	 25.362074050800 	 12.152629190200 	 19.585683395200 	
C	 11.465708592700 	  3.166222067100 	  4.070675242600 	
C	 10.897164462700 	  3.166224877100 	 14.201231962600 	
C	 11.465677492700 	  9.349783827100 	  4.070672412600 	
C	 10.897133362700 	  9.349786637100 	 14.201229132600 	
C	 26.146535892700 	  3.166231297100 	  4.098805172600 	
C	 25.577991762700 	  3.166234107100 	 14.229361892600 	
C	 26.146504792700 	  9.349793057100 	  4.098802342600 	
C	 25.577960662700 	  9.349795867100 	 14.229359062600 	
C	  2.276586376900 	  0.121138088000 	  1.421933213400 	
C	  1.708042246900 	  0.121140898000 	 11.552489933400 	
C	  2.276555276900 	  6.304699848000 	  1.421930383400 	
C	  1.708011146900 	  6.304702658000 	 11.552487103400 	
C	 16.957413676900 	  0.121147318000 	  1.450063143400 	
C	 16.388869546900 	  0.121150128000 	 11.580619863400 	
C	 16.957382576900 	  6.304709078000 	  1.450060313400 	
C	 16.388838446900 	  6.304711888000 	 11.580617033400 	
C	  2.262347017200 	  2.221751156100 	  5.422902565400 	
C	  1.693802887200 	  2.221753966100 	 15.553459285400 	
C	  2.262315917200 	  8.405312916100 	  5.422899735400 	
C	  1.693771787200 	  8.405315726100 	 15.553456455400 	
C	 16.943174317200 	  2.221760386100 	  5.451032495400 	
C	 16.374630187200 	  2.221763196100 	 15.581589215400 	
C	 16.943143217200 	  8.405322146100 	  5.451029665400 	
C	 16.374599087200 	  8.405324956100 	 15.581586385400 	
C	 11.048108919500 	 -0.823375339700 	 10.782308126400 	
C	 10.479564789500 	 -0.823372529700 	 20.912864846400 	
C	 11.048077819500 	  5.360186420300 	 10.782305296400 	
C	 10.479533689500 	  5.360189230300 	 20.912862016400 	
C	 25.728936219500 	 -0.823366109700 	 10.810438056400 	
C	 25.160392089500 	 -0.823363299700 	 20.940994776400 	
C	 25.728905119500 	  5.360195650300 	 10.810435226400 	
C	 25.160360989500 	  5.360198460300 	 20.940991946400 	
C	 11.264060258300 	  3.868441104100 	  5.426029355200 	
C	 10.695516128300 	  3.868443914100 	 15.556586075200 	
C	 11.264029158300 	 10.052002864100 	  5.426026525200 	
C	 10.695485028300 	 10.052005674100 	 15.556583245200 	
C	 25.944887558300 	  3.868450334100 	  5.454159285200 	
C	 25.376343428300 	  3.868453144100 	 15.584716005200 	
C	 25.944856458300 	 10.052012094100 	  5.454156455200 	
C	 25.376312328300 	 10.052014904100 	 15.584713175200 	
C	  2.478298879800 	  6.913569000600 	  0.066624656700 	
C	  1.909754749800 	  6.913571810600 	 10.197181376700 	
C	  2.478267779800 	 13.097130760600 	  0.066621826700 	
C	  1.909723649800 	 13.097133570600 	 10.197178546700 	
C	 17.159126179800 	  6.913578230600 	  0.094754586700 	
C	 16.590582049800 	  6.913581040600 	 10.225311306700 	
C	 17.159095079800 	 13.097139990600 	  0.094751756700 	
C	 16.590550949800 	 13.097142800600 	 10.225308476700 	
H	  3.170768161300 	  2.565029211100 	  4.913710526400 	
H	  2.602224031300 	  2.565032021100 	 15.044267246400 	
H	  3.170737061300 	  8.748590971100 	  4.913707696400 	
H	  2.602192931300 	  8.748593781100 	 15.044264416400 	
H	 17.851595461300 	  2.565038441100 	  4.941840456400 	
H	 17.283051331300 	  2.565041251100 	 15.072397176400 	
H	 17.851564361300 	  8.748600201100 	  4.941837626400 	
H	 17.283020231300 	  8.748603011100 	 15.072394346400 	
H	 10.139696801000 	 -0.480096932800 	 11.291488826700 	
H	  9.571152671000 	 -0.480094122800 	 21.422045546700 	
H	 10.139665701000 	  5.703464827200 	 11.291485996700 	
H	  9.571121571000 	  5.703467637200 	 21.422042716700 	
H	 24.820524101000 	 -0.480087702800 	 11.319618756700 	
H	 24.251979971000 	 -0.480084892800 	 21.450175476700 	
H	 24.820493001000 	  5.703474057200 	 11.319615926700 	
H	 24.251948871000 	  5.703476867200 	 21.450172646700 	
H	 10.355639694200 	  3.525160856600 	  5.935220864000 	
H	  9.787095564200 	  3.525163666600 	 16.065777584000 	
H	 10.355608594200 	  9.708722616600 	  5.935218034000 	
H	  9.787064464200 	  9.708725426600 	 16.065774754000 	
H	 25.036466994200 	  3.525170086600 	  5.963350794000 	
H	 24.467922864200 	  3.525172896600 	 16.093907514000 	
H	 25.036435894200 	  9.708731846600 	  5.963347964000 	
H	 24.467891764200 	  9.708734656600 	 16.093904684000 	
H	  3.386710736400 	  6.570290654600 	 -0.442556474800 	
H	  2.818166606400 	  6.570293464600 	  9.688000245200 	
H	  3.386679636400 	 12.753852414600 	 -0.442559304800 	
H	  2.818135506400 	 12.753855224600 	  9.687997415200 	
H	 18.067538036400 	  6.570299884600 	 -0.414426544800 	
H	 17.498993906400 	  6.570302694600 	  9.716130175200 	
H	 18.067506936400 	 12.753861644600 	 -0.414429374800 	
H	 17.498962806400 	 12.753864454600 	  9.716127345200 	
H	  1.404496117300 	  2.427035558900 	  4.770053794800 	
H	  0.835951987300 	  2.427038368900 	 14.900610514800 	
H	  1.404465017300 	  8.610597318900 	  4.770050964800 	
H	  0.835920887300 	  8.610600128900 	 14.900607684800 	
H	 16.085323417300 	  2.427044788900 	  4.798183724800 	
H	 15.516779287300 	  2.427047598900 	 14.928740444800 	
H	 16.085292317300 	  8.610606548900 	  4.798180894800 	
H	 15.516748187300 	  8.610609358900 	 14.928737614800 	
H	 12.337828175700 	 -0.618075910000 	  0.722500627700 	
H	 11.769284045700 	 -0.618073100000 	 10.853057347700 	
H	 12.337797075700 	  5.565485850000 	  0.722497797700 	
H	 11.769252945700 	  5.565488660000 	 10.853054517700 	
H	 27.018655475700 	 -0.618066680000 	  0.750630557700 	
H	 26.450111345700 	 -0.618063870000 	 10.881187277700 	
H	 27.018624375700 	  5.565495080000 	  0.750627727700 	
H	 26.450080245700 	  5.565497890000 	 10.881184447700 	
H	 12.121911302100 	  3.663157614800 	  6.078878020100 	
H	 11.553367172100 	  3.663160424800 	 16.209434740100 	
H	 12.121880202100 	  9.846719374800 	  6.078875190100 	
H	 11.553336072100 	  9.846722184800 	 16.209431910100 	
H	 26.802738602100 	  3.663166844800 	  6.107007950100 	
H	 26.234194472100 	  3.663169654800 	 16.237564670100 	
H	 26.802707502100 	  9.846728604800 	  6.107005120100 	
H	 26.234163372100 	  9.846731414800 	 16.237561840100 	
H	  1.188579187600 	  6.708269631800 	 10.126432579800 	
H	  0.620035057600 	  6.708272441800 	 20.256989299800 	
H	  1.188548087600 	 12.891831391800 	 10.126429749800 	
H	  0.620003957600 	 12.891834201800 	 20.256986469800 	
H	 15.869406487600 	  6.708278861800 	 10.154562509800 	
H	 15.300862357600 	  6.708281671800 	 20.285119229800 	
H	 15.869375387600 	 12.891840621800 	 10.154559679800 	
H	 15.300831257600 	 12.891843431800 	 20.285116399800 	
H	  2.333338513100 	  1.133106211500 	  5.520678957300 	
H	  1.764794383100 	  1.133109021500 	 15.651235677300 	
H	  2.333307413100 	  7.316667971500 	  5.520676127300 	
H	  1.764763283100 	  7.316670781500 	 15.651232847300 	
H	 17.014165813100 	  1.133115441500 	  5.548808887300 	
H	 16.445621683100 	  1.133118251500 	 15.679365607300 	
H	 17.014134713100 	  7.316677201500 	  5.548806057300 	
H	 16.445590583100 	  7.316680011500 	 15.679362777300 	
H	 11.409028324500 	  4.178196056400 	 -0.028085263100 	
H	 10.840484194500 	  4.178198866400 	 10.102471456900 	
H	 11.408997224500 	 10.361757816400 	 -0.028088093100 	
H	 10.840453094500 	 10.361760626400 	 10.102468626900 	
H	 26.089855624500 	  4.178205286400 	  0.000044666900 	
H	 25.521311494500 	  4.178208096400 	 10.130601386900 	
H	 26.089824524500 	 10.361767046400 	  0.000041836900 	
H	 25.521280394500 	 10.361769856400 	 10.130598556900 	
H	 11.193066621200 	  4.957086048700 	  5.328254121300 	
H	 10.624522491200 	  4.957088858700 	 15.458810841300 	
H	 11.193035521200 	 11.140647808700 	  5.328251291300 	
H	 10.624491391200 	 11.140650618700 	 15.458808011300 	
H	 25.873893921200 	  4.957095278700 	  5.356384051300 	
H	 25.305349791200 	  4.957098088700 	 15.486940771300 	
H	 25.873862821200 	 11.140657038700 	  5.356381221300 	
H	 25.305318691200 	 11.140659848700 	 15.486937941300 	
H	  2.117379466200 	  1.911997604500 	 10.877018260400 	
H	  1.548835336200 	  1.912000414500 	 21.007574980400 	
H	  2.117348366200 	  8.095559364500 	 10.877015430400 	
H	  1.548804236200 	  8.095562174500 	 21.007572150400 	
H	 16.798206766200 	  1.912006834500 	 10.905148190400 	
H	 16.229662636200 	  1.912009644500 	 21.035704910400 	
H	 16.798175666200 	  8.095568594500 	 10.905145360400 	
H	 16.229631536200 	  8.095571404500 	 21.035702080400 	
C	  1.734559952200 	  4.404219912900 	  6.506123107300 	
C	  1.166015822200 	  4.404222722900 	 16.636679827300 	
C	  1.734528852200 	 10.587781672900 	  6.506120277300 	
C	  1.165984722200 	 10.587784482900 	 16.636676997300 	
C	 16.415387252200 	  4.404229142900 	  6.534253037300 	
C	 15.846843122200 	  4.404231952900 	 16.664809757300 	
C	 16.415356152200 	 10.587790902900 	  6.534250207300 	
C	 15.846812022200 	 10.587793712900 	 16.664806927300 	
C	 11.575904795300 	  1.359102403300 	  9.699089153700 	
C	 11.007360665300 	  1.359105213300 	 19.829645873700 	
C	 11.575873695300 	  7.542664163300 	  9.699086323700 	
C	 11.007329565300 	  7.542666973300 	 19.829643043700 	
C	 26.256732095300 	  1.359111633300 	  9.727219083700 	
C	 25.688187965300 	  1.359114443300 	 19.857775803700 	
C	 26.256700995300 	  7.542673393300 	  9.727216253700 	
C	 25.688156865300 	  7.542676203300 	 19.857772973700 	
C	 11.791850066100 	  1.685974113500 	  4.342806589600 	
C	 11.223305936100 	  1.685976923500 	 14.473363309600 	
C	 11.791818966100 	  7.869535873500 	  4.342803759600 	
C	 11.223274836100 	  7.869538683500 	 14.473360479600 	
C	 26.472677366100 	  1.685983343500 	  4.370936519600 	
C	 25.904133236100 	  1.685986153500 	 14.501493239600 	
C	 26.472646266100 	  7.869545103500 	  4.370933689600 	
C	 25.904102136100 	  7.869547913500 	 14.501490409600 	
C	  1.950503562300 	  4.731091074900 	  1.149843634900 	
C	  1.381959432300 	  4.731093884900 	 11.280400354900 	
C	  1.950472462300 	 10.914652834900 	  1.149840804900 	
C	  1.381928332300 	 10.914655644900 	 11.280397524900 	
C	 16.631330862300 	  4.731100304900 	  1.177973564900 	
C	 16.062786732300 	  4.731103114900 	 11.308530284900 	
C	 16.631299762300 	 10.914662064900 	  1.177970734900 	
C	 16.062755632300 	 10.914664874900 	 11.308527454900 	
H	  2.589703828300 	  4.918653371200 	  6.050687656000 	
H	  2.021159698300 	  4.918656181200 	 16.181244376000 	
H	  2.589672728300 	 11.102215131200 	  6.050684826000 	
H	  2.021128598300 	 11.102217941200 	 16.181241546000 	
H	 17.270531128300 	  4.918662601200 	  6.078817586000 	
H	 16.701986998300 	  4.918665411200 	 16.209374306000 	
H	 17.270500028300 	 11.102224361200 	  6.078814756000 	
H	 16.701955898300 	 11.102227171200 	 16.209371476000 	
H	 10.720753036400 	  1.873537183300 	 10.154505291000 	
H	 10.152208906400 	  1.873539993300 	 20.285062011000 	
H	 10.720721936400 	  8.057098943300 	 10.154502461000 	
H	 10.152177806400 	  8.057101753300 	 20.285059181000 	
H	 25.401580336400 	  1.873546413300 	 10.182635221000 	
H	 24.833036206400 	  1.873549223300 	 20.313191941000 	
H	 25.401549236400 	  8.057108173300 	 10.182632391000 	
H	 24.833005106400 	  8.057110983300 	 20.313189111000 	
H	 10.936706512400 	  1.171539254400 	  4.798240972300 	
H	 10.368162382400 	  1.171542064400 	 14.928797692300 	
H	 10.936675412400 	  7.355101014400 	  4.798238142300 	
H	 10.368131282400 	  7.355103824400 	 14.928794862300 	
H	 25.617533812400 	  1.171548484400 	  4.826370902300 	
H	 25.048989682400 	  1.171551294400 	 14.956927622300 	
H	 25.617502712400 	  7.355110244400 	  4.826368072300 	
H	 25.048958582400 	  7.355113054400 	 14.956924792300 	
H	  2.805655203200 	  4.216656416700 	  0.694426960500 	
H	  2.237111073200 	  4.216659226700 	 10.824983680500 	
H	  2.805624103200 	 10.400218176700 	  0.694424130500 	
H	  2.237079973200 	 10.400220986700 	 10.824980850500 	
H	 17.486482503200 	  4.216665646700 	  0.722556890500 	
H	 16.917938373200 	  4.216668456700 	 10.853113610500 	
H	 17.486451403200 	 10.400227406700 	  0.722554060500 	
H	 16.917907273200 	 10.400230216700 	 10.853110780500 	
H	  1.454454417400 	  4.942542076000 	  7.419312257100 	
H	  0.885910287400 	  4.942544886000 	 17.549868977100 	
H	  1.454423317400 	 11.126103836000 	  7.419309427100 	
H	  0.885879187400 	 11.126106646000 	 17.549866147100 	
H	 16.135281717400 	  4.942551306000 	  7.447442187100 	
H	 15.566737587400 	  4.942554116000 	 17.577998907100 	
H	 16.135250617400 	 11.126113066000 	  7.447439357100 	
H	 15.566706487400 	 11.126115876000 	 17.577996077100 	
H	 11.856081281800 	  7.987633929300 	  8.785941752800 	
H	 11.287537151800 	  7.987636739300 	 18.916498472800 	
H	 11.856050181800 	 14.171195689300 	  8.785938922800 	
H	 11.287506051800 	 14.171198499300 	 18.916495642800 	
H	 26.536908581800 	  7.987643159300 	  8.814071682800 	
H	 25.968364451800 	  7.987645969300 	 18.944628402800 	
H	 26.536877481800 	 14.171204919300 	  8.814068852800 	
H	 25.968333351800 	 14.171207729300 	 18.944625572800 	
H	 12.071956739200 	  1.147653411900 	  3.429616915000 	
H	 11.503412609200 	  1.147656221900 	 13.560173635000 	
H	 12.071925639200 	  7.331215171900 	  3.429614085000 	
H	 11.503381509200 	  7.331217981900 	 13.560170805000 	
H	 26.752784039200 	  1.147662641900 	  3.457746845000 	
H	 26.184239909200 	  1.147665451900 	 13.588303565000 	
H	 26.752752939200 	  7.331224401900 	  3.457744015000 	
H	 26.184208809200 	  7.331227211900 	 13.588300735000 	
H	  1.670327769500 	 -1.897440633900 	  2.062991149700 	
H	  1.101783639500 	 -1.897437823900 	 12.193547869700 	
H	  1.670296669500 	  4.286121126100 	  2.062988319700 	
H	  1.101752539500 	  4.286123936100 	 12.193545039700 	
H	 16.351155069500 	 -1.897431403900 	  2.091121079700 	
H	 15.782610939500 	 -1.897428593900 	 12.221677799700 	
H	 16.351123969500 	  4.286130356100 	  2.091118249700 	
H	 15.782579839500 	  4.286133166100 	 12.221674969700 	
H	  0.882064840800 	  4.479102131000 	  5.817989803200 	
H	  0.313520710800 	  4.479104941000 	 15.948546523200 	
H	  0.882033740800 	 10.662663891000 	  5.817986973200 	
H	  0.313489610800 	 10.662666701000 	 15.948543693200 	
H	 15.562892140800 	  4.479111361000 	  5.846119733200 	
H	 14.994348010800 	  4.479114171000 	 15.976676453200 	
H	 15.562861040800 	 10.662673121000 	  5.846116903200 	
H	 14.994316910800 	 10.662675931000 	 15.976673623200 	
H	 12.428454998600 	  7.524205360700 	 10.387278883200 	
H	 11.859910868600 	  7.524208170700 	 20.517835603200 	
H	 12.428423898600 	 13.707767120700 	 10.387276053200 	
H	 11.859879768600 	 13.707769930700 	 20.517832773200 	
H	 27.109282298600 	  7.524214590700 	 10.415408813200 	
H	 26.540738168600 	  7.524217400700 	 20.545965533200 	
H	 27.109251198600 	 13.707776350700 	 10.415405983200 	
H	 26.540707068600 	 13.707779160700 	 20.545962703200 	
H	 12.644344881100 	  1.611092017100 	  5.030940319400 	
H	 12.075800751100 	  1.611094827100 	 15.161497039400 	
H	 12.644313781100 	  7.794653777100 	  5.030937489400 	
H	 12.075769651100 	  7.794656587100 	 15.161494209400 	
H	 27.325172181100 	  1.611101247100 	  5.059070249400 	
H	 26.756628051100 	  1.611104057100 	 15.189626969400 	
H	 27.325141081100 	  7.794663007100 	  5.059067419400 	
H	 26.756596951100 	  7.794665817100 	 15.189624139400 	
H	  1.097952918700 	 -1.434011943400 	  0.461654436900 	
H	  0.529408788700 	 -1.434009133400 	 10.592211156900 	
H	  1.097921818700 	  4.749549816600 	  0.461651606900 	
H	  0.529377688700 	  4.749552626600 	 10.592208326900 	
H	 15.778780218700 	 -1.434002713400 	  0.489784366900 	
H	 15.210236088700 	 -1.433999903400 	 10.620341086900 	
H	 15.778749118700 	  4.749559046600 	  0.489781536900 	
H	 15.210204988700 	  4.749561856600 	 10.620338256900 	
C	  0.859009870300 	  2.275087521200 	  7.498940079800 	
C	  0.290465740300 	  2.275090331200 	 17.629496799800 	
C	  0.858978770300 	  8.458649281200 	  7.498937249800 	
C	  0.290434640300 	  8.458652091200 	 17.629493969800 	
C	 15.539837170300 	  2.275096751200 	  7.527070009800 	
C	 14.971293040300 	  2.275099561200 	 17.657626729800 	
C	 15.539806070300 	  8.458658511200 	  7.527067179800 	
C	 14.971261940300 	  8.458661321200 	 17.657623899800 	
C	 12.451513155200 	  5.320185271700 	  8.706323091700 	
C	 11.882969025200 	  5.320188081700 	 18.836879811700 	
C	 12.451482055200 	 11.503747031700 	  8.706320261700 	
C	 11.882937925200 	 11.503749841700 	 18.836876981700 	
C	 27.132340455200 	  5.320194501700 	  8.734453021700 	
C	 26.563796325200 	  5.320197311700 	 18.865009741700 	
C	 27.132309355200 	 11.503756261700 	  8.734450191700 	
C	 26.563765225200 	 11.503759071700 	 18.865006911700 	
C	 12.667397959200 	  3.815108697600 	  3.349991953400 	
C	 12.098853829200 	  3.815111507600 	 13.480548673400 	
C	 12.667366859200 	  9.998670457600 	  3.349989123400 	
C	 12.098822729200 	  9.998673267600 	 13.480545843400 	
C	 27.348225259200 	  3.815117927600 	  3.378121883400 	
C	 26.779681129200 	  3.815120737600 	 13.508678603400 	
C	 27.348194159200 	  9.998679687600 	  3.378119053400 	
C	 26.779650029200 	  9.998682497600 	 13.508675773400 	
C	  1.074895180800 	  0.770007780200 	  2.142610232500 	
C	  0.506351050800 	  0.770010590200 	 12.273166952500 	
C	  1.074864080800 	  6.953569540200 	  2.142607402500 	
C	  0.506319950800 	  6.953572350200 	 12.273164122500 	
C	 15.755722480800 	  0.770017010200 	  2.170740162500 	
C	 15.187178350800 	  0.770019820200 	 12.301296882500 	
C	 15.755691380800 	  6.953578770200 	  2.170737332500 	
C	 15.187147250800 	  6.953581580200 	 12.301294052500 	
H	 -0.047227588500 	  2.355973740600 	  6.881775666400 	
H	 -0.615771718500 	  2.355976550600 	 17.012332386400 	
H	 -0.047258688500 	  8.539535500600 	  6.881772836400 	
H	 -0.615802818500 	  8.539538310600 	 17.012329556400 	
H	 14.633599711500 	  2.355982970600 	  6.909905596400 	
H	 14.065055581500 	  2.355985780600 	 17.040462316400 	
H	 14.633568611500 	  8.539544730600 	  6.909902766400 	
H	 14.065024481500 	  8.539547540600 	 17.040459486400 	
H	 13.357742057700 	  5.401060799500 	  9.323509597600 	
H	 12.789197927700 	  5.401063609500 	 19.454066317600 	
H	 13.357710957700 	 11.584622559500 	  9.323506767600 	
H	 12.789166827700 	 11.584625369500 	 19.454063487600 	
H	 28.038569357700 	  5.401070029500 	  9.351639527600 	
H	 27.470025227700 	  5.401072839500 	 19.482196247600 	
H	 28.038538257700 	 11.584631789500 	  9.351636697600 	
H	 27.469994127700 	 11.584634599500 	 19.482193417600 	
H	 13.573635570700 	  3.734222417300 	  3.967156046800 	
H	 13.005091440700 	  3.734225227300 	 14.097712766800 	
H	 13.573604470700 	  9.917784177300 	  3.967153216800 	
H	 13.005060340700 	  9.917786987300 	 14.097709936800 	
H	 28.254462870700 	  3.734231647300 	  3.995285976800 	
H	 27.685918740700 	  3.734234457300 	 14.125842696800 	
H	 28.254431770700 	  9.917793407300 	  3.995283146800 	
H	 27.685887640700 	  9.917796217300 	 14.125839866800 	
H	  0.168666130200 	  0.689132191500 	  1.525423939400 	
H	 -0.399877999800 	  0.689135001500 	 11.655980659400 	
H	  0.168635030200 	  6.872693951500 	  1.525421109400 	
H	 -0.399909099800 	  6.872696761500 	 11.655977829400 	
H	 14.849493430200 	  0.689141421500 	  1.553553869400 	
H	 14.280949300200 	  0.689144231500 	 11.684110589400 	
H	 14.849462330200 	  6.872703181500 	  1.553551039400 	
H	 14.280918200200 	  6.872705991500 	 11.684107759400 	
H	  0.663727609200 	  2.763729103700 	  8.461941528400 	
H	  0.095183479200 	  2.763731913700 	 18.592498248400 	
H	  0.663696509200 	  8.947290863700 	  8.461938698400 	
H	  0.095152379200 	  8.947293673700 	 18.592495418400 	
H	 15.344554909200 	  2.763738333700 	  8.490071458400 	
H	 14.776010779200 	  2.763741143700 	 18.620628178400 	
H	 15.344523809200 	  8.947300093700 	  8.490068628400 	
H	 14.775979679200 	  8.947302903700 	 18.620625348400 	
H	 12.646828893000 	  5.808844884300 	  7.743333331200 	
H	 12.078284763000 	  5.808847694300 	 17.873890051200 	
H	 12.646797793000 	 11.992406644300 	  7.743330501200 	
H	 12.078253663000 	 11.992409454300 	 17.873887221200 	
H	 27.327656193000 	  5.808854114300 	  7.771463261200 	
H	 26.759112063000 	  5.808856924300 	 17.902019981200 	
H	 27.327625093000 	 11.992415874300 	  7.771460431200 	
H	 26.759080963000 	 11.992418684300 	 17.902017151200 	
H	 12.862680534200 	  3.326468820300 	  2.386989650500 	
H	 12.294136404200 	  3.326471630300 	 12.517546370500 	
H	 12.862649434200 	  9.510030580300 	  2.386986820500 	
H	 12.294105304200 	  9.510033390300 	 12.517543540500 	
H	 27.543507834200 	  3.326478050300 	  2.415119580500 	
H	 26.974963704200 	  3.326480860300 	 12.545676300500 	
H	 27.543476734200 	  9.510039810300 	  2.415116750500 	
H	 26.974932604200 	  9.510042620300 	 12.545673470500 	
H	  0.879579730900 	  0.281347802200 	  3.105599781400 	
H	  0.311035600900 	  0.281350612200 	 13.236156501400 	
H	  0.879548630900 	  6.464909562200 	  3.105596951400 	
H	  0.311004500900 	  6.464912372200 	 13.236153671400 	
H	 15.560407030900 	  0.281357032200 	  3.133729711400 	
H	 14.991862900900 	  0.281359842200 	 13.264286431400 	
H	 15.560375930900 	  6.464918792200 	  3.133726881400 	
H	 14.991831800900 	  6.464921602200 	 13.264283601400 	
H	  1.045204185900 	  1.211387289900 	  7.689215422100 	
H	  0.476660055900 	  1.211390099900 	 17.819772142100 	
H	  1.045173085900 	  7.394949049900 	  7.689212592100 	
H	  0.476628955900 	  7.394951859900 	 17.819769312100 	
H	 15.726031485900 	  1.211396519900 	  7.717345352100 	
H	 15.157487355900 	  1.211399329900 	 17.847902072100 	
H	 15.726000385900 	  7.394958279900 	  7.717342522100 	
H	 15.157456255900 	  7.394961089900 	 17.847899242100 	
H	 12.265311577400 	  4.256482564700 	  8.516029920700 	
H	 11.696767447400 	  4.256485374700 	 18.646586640700 	
H	 12.265280477400 	 10.440044324700 	  8.516027090700 	
H	 11.696736347400 	 10.440047134700 	 18.646583810700 	
H	 26.946138877400 	  4.256491794700 	  8.544159850700 	
H	 26.377594747400 	  4.256494604700 	 18.674716570700 	
H	 26.946107777400 	 10.440053554700 	  8.544157020700 	
H	 26.377563647400 	 10.440056364700 	 18.674713740700 	
H	 12.481202737100 	  4.878809050700 	  3.159718317000 	
H	 11.912658607100 	  4.878811860700 	 13.290275037000 	
H	 12.481171637100 	 11.062370810700 	  3.159715487000 	
H	 11.912627507100 	 11.062373620700 	 13.290272207000 	
H	 27.162030037100 	  4.878818280700 	  3.187848247000 	
H	 26.593485907100 	  4.878821090700 	 13.318404967000 	
H	 27.161998937100 	 11.062380040700 	  3.187845417000 	
H	 26.593454807100 	 11.062382850700 	 13.318402137000 	
H	  1.261096601800 	  1.833710487200 	  2.332903830600 	
H	  0.692552471800 	  1.833713297200 	 12.463460550600 	
H	  1.261065501800 	  8.017272247200 	  2.332901000600 	
H	  0.692521371800 	  8.017275057200 	 12.463457720600 	
H	 15.941923901800 	  1.833719717200 	  2.361033760600 	
H	 15.373379771800 	  1.833722527200 	 12.491590480600 	
H	 15.941892801800 	  8.017281477200 	  2.361030930600 	
H	 15.373348671800 	  8.017284287200 	 12.491587650600 	
