  Invoking FHI-aims ...
  | Number of atoms                   :  96
  ...scf iterations...
  | Total energy corrected        :   -8.207666992458E+01 eV
  ...
  Total atomic forces (unitary forces cleaned)
     1  -2.4731894824E-01  5.8709121316E-01  1.8337251000E-01
     2  2.2211920636E-01  5.6764263761E-01  -1.8945752109E-01
     3  2.4731894766E-01  -5.8709112939E-01  -1.8337248671E-01
     4  -2.2211908803E-01  -5.6764257331E-01  1.8945761584E-01
     5  -8.6454744447E-01  1.3108261387E+00  1.5815856995E-01
     6  8.7358838165E-01  1.3420157955E+00  -2.0003108238E-01
     7  8.6454798161E-01  -1.3108259866E+00  -1.5815805607E-01
     8  -8.7358833936E-01  -1.3420159531E+00  2.0003134501E-01
     9  -2.7576897605E-01  1.6348558183E-01  -1.3877498510E-01
    10  3.3224237924E-01  2.1098179788E-01  1.3245673854E-01
    11  2.7576843679E-01  -1.6348572981E-01  1.3877458568E-01
    12  -3.3224269161E-01  -2.1098170121E-01  -1.3245686581E-01
    13  -4.5488987944E-01  -9.6777589445E-01  -9.5043426672E-01
    14  4.1327127977E-01  -1.0181190820E+00  9.7072927189E-01
    15  4.5488927853E-01  9.6777609479E-01  9.5043401967E-01
    16  -4.1327140130E-01  1.0181192020E+00  -9.7072895233E-01
    17  6.9387664955E-01  -9.5652107604E-01  -8.1510908974E-02
    18  -7.0372533383E-01  -1.0112294007E+00  1.3066997742E-01
    19  -6.9387624523E-01  9.5652138449E-01  8.1511298492E-02
    20  7.0372536126E-01  1.0112294635E+00  -1.3067038899E-01
    21  2.7151577529E-01  -7.1559429093E-01  -1.8400274654E-01
    22  -2.6061913765E-01  -7.0330023027E-01  1.8736324341E-01
    23  -2.7151583595E-01  7.1559419942E-01  1.8400259107E-01
    24  2.6061922917E-01  7.0330023780E-01  -1.8736325459E-01
    25  6.9545070818E-01  5.1887001395E-02  5.1462848899E-01
    26  -7.0998289879E-01  8.4819555011E-02  -5.6759047455E-01
    27  -6.9545103883E-01  -5.1887426885E-02  -5.1462885906E-01
    28  7.0998334316E-01  -8.4819188083E-02  5.6759034895E-01
    29  4.9228360803E-01  7.5891764176E-01  8.8371700075E-01
    30  -4.8525429453E-01  7.6814002487E-01  -8.8438215357E-01
    31  -4.9228341016E-01  -7.5891755306E-01  -8.8371714604E-01
    32  4.8525370087E-01  -7.6814036328E-01  8.8438189718E-01
    33  6.0063130488E-02  6.4696696823E-01  5.2648360447E-01
    34  -5.8718992692E-02  6.4696587630E-01  -5.2441259340E-01
    35  -6.0062896617E-02  -6.4696706354E-01  -5.2648348644E-01
    36  5.8719074164E-02  -6.4696593939E-01  5.2441251727E-01
    37  -9.5944781033E-01  9.0804796639E-01  -8.2218493533E-02
    38  9.5729853855E-01  9.1568392034E-01  7.5422626472E-02
    39  9.5944772082E-01  -9.0804798449E-01  8.2218686078E-02
    40  -9.5729808274E-01  -9.1568405479E-01  -7.5422157744E-02
    41  -5.3923419053E-01  6.8288885764E-01  3.2758588349E-02
    42  5.3862088084E-01  6.8218369421E-01  -3.3637551606E-02
    43  5.3923426221E-01  -6.8288885264E-01  -3.2758542467E-02
    44  -5.3862080582E-01  -6.8218367788E-01  3.3637615968E-02
    45  -2.0189454843E+00  1.1134001303E-01  -1.3693517942E+00
    46  2.0080060598E+00  5.8368551273E-02  1.3919083801E+00
    47  2.0189454125E+00  -1.1133899025E-01  1.3693504106E+00
    48  -2.0080066776E+00  -5.8368703953E-02  -1.3919084547E+00
    49  -1.3649517047E+01  -2.5756014872E+00  8.4483362465E+00
    50  1.7300358724E+01  1.5995481627E+00  -1.2861874880E+01
    51  1.3649273582E+01  2.5755793080E+00  -8.4482155877E+00
    52  -1.7300369908E+01  -1.5995279277E+00  1.2861877564E+01
    53  5.8934883814E+00  7.2554042890E+00  -1.8466580539E+00
    54  -6.0052003158E+00  7.6917625671E+00  1.8209677344E+00
    55  -5.8933674466E+00  -7.2552675019E+00  1.8466188815E+00
    56  6.0052149576E+00  -7.6917825259E+00  -1.8209742077E+00
    57  1.2256869941E+00  -1.8224422401E-01  1.0202768052E+00
    58  9.1459457158E-02  2.5365795244E-02  1.9182864687E-01
    59  -1.2256764949E+00  1.8224179127E-01  -1.0202674559E+00
    60  -9.1460537533E-02  -2.5366263560E-02  -1.9182931124E-01
    61  5.3062606997E+00  -5.2296059929E+00  -3.8562159115E+00
    62  -1.0142900494E+01  -1.0016900366E+01  7.0440236201E+00
    63  -5.3061513382E+00  5.2294930802E+00  3.8561303664E+00
    64  1.0142898531E+01  1.0016899663E+01  -7.0440186800E+00
    65  3.9256159897E-01  -7.3825767084E+00  -5.9103895278E+00
    66  -5.3469915017E-01  -7.4974103833E+00  6.5689543259E+00
    67  -3.9257549295E-01  7.3825168495E+00  5.9103284668E+00
    68  5.3469152914E-01  7.4974170610E+00  -6.5689381722E+00
    69  1.8136985294E+00  4.3697820496E+00  5.4851736091E-01
    70  -1.9386200636E+00  4.5035054903E+00  -5.2137160424E-01
    71  -1.8136763007E+00  -4.3697280720E+00  -5.4851341167E-01
    72  1.9386225035E+00  -4.5035104205E+00  5.2136961964E-01
    73  -8.0447802238E-01  2.0811833785E-01  3.4390479211E+00
    74  9.8164316124E-01  1.7782450628E-01  -4.1705497342E+00
    75  8.0446663126E-01  -2.0811587377E-01  -3.4389944828E+00
    76  -9.8163856741E-01  -1.7782549988E-01  4.1705361461E+00
    77  1.0826663221E+00  -1.9431582162E-01  5.9489163273E-01
    78  -1.0042937068E+00  -1.9086965632E-01  -5.5003234334E-01
    79  -1.0826620936E+00  1.9431465675E-01  -5.9489028346E-01
    80  1.0042936179E+00  1.9086949375E-01  5.5003210175E-01
    81  -2.6775645684E+00  1.2929163759E+01  -3.2595410851E+00
    82  2.6724723128E+00  1.2943859172E+01  3.2652544780E+00
    83  2.6774875839E+00  -1.2928995096E+01  3.2595476364E+00
    84  -2.6724723419E+00  -1.2943867174E+01  -3.2652649642E+00
    85  1.2960140010E+00  8.5070287919E-02  6.8813736409E-01
    86  -1.2970302103E+00  8.9553026473E-02  -6.8372712984E-01
    87  -1.2960075165E+00  -8.5069605394E-02  -6.8813420688E-01
    88  1.2970296412E+00  -8.9553008600E-02  6.8372693571E-01
    89  -7.9056061132E-01  -2.0843864578E+00  4.7751245011E+00
    90  7.9092866614E-01  -2.0781848557E+00  -4.7805942524E+00
    91  7.9055570000E-01  2.0843702083E+00  -4.7750927901E+00
    92  -7.9092976806E-01  2.0781870125E+00  4.7806020205E+00
    93  4.1577161912E+00  -7.3326652587E+00  -2.4624037345E+00
    94  -4.1670532301E+00  -7.3286764675E+00  2.4702017672E+00
    95  -4.1576390020E+00  7.3325162926E+00  2.4623606874E+00
    96  4.1670554687E+00  7.3286828167E+00  -2.4701997285E+00
  Stress tensor (eV/A^3):
  2.8094361693E-02  -6.4916149915E-03  5.8982079865E-02
  -6.4916149915E-03  -2.4977400402E-02  3.7112782236E-03
  5.8982079865E-02  3.7112782236E-03  1.0274376724E-02
