  Invoking FHI-aims ...
  | Number of atoms                   :  96
  ...scf iterations...
  | Total energy corrected        :   -8.045084708898E+01 eV
  ...
  Total atomic forces (unitary forces cleaned)
     1  -2.4127851606E-01  5.9034763475E-01  1.8376768693E-01
     2  2.1655451236E-01  5.7116071964E-01  -1.9171052619E-01
     3  2.4127857382E-01  -5.9034754786E-01  -1.8376764089E-01
     4  -2.1655436947E-01  -5.7116057689E-01  1.9171060605E-01
     5  -8.4729530473E-01  1.3111671139E+00  1.5337751104E-01
     6  8.5360339744E-01  1.3992541789E+00  -2.4230860977E-01
     7  8.4729566017E-01  -1.3111669767E+00  -1.5337712771E-01
     8  -8.5360350975E-01  -1.3992543160E+00  2.4230890540E-01
     9  -2.7053895434E-01  1.7414435609E-01  -1.4240145466E-01
    10  3.7428634406E-01  2.7109252015E-01  1.3261143064E-01
    11  2.7053853509E-01  -1.7414425305E-01  1.4240112301E-01
    12  -3.7428672193E-01  -2.7109264057E-01  -1.3261139405E-01
    13  -4.5572532735E-01  -9.4956478413E-01  -9.6747654097E-01
    14  3.6567188338E-01  -1.0498044867E+00  9.9199785794E-01
    15  4.5572476708E-01  9.4956491125E-01  9.6747628300E-01
    16  -3.6567196404E-01  1.0498047568E+00  -9.9199733416E-01
    17  6.8433999009E-01  -9.6554601530E-01  -8.8913993562E-02
    18  -6.7770028925E-01  -1.0510351263E+00  1.8363089743E-01
    19  -6.8433955834E-01  9.6554638902E-01  8.8914368971E-02
    20  6.7770019854E-01  1.0510351697E+00  -1.8363136352E-01
    21  2.7388348372E-01  -7.1793433613E-01  -1.9141734237E-01
    22  -2.6268623691E-01  -7.0869677265E-01  1.9737908526E-01
    23  -2.7388365003E-01  7.1793417152E-01  1.9141707142E-01
    24  2.6268620811E-01  7.0869684246E-01  -1.9737920313E-01
    25  6.6971189375E-01  2.9884696292E-02  5.3749970334E-01
    26  -7.0158171897E-01  9.4439430193E-02  -6.3767487539E-01
    27  -6.6971225630E-01  -2.9885076572E-02  -5.3750009469E-01
    28  7.0158236676E-01  -9.4439156841E-02  6.3767470782E-01
    29  5.0509894902E-01  7.4249939991E-01  9.0338026871E-01
    30  -4.9801915193E-01  7.5390967299E-01  -9.0562180050E-01
    31  -5.0509882399E-01  -7.4249944572E-01  -9.0338034102E-01
    32  4.9801875681E-01  -7.5390998272E-01  9.0562153242E-01
    33  7.4173357018E-02  6.4453848788E-01  5.2853086875E-01
    34  -7.9702832809E-02  6.5372082258E-01  -5.2544210489E-01
    35  -7.4173126700E-02  -6.4453864074E-01  -5.2853067818E-01
    36  7.9702997232E-02  -6.5372090609E-01  5.2544195934E-01
    37  -9.4200883662E-01  9.2636681436E-01  -9.5013459802E-02
    38  9.4073230430E-01  9.3605027303E-01  8.7090722732E-02
    39  9.4200877819E-01  -9.2636687835E-01  9.5013618984E-02
    40  -9.4073195603E-01  -9.3605030724E-01  -8.7090264292E-02
    41  -5.2853409915E-01  6.9152584764E-01  3.0979741337E-02
    42  5.2828911305E-01  6.9093376065E-01  -3.2151412732E-02
    43  5.2853414918E-01  -6.9152587394E-01  -3.0979633905E-02
    44  -5.2828903560E-01  -6.9093371722E-01  3.2151509666E-02
    45  -1.9659861958E+00  1.3048245604E-01  -1.3471452783E+00
    46  1.9067290965E+00  -3.9939504492E-02  1.3751674982E+00
    47  1.9659914190E+00  -1.3048104541E-01  1.3471479279E+00
    48  -1.9067303202E+00  3.9938404404E-02  -1.3751677983E+00
    49  -2.0122972388E+01  2.0137161068E+00  1.2306912323E+01
    50  2.4726067751E+01  1.2092051309E+01  -1.7396107399E+01
    51  2.0122546143E+01  -2.0136282128E+00  -1.2306675495E+01
    52  -2.4726117670E+01  -1.2092109524E+01  1.7396139952E+01
    53  1.0594497433E+01  8.7265148095E+00  -4.9025874582E+00
    54  -9.4597245509E+00  7.9597619688E+00  4.4949071209E+00
    55  -1.0594245403E+01  -8.7263326410E+00  4.9024619439E+00
    56  9.4597332369E+00  -7.9597717262E+00  -4.4949153242E+00
    57  1.5061157246E+00  -2.3975395931E-01  1.3183800825E+00
    58  -5.6597560706E-01  -9.6119582561E-02  -3.7050925989E-01
    59  -1.5060997529E+00  2.3975031167E-01  -1.3183652781E+00
    60  5.6597527034E-01  9.6119090841E-02  3.7050907707E-01
    61  6.7729593020E+00  -1.0360045187E+01  -4.7746812765E+00
    62  -1.3434403780E+01  -1.9752566499E+01  9.2919627960E+00
    63  -6.7728033264E+00  1.0359781296E+01  4.7745560548E+00
    64  1.3434446215E+01  1.9752633947E+01  -9.2919859669E+00
    65  -1.1340531898E+00  -9.6534306896E+00  -5.6726345222E+00
    66  1.7403067768E+00  -9.5633333349E+00  4.8970301393E+00
    67  1.1340183330E+00  9.6533531778E+00  5.6725925558E+00
    68  -1.7403130823E+00  9.5633346914E+00  -4.8970152902E+00
    69  3.0035378656E+00  5.2320444548E+00  -1.5932758824E-01
    70  -3.1968736498E+00  5.3658362573E+00  2.0284911538E-01
    71  -3.0035016630E+00  -5.2319850973E+00  1.5932175367E-01
    72  3.1968754001E+00  -5.3658380053E+00  -2.0285228426E-01
    73  -9.8305405396E-01  1.1536278378E+00  4.3955755543E+00
    74  7.4673994445E-01  1.0067062434E+00  -3.6091989826E+00
    75  9.8304654861E-01  -1.1536116800E+00  -4.3955289407E+00
    76  -7.4673559992E-01  -1.0067043321E+00  3.6091878592E+00
    77  1.1278676919E+00  -2.7864236307E-01  6.6337217995E-01
    78  -1.2419810068E+00  -3.0772532822E-01  -7.4503992423E-01
    79  -1.1278637820E+00  2.7864067439E-01  -6.6337093514E-01
    80  1.2419810966E+00  3.0772517274E-01  7.4503953221E-01
    81  -2.3698658054E+00  1.6281396930E+01  -6.8162690358E+00
    82  2.3548737654E+00  1.6308669871E+01  6.8355176640E+00
    83  2.3698050807E+00  -1.6281158996E+01  6.8161626834E+00
    84  -2.3548687740E+00  -1.6308672288E+01  -6.8355448657E+00
    85  1.4519428122E+00  6.0093156306E-02  7.4928688585E-01
    86  -1.4536042056E+00  6.4442775175E-02  -7.4024254064E-01
    87  -1.4519313760E+00  -6.0092429067E-02  -7.4928113268E-01
    88  1.4536041255E+00  -6.4442837211E-02  7.4024257202E-01
    89  -1.2301248675E+00  -1.3133375801E+00  6.2861580621E+00
    90  1.2295940374E+00  -1.3031416579E+00  -6.2891362996E+00
    91  1.2301036646E+00  1.3133191162E+00  -6.2860565280E+00
    92  -1.2295976292E+00  1.3031437244E+00  6.2891566373E+00
    93  4.5176891820E+00  -1.1802436355E+01  -1.2238899545E+00
    94  -4.5275249441E+00  -1.1795703497E+01  1.2310956717E+00
    95  -4.5176190113E+00  1.1802215678E+01  1.2238852957E+00
    96  4.5275237391E+00  1.1795704740E+01  -1.2310898431E+00
  Stress tensor (eV/A^3):
  9.7679709435E-03  -1.1885295647E-02  7.2771078805E-02
  -1.1885295647E-02  -7.3395620271E-02  6.7251923765E-03
  7.2771078805E-02  6.7251923765E-03  3.1892049480E-03
