  Invoking FHI-aims ...
  | Number of atoms                   :  96
  ...scf iterations...
  | Total energy corrected        :   -9.710172687213E+01 eV
  ...
  Total atomic forces (unitary forces cleaned)
     1  -3.0350386990E-01  6.0411588488E-01  1.8814472976E-01
     2  2.2462020590E-01  5.7353697609E-01  -1.8282953860E-01
     3  3.0350383654E-01  -6.0411577489E-01  -1.8814470433E-01
     4  -2.2462008940E-01  -5.7353692261E-01  1.8282962129E-01
     5  -8.2122261153E-01  1.6160507460E+00  2.5383368046E-01
     6  9.1258839439E-01  -5.5390116363E-01  1.1384041052E+00
     7  8.2122334522E-01  -1.6160505717E+00  -2.5383299784E-01
     8  -9.1258829068E-01  5.5390099733E-01  -1.1384037888E+00
     9  -4.2901444475E-01  2.5793917302E-01  -1.9280716720E-01
    10  9.1657476954E-01  3.9912009188E-01  1.6070649989E-01
    11  4.2901376045E-01  -2.5793948573E-01  1.9280655442E-01
    12  -9.1657505444E-01  -3.9911988794E-01  -1.6070666670E-01
    13  -5.5633553984E-01  -1.0826651498E+00  -1.0873758592E+00
    14  3.8412502651E-02  -1.2838865146E+00  1.1671220896E+00
    15  5.5633476295E-01  1.0826654356E+00  1.0873755353E+00
    16  -3.8412721911E-02  1.2838866270E+00  -1.1671218101E+00
    17  3.6434545821E-01  -4.7060490801E-01  -2.2158219143E-02
    18  -4.0589293666E-01  -1.9610732465E-01  8.4909544146E-02
    19  -3.6434474797E-01  4.7060499550E-01  2.2158761382E-02
    20  4.0589299422E-01  1.9610687049E-01  -8.4909616744E-02
    21  7.4121908626E-01  -1.3281889451E+00  -2.2700152436E-01
    22  -7.2821255839E-01  -1.4459997669E+00  3.2184288045E-01
    23  -7.4121939408E-01  1.3281891460E+00  2.2700132878E-01
    24  7.2821273254E-01  1.4460000043E+00  -3.2184293276E-01
    25  9.9679704666E-01  9.0721010675E-02  7.5788114691E-01
    26  -8.6203652997E-01  -1.9704445748E-01  -7.4446302618E-01
    27  -9.9679878248E-01  -9.0721501626E-02  -7.5788251651E-01
    28  8.6203717324E-01  1.9704524464E-01  7.4446265690E-01
    29  4.8244990674E-01  2.7166586674E-01  5.3876733236E-01
    30  -4.5252786151E-01  3.4210120791E-01  -5.7765175605E-01
    31  -4.8244971713E-01  -2.7166596058E-01  -5.3876769133E-01
    32  4.5252701940E-01  -3.4210155485E-01  5.7765145234E-01
    33  2.2741127620E-01  1.1988732756E+00  1.0426061843E+00
    34  -2.1612581398E-01  1.2388546291E+00  -1.0256055779E+00
    35  -2.2741094142E-01  -1.1988732221E+00  -1.0426058043E+00
    36  2.1612600123E-01  -1.2388548636E+00  1.0256055092E+00
    37  -6.8113051259E-01  3.6623382976E-01  -2.4396933264E-01
    38  7.1008374895E-01  4.2690323997E-01  2.0899909339E-01
    39  6.8113064065E-01  -3.6623413178E-01  2.4396951694E-01
    40  -7.1008357977E-01  -4.2690383419E-01  -2.0899852659E-01
    41  -1.0159256078E+00  1.2870144439E+00  9.6184870297E-02
    42  1.0248399465E+00  1.3026251805E+00  -9.4477223018E-02
    43  1.0159254582E+00  -1.2870140562E+00  -9.6184741571E-02
    44  -1.0248395639E+00  -1.3026248231E+00  9.4477324312E-02
    45  3.8884724441E-01  1.6159035872E-01  5.3956689910E-01
    46  -4.2411912531E+00  -2.1223062278E+00  -2.6543920411E+00
    47  -3.8879974601E-01  -1.6158544873E-01  -5.3952299308E-01
    48  4.2411891901E+00  2.1223029260E+00  2.6543910263E+00
    49  -2.1208149751E+00  -2.4003462132E-01  2.1467614914E-01
    50  3.9944481148E+00  1.4026192353E+00  -3.5464364723E+00
    51  2.1207654462E+00  2.4003465239E-01  -2.1469305842E-01
    52  -3.9944476556E+00  -1.4026169895E+00  3.5464393326E+00
    53  -6.8561554585E-02  -8.7938205437E-01  -3.8812271929E-01
    54  1.0838959710E-01  -2.2090761193E+00  4.5214233034E-01
    55  6.8587017404E-02  8.7939798100E-01  3.8810771186E-01
    56  -1.0838774219E-01  2.2090740330E+00  -4.5214235771E-01
    57  1.4673038668E+00  -2.4209254880E-01  1.3701425446E+00
    58  1.4318484137E+00  3.7979352441E-01  1.8016196512E+00
    59  -1.4672998580E+00  2.4209106234E-01  -1.3701397395E+00
    60  -1.4318500214E+00  -3.7979389280E-01  -1.8016207358E+00
    61  -2.7652708184E-01  1.0648445135E+00  1.6598418317E-01
    62  -4.6745421628E+00  -3.4319186896E-01  3.0200002031E+00
    63  2.7655059369E-01  -1.0648502728E+00  -1.6600159849E-01
    64  4.6745408214E+00  3.4319199471E-01  -3.0199985982E+00
    65  -3.5818841101E-01  -1.8998730554E-01  -1.2447847439E-01
    66  4.4171502155E+00  1.8175012901E+00  -6.0294951397E-01
    67  3.5816429880E-01  1.8999085396E-01  1.2447101137E-01
    68  -4.4171496074E+00  -1.8174988991E+00  6.0295317891E-01
    69  -5.7854829437E-01  -1.3805019306E+00  3.4464673381E-01
    70  8.1422018660E-01  -1.3186118575E+00  -7.2985617198E-01
    71  5.7855289199E-01  1.3805181840E+00  -3.4464164857E-01
    72  -8.1421951315E-01  1.3186095663E+00  7.2985590695E-01
    73  6.3461095597E-01  3.6535495370E-01  -1.8008818244E+00
    74  -8.2441469432E-01  6.2440175425E-01  1.7400964340E+00
    75  -6.3461340635E-01  -3.6535237729E-01  1.8008927228E+00
    76  8.2441531930E-01  -6.2439943309E-01  -1.7401018936E+00
    77  1.3581943152E+00  -2.9993518340E-01  6.8968209597E-01
    78  -1.6364088452E+00  -4.4013967781E-01  -9.0802417333E-01
    79  -1.3581950276E+00  2.9993465560E-01  -6.8968375359E-01
    80  1.6364096299E+00  4.4013974549E-01  9.0802423771E-01
    81  -9.8745132291E-01  1.0377156201E+00  -2.1698912967E-01
    82  1.0893503006E+00  1.2875208938E+00  4.0997582692E-01
    83  9.8741252069E-01  -1.0377051953E+00  2.1697703079E-01
    84  -1.0893502432E+00  -1.2875231756E+00  -4.0997870934E-01
    85  1.5919589656E+00  1.8680594019E-01  8.1964138877E-01
    86  -1.6138916521E+00  2.8035601585E-01  -7.3609139384E-01
    87  -1.5919589414E+00  -1.8680625336E-01  -8.1964131032E-01
    88  1.6138909930E+00  -2.8035589459E-01  7.3609114654E-01
    89  3.7925994276E-01  1.3660612228E-01  -1.5390900676E+00
    90  -4.0420825721E-01  2.3306248617E-01  1.6171500957E+00
    91  -3.7925988414E-01  -1.3661855336E-01  1.5391007553E+00
    92  4.0420808239E-01  -2.3306014155E-01  -1.6171480297E+00
    93  -4.3376869405E-01  2.6814404733E-01  6.3586122279E-01
    94  4.0758088696E-01  4.2816237439E-01  -5.8862928132E-01
    95  4.3378080567E-01  -2.6817737384E-01  -6.3586346107E-01
    96  -4.0758066803E-01  -4.2816154446E-01  5.8862993487E-01
  Stress tensor (eV/A^3):
  7.1761697152E-02  -9.7917998448E-03  3.6422749757E-02
  -9.7917998448E-03  8.0553071055E-02  7.1748039688E-03
  3.6422749757E-02  7.1748039688E-03  5.7949524408E-02
