64 
Energy: 2.9178544928135803e+00 
Mg	  0.000000000000 	  0.000000000000 	  0.000000000000 	
Mg	  1.000000000000 	  0.000000000000 	  2.980000000000 	
Mg	  0.000000000000 	  3.980000000000 	  0.000000000000 	
Mg	  1.000000000000 	  3.980000000000 	  2.980000000000 	
Mg	  3.980000000000 	  0.000000000000 	  0.000000000000 	
Mg	  4.980000000000 	  0.000000000000 	  2.980000000000 	
Mg	  3.980000000000 	  3.980000000000 	  0.000000000000 	
Mg	  4.980000000000 	  3.980000000000 	  2.980000000000 	
Mg	  1.702414240502 	  1.798276160334 	  0.000000000000 	
Mg	  2.702414240502 	  1.798276160334 	  2.980000000000 	
Mg	  1.702414240502 	  5.778276160334 	  0.000000000000 	
Mg	  2.702414240502 	  5.778276160334 	  2.980000000000 	
Mg	  5.682414240502 	  1.798276160334 	  0.000000000000 	
Mg	  6.682414240502 	  1.798276160334 	  2.980000000000 	
Mg	  5.682414240502 	  5.778276160334 	  0.000000000000 	
Mg	  6.682414240502 	  5.778276160334 	  2.980000000000 	
Mg	  2.469309599164 	  0.000000000000 	  1.510690400836 	
Mg	  3.469309599164 	  0.000000000000 	  4.490690400836 	
Mg	  2.469309599164 	  3.980000000000 	  1.510690400836 	
Mg	  3.469309599164 	  3.980000000000 	  4.490690400836 	
Mg	  6.449309599164 	  0.000000000000 	  1.510690400836 	
Mg	  7.449309599164 	  0.000000000000 	  4.490690400836 	
Mg	  6.449309599164 	  3.980000000000 	  1.510690400836 	
Mg	  7.449309599164 	  3.980000000000 	  4.490690400836 	
Mg	  0.479309599164 	  1.990000000000 	  1.510690400836 	
Mg	  1.479309599164 	  1.990000000000 	  4.490690400836 	
Mg	  0.479309599164 	  5.970000000000 	  1.510690400836 	
Mg	  1.479309599164 	  5.970000000000 	  4.490690400836 	
Mg	  4.459309599164 	  1.990000000000 	  1.510690400836 	
Mg	  5.459309599164 	  1.990000000000 	  4.490690400836 	
Mg	  4.459309599164 	  5.970000000000 	  1.510690400836 	
Mg	  5.459309599164 	  5.970000000000 	  4.490690400836 	
O	  1.990000000000 	  0.000000000000 	  0.000000000000 	
O	  2.990000000000 	  0.000000000000 	  2.980000000000 	
O	  1.990000000000 	  3.980000000000 	  0.000000000000 	
O	  2.990000000000 	  3.980000000000 	  2.980000000000 	
O	  5.970000000000 	  0.000000000000 	  0.000000000000 	
O	  6.970000000000 	  0.000000000000 	  2.980000000000 	
O	  5.970000000000 	  3.980000000000 	  0.000000000000 	
O	  6.970000000000 	  3.980000000000 	  2.980000000000 	
O	  0.000000000000 	  1.990000000000 	  0.000000000000 	
O	  1.000000000000 	  1.990000000000 	  2.980000000000 	
O	  0.000000000000 	  5.970000000000 	  0.000000000000 	
O	  1.000000000000 	  5.970000000000 	  2.980000000000 	
O	  3.980000000000 	  1.990000000000 	  0.000000000000 	
O	  4.980000000000 	  1.990000000000 	  2.980000000000 	
O	  3.980000000000 	  5.970000000000 	  0.000000000000 	
O	  4.980000000000 	  5.970000000000 	  2.980000000000 	
O	  0.479309599164 	  0.000000000000 	  1.510690400836 	
O	  1.479309599164 	  0.000000000000 	  4.490690400836 	
O	  0.479309599164 	  3.980000000000 	  1.510690400836 	
O	  1.479309599164 	  3.980000000000 	  4.490690400836 	
O	  4.459309599164 	  0.000000000000 	  1.510690400836 	
O	  5.459309599164 	  0.000000000000 	  4.490690400836 	
O	  4.459309599164 	  3.980000000000 	  1.510690400836 	
O	  5.459309599164 	  3.980000000000 	  4.490690400836 	
O	  2.852757278495 	  1.360187186699 	  1.510690400836 	
O	  3.852757278495 	  1.360187186699 	  4.490690400836 	
O	  2.852757278495 	  5.340187186699 	  1.510690400836 	
O	  3.852757278495 	  5.340187186699 	  4.490690400836 	
O	  6.832757278495 	  1.360187186699 	  1.510690400836 	
O	  7.832757278495 	  1.360187186699 	  4.490690400836 	
O	  6.832757278495 	  5.340187186699 	  1.510690400836 	
O	  7.832757278495 	  5.340187186699 	  4.490690400836 	
64 
Energy: 2.8766382694407997e+00 
Mg	  0.000000000000 	  0.000000000000 	  0.000000000000 	
Mg	  1.000000000000 	  0.000000000000 	  2.980000000000 	
Mg	  0.000000000000 	  3.980000000000 	  0.000000000000 	
Mg	  1.000000000000 	  3.980000000000 	  2.980000000000 	
Mg	  3.980000000000 	  0.000000000000 	  0.000000000000 	
Mg	  4.980000000000 	  0.000000000000 	  2.980000000000 	
Mg	  3.980000000000 	  3.980000000000 	  0.000000000000 	
Mg	  4.980000000000 	  3.980000000000 	  2.980000000000 	
Mg	  1.728704047943 	  1.818623267617 	  0.000000000000 	
Mg	  2.728704047943 	  1.818623267617 	  2.980000000000 	
Mg	  1.728704047943 	  5.798623267617 	  0.000000000000 	
Mg	  2.728704047943 	  5.798623267617 	  2.980000000000 	
Mg	  5.708704047943 	  1.818623267617 	  0.000000000000 	
Mg	  6.708704047943 	  1.818623267617 	  2.980000000000 	
Mg	  5.708704047943 	  5.798623267617 	  0.000000000000 	
Mg	  6.708704047943 	  5.798623267617 	  2.980000000000 	
Mg	  2.448057805334 	  0.000000000000 	  1.548865608596 	
Mg	  3.448057805334 	  0.000000000000 	  4.528865608596 	
Mg	  2.448057805334 	  3.980000000000 	  1.548865608596 	
Mg	  3.448057805334 	  3.980000000000 	  4.528865608596 	
Mg	  6.428057805334 	  0.000000000000 	  1.548865608596 	
Mg	  7.428057805334 	  0.000000000000 	  4.528865608596 	
Mg	  6.428057805334 	  3.980000000000 	  1.548865608596 	
Mg	  7.428057805334 	  3.980000000000 	  4.528865608596 	
Mg	  0.449596098369 	  1.998461706965 	  1.548865608596 	
Mg	  1.449596098369 	  1.998461706965 	  4.528865608596 	
Mg	  0.449596098369 	  5.978461706965 	  1.548865608596 	
Mg	  1.449596098369 	  5.978461706965 	  4.528865608596 	
Mg	  4.429596098369 	  1.998461706965 	  1.548865608596 	
Mg	  5.429596098369 	  1.998461706965 	  4.528865608596 	
Mg	  4.429596098369 	  5.978461706965 	  1.548865608596 	
Mg	  5.429596098369 	  5.978461706965 	  4.528865608596 	
O	  1.998461706965 	  0.000000000000 	  0.000000000000 	
O	  2.998461706965 	  0.000000000000 	  2.980000000000 	
O	  1.998461706965 	  3.980000000000 	  0.000000000000 	
O	  2.998461706965 	  3.980000000000 	  2.980000000000 	
O	  5.978461706965 	  0.000000000000 	  0.000000000000 	
O	  6.978461706965 	  0.000000000000 	  2.980000000000 	
O	  5.978461706965 	  3.980000000000 	  0.000000000000 	
O	  6.978461706965 	  3.980000000000 	  2.980000000000 	
O	  0.000000000000 	  1.998461706965 	  0.000000000000 	
O	  1.000000000000 	  1.998461706965 	  2.980000000000 	
O	  0.000000000000 	  5.978461706965 	  0.000000000000 	
O	  1.000000000000 	  5.978461706965 	  2.980000000000 	
O	  3.980000000000 	  1.998461706965 	  0.000000000000 	
O	  4.980000000000 	  1.998461706965 	  2.980000000000 	
O	  3.980000000000 	  5.978461706965 	  0.000000000000 	
O	  4.980000000000 	  5.978461706965 	  2.980000000000 	
O	  0.449596098369 	  0.000000000000 	  1.548865608596 	
O	  1.449596098369 	  0.000000000000 	  4.528865608596 	
O	  0.449596098369 	  3.980000000000 	  1.548865608596 	
O	  1.449596098369 	  3.980000000000 	  4.528865608596 	
O	  4.429596098369 	  0.000000000000 	  1.548865608596 	
O	  5.429596098369 	  0.000000000000 	  4.528865608596 	
O	  4.429596098369 	  3.980000000000 	  1.548865608596 	
O	  5.429596098369 	  3.980000000000 	  4.528865608596 	
O	  2.807734684029 	  1.407692433708 	  1.548865608596 	
O	  3.807734684029 	  1.407692433708 	  4.528865608596 	
O	  2.807734684029 	  5.387692433708 	  1.548865608596 	
O	  3.807734684029 	  5.387692433708 	  4.528865608596 	
O	  6.787734684029 	  1.407692433708 	  1.548865608596 	
O	  7.787734684029 	  1.407692433708 	  4.528865608596 	
O	  6.787734684029 	  5.387692433708 	  1.548865608596 	
O	  7.787734684029 	  5.387692433708 	  4.528865608596 	
64 
Energy: 3.2621004211183031e+00 
Mg	  0.000000000000 	  0.000000000000 	  0.000000000000 	
Mg	  1.000000000000 	  0.000000000000 	  2.980000000000 	
Mg	  0.000000000000 	  3.980000000000 	  0.000000000000 	
Mg	  1.000000000000 	  3.980000000000 	  2.980000000000 	
Mg	  3.980000000000 	  0.000000000000 	  0.000000000000 	
Mg	  4.980000000000 	  0.000000000000 	  2.980000000000 	
Mg	  3.980000000000 	  3.980000000000 	  0.000000000000 	
Mg	  4.980000000000 	  3.980000000000 	  2.980000000000 	
Mg	  1.755086422404 	  1.839017495062 	  0.000000000000 	
Mg	  2.755086422404 	  1.839017495062 	  2.980000000000 	
Mg	  1.755086422404 	  5.819017495062 	  0.000000000000 	
Mg	  2.755086422404 	  5.819017495062 	  2.980000000000 	
Mg	  5.735086422404 	  1.839017495062 	  0.000000000000 	
Mg	  6.735086422404 	  1.839017495062 	  2.980000000000 	
Mg	  5.735086422404 	  5.819017495062 	  0.000000000000 	
Mg	  6.735086422404 	  5.819017495062 	  2.980000000000 	
Mg	  2.426535003672 	  0.000000000000 	  1.587224277087 	
Mg	  3.426535003672 	  0.000000000000 	  4.567224277087 	
Mg	  2.426535003672 	  3.980000000000 	  1.587224277087 	
Mg	  3.426535003672 	  3.980000000000 	  4.567224277087 	
Mg	  6.406535003672 	  0.000000000000 	  1.587224277087 	
Mg	  7.406535003672 	  0.000000000000 	  4.567224277087 	
Mg	  6.406535003672 	  3.980000000000 	  1.587224277087 	
Mg	  7.406535003672 	  3.980000000000 	  4.567224277087 	
Mg	  0.419655363292 	  2.006879640379 	  1.587224277087 	
Mg	  1.419655363292 	  2.006879640379 	  4.567224277087 	
Mg	  0.419655363292 	  5.986879640379 	  1.587224277087 	
Mg	  1.419655363292 	  5.986879640379 	  4.567224277087 	
Mg	  4.399655363292 	  2.006879640379 	  1.587224277087 	
Mg	  5.399655363292 	  2.006879640379 	  4.567224277087 	
Mg	  4.399655363292 	  5.986879640379 	  1.587224277087 	
Mg	  5.399655363292 	  5.986879640379 	  4.567224277087 	
O	  2.006879640379 	  0.000000000000 	  0.000000000000 	
O	  3.006879640379 	  0.000000000000 	  2.980000000000 	
O	  2.006879640379 	  3.980000000000 	  0.000000000000 	
O	  3.006879640379 	  3.980000000000 	  2.980000000000 	
O	  5.986879640379 	  0.000000000000 	  0.000000000000 	
O	  6.986879640379 	  0.000000000000 	  2.980000000000 	
O	  5.986879640379 	  3.980000000000 	  0.000000000000 	
O	  6.986879640379 	  3.980000000000 	  2.980000000000 	
O	  0.000000000000 	  2.006879640379 	  0.000000000000 	
O	  1.000000000000 	  2.006879640379 	  2.980000000000 	
O	  0.000000000000 	  5.986879640379 	  0.000000000000 	
O	  1.000000000000 	  5.986879640379 	  2.980000000000 	
O	  3.980000000000 	  2.006879640379 	  0.000000000000 	
O	  4.980000000000 	  2.006879640379 	  2.980000000000 	
O	  3.980000000000 	  5.986879640379 	  0.000000000000 	
O	  4.980000000000 	  5.986879640379 	  2.980000000000 	
O	  0.419655363292 	  0.000000000000 	  1.587224277087 	
O	  1.419655363292 	  0.000000000000 	  4.567224277087 	
O	  0.419655363292 	  3.980000000000 	  1.587224277087 	
O	  1.419655363292 	  3.980000000000 	  4.567224277087 	
O	  4.399655363292 	  0.000000000000 	  1.587224277087 	
O	  5.399655363292 	  0.000000000000 	  4.567224277087 	
O	  4.399655363292 	  3.980000000000 	  1.587224277087 	
O	  5.399655363292 	  3.980000000000 	  4.567224277087 	
O	  2.762259294306 	  1.455452493013 	  1.587224277087 	
O	  3.762259294306 	  1.455452493013 	  4.567224277087 	
O	  2.762259294306 	  5.435452493013 	  1.587224277087 	
O	  3.762259294306 	  5.435452493013 	  4.567224277087 	
O	  6.742259294306 	  1.455452493013 	  1.587224277087 	
O	  7.742259294306 	  1.455452493013 	  4.567224277087 	
O	  6.742259294306 	  5.435452493013 	  1.587224277087 	
O	  7.742259294306 	  5.435452493013 	  4.567224277087 	
64 
Energy: 3.8685711305799586e+00 
Mg	  0.000000000000 	  0.000000000000 	  0.000000000000 	
Mg	  1.000000000000 	  0.000000000000 	  2.980000000000 	
Mg	  0.000000000000 	  3.980000000000 	  0.000000000000 	
Mg	  1.000000000000 	  3.980000000000 	  2.980000000000 	
Mg	  3.980000000000 	  0.000000000000 	  0.000000000000 	
Mg	  4.980000000000 	  0.000000000000 	  2.980000000000 	
Mg	  3.980000000000 	  3.980000000000 	  0.000000000000 	
Mg	  4.980000000000 	  3.980000000000 	  2.980000000000 	
Mg	  1.781489320829 	  1.859429304674 	  0.000000000000 	
Mg	  2.781489320829 	  1.859429304674 	  2.980000000000 	
Mg	  1.781489320829 	  5.839429304674 	  0.000000000000 	
Mg	  2.781489320829 	  5.839429304674 	  2.980000000000 	
Mg	  5.761489320829 	  1.859429304674 	  0.000000000000 	
Mg	  6.761489320829 	  1.859429304674 	  2.980000000000 	
Mg	  5.761489320829 	  5.839429304674 	  0.000000000000 	
Mg	  6.761489320829 	  5.839429304674 	  2.980000000000 	
Mg	  2.405009191591 	  0.000000000000 	  1.625609353138 	
Mg	  3.405009191591 	  0.000000000000 	  4.605609353138 	
Mg	  2.405009191591 	  3.980000000000 	  1.625609353138 	
Mg	  3.405009191591 	  3.980000000000 	  4.605609353138 	
Mg	  6.385009191591 	  0.000000000000 	  1.625609353138 	
Mg	  7.385009191591 	  0.000000000000 	  4.605609353138 	
Mg	  6.385009191591 	  3.980000000000 	  1.625609353138 	
Mg	  7.385009191591 	  3.980000000000 	  4.605609353138 	
Mg	  0.389699919227 	  2.015309272364 	  1.625609353138 	
Mg	  1.389699919227 	  2.015309272364 	  4.605609353138 	
Mg	  0.389699919227 	  5.995309272364 	  1.625609353138 	
Mg	  1.389699919227 	  5.995309272364 	  4.605609353138 	
Mg	  4.369699919227 	  2.015309272364 	  1.625609353138 	
Mg	  5.369699919227 	  2.015309272364 	  4.605609353138 	
Mg	  4.369699919227 	  5.995309272364 	  1.625609353138 	
Mg	  5.369699919227 	  5.995309272364 	  4.605609353138 	
O	  2.015309272364 	  0.000000000000 	  0.000000000000 	
O	  3.015309272364 	  0.000000000000 	  2.980000000000 	
O	  2.015309272364 	  3.980000000000 	  0.000000000000 	
O	  3.015309272364 	  3.980000000000 	  2.980000000000 	
O	  5.995309272364 	  0.000000000000 	  0.000000000000 	
O	  6.995309272364 	  0.000000000000 	  2.980000000000 	
O	  5.995309272364 	  3.980000000000 	  0.000000000000 	
O	  6.995309272364 	  3.980000000000 	  2.980000000000 	
O	  0.000000000000 	  2.015309272364 	  0.000000000000 	
O	  1.000000000000 	  2.015309272364 	  2.980000000000 	
O	  0.000000000000 	  5.995309272364 	  0.000000000000 	
O	  1.000000000000 	  5.995309272364 	  2.980000000000 	
O	  3.980000000000 	  2.015309272364 	  0.000000000000 	
O	  4.980000000000 	  2.015309272364 	  2.980000000000 	
O	  3.980000000000 	  5.995309272364 	  0.000000000000 	
O	  4.980000000000 	  5.995309272364 	  2.980000000000 	
O	  0.389699919227 	  0.000000000000 	  1.625609353138 	
O	  1.389699919227 	  0.000000000000 	  4.605609353138 	
O	  0.389699919227 	  3.980000000000 	  1.625609353138 	
O	  1.389699919227 	  3.980000000000 	  4.605609353138 	
O	  4.369699919227 	  0.000000000000 	  1.625609353138 	
O	  5.369699919227 	  0.000000000000 	  4.605609353138 	
O	  4.369699919227 	  3.980000000000 	  1.625609353138 	
O	  5.369699919227 	  3.980000000000 	  4.605609353138 	
O	  2.716769126972 	  1.503243578501 	  1.625609353138 	
O	  3.716769126972 	  1.503243578501 	  4.605609353138 	
O	  2.716769126972 	  5.483243578501 	  1.625609353138 	
O	  3.716769126972 	  5.483243578501 	  4.605609353138 	
O	  6.696769126972 	  1.503243578501 	  1.625609353138 	
O	  7.696769126972 	  1.503243578501 	  4.605609353138 	
O	  6.696769126972 	  5.483243578501 	  1.625609353138 	
O	  7.696769126972 	  5.483243578501 	  4.605609353138 	
64 
Energy: 4.5313550739902002e+00 
Mg	  0.000000000000 	  0.000000000000 	  0.000000000000 	
Mg	  1.000000000000 	  0.000000000000 	  2.980000000000 	
Mg	  0.000000000000 	  3.980000000000 	  0.000000000000 	
Mg	  1.000000000000 	  3.980000000000 	  2.980000000000 	
Mg	  3.980000000000 	  0.000000000000 	  0.000000000000 	
Mg	  4.980000000000 	  0.000000000000 	  2.980000000000 	
Mg	  3.980000000000 	  3.980000000000 	  0.000000000000 	
Mg	  4.980000000000 	  3.980000000000 	  2.980000000000 	
Mg	  1.807911380849 	  1.879855990807 	  0.000000000000 	
Mg	  2.807911380849 	  1.879855990807 	  2.980000000000 	
Mg	  1.807911380849 	  5.859855990807 	  0.000000000000 	
Mg	  2.807911380849 	  5.859855990807 	  2.980000000000 	
Mg	  5.787911380849 	  1.879855990807 	  0.000000000000 	
Mg	  6.787911380849 	  1.879855990807 	  2.980000000000 	
Mg	  5.787911380849 	  5.859855990807 	  0.000000000000 	
Mg	  6.787911380849 	  5.859855990807 	  2.980000000000 	
Mg	  2.383468260514 	  0.000000000000 	  1.664022160933 	
Mg	  3.383468260514 	  0.000000000000 	  4.644022160933 	
Mg	  2.383468260514 	  3.980000000000 	  1.664022160933 	
Mg	  3.383468260514 	  3.980000000000 	  4.644022160933 	
Mg	  6.363468260514 	  0.000000000000 	  1.664022160933 	
Mg	  7.363468260514 	  0.000000000000 	  4.644022160933 	
Mg	  6.363468260514 	  3.980000000000 	  1.664022160933 	
Mg	  7.363468260514 	  3.980000000000 	  4.644022160933 	
Mg	  0.359723049791 	  2.023745210724 	  1.664022160933 	
Mg	  1.359723049791 	  2.023745210724 	  4.644022160933 	
Mg	  0.359723049791 	  6.003745210724 	  1.664022160933 	
Mg	  1.359723049791 	  6.003745210724 	  4.644022160933 	
Mg	  4.339723049791 	  2.023745210724 	  1.664022160933 	
Mg	  5.339723049791 	  2.023745210724 	  4.644022160933 	
Mg	  4.339723049791 	  6.003745210724 	  1.664022160933 	
Mg	  5.339723049791 	  6.003745210724 	  4.644022160933 	
O	  2.023745210724 	  0.000000000000 	  0.000000000000 	
O	  3.023745210724 	  0.000000000000 	  2.980000000000 	
O	  2.023745210724 	  3.980000000000 	  0.000000000000 	
O	  3.023745210724 	  3.980000000000 	  2.980000000000 	
O	  6.003745210724 	  0.000000000000 	  0.000000000000 	
O	  7.003745210724 	  0.000000000000 	  2.980000000000 	
O	  6.003745210724 	  3.980000000000 	  0.000000000000 	
O	  7.003745210724 	  3.980000000000 	  2.980000000000 	
O	  0.000000000000 	  2.023745210724 	  0.000000000000 	
O	  1.000000000000 	  2.023745210724 	  2.980000000000 	
O	  0.000000000000 	  6.003745210724 	  0.000000000000 	
O	  1.000000000000 	  6.003745210724 	  2.980000000000 	
O	  3.980000000000 	  2.023745210724 	  0.000000000000 	
O	  4.980000000000 	  2.023745210724 	  2.980000000000 	
O	  3.980000000000 	  6.003745210724 	  0.000000000000 	
O	  4.980000000000 	  6.003745210724 	  2.980000000000 	
O	  0.359723049791 	  0.000000000000 	  1.664022160933 	
O	  1.359723049791 	  0.000000000000 	  4.644022160933 	
O	  0.359723049791 	  3.980000000000 	  1.664022160933 	
O	  1.359723049791 	  3.980000000000 	  4.644022160933 	
O	  4.339723049791 	  0.000000000000 	  1.664022160933 	
O	  5.339723049791 	  0.000000000000 	  4.644022160933 	
O	  4.339723049791 	  3.980000000000 	  1.664022160933 	
O	  5.339723049791 	  3.980000000000 	  4.644022160933 	
O	  2.671246700347 	  1.551069123299 	  1.664022160933 	
O	  3.671246700347 	  1.551069123299 	  4.644022160933 	
O	  2.671246700347 	  5.531069123299 	  1.664022160933 	
O	  3.671246700347 	  5.531069123299 	  4.644022160933 	
O	  6.651246700347 	  1.551069123299 	  1.664022160933 	
O	  7.651246700347 	  1.551069123299 	  4.644022160933 	
O	  6.651246700347 	  5.531069123299 	  1.664022160933 	
O	  7.651246700347 	  5.531069123299 	  4.644022160933 	
64 
Energy: 5.1265184564244013e+00 
Mg	  0.000000000000 	  0.000000000000 	  0.000000000000 	
Mg	  1.000000000000 	  0.000000000000 	  2.980000000000 	
Mg	  0.000000000000 	  3.980000000000 	  0.000000000000 	
Mg	  1.000000000000 	  3.980000000000 	  2.980000000000 	
Mg	  3.980000000000 	  0.000000000000 	  0.000000000000 	
Mg	  4.980000000000 	  0.000000000000 	  2.980000000000 	
Mg	  3.980000000000 	  3.980000000000 	  0.000000000000 	
Mg	  4.980000000000 	  3.980000000000 	  2.980000000000 	
Mg	  1.834346250810 	  1.900293044784 	  0.000000000000 	
Mg	  2.834346250810 	  1.900293044784 	  2.980000000000 	
Mg	  1.834346250810 	  5.880293044784 	  0.000000000000 	
Mg	  2.834346250810 	  5.880293044784 	  2.980000000000 	
Mg	  5.814346250810 	  1.900293044784 	  0.000000000000 	
Mg	  6.814346250810 	  1.900293044784 	  2.980000000000 	
Mg	  5.814346250810 	  5.880293044784 	  0.000000000000 	
Mg	  6.814346250810 	  5.880293044784 	  2.980000000000 	
Mg	  2.361920602603 	  0.000000000000 	  1.702452662862 	
Mg	  3.361920602603 	  0.000000000000 	  4.682452662862 	
Mg	  2.361920602603 	  3.980000000000 	  1.702452662862 	
Mg	  3.361920602603 	  3.980000000000 	  4.682452662862 	
Mg	  6.341920602603 	  0.000000000000 	  1.702452662862 	
Mg	  7.341920602603 	  0.000000000000 	  4.682452662862 	
Mg	  6.341920602603 	  3.980000000000 	  1.702452662862 	
Mg	  7.341920602603 	  3.980000000000 	  4.682452662862 	
Mg	  0.329733969870 	  2.032186632732 	  1.702452662862 	
Mg	  1.329733969870 	  2.032186632732 	  4.682452662862 	
Mg	  0.329733969870 	  6.012186632732 	  1.702452662862 	
Mg	  1.329733969870 	  6.012186632732 	  4.682452662862 	
Mg	  4.309733969870 	  2.032186632732 	  1.702452662862 	
Mg	  5.309733969870 	  2.032186632732 	  4.682452662862 	
Mg	  4.309733969870 	  6.012186632732 	  1.702452662862 	
Mg	  5.309733969870 	  6.012186632732 	  4.682452662862 	
O	  2.032186632732 	  0.000000000000 	  0.000000000000 	
O	  3.032186632732 	  0.000000000000 	  2.980000000000 	
O	  2.032186632732 	  3.980000000000 	  0.000000000000 	
O	  3.032186632732 	  3.980000000000 	  2.980000000000 	
O	  6.012186632732 	  0.000000000000 	  0.000000000000 	
O	  7.012186632732 	  0.000000000000 	  2.980000000000 	
O	  6.012186632732 	  3.980000000000 	  0.000000000000 	
O	  7.012186632732 	  3.980000000000 	  2.980000000000 	
O	  0.000000000000 	  2.032186632732 	  0.000000000000 	
O	  1.000000000000 	  2.032186632732 	  2.980000000000 	
O	  0.000000000000 	  6.012186632732 	  0.000000000000 	
O	  1.000000000000 	  6.012186632732 	  2.980000000000 	
O	  3.980000000000 	  2.032186632732 	  0.000000000000 	
O	  4.980000000000 	  2.032186632732 	  2.980000000000 	
O	  3.980000000000 	  6.012186632732 	  0.000000000000 	
O	  4.980000000000 	  6.012186632732 	  2.980000000000 	
O	  0.329733969870 	  0.000000000000 	  1.702452662862 	
O	  1.329733969870 	  0.000000000000 	  4.682452662862 	
O	  0.329733969870 	  3.980000000000 	  1.702452662862 	
O	  1.329733969870 	  3.980000000000 	  4.682452662862 	
O	  4.309733969870 	  0.000000000000 	  1.702452662862 	
O	  5.309733969870 	  0.000000000000 	  4.682452662862 	
O	  4.309733969870 	  3.980000000000 	  1.702452662862 	
O	  5.309733969870 	  3.980000000000 	  4.682452662862 	
O	  2.625707778499 	  1.598916196323 	  1.702452662862 	
O	  3.625707778499 	  1.598916196323 	  4.682452662862 	
O	  2.625707778499 	  5.578916196323 	  1.702452662862 	
O	  3.625707778499 	  5.578916196323 	  4.682452662862 	
O	  6.605707778499 	  1.598916196323 	  1.702452662862 	
O	  7.605707778499 	  1.598916196323 	  4.682452662862 	
O	  6.605707778499 	  5.578916196323 	  1.702452662862 	
O	  7.605707778499 	  5.578916196323 	  4.682452662862 	
64 
Energy: 5.5624799115481816e+00 
Mg	  0.000000000000 	  0.000000000000 	  0.000000000000 	
Mg	  1.000000000000 	  0.000000000000 	  2.980000000000 	
Mg	  0.000000000000 	  3.980000000000 	  0.000000000000 	
Mg	  1.000000000000 	  3.980000000000 	  2.980000000000 	
Mg	  3.980000000000 	  0.000000000000 	  0.000000000000 	
Mg	  4.980000000000 	  0.000000000000 	  2.980000000000 	
Mg	  3.980000000000 	  3.980000000000 	  0.000000000000 	
Mg	  4.980000000000 	  3.980000000000 	  2.980000000000 	
Mg	  1.860790045758 	  1.920737189820 	  0.000000000000 	
Mg	  2.860790045758 	  1.920737189820 	  2.980000000000 	
Mg	  1.860790045758 	  5.900737189820 	  0.000000000000 	
Mg	  2.860790045758 	  5.900737189820 	  2.980000000000 	
Mg	  5.840790045758 	  1.920737189820 	  0.000000000000 	
Mg	  6.840790045758 	  1.920737189820 	  2.980000000000 	
Mg	  5.840790045758 	  5.900737189820 	  0.000000000000 	
Mg	  6.840790045758 	  5.900737189820 	  2.980000000000 	
Mg	  2.340367198256 	  0.000000000000 	  1.740895757633 	
Mg	  3.340367198256 	  0.000000000000 	  4.720895757633 	
Mg	  2.340367198256 	  3.980000000000 	  1.740895757633 	
Mg	  3.340367198256 	  3.980000000000 	  4.720895757633 	
Mg	  6.320367198256 	  0.000000000000 	  1.740895757633 	
Mg	  7.320367198256 	  0.000000000000 	  4.720895757633 	
Mg	  6.320367198256 	  3.980000000000 	  1.740895757633 	
Mg	  7.320367198256 	  3.980000000000 	  4.720895757633 	
Mg	  0.299735720311 	  2.040631477945 	  1.740895757633 	
Mg	  1.299735720311 	  2.040631477945 	  4.720895757633 	
Mg	  0.299735720311 	  6.020631477945 	  1.740895757633 	
Mg	  1.299735720311 	  6.020631477945 	  4.720895757633 	
Mg	  4.279735720311 	  2.040631477945 	  1.740895757633 	
Mg	  5.279735720311 	  2.040631477945 	  4.720895757633 	
Mg	  4.279735720311 	  6.020631477945 	  1.740895757633 	
Mg	  5.279735720311 	  6.020631477945 	  4.720895757633 	
O	  2.040631477945 	  0.000000000000 	  0.000000000000 	
O	  3.040631477945 	  0.000000000000 	  2.980000000000 	
O	  2.040631477945 	  3.980000000000 	  0.000000000000 	
O	  3.040631477945 	  3.980000000000 	  2.980000000000 	
O	  6.020631477945 	  0.000000000000 	  0.000000000000 	
O	  7.020631477945 	  0.000000000000 	  2.980000000000 	
O	  6.020631477945 	  3.980000000000 	  0.000000000000 	
O	  7.020631477945 	  3.980000000000 	  2.980000000000 	
O	  0.000000000000 	  2.040631477945 	  0.000000000000 	
O	  1.000000000000 	  2.040631477945 	  2.980000000000 	
O	  0.000000000000 	  6.020631477945 	  0.000000000000 	
O	  1.000000000000 	  6.020631477945 	  2.980000000000 	
O	  3.980000000000 	  2.040631477945 	  0.000000000000 	
O	  4.980000000000 	  2.040631477945 	  2.980000000000 	
O	  3.980000000000 	  6.020631477945 	  0.000000000000 	
O	  4.980000000000 	  6.020631477945 	  2.980000000000 	
O	  0.299735720311 	  0.000000000000 	  1.740895757633 	
O	  1.299735720311 	  0.000000000000 	  4.720895757633 	
O	  0.299735720311 	  3.980000000000 	  1.740895757633 	
O	  1.299735720311 	  3.980000000000 	  4.720895757633 	
O	  4.279735720311 	  0.000000000000 	  1.740895757633 	
O	  5.279735720311 	  0.000000000000 	  4.720895757633 	
O	  4.279735720311 	  3.980000000000 	  1.740895757633 	
O	  5.279735720311 	  3.980000000000 	  4.720895757633 	
O	  2.580155774506 	  1.646778741456 	  1.740895757633 	
O	  3.580155774506 	  1.646778741456 	  4.720895757633 	
O	  2.580155774506 	  5.626778741456 	  1.740895757633 	
O	  3.580155774506 	  5.626778741456 	  4.720895757633 	
O	  6.560155774506 	  1.646778741456 	  1.740895757633 	
O	  7.560155774506 	  1.646778741456 	  4.720895757633 	
O	  6.560155774506 	  5.626778741456 	  1.740895757633 	
O	  7.560155774506 	  5.626778741456 	  4.720895757633 	
64 
Energy: 5.7761783686931114e+00 
Mg	  0.000000000000 	  0.000000000000 	  0.000000000000 	
Mg	  1.000000000000 	  0.000000000000 	  2.980000000000 	
Mg	  0.000000000000 	  3.980000000000 	  0.000000000000 	
Mg	  1.000000000000 	  3.980000000000 	  2.980000000000 	
Mg	  3.980000000000 	  0.000000000000 	  0.000000000000 	
Mg	  4.980000000000 	  0.000000000000 	  2.980000000000 	
Mg	  3.980000000000 	  3.980000000000 	  0.000000000000 	
Mg	  4.980000000000 	  3.980000000000 	  2.980000000000 	
Mg	  1.887238592186 	  1.941185161071 	  0.000000000000 	
Mg	  2.887238592186 	  1.941185161071 	  2.980000000000 	
Mg	  1.887238592186 	  5.921185161071 	  0.000000000000 	
Mg	  2.887238592186 	  5.921185161071 	  2.980000000000 	
Mg	  5.867238592186 	  1.941185161071 	  0.000000000000 	
Mg	  6.867238592186 	  1.941185161071 	  2.980000000000 	
Mg	  5.867238592186 	  5.921185161071 	  0.000000000000 	
Mg	  6.867238592186 	  5.921185161071 	  2.980000000000 	
Mg	  2.318811143267 	  0.000000000000 	  1.779345454415 	
Mg	  3.318811143267 	  0.000000000000 	  4.759345454415 	
Mg	  2.318811143267 	  3.980000000000 	  1.779345454415 	
Mg	  3.318811143267 	  3.980000000000 	  4.759345454415 	
Mg	  6.298811143267 	  0.000000000000 	  1.779345454415 	
Mg	  7.298811143267 	  0.000000000000 	  4.759345454415 	
Mg	  6.298811143267 	  3.980000000000 	  1.779345454415 	
Mg	  7.298811143267 	  3.980000000000 	  4.759345454415 	
Mg	  0.269732844426 	  2.049078298841 	  1.779345454415 	
Mg	  1.269732844426 	  2.049078298841 	  4.759345454415 	
Mg	  0.269732844426 	  6.029078298841 	  1.779345454415 	
Mg	  1.269732844426 	  6.029078298841 	  4.759345454415 	
Mg	  4.249732844426 	  2.049078298841 	  1.779345454415 	
Mg	  5.249732844426 	  2.049078298841 	  4.759345454415 	
Mg	  4.249732844426 	  6.029078298841 	  1.779345454415 	
Mg	  5.249732844426 	  6.029078298841 	  4.759345454415 	
O	  2.049078298841 	  0.000000000000 	  0.000000000000 	
O	  3.049078298841 	  0.000000000000 	  2.980000000000 	
O	  2.049078298841 	  3.980000000000 	  0.000000000000 	
O	  3.049078298841 	  3.980000000000 	  2.980000000000 	
O	  6.029078298841 	  0.000000000000 	  0.000000000000 	
O	  7.029078298841 	  0.000000000000 	  2.980000000000 	
O	  6.029078298841 	  3.980000000000 	  0.000000000000 	
O	  7.029078298841 	  3.980000000000 	  2.980000000000 	
O	  0.000000000000 	  2.049078298841 	  0.000000000000 	
O	  1.000000000000 	  2.049078298841 	  2.980000000000 	
O	  0.000000000000 	  6.029078298841 	  0.000000000000 	
O	  1.000000000000 	  6.029078298841 	  2.980000000000 	
O	  3.980000000000 	  2.049078298841 	  0.000000000000 	
O	  4.980000000000 	  2.049078298841 	  2.980000000000 	
O	  3.980000000000 	  6.029078298841 	  0.000000000000 	
O	  4.980000000000 	  6.029078298841 	  2.980000000000 	
O	  0.269732844426 	  0.000000000000 	  1.779345454415 	
O	  1.269732844426 	  0.000000000000 	  4.759345454415 	
O	  0.269732844426 	  3.980000000000 	  1.779345454415 	
O	  1.269732844426 	  3.980000000000 	  4.759345454415 	
O	  4.249732844426 	  0.000000000000 	  1.779345454415 	
O	  5.249732844426 	  0.000000000000 	  4.759345454415 	
O	  4.249732844426 	  3.980000000000 	  1.779345454415 	
O	  5.249732844426 	  3.980000000000 	  4.759345454415 	
O	  2.534597418808 	  1.694649341266 	  1.779345454415 	
O	  3.534597418808 	  1.694649341266 	  4.759345454415 	
O	  2.534597418808 	  5.674649341266 	  1.779345454415 	
O	  3.534597418808 	  5.674649341266 	  4.759345454415 	
O	  6.514597418808 	  1.694649341266 	  1.779345454415 	
O	  7.514597418808 	  1.694649341266 	  4.759345454415 	
O	  6.514597418808 	  5.674649341266 	  1.779345454415 	
O	  7.514597418808 	  5.674649341266 	  4.759345454415 	
64 
Energy: 5.7298992123528851e+00 
Mg	  0.000000000000 	  0.000000000000 	  0.000000000000 	
Mg	  1.000000000000 	  0.000000000000 	  2.980000000000 	
Mg	  0.000000000000 	  3.980000000000 	  0.000000000000 	
Mg	  1.000000000000 	  3.980000000000 	  2.980000000000 	
Mg	  3.980000000000 	  0.000000000000 	  0.000000000000 	
Mg	  4.980000000000 	  0.000000000000 	  2.980000000000 	
Mg	  3.980000000000 	  3.980000000000 	  0.000000000000 	
Mg	  4.980000000000 	  3.980000000000 	  2.980000000000 	
Mg	  1.913688322218 	  1.961634055388 	  0.000000000000 	
Mg	  2.913688322218 	  1.961634055388 	  2.980000000000 	
Mg	  1.913688322218 	  5.941634055388 	  0.000000000000 	
Mg	  2.913688322218 	  5.941634055388 	  2.980000000000 	
Mg	  5.893688322218 	  1.961634055388 	  0.000000000000 	
Mg	  6.893688322218 	  1.961634055388 	  2.980000000000 	
Mg	  5.893688322218 	  5.941634055388 	  0.000000000000 	
Mg	  6.893688322218 	  5.941634055388 	  2.980000000000 	
Mg	  2.297254187582 	  0.000000000000 	  1.817796855877 	
Mg	  3.297254187582 	  0.000000000000 	  4.797796855877 	
Mg	  2.297254187582 	  3.980000000000 	  1.817796855877 	
Mg	  3.297254187582 	  3.980000000000 	  4.797796855877 	
Mg	  6.277254187582 	  0.000000000000 	  1.817796855877 	
Mg	  7.277254187582 	  0.000000000000 	  4.797796855877 	
Mg	  6.277254187582 	  3.980000000000 	  1.817796855877 	
Mg	  7.277254187582 	  3.980000000000 	  4.797796855877 	
Mg	  0.239728665853 	  2.057525521729 	  1.817796855877 	
Mg	  1.239728665853 	  2.057525521729 	  4.797796855877 	
Mg	  0.239728665853 	  6.037525521729 	  1.817796855877 	
Mg	  1.239728665853 	  6.037525521729 	  4.797796855877 	
Mg	  4.219728665853 	  2.057525521729 	  1.817796855877 	
Mg	  5.219728665853 	  2.057525521729 	  4.797796855877 	
Mg	  4.219728665853 	  6.037525521729 	  1.817796855877 	
Mg	  5.219728665853 	  6.037525521729 	  4.797796855877 	
O	  2.057525521729 	  0.000000000000 	  0.000000000000 	
O	  3.057525521729 	  0.000000000000 	  2.980000000000 	
O	  2.057525521729 	  3.980000000000 	  0.000000000000 	
O	  3.057525521729 	  3.980000000000 	  2.980000000000 	
O	  6.037525521729 	  0.000000000000 	  0.000000000000 	
O	  7.037525521729 	  0.000000000000 	  2.980000000000 	
O	  6.037525521729 	  3.980000000000 	  0.000000000000 	
O	  7.037525521729 	  3.980000000000 	  2.980000000000 	
O	  0.000000000000 	  2.057525521729 	  0.000000000000 	
O	  1.000000000000 	  2.057525521729 	  2.980000000000 	
O	  0.000000000000 	  6.037525521729 	  0.000000000000 	
O	  1.000000000000 	  6.037525521729 	  2.980000000000 	
O	  3.980000000000 	  2.057525521729 	  0.000000000000 	
O	  4.980000000000 	  2.057525521729 	  2.980000000000 	
O	  3.980000000000 	  6.037525521729 	  0.000000000000 	
O	  4.980000000000 	  6.037525521729 	  2.980000000000 	
O	  0.239728665853 	  0.000000000000 	  1.817796855877 	
O	  1.239728665853 	  0.000000000000 	  4.797796855877 	
O	  0.239728665853 	  3.980000000000 	  1.817796855877 	
O	  1.239728665853 	  3.980000000000 	  4.797796855877 	
O	  4.219728665853 	  0.000000000000 	  1.817796855877 	
O	  5.219728665853 	  0.000000000000 	  4.797796855877 	
O	  4.219728665853 	  3.980000000000 	  1.817796855877 	
O	  5.219728665853 	  3.980000000000 	  4.797796855877 	
O	  2.489037120264 	  1.742522054799 	  1.817796855877 	
O	  3.489037120264 	  1.742522054799 	  4.797796855877 	
O	  2.489037120264 	  5.722522054799 	  1.817796855877 	
O	  3.489037120264 	  5.722522054799 	  4.797796855877 	
O	  6.469037120264 	  1.742522054799 	  1.817796855877 	
O	  7.469037120264 	  1.742522054799 	  4.797796855877 	
O	  6.469037120264 	  5.722522054799 	  1.817796855877 	
O	  7.469037120264 	  5.722522054799 	  4.797796855877 	
64 
Energy: 5.4103804850386350e+00 
Mg	  0.000000000000 	  0.000000000000 	  0.000000000000 	
Mg	  1.000000000000 	  0.000000000000 	  2.980000000000 	
Mg	  0.000000000000 	  3.980000000000 	  0.000000000000 	
Mg	  1.000000000000 	  3.980000000000 	  2.980000000000 	
Mg	  3.980000000000 	  0.000000000000 	  0.000000000000 	
Mg	  4.980000000000 	  0.000000000000 	  2.980000000000 	
Mg	  3.980000000000 	  3.980000000000 	  0.000000000000 	
Mg	  4.980000000000 	  3.980000000000 	  2.980000000000 	
Mg	  1.940136032713 	  1.982081398780 	  0.000000000000 	
Mg	  2.940136032713 	  1.982081398780 	  2.980000000000 	
Mg	  1.940136032713 	  5.962081398780 	  0.000000000000 	
Mg	  2.940136032713 	  5.962081398780 	  2.980000000000 	
Mg	  5.920136032713 	  1.982081398780 	  0.000000000000 	
Mg	  6.920136032713 	  1.982081398780 	  2.980000000000 	
Mg	  5.920136032713 	  5.962081398780 	  0.000000000000 	
Mg	  6.920136032713 	  5.962081398780 	  2.980000000000 	
Mg	  2.275698961251 	  0.000000000000 	  1.856245300578 	
Mg	  3.275698961251 	  0.000000000000 	  4.836245300578 	
Mg	  2.275698961251 	  3.980000000000 	  1.856245300578 	
Mg	  3.275698961251 	  3.980000000000 	  4.836245300578 	
Mg	  6.255698961251 	  0.000000000000 	  1.856245300578 	
Mg	  7.255698961251 	  0.000000000000 	  4.836245300578 	
Mg	  6.255698961251 	  3.980000000000 	  1.856245300578 	
Mg	  7.255698961251 	  3.980000000000 	  4.836245300578 	
Mg	  0.209726830336 	  2.065972130915 	  1.856245300578 	
Mg	  1.209726830336 	  2.065972130915 	  4.836245300578 	
Mg	  0.209726830336 	  6.045972130915 	  1.856245300578 	
Mg	  1.209726830336 	  6.045972130915 	  4.836245300578 	
Mg	  4.189726830336 	  2.065972130915 	  1.856245300578 	
Mg	  5.189726830336 	  2.065972130915 	  4.836245300578 	
Mg	  4.189726830336 	  6.045972130915 	  1.856245300578 	
Mg	  5.189726830336 	  6.045972130915 	  4.836245300578 	
O	  2.065972130915 	  0.000000000000 	  0.000000000000 	
O	  3.065972130915 	  0.000000000000 	  2.980000000000 	
O	  2.065972130915 	  3.980000000000 	  0.000000000000 	
O	  3.065972130915 	  3.980000000000 	  2.980000000000 	
O	  6.045972130915 	  0.000000000000 	  0.000000000000 	
O	  7.045972130915 	  0.000000000000 	  2.980000000000 	
O	  6.045972130915 	  3.980000000000 	  0.000000000000 	
O	  7.045972130915 	  3.980000000000 	  2.980000000000 	
O	  0.000000000000 	  2.065972130915 	  0.000000000000 	
O	  1.000000000000 	  2.065972130915 	  2.980000000000 	
O	  0.000000000000 	  6.045972130915 	  0.000000000000 	
O	  1.000000000000 	  6.045972130915 	  2.980000000000 	
O	  3.980000000000 	  2.065972130915 	  0.000000000000 	
O	  4.980000000000 	  2.065972130915 	  2.980000000000 	
O	  3.980000000000 	  6.045972130915 	  0.000000000000 	
O	  4.980000000000 	  6.045972130915 	  2.980000000000 	
O	  0.209726830336 	  0.000000000000 	  1.856245300578 	
O	  1.209726830336 	  0.000000000000 	  4.836245300578 	
O	  0.209726830336 	  3.980000000000 	  1.856245300578 	
O	  1.209726830336 	  3.980000000000 	  4.836245300578 	
O	  4.189726830336 	  0.000000000000 	  1.856245300578 	
O	  5.189726830336 	  0.000000000000 	  4.836245300578 	
O	  4.189726830336 	  3.980000000000 	  1.856245300578 	
O	  5.189726830336 	  3.980000000000 	  4.836245300578 	
O	  2.443480425520 	  1.790391075853 	  1.856245300578 	
O	  3.443480425520 	  1.790391075853 	  4.836245300578 	
O	  2.443480425520 	  5.770391075853 	  1.856245300578 	
O	  3.443480425520 	  5.770391075853 	  4.836245300578 	
O	  6.423480425520 	  1.790391075853 	  1.856245300578 	
O	  7.423480425520 	  1.790391075853 	  4.836245300578 	
O	  6.423480425520 	  5.770391075853 	  1.856245300578 	
O	  7.423480425520 	  5.770391075853 	  4.836245300578 	
64 
Energy: 4.8285568770317706e+00 
Mg	  0.000000000000 	  0.000000000000 	  0.000000000000 	
Mg	  1.000000000000 	  0.000000000000 	  2.980000000000 	
Mg	  0.000000000000 	  3.980000000000 	  0.000000000000 	
Mg	  1.000000000000 	  3.980000000000 	  2.980000000000 	
Mg	  3.980000000000 	  0.000000000000 	  0.000000000000 	
Mg	  4.980000000000 	  0.000000000000 	  2.980000000000 	
Mg	  3.980000000000 	  3.980000000000 	  0.000000000000 	
Mg	  4.980000000000 	  3.980000000000 	  2.980000000000 	
Mg	  1.966578783652 	  2.002524888797 	  0.000000000000 	
Mg	  2.966578783652 	  2.002524888797 	  2.980000000000 	
Mg	  1.966578783652 	  5.982524888797 	  0.000000000000 	
Mg	  2.966578783652 	  5.982524888797 	  2.980000000000 	
Mg	  5.946578783652 	  2.002524888797 	  0.000000000000 	
Mg	  6.946578783652 	  2.002524888797 	  2.980000000000 	
Mg	  5.946578783652 	  5.982524888797 	  0.000000000000 	
Mg	  6.946578783652 	  5.982524888797 	  2.980000000000 	
Mg	  2.254147624817 	  0.000000000000 	  1.894686573360 	
Mg	  3.254147624817 	  0.000000000000 	  4.874686573360 	
Mg	  2.254147624817 	  3.980000000000 	  1.894686573360 	
Mg	  3.254147624817 	  3.980000000000 	  4.874686573360 	
Mg	  6.234147624817 	  0.000000000000 	  1.894686573360 	
Mg	  7.234147624817 	  0.000000000000 	  4.874686573360 	
Mg	  6.234147624817 	  3.980000000000 	  1.894686573360 	
Mg	  7.234147624817 	  3.980000000000 	  4.874686573360 	
Mg	  0.179730525728 	  2.074417099089 	  1.894686573360 	
Mg	  1.179730525728 	  2.074417099089 	  4.874686573360 	
Mg	  0.179730525728 	  6.054417099089 	  1.894686573360 	
Mg	  1.179730525728 	  6.054417099089 	  4.874686573360 	
Mg	  4.159730525728 	  2.074417099089 	  1.894686573360 	
Mg	  5.159730525728 	  2.074417099089 	  4.874686573360 	
Mg	  4.159730525728 	  6.054417099089 	  1.894686573360 	
Mg	  5.159730525728 	  6.054417099089 	  4.874686573360 	
O	  2.074417099089 	  0.000000000000 	  0.000000000000 	
O	  3.074417099089 	  0.000000000000 	  2.980000000000 	
O	  2.074417099089 	  3.980000000000 	  0.000000000000 	
O	  3.074417099089 	  3.980000000000 	  2.980000000000 	
O	  6.054417099089 	  0.000000000000 	  0.000000000000 	
O	  7.054417099089 	  0.000000000000 	  2.980000000000 	
O	  6.054417099089 	  3.980000000000 	  0.000000000000 	
O	  7.054417099089 	  3.980000000000 	  2.980000000000 	
O	  0.000000000000 	  2.074417099089 	  0.000000000000 	
O	  1.000000000000 	  2.074417099089 	  2.980000000000 	
O	  0.000000000000 	  6.054417099089 	  0.000000000000 	
O	  1.000000000000 	  6.054417099089 	  2.980000000000 	
O	  3.980000000000 	  2.074417099089 	  0.000000000000 	
O	  4.980000000000 	  2.074417099089 	  2.980000000000 	
O	  3.980000000000 	  6.054417099089 	  0.000000000000 	
O	  4.980000000000 	  6.054417099089 	  2.980000000000 	
O	  0.179730525728 	  0.000000000000 	  1.894686573360 	
O	  1.179730525728 	  0.000000000000 	  4.874686573360 	
O	  0.179730525728 	  3.980000000000 	  1.894686573360 	
O	  1.179730525728 	  3.980000000000 	  4.874686573360 	
O	  4.159730525728 	  0.000000000000 	  1.894686573360 	
O	  5.159730525728 	  0.000000000000 	  4.874686573360 	
O	  4.159730525728 	  3.980000000000 	  1.894686573360 	
O	  5.159730525728 	  3.980000000000 	  4.874686573360 	
O	  2.397932045400 	  1.838251188282 	  1.894686573360 	
O	  3.397932045400 	  1.838251188282 	  4.874686573360 	
O	  2.397932045400 	  5.818251188282 	  1.894686573360 	
O	  3.397932045400 	  5.818251188282 	  4.874686573360 	
O	  6.377932045400 	  1.838251188282 	  1.894686573360 	
O	  7.377932045400 	  1.838251188282 	  4.874686573360 	
O	  6.377932045400 	  5.818251188282 	  1.894686573360 	
O	  7.377932045400 	  5.818251188282 	  4.874686573360 	
64 
Energy: 4.0209114581754291e+00 
Mg	  0.000000000000 	  0.000000000000 	  0.000000000000 	
Mg	  1.000000000000 	  0.000000000000 	  2.980000000000 	
Mg	  0.000000000000 	  3.980000000000 	  0.000000000000 	
Mg	  1.000000000000 	  3.980000000000 	  2.980000000000 	
Mg	  3.980000000000 	  0.000000000000 	  0.000000000000 	
Mg	  4.980000000000 	  0.000000000000 	  2.980000000000 	
Mg	  3.980000000000 	  3.980000000000 	  0.000000000000 	
Mg	  4.980000000000 	  3.980000000000 	  2.980000000000 	
Mg	  1.993013887941 	  2.022962395872 	  0.000000000000 	
Mg	  2.993013887941 	  2.022962395872 	  2.980000000000 	
Mg	  1.993013887941 	  6.002962395872 	  0.000000000000 	
Mg	  2.993013887941 	  6.002962395872 	  2.980000000000 	
Mg	  5.973013887941 	  2.022962395872 	  0.000000000000 	
Mg	  6.973013887941 	  2.022962395872 	  2.980000000000 	
Mg	  5.973013887941 	  6.002962395872 	  0.000000000000 	
Mg	  6.973013887941 	  6.002962395872 	  2.980000000000 	
Mg	  2.232601951389 	  0.000000000000 	  1.933116872080 	
Mg	  3.232601951389 	  0.000000000000 	  4.913116872080 	
Mg	  2.232601951389 	  3.980000000000 	  1.933116872080 	
Mg	  3.232601951389 	  3.980000000000 	  4.913116872080 	
Mg	  6.212601951389 	  0.000000000000 	  1.933116872080 	
Mg	  7.212601951389 	  0.000000000000 	  4.913116872080 	
Mg	  6.212601951389 	  3.980000000000 	  1.933116872080 	
Mg	  7.212601951389 	  3.980000000000 	  4.913116872080 	
Mg	  0.149742539655 	  2.082859411734 	  1.933116872080 	
Mg	  1.149742539655 	  2.082859411734 	  4.913116872080 	
Mg	  0.149742539655 	  6.062859411734 	  1.933116872080 	
Mg	  1.149742539655 	  6.062859411734 	  4.913116872080 	
Mg	  4.129742539655 	  2.082859411734 	  1.933116872080 	
Mg	  5.129742539655 	  2.082859411734 	  4.913116872080 	
Mg	  4.129742539655 	  6.062859411734 	  1.933116872080 	
Mg	  5.129742539655 	  6.062859411734 	  4.913116872080 	
O	  2.082859411734 	  0.000000000000 	  0.000000000000 	
O	  3.082859411734 	  0.000000000000 	  2.980000000000 	
O	  2.082859411734 	  3.980000000000 	  0.000000000000 	
O	  3.082859411734 	  3.980000000000 	  2.980000000000 	
O	  6.062859411734 	  0.000000000000 	  0.000000000000 	
O	  7.062859411734 	  0.000000000000 	  2.980000000000 	
O	  6.062859411734 	  3.980000000000 	  0.000000000000 	
O	  7.062859411734 	  3.980000000000 	  2.980000000000 	
O	  0.000000000000 	  2.082859411734 	  0.000000000000 	
O	  1.000000000000 	  2.082859411734 	  2.980000000000 	
O	  0.000000000000 	  6.062859411734 	  0.000000000000 	
O	  1.000000000000 	  6.062859411734 	  2.980000000000 	
O	  3.980000000000 	  2.082859411734 	  0.000000000000 	
O	  4.980000000000 	  2.082859411734 	  2.980000000000 	
O	  3.980000000000 	  6.062859411734 	  0.000000000000 	
O	  4.980000000000 	  6.062859411734 	  2.980000000000 	
O	  0.149742539655 	  0.000000000000 	  1.933116872080 	
O	  1.149742539655 	  0.000000000000 	  4.913116872080 	
O	  0.149742539655 	  3.980000000000 	  1.933116872080 	
O	  1.149742539655 	  3.980000000000 	  4.913116872080 	
O	  4.129742539655 	  0.000000000000 	  1.933116872080 	
O	  5.129742539655 	  0.000000000000 	  4.913116872080 	
O	  4.129742539655 	  3.980000000000 	  1.933116872080 	
O	  5.129742539655 	  3.980000000000 	  4.913116872080 	
O	  2.352395983112 	  1.886097714628 	  1.933116872080 	
O	  3.352395983112 	  1.886097714628 	  4.913116872080 	
O	  2.352395983112 	  5.866097714628 	  1.933116872080 	
O	  3.352395983112 	  5.866097714628 	  4.913116872080 	
O	  6.332395983112 	  1.886097714628 	  1.933116872080 	
O	  7.332395983112 	  1.886097714628 	  4.913116872080 	
O	  6.332395983112 	  5.866097714628 	  1.933116872080 	
O	  7.332395983112 	  5.866097714628 	  4.913116872080 	
64 
Energy: 3.0517370606342649e+00 
Mg	  0.000000000000 	  0.000000000000 	  0.000000000000 	
Mg	  1.000000000000 	  0.000000000000 	  2.980000000000 	
Mg	  0.000000000000 	  3.980000000000 	  0.000000000000 	
Mg	  1.000000000000 	  3.980000000000 	  2.980000000000 	
Mg	  3.980000000000 	  0.000000000000 	  0.000000000000 	
Mg	  4.980000000000 	  0.000000000000 	  2.980000000000 	
Mg	  3.980000000000 	  3.980000000000 	  0.000000000000 	
Mg	  4.980000000000 	  3.980000000000 	  2.980000000000 	
Mg	  2.019438948440 	  2.043392006845 	  0.000000000000 	
Mg	  3.019438948440 	  2.043392006845 	  2.980000000000 	
Mg	  2.019438948440 	  6.023392006845 	  0.000000000000 	
Mg	  3.019438948440 	  6.023392006845 	  2.980000000000 	
Mg	  5.999438948440 	  2.043392006845 	  0.000000000000 	
Mg	  6.999438948440 	  2.043392006845 	  2.980000000000 	
Mg	  5.999438948440 	  6.023392006845 	  0.000000000000 	
Mg	  6.999438948440 	  6.023392006845 	  2.980000000000 	
Mg	  2.211063415680 	  0.000000000000 	  1.971532831630 	
Mg	  3.211063415680 	  0.000000000000 	  4.951532831630 	
Mg	  2.211063415680 	  3.980000000000 	  1.971532831630 	
Mg	  3.211063415680 	  3.980000000000 	  4.951532831630 	
Mg	  6.191063415680 	  0.000000000000 	  1.971532831630 	
Mg	  7.191063415680 	  0.000000000000 	  4.951532831630 	
Mg	  6.191063415680 	  3.980000000000 	  1.971532831630 	
Mg	  7.191063415680 	  3.980000000000 	  4.951532831630 	
Mg	  0.119765292025 	  2.091298123655 	  1.971532831630 	
Mg	  1.119765292025 	  2.091298123655 	  4.951532831630 	
Mg	  0.119765292025 	  6.071298123655 	  1.971532831630 	
Mg	  1.119765292025 	  6.071298123655 	  4.951532831630 	
Mg	  4.099765292025 	  2.091298123655 	  1.971532831630 	
Mg	  5.099765292025 	  2.091298123655 	  4.951532831630 	
Mg	  4.099765292025 	  6.071298123655 	  1.971532831630 	
Mg	  5.099765292025 	  6.071298123655 	  4.951532831630 	
O	  2.091298123655 	  0.000000000000 	  0.000000000000 	
O	  3.091298123655 	  0.000000000000 	  2.980000000000 	
O	  2.091298123655 	  3.980000000000 	  0.000000000000 	
O	  3.091298123655 	  3.980000000000 	  2.980000000000 	
O	  6.071298123655 	  0.000000000000 	  0.000000000000 	
O	  7.071298123655 	  0.000000000000 	  2.980000000000 	
O	  6.071298123655 	  3.980000000000 	  0.000000000000 	
O	  7.071298123655 	  3.980000000000 	  2.980000000000 	
O	  0.000000000000 	  2.091298123655 	  0.000000000000 	
O	  1.000000000000 	  2.091298123655 	  2.980000000000 	
O	  0.000000000000 	  6.071298123655 	  0.000000000000 	
O	  1.000000000000 	  6.071298123655 	  2.980000000000 	
O	  3.980000000000 	  2.091298123655 	  0.000000000000 	
O	  4.980000000000 	  2.091298123655 	  2.980000000000 	
O	  3.980000000000 	  6.071298123655 	  0.000000000000 	
O	  4.980000000000 	  6.071298123655 	  2.980000000000 	
O	  0.119765292025 	  0.000000000000 	  1.971532831630 	
O	  1.119765292025 	  0.000000000000 	  4.951532831630 	
O	  0.119765292025 	  3.980000000000 	  1.971532831630 	
O	  1.119765292025 	  3.980000000000 	  4.951532831630 	
O	  4.099765292025 	  0.000000000000 	  1.971532831630 	
O	  5.099765292025 	  0.000000000000 	  4.951532831630 	
O	  4.099765292025 	  3.980000000000 	  1.971532831630 	
O	  5.099765292025 	  3.980000000000 	  4.951532831630 	
O	  2.306875649300 	  1.933926529934 	  1.971532831630 	
O	  3.306875649300 	  1.933926529934 	  4.951532831630 	
O	  2.306875649300 	  5.913926529934 	  1.971532831630 	
O	  3.306875649300 	  5.913926529934 	  4.951532831630 	
O	  6.286875649300 	  1.933926529934 	  1.971532831630 	
O	  7.286875649300 	  1.933926529934 	  4.951532831630 	
O	  6.286875649300 	  5.913926529934 	  1.971532831630 	
O	  7.286875649300 	  5.913926529934 	  4.951532831630 	
64 
Energy: 2.0161173937602350e+00 
Mg	  0.000000000000 	  0.000000000000 	  0.000000000000 	
Mg	  1.000000000000 	  0.000000000000 	  2.980000000000 	
Mg	  0.000000000000 	  3.980000000000 	  0.000000000000 	
Mg	  1.000000000000 	  3.980000000000 	  2.980000000000 	
Mg	  3.980000000000 	  0.000000000000 	  0.000000000000 	
Mg	  4.980000000000 	  0.000000000000 	  2.980000000000 	
Mg	  3.980000000000 	  3.980000000000 	  0.000000000000 	
Mg	  4.980000000000 	  3.980000000000 	  2.980000000000 	
Mg	  2.045851830493 	  2.063812003580 	  0.000000000000 	
Mg	  3.045851830493 	  2.063812003580 	  2.980000000000 	
Mg	  2.045851830493 	  6.043812003580 	  0.000000000000 	
Mg	  3.045851830493 	  6.043812003580 	  2.980000000000 	
Mg	  6.025851830493 	  2.063812003580 	  0.000000000000 	
Mg	  7.025851830493 	  2.063812003580 	  2.980000000000 	
Mg	  6.025851830493 	  6.043812003580 	  0.000000000000 	
Mg	  7.025851830493 	  6.043812003580 	  2.980000000000 	
Mg	  2.189533215194 	  0.000000000000 	  2.009931484317 	
Mg	  3.189533215194 	  0.000000000000 	  4.989931484317 	
Mg	  2.189533215194 	  3.980000000000 	  2.009931484317 	
Mg	  3.189533215194 	  3.980000000000 	  4.989931484317 	
Mg	  6.169533215194 	  0.000000000000 	  2.009931484317 	
Mg	  7.169533215194 	  0.000000000000 	  4.989931484317 	
Mg	  6.169533215194 	  3.980000000000 	  2.009931484317 	
Mg	  7.169533215194 	  3.980000000000 	  4.989931484317 	
Mg	  0.089800865438 	  2.099732349756 	  2.009931484317 	
Mg	  1.089800865438 	  2.099732349756 	  4.989931484317 	
Mg	  0.089800865438 	  6.079732349756 	  2.009931484317 	
Mg	  1.089800865438 	  6.079732349756 	  4.989931484317 	
Mg	  4.069800865438 	  2.099732349756 	  2.009931484317 	
Mg	  5.069800865438 	  2.099732349756 	  4.989931484317 	
Mg	  4.069800865438 	  6.079732349756 	  2.009931484317 	
Mg	  5.069800865438 	  6.079732349756 	  4.989931484317 	
O	  2.099732349756 	  0.000000000000 	  0.000000000000 	
O	  3.099732349756 	  0.000000000000 	  2.980000000000 	
O	  2.099732349756 	  3.980000000000 	  0.000000000000 	
O	  3.099732349756 	  3.980000000000 	  2.980000000000 	
O	  6.079732349756 	  0.000000000000 	  0.000000000000 	
O	  7.079732349756 	  0.000000000000 	  2.980000000000 	
O	  6.079732349756 	  3.980000000000 	  0.000000000000 	
O	  7.079732349756 	  3.980000000000 	  2.980000000000 	
O	  0.000000000000 	  2.099732349756 	  0.000000000000 	
O	  1.000000000000 	  2.099732349756 	  2.980000000000 	
O	  0.000000000000 	  6.079732349756 	  0.000000000000 	
O	  1.000000000000 	  6.079732349756 	  2.980000000000 	
O	  3.980000000000 	  2.099732349756 	  0.000000000000 	
O	  4.980000000000 	  2.099732349756 	  2.980000000000 	
O	  3.980000000000 	  6.079732349756 	  0.000000000000 	
O	  4.980000000000 	  6.079732349756 	  2.980000000000 	
O	  0.089800865438 	  0.000000000000 	  2.009931484317 	
O	  1.089800865438 	  0.000000000000 	  4.989931484317 	
O	  0.089800865438 	  3.980000000000 	  2.009931484317 	
O	  1.089800865438 	  3.980000000000 	  4.989931484317 	
O	  4.069800865438 	  0.000000000000 	  2.009931484317 	
O	  5.069800865438 	  0.000000000000 	  4.989931484317 	
O	  4.069800865438 	  3.980000000000 	  2.009931484317 	
O	  5.069800865438 	  3.980000000000 	  4.989931484317 	
O	  2.261373907545 	  1.981734012570 	  2.009931484317 	
O	  3.261373907545 	  1.981734012570 	  4.989931484317 	
O	  2.261373907545 	  5.961734012570 	  2.009931484317 	
O	  3.261373907545 	  5.961734012570 	  4.989931484317 	
O	  6.241373907545 	  1.981734012570 	  2.009931484317 	
O	  7.241373907545 	  1.981734012570 	  4.989931484317 	
O	  6.241373907545 	  5.961734012570 	  2.009931484317 	
O	  7.241373907545 	  5.961734012570 	  4.989931484317 	
64 
Energy: 1.0434797640893951e+00 
Mg	  0.000000000000 	  0.000000000000 	  0.000000000000 	
Mg	  1.000000000000 	  0.000000000000 	  2.980000000000 	
Mg	  0.000000000000 	  3.980000000000 	  0.000000000000 	
Mg	  1.000000000000 	  3.980000000000 	  2.980000000000 	
Mg	  3.980000000000 	  0.000000000000 	  0.000000000000 	
Mg	  4.980000000000 	  0.000000000000 	  2.980000000000 	
Mg	  3.980000000000 	  3.980000000000 	  0.000000000000 	
Mg	  4.980000000000 	  3.980000000000 	  2.980000000000 	
Mg	  2.072250658714 	  2.084220857718 	  0.000000000000 	
Mg	  3.072250658714 	  2.084220857718 	  2.980000000000 	
Mg	  2.072250658714 	  6.064220857718 	  0.000000000000 	
Mg	  3.072250658714 	  6.064220857718 	  2.980000000000 	
Mg	  6.052250658714 	  2.084220857718 	  0.000000000000 	
Mg	  7.052250658714 	  2.084220857718 	  2.980000000000 	
Mg	  6.052250658714 	  6.064220857718 	  0.000000000000 	
Mg	  7.052250658714 	  6.064220857718 	  2.980000000000 	
Mg	  2.168012250745 	  0.000000000000 	  2.048310260706 	
Mg	  3.168012250745 	  0.000000000000 	  5.028310260706 	
Mg	  2.168012250745 	  3.980000000000 	  2.048310260706 	
Mg	  3.168012250745 	  3.980000000000 	  5.028310260706 	
Mg	  6.148012250745 	  0.000000000000 	  2.048310260706 	
Mg	  7.148012250745 	  0.000000000000 	  5.028310260706 	
Mg	  6.148012250745 	  3.980000000000 	  2.048310260706 	
Mg	  7.148012250745 	  3.980000000000 	  5.028310260706 	
Mg	  0.059850995020 	  2.108161255726 	  2.048310260706 	
Mg	  1.059850995020 	  2.108161255726 	  5.028310260706 	
Mg	  0.059850995020 	  6.088161255726 	  2.048310260706 	
Mg	  1.059850995020 	  6.088161255726 	  5.028310260706 	
Mg	  4.039850995020 	  2.108161255726 	  2.048310260706 	
Mg	  5.039850995020 	  2.108161255726 	  5.028310260706 	
Mg	  4.039850995020 	  6.088161255726 	  2.048310260706 	
Mg	  5.039850995020 	  6.088161255726 	  5.028310260706 	
O	  2.108161255726 	  0.000000000000 	  0.000000000000 	
O	  3.108161255726 	  0.000000000000 	  2.980000000000 	
O	  2.108161255726 	  3.980000000000 	  0.000000000000 	
O	  3.108161255726 	  3.980000000000 	  2.980000000000 	
O	  6.088161255726 	  0.000000000000 	  0.000000000000 	
O	  7.088161255726 	  0.000000000000 	  2.980000000000 	
O	  6.088161255726 	  3.980000000000 	  0.000000000000 	
O	  7.088161255726 	  3.980000000000 	  2.980000000000 	
O	  0.000000000000 	  2.108161255726 	  0.000000000000 	
O	  1.000000000000 	  2.108161255726 	  2.980000000000 	
O	  0.000000000000 	  6.088161255726 	  0.000000000000 	
O	  1.000000000000 	  6.088161255726 	  2.980000000000 	
O	  3.980000000000 	  2.108161255726 	  0.000000000000 	
O	  4.980000000000 	  2.108161255726 	  2.980000000000 	
O	  3.980000000000 	  6.088161255726 	  0.000000000000 	
O	  4.980000000000 	  6.088161255726 	  2.980000000000 	
O	  0.059850995020 	  0.000000000000 	  2.048310260706 	
O	  1.059850995020 	  0.000000000000 	  5.028310260706 	
O	  0.059850995020 	  3.980000000000 	  2.048310260706 	
O	  1.059850995020 	  3.980000000000 	  5.028310260706 	
O	  4.039850995020 	  0.000000000000 	  2.048310260706 	
O	  5.039850995020 	  0.000000000000 	  5.028310260706 	
O	  4.039850995020 	  3.980000000000 	  2.048310260706 	
O	  5.039850995020 	  3.980000000000 	  5.028310260706 	
O	  2.215893046761 	  2.029517048270 	  2.048310260706 	
O	  3.215893046761 	  2.029517048270 	  5.028310260706 	
O	  2.215893046761 	  6.009517048270 	  2.048310260706 	
O	  3.215893046761 	  6.009517048270 	  5.028310260706 	
O	  6.195893046761 	  2.029517048270 	  2.048310260706 	
O	  7.195893046761 	  2.029517048270 	  5.028310260706 	
O	  6.195893046761 	  6.009517048270 	  2.048310260706 	
O	  7.195893046761 	  6.009517048270 	  5.028310260706 	
64 
Energy: 3.0149081591512994e-01 
Mg	  0.000000000000 	  0.000000000000 	  0.000000000000 	
Mg	  1.000000000000 	  0.000000000000 	  2.980000000000 	
Mg	  0.000000000000 	  3.980000000000 	  0.000000000000 	
Mg	  1.000000000000 	  3.980000000000 	  2.980000000000 	
Mg	  3.980000000000 	  0.000000000000 	  0.000000000000 	
Mg	  4.980000000000 	  0.000000000000 	  2.980000000000 	
Mg	  3.980000000000 	  3.980000000000 	  0.000000000000 	
Mg	  4.980000000000 	  3.980000000000 	  2.980000000000 	
Mg	  2.098633824891 	  2.104617234452 	  0.000000000000 	
Mg	  3.098633824891 	  2.104617234452 	  2.980000000000 	
Mg	  2.098633824891 	  6.084617234452 	  0.000000000000 	
Mg	  3.098633824891 	  6.084617234452 	  2.980000000000 	
Mg	  6.078633824891 	  2.104617234452 	  0.000000000000 	
Mg	  7.078633824891 	  2.104617234452 	  2.980000000000 	
Mg	  6.078633824891 	  6.084617234452 	  0.000000000000 	
Mg	  7.078633824891 	  6.084617234452 	  2.980000000000 	
Mg	  2.146501101376 	  0.000000000000 	  2.086667005770 	
Mg	  3.146501101376 	  0.000000000000 	  5.066667005770 	
Mg	  2.146501101376 	  3.980000000000 	  2.086667005770 	
Mg	  3.146501101376 	  3.980000000000 	  5.066667005770 	
Mg	  6.126501101376 	  0.000000000000 	  2.086667005770 	
Mg	  7.126501101376 	  0.000000000000 	  5.066667005770 	
Mg	  6.126501101376 	  3.980000000000 	  2.086667005770 	
Mg	  7.126501101376 	  3.980000000000 	  5.066667005770 	
Mg	  0.029917047803 	  2.116584053573 	  2.086667005770 	
Mg	  1.029917047803 	  2.116584053573 	  5.066667005770 	
Mg	  0.029917047803 	  6.096584053573 	  2.086667005770 	
Mg	  1.029917047803 	  6.096584053573 	  5.066667005770 	
Mg	  4.009917047803 	  2.116584053573 	  2.086667005770 	
Mg	  5.009917047803 	  2.116584053573 	  5.066667005770 	
Mg	  4.009917047803 	  6.096584053573 	  2.086667005770 	
Mg	  5.009917047803 	  6.096584053573 	  5.066667005770 	
O	  2.116584053573 	  0.000000000000 	  0.000000000000 	
O	  3.116584053573 	  0.000000000000 	  2.980000000000 	
O	  2.116584053573 	  3.980000000000 	  0.000000000000 	
O	  3.116584053573 	  3.980000000000 	  2.980000000000 	
O	  6.096584053573 	  0.000000000000 	  0.000000000000 	
O	  7.096584053573 	  0.000000000000 	  2.980000000000 	
O	  6.096584053573 	  3.980000000000 	  0.000000000000 	
O	  7.096584053573 	  3.980000000000 	  2.980000000000 	
O	  0.000000000000 	  2.116584053573 	  0.000000000000 	
O	  1.000000000000 	  2.116584053573 	  2.980000000000 	
O	  0.000000000000 	  6.096584053573 	  0.000000000000 	
O	  1.000000000000 	  6.096584053573 	  2.980000000000 	
O	  3.980000000000 	  2.116584053573 	  0.000000000000 	
O	  4.980000000000 	  2.116584053573 	  2.980000000000 	
O	  3.980000000000 	  6.096584053573 	  0.000000000000 	
O	  4.980000000000 	  6.096584053573 	  2.980000000000 	
O	  0.029917047803 	  0.000000000000 	  2.086667005770 	
O	  1.029917047803 	  0.000000000000 	  5.066667005770 	
O	  0.029917047803 	  3.980000000000 	  2.086667005770 	
O	  1.029917047803 	  3.980000000000 	  5.066667005770 	
O	  4.009917047803 	  0.000000000000 	  2.086667005770 	
O	  5.009917047803 	  0.000000000000 	  5.066667005770 	
O	  4.009917047803 	  3.980000000000 	  2.086667005770 	
O	  5.009917047803 	  3.980000000000 	  5.066667005770 	
O	  2.170434739618 	  2.077273052759 	  2.086667005770 	
O	  3.170434739618 	  2.077273052759 	  5.066667005770 	
O	  2.170434739618 	  6.057273052759 	  2.086667005770 	
O	  3.170434739618 	  6.057273052759 	  5.066667005770 	
O	  6.150434739618 	  2.077273052759 	  2.086667005770 	
O	  7.150434739618 	  2.077273052759 	  5.066667005770 	
O	  6.150434739618 	  6.057273052759 	  2.086667005770 	
O	  7.150434739618 	  6.057273052759 	  5.066667005770 	
64 
Energy: 0.0000000000000000e+00 
Mg	  0.000000000000 	  0.000000000000 	  0.000000000000 	
Mg	  1.000000000000 	  0.000000000000 	  2.980000000000 	
Mg	  0.000000000000 	  3.980000000000 	  0.000000000000 	
Mg	  1.000000000000 	  3.980000000000 	  2.980000000000 	
Mg	  3.980000000000 	  0.000000000000 	  0.000000000000 	
Mg	  4.980000000000 	  0.000000000000 	  2.980000000000 	
Mg	  3.980000000000 	  3.980000000000 	  0.000000000000 	
Mg	  4.980000000000 	  3.980000000000 	  2.980000000000 	
Mg	  2.125000000000 	  2.125000000000 	  0.000000000000 	
Mg	  3.125000000000 	  2.125000000000 	  2.980000000000 	
Mg	  2.125000000000 	  6.105000000000 	  0.000000000000 	
Mg	  3.125000000000 	  6.105000000000 	  2.980000000000 	
Mg	  6.105000000000 	  2.125000000000 	  0.000000000000 	
Mg	  7.105000000000 	  2.125000000000 	  2.980000000000 	
Mg	  6.105000000000 	  6.105000000000 	  0.000000000000 	
Mg	  7.105000000000 	  6.105000000000 	  2.980000000000 	
Mg	  2.125000000000 	  0.000000000000 	  2.125000000000 	
Mg	  3.125000000000 	  0.000000000000 	  5.105000000000 	
Mg	  2.125000000000 	  3.980000000000 	  2.125000000000 	
Mg	  3.125000000000 	  3.980000000000 	  5.105000000000 	
Mg	  6.105000000000 	  0.000000000000 	  2.125000000000 	
Mg	  7.105000000000 	  0.000000000000 	  5.105000000000 	
Mg	  6.105000000000 	  3.980000000000 	  2.125000000000 	
Mg	  7.105000000000 	  3.980000000000 	  5.105000000000 	
Mg	  0.000000000000 	  2.125000000000 	  2.125000000000 	
Mg	  1.000000000000 	  2.125000000000 	  5.105000000000 	
Mg	  0.000000000000 	  6.105000000000 	  2.125000000000 	
Mg	  1.000000000000 	  6.105000000000 	  5.105000000000 	
Mg	  3.980000000000 	  2.125000000000 	  2.125000000000 	
Mg	  4.980000000000 	  2.125000000000 	  5.105000000000 	
Mg	  3.980000000000 	  6.105000000000 	  2.125000000000 	
Mg	  4.980000000000 	  6.105000000000 	  5.105000000000 	
O	  2.125000000000 	  0.000000000000 	  0.000000000000 	
O	  3.125000000000 	  0.000000000000 	  2.980000000000 	
O	  2.125000000000 	  3.980000000000 	  0.000000000000 	
O	  3.125000000000 	  3.980000000000 	  2.980000000000 	
O	  6.105000000000 	  0.000000000000 	  0.000000000000 	
O	  7.105000000000 	  0.000000000000 	  2.980000000000 	
O	  6.105000000000 	  3.980000000000 	  0.000000000000 	
O	  7.105000000000 	  3.980000000000 	  2.980000000000 	
O	  0.000000000000 	  2.125000000000 	  0.000000000000 	
O	  1.000000000000 	  2.125000000000 	  2.980000000000 	
O	  0.000000000000 	  6.105000000000 	  0.000000000000 	
O	  1.000000000000 	  6.105000000000 	  2.980000000000 	
O	  3.980000000000 	  2.125000000000 	  0.000000000000 	
O	  4.980000000000 	  2.125000000000 	  2.980000000000 	
O	  3.980000000000 	  6.105000000000 	  0.000000000000 	
O	  4.980000000000 	  6.105000000000 	  2.980000000000 	
O	  0.000000000000 	  0.000000000000 	  2.125000000000 	
O	  1.000000000000 	  0.000000000000 	  5.105000000000 	
O	  0.000000000000 	  3.980000000000 	  2.125000000000 	
O	  1.000000000000 	  3.980000000000 	  5.105000000000 	
O	  3.980000000000 	  0.000000000000 	  2.125000000000 	
O	  4.980000000000 	  0.000000000000 	  5.105000000000 	
O	  3.980000000000 	  3.980000000000 	  2.125000000000 	
O	  4.980000000000 	  3.980000000000 	  5.105000000000 	
O	  2.125000000000 	  2.125000000000 	  2.125000000000 	
O	  3.125000000000 	  2.125000000000 	  5.105000000000 	
O	  2.125000000000 	  6.105000000000 	  2.125000000000 	
O	  3.125000000000 	  6.105000000000 	  5.105000000000 	
O	  6.105000000000 	  2.125000000000 	  2.125000000000 	
O	  7.105000000000 	  2.125000000000 	  5.105000000000 	
O	  6.105000000000 	  6.105000000000 	  2.125000000000 	
O	  7.105000000000 	  6.105000000000 	  5.105000000000 	
