  Invoking FHI-aims ...
  | Number of atoms                   :  96
  ...scf iterations...
  | Total energy corrected        :   -8.582495005800E+01 eV
  ...
  Total atomic forces (unitary forces cleaned)
     1  -3.0791599224E-01  5.9902892977E-01  1.8877970250E-01
     2  2.4461529383E-01  5.7717396612E-01  -1.8292499189E-01
     3  3.0791587469E-01  -5.9902883931E-01  -1.8877970019E-01
     4  -2.4461524680E-01  -5.7717401117E-01  1.8292511190E-01
     5  -8.4117535103E-01  1.6624620069E+00  2.6962164006E-01
     6  8.8166537173E-01  -3.8158669442E-01  9.1556460905E-01
     7  8.4117637287E-01  -1.6624617846E+00  -2.6962077318E-01
     8  -8.8166505363E-01  3.8158649670E-01  -9.1556437080E-01
     9  -4.0682485245E-01  2.1401485393E-01  -1.7771609577E-01
    10  9.8780863499E-01  4.5724180911E-01  1.4296079448E-01
    11  4.0682399738E-01  -2.1401557138E-01  1.7771539109E-01
    12  -9.8780923803E-01  -4.5724171703E-01  -1.4296123171E-01
    13  -5.2665081052E-01  -1.0833188169E+00  -1.0165697282E+00
    14  -9.4782050177E-02  -1.3798454318E+00  1.0703069259E+00
    15  5.2664993326E-01  1.0833191843E+00  1.0165694063E+00
    16  9.4782079814E-02  1.3798457716E+00  -1.0703070611E+00
    17  4.5297252506E-01  -5.5323437874E-01  -1.9636078838E-02
    18  -4.1381568833E-01  -3.6318882981E-01  1.6214949677E-01
    19  -4.5297199937E-01  5.5323476763E-01  1.9636656593E-02
    20  4.1381588442E-01  3.6318832610E-01  -1.6214947473E-01
    21  6.7668534416E-01  -1.1593557596E+00  -1.4943405388E-01
    22  -6.9346394365E-01  -1.2928712734E+00  2.2915109804E-01
    23  -6.7668540837E-01  1.1593557698E+00  1.4943413541E-01
    24  6.9346405465E-01  1.2928716153E+00  -2.2915129014E-01
    25  9.7474226815E-01  1.2115644920E-01  6.6347671418E-01
    26  -9.8905029146E-01  -4.3362933728E-02  -7.9719169092E-01
    27  -9.7474228819E-01  -1.2115720307E-01  -6.6347706096E-01
    28  9.8905046160E-01  4.3363833901E-02  7.9719139781E-01
    29  4.6646526613E-01  3.7137111107E-01  5.9373774853E-01
    30  -4.5592061715E-01  4.2646124803E-01  -6.3515845959E-01
    31  -4.6646515290E-01  -3.7137118108E-01  -5.9373834139E-01
    32  4.5591961900E-01  -4.2646169327E-01  6.3515823239E-01
    33  1.3384355365E-01  1.0885709445E+00  8.6405453199E-01
    34  -1.4360889616E-01  1.1164733890E+00  -8.6849808385E-01
    35  -1.3384335307E-01  -1.0885705743E+00  -8.6405432953E-01
    36  1.4360883814E-01  -1.1164734669E+00  8.6849804782E-01
    37  -7.5200497593E-01  4.5794470442E-01  -1.8243034309E-01
    38  7.8506467575E-01  5.0672317766E-01  1.5976599141E-01
    39  7.5200512571E-01  -4.5794498490E-01  1.8243067292E-01
    40  -7.8506432992E-01  -5.0672389645E-01  -1.5976542026E-01
    41  -9.3588760090E-01  1.1308723605E+00  8.8822360426E-02
    42  9.4431690413E-01  1.1451471227E+00  -8.5997388060E-02
    43  9.3588746258E-01  -1.1308718863E+00  -8.8822383597E-02
    44  -9.4431656058E-01  -1.1451468639E+00  8.5997387655E-02
    45  -1.2739680677E+00  2.2860984916E-02  -8.3071542948E-01
    46  1.6579078784E+00  -3.9495476279E-02  1.1982289470E+00
    47  1.2739655581E+00  -2.2861670474E-02  8.3071346360E-01
    48  -1.6579080210E+00  3.9495362246E-02  -1.1982291346E+00
    49  3.1436553699E-01  -4.7023826762E-01  1.1991566215E+00
    50  3.4601770648E-01  -1.2356018927E-01  -5.3175849280E+00
    51  -3.1436363064E-01  4.7023777236E-01  -1.1991563805E+00
    52  -3.4601676831E-01  1.2355915177E-01  5.3175864942E+00
    53  -5.7756812056E-01  -1.5090973349E+00  -3.1273051009E-01
    54  3.4216666429E-01  -1.8674074090E+00  4.6919197013E-01
    55  5.7756697712E-01  1.5090951432E+00  3.1273011317E-01
    56  -3.4216686790E-01  1.8674078939E+00  -4.6919171701E-01
    57  7.7715021692E-01  -5.0703770256E-02  5.1830514306E-01
    58  1.3207178978E+00  2.6227668712E-01  1.1141683592E+00
    59  -7.7714966867E-01  5.0703180200E-02  -5.1830460824E-01
    60  -1.3207191965E+00  -2.6227707902E-01  -1.1141697544E+00
    61  -1.2459890903E+00  8.6136091790E-01  8.2362023331E-01
    62  -1.0034524732E+00  4.0300653269E-01  6.7221522314E-01
    63  1.2459873515E+00  -8.6136012626E-01  -8.2361812569E-01
    64  1.0034528314E+00  -4.0300647221E-01  -6.7221527465E-01
    65  1.2583472537E+00  -4.7080485600E-01  -2.5903332966E-01
    66  -1.4450950751E+00  -1.2618449678E-01  1.9885501812E+00
    67  -1.2583463184E+00  4.7080563277E-01  2.5903419894E-01
    68  1.4450947639E+00  1.2618482256E-01  -1.9885495333E+00
    69  -2.7166299840E-01  -1.5464674182E+00  -1.7915619872E-01
    70  5.9060663872E-01  -2.0098085782E+00  7.4780022132E-02
    71  2.7166288896E-01  1.5464649448E+00  1.7915540644E-01
    72  -5.9060711695E-01  2.0098086686E+00  -7.4779631123E-02
    73  2.8059370954E-01  6.6382596346E-01  -1.4108843204E+00
    74  -1.9263019008E-01  7.5177866709E-01  6.9400291159E-01
    75  -2.8059357730E-01  -6.6382503006E-01  1.4108823550E+00
    76  1.9263045858E-01  -7.5177837459E-01  -6.9400358392E-01
    77  7.6827289023E-01  5.7561790060E-03  5.1915535142E-01
    78  -1.5980549241E+00  -1.0671619109E-01  -9.6653228009E-01
    79  -7.6827206690E-01  -5.7562382150E-03  -5.1915538720E-01
    80  1.5980552876E+00  1.0671636048E-01  9.6653247403E-01
    81  9.2027125386E-01  9.3009225275E-01  4.8588506823E-01
    82  -9.3895919584E-01  1.1120886337E+00  -4.7103645975E-01
    83  -9.2026942779E-01  -9.3009261042E-01  -4.8588413018E-01
    84  9.3896001419E-01  -1.1120882704E+00  4.7103669445E-01
    85  8.9336759816E-01  -4.1943225127E-02  4.8630845087E-01
    86  -9.3183207211E-01  2.8571503453E-02  -4.7153293079E-01
    87  -8.9336663856E-01  4.1943360365E-02  -4.8630792724E-01
    88  9.3183149548E-01  -2.8571426168E-02  4.7153272318E-01
    89  1.8362148212E-01  7.6777989586E-01  -1.4260868314E+00
    90  -1.8103329460E-01  8.4608772002E-01  1.4540642778E+00
    91  -1.8362121599E-01  -7.6777751632E-01  1.4260848388E+00
    92  1.8103357799E-01  -8.4608746296E-01  -1.4540646798E+00
    93  -9.8722618069E-01  8.4686619615E-01  1.0284261479E+00
    94  9.9802389206E-01  9.2950799072E-01  -1.0189205558E+00
    95  9.8722430841E-01  -8.4686455340E-01  -1.0284240897E+00
    96  -9.9802377556E-01  -9.2950842108E-01  1.0189203601E+00
  Stress tensor (eV/A^3):
  9.0638859271E-02  -1.1052200440E-03  1.9593525204E-02
  -1.1052200440E-03  1.0046470633E-01  1.7758618305E-03
  1.9593525204E-02  1.7758618305E-03  7.6326523806E-02
