  Invoking FHI-aims ...
  | Number of atoms                   :  96
  ...scf iterations...
  | Total energy corrected        :   -8.174409191442E+01 eV
  ...
  Total atomic forces (unitary forces cleaned)
     1  -2.3111107103E-01  5.9492580844E-01  1.8630419407E-01
     2  2.0649045125E-01  5.7195501753E-01  -1.9370665214E-01
     3  2.3111120706E-01  -5.9492572049E-01  -1.8630410933E-01
     4  -2.0649032244E-01  -5.7195476541E-01  1.9370670770E-01
     5  -8.1869547295E-01  1.3535222877E+00  1.7220270551E-01
     6  8.2043167944E-01  1.3911929108E+00  -2.2289580094E-01
     7  8.1869556145E-01  -1.3535221549E+00  -1.7220252962E-01
     8  -8.2043205341E-01  -1.3911930218E+00  2.2289610689E-01
     9  -2.6457875376E-01  1.8928674771E-01  -1.5024358456E-01
    10  3.4408688583E-01  2.6386053403E-01  1.4308200617E-01
    11  2.6457852022E-01  -1.8928625531E-01  1.5024338898E-01
    12  -3.4408732847E-01  -2.6386096242E-01  -1.4308170992E-01
    13  -4.4942895238E-01  -9.2025314397E-01  -9.8534856810E-01
    14  3.8030299865E-01  -9.9797201967E-01  1.0053383066E+00
    15  4.4942844581E-01  9.2025315662E-01  9.8534828682E-01
    16  -3.8030310151E-01  9.9797250090E-01  -1.0053375177E+00
    17  6.7257012533E-01  -9.7253335076E-01  -9.3011717096E-02
    18  -6.6853523304E-01  -1.0356574461E+00  1.6928391912E-01
    19  -6.7256960040E-01  9.7253385544E-01  9.3012151972E-02
    20  6.6853502382E-01  1.0356574839E+00  -1.6928447618E-01
    21  2.8126266330E-01  -7.0664703185E-01  -2.0163843825E-01
    22  -2.7247477844E-01  -6.9744245149E-01  2.0503331988E-01
    23  -2.8126274223E-01  7.0664706406E-01  2.0163791875E-01
    24  2.7247457240E-01  6.9744255610E-01  -2.0503355116E-01
    25  6.6013882682E-01  -4.7238766472E-03  5.8544554693E-01
    26  -6.8329753319E-01  4.1242949115E-02  -6.6626778458E-01
    27  -6.6013876781E-01  4.7234924040E-03  -5.8544569612E-01
    28  6.8329844954E-01  -4.1242886270E-02  6.6626754839E-01
    29  4.8876867365E-01  7.0870278352E-01  8.9994445193E-01
    30  -4.8338659679E-01  7.1686243092E-01  -9.0098798050E-01
    31  -4.8876872917E-01  -7.0870295819E-01  -8.9994443246E-01
    32  4.8338655197E-01  -7.1686265854E-01  9.0098775528E-01
    33  5.5409269196E-02  6.4073679901E-01  4.9492283071E-01
    34  -4.8578890798E-02  6.4558970300E-01  -4.8634406255E-01
    35  -5.5409280492E-02  -6.4073703124E-01  -4.9492250486E-01
    36  4.8579093569E-02  -6.4558982287E-01  4.8634385704E-01
    37  -9.0326794164E-01  9.5096556851E-01  -1.0547543612E-01
    38  9.0263159843E-01  9.5810140374E-01  9.9585869344E-02
    39  9.0326794791E-01  -9.5096570978E-01  1.0547555453E-01
    40  -9.0263148093E-01  -9.5810129804E-01  -9.9585503175E-02
    41  -5.1092307625E-01  7.0254043986E-01  2.9208716776E-02
    42  5.1076635110E-01  7.0198100040E-01  -3.0176000760E-02
    43  5.1092310813E-01  -7.0254053317E-01  -2.9208521545E-02
    44  -5.1076628876E-01  -7.0198093462E-01  3.0176142694E-02
    45  -1.4963829020E+00  1.5570027900E-01  -9.8887411505E-01
    46  1.5472939062E+00  2.4059607397E-01  9.4331578921E-01
    47  1.4963778515E+00  -1.5569961557E-01  9.8887188470E-01
    48  -1.5472944264E+00  -2.4059612368E-01  -9.4331536760E-01
    49  -2.5418202218E+00  1.8004118609E+00  3.2122922929E+00
    50  3.2211624138E+00  7.6208535255E+00  -5.1193161929E+00
    51  2.5417897509E+00  -1.8003804788E+00  -3.2122774188E+00
    52  -3.2211642310E+00  -7.6208514878E+00  5.1193168752E+00
    53  8.4863936988E-01  2.7892778076E-01  -6.0158592277E-01
    54  -1.0988121028E+00  3.7666183315E-01  7.5697913975E-01
    55  -8.4861797407E-01  -2.7892039892E-01  6.0157452337E-01
    56  1.0988161908E+00  -3.7666402016E-01  -7.5698178849E-01
    57  6.7502319483E-01  -1.4678753948E-01  5.3908901388E-01
    58  6.7142347095E-01  9.5688880324E-02  6.9258845012E-01
    59  -6.7502025048E-01  1.4678615326E-01  -5.3908582028E-01
    60  -6.7142445307E-01  -9.5689290651E-02  -6.9258838373E-01
    61  3.7872926984E-01  -9.3197292129E-01  -1.7390453444E-01
    62  -2.1657399453E+00  -7.0591395397E+00  7.5295089632E-01
    63  -3.7872238006E-01  9.3194009081E-01  1.7390143951E-01
    64  2.1657400059E+00  7.0591397047E+00  -7.5294901183E-01
    65  3.6502791307E-01  -3.2337023539E+00  -9.9293373431E-02
    66  2.4781478119E-01  -2.7013690076E+00  -1.1553813287E+00
    67  -3.6503738486E-01  3.2336880378E+00  9.9290182970E-02
    68  -2.4781337267E-01  2.7013667549E+00  1.1553827933E+00
    69  -7.8848410833E-03  2.2259993871E-01  1.1819691931E-01
    70  -3.9266351440E-02  2.6757650999E-01  -9.6425874170E-02
    71  7.8913006195E-03  -2.2259358596E-01  -1.1819972656E-01
    72  3.9265372221E-02  -2.6757541212E-01  9.6426233947E-02
    73  2.2829646161E-01  9.3842021589E-02  -1.2467266521E-01
    74  -6.2281008965E-01  -5.8092995651E-01  1.4768478788E+00
    75  -2.2829761140E-01  -9.3839182848E-02  1.2467984015E-01
    76  6.2280933532E-01  5.8093080165E-01  -1.4768490558E+00
    77  4.8945567420E-01  -1.1841928106E-01  3.3361483869E-01
    78  -7.0119197246E-01  -1.5840939177E-01  -4.8664135856E-01
    79  -4.8945269530E-01  1.1841828698E-01  -3.3361314977E-01
    80  7.0119179276E-01  1.5840930599E-01  4.8664067386E-01
    81  1.5804627371E+00  2.8458469916E+00  -2.1596325588E+00
    82  -1.5871228635E+00  2.8509443942E+00  2.1674473873E+00
    83  -1.5804615169E+00  -2.8458300273E+00  2.1596047745E+00
    84  1.5871244071E+00  -2.8509396545E+00  -2.1674543148E+00
    85  6.0505331108E-01  -4.4991887659E-02  3.6583173254E-01
    86  -6.0679179822E-01  -4.6110022750E-02  -3.6010218049E-01
    87  -6.0504934626E-01  4.4992086581E-02  -3.6582954877E-01
    88  6.0679180211E-01  4.6109880915E-02  3.6010237253E-01
    89  -9.2522955537E-02  -1.3806641949E-01  2.5271117254E-01
    90  9.1749512374E-02  -1.3588717844E-01  -2.5072248362E-01
    91  9.2519312726E-02  1.3807036504E-01  -2.5269426155E-01
    92  -9.1750799987E-02  1.3588602073E-01  2.5072804287E-01
    93  1.1804381275E-01  -9.0881752346E-01  1.9626169392E-01
    94  -1.2025628654E-01  -9.0744734072E-01  -1.9455036648E-01
    95  -1.1803978693E-01  9.0879674974E-01  -1.9625771274E-01
    96  1.2025559980E-01  9.0744485324E-01  1.9455096467E-01
  Stress tensor (eV/A^3):
  6.1322704720E-02  -3.3304898430E-03  2.6724780638E-02
  -3.3304898430E-03  4.8484312443E-02  -9.6621604905E-04
  2.6724780638E-02  -9.6621604905E-04  6.1952125835E-02
