  Invoking FHI-aims ...
  | Number of atoms                   :  96
  ...scf iterations...
  | Total energy corrected        :   -8.778054286474E+01 eV
  ...
  Total atomic forces (unitary forces cleaned)
     1  -3.1624972266E-01  6.0073076023E-01  1.9231760968E-01
     2  2.5510894050E-01  5.8460114680E-01  -1.8170826535E-01
     3  3.1624959591E-01  -6.0073065955E-01  -1.9231760511E-01
     4  -2.5510889311E-01  -5.8460119510E-01  1.8170838836E-01
     5  -8.2067487585E-01  1.5661728108E+00  1.7758653596E-01
     6  9.6426193637E-01  -1.6483299176E+00  2.1144025183E+00
     7  8.2067597141E-01  -1.5661725762E+00  -1.7758561033E-01
     8  -9.6426157475E-01  1.6483297097E+00  -2.1144022489E+00
     9  -4.4444149918E-01  2.3931090741E-01  -1.8873328546E-01
    10  4.0303749065E-01  -1.5443261536E-01  1.6285355056E-01
    11  4.4444059515E-01  -2.3931170295E-01  1.8873249751E-01
    12  -4.0303863382E-01  1.5443238816E-01  -1.6285403886E-01
    13  -5.4630733411E-01  -1.1102370533E+00  -1.0468374835E+00
    14  5.1063231247E-01  -7.9960482132E-01  1.0928368315E+00
    15  5.4630639298E-01  1.1102374425E+00  1.0468371365E+00
    16  -5.1063178866E-01  7.9960551533E-01  -1.0928369832E+00
    17  4.3594538574E-01  -5.2519332760E-01  -1.4118013527E-02
    18  -8.2035546032E-01  4.1789118490E-01  -7.1315921632E-01
    19  -4.3594482309E-01  5.2519373646E-01  1.4118627885E-02
    20  8.2035555013E-01  -4.1789162631E-01  7.1315928748E-01
    21  7.2880481083E-01  -1.2173098578E+00  -1.4762298480E-01
    22  -7.0267295545E-01  -1.3344849218E+00  2.4499450993E-01
    23  -7.2880486776E-01  1.2173098735E+00  1.4762307540E-01
    24  7.0267307269E-01  1.3344852737E+00  -2.4499469114E-01
    25  1.0446660454E+00  1.3332394348E-01  7.1799982213E-01
    26  -7.0775565199E-01  -8.5865845735E-01  1.9814216110E-02
    27  -1.0446660148E+00  -1.3332475555E-01  -7.1800017927E-01
    28  7.0775596896E-01  8.5865935526E-01  -1.9814560878E-02
    29  4.7800138287E-01  3.3358780667E-01  5.7497107018E-01
    30  -4.4184483253E-01  4.2404141685E-01  -6.2076045610E-01
    31  -4.7800129955E-01  -3.3358791023E-01  -5.7497170305E-01
    32  4.4184379940E-01  -4.2404189928E-01  6.2076023281E-01
    33  1.5363682428E-01  1.1451887331E+00  9.1549035589E-01
    34  -1.6451479480E-01  1.1821099739E+00  -9.2497138414E-01
    35  -1.5363661373E-01  -1.1451883161E+00  -9.1549012375E-01
    36  1.6451473017E-01  -1.1821100639E+00  9.2497135006E-01
    37  -7.4481455400E-01  4.1113467024E-01  -2.0823137162E-01
    38  7.8621300755E-01  4.8552723771E-01  1.6558690924E-01
    39  7.4481475033E-01  -4.1113496820E-01  2.0823173522E-01
    40  -7.8621270492E-01  -4.8552802966E-01  -1.6558632041E-01
    41  -9.8523943808E-01  1.1885571971E+00  9.2661847724E-02
    42  9.9974954707E-01  1.2098938766E+00  -9.2177112082E-02
    43  9.8523926439E-01  -1.1885566636E+00  -9.2661865906E-02
    44  -9.9974916693E-01  -1.2098935883E+00  9.2177113410E-02
    45  -1.3547459894E+00  2.2686913831E-02  -8.8315636709E-01
    46  1.7292968040E+00  -4.4630069486E-01  9.0437767527E-01
    47  1.3547434709E+00  -2.2687629566E-02  8.8315437267E-01
    48  -1.7292970340E+00  4.4630032648E-01  -9.0437813098E-01
    49  4.0906720293E-01  -4.0843027211E-01  1.1103076304E+00
    50  -4.8392659978E-02  -1.0627754341E-01  -4.8418464755E+00
    51  -4.0906461127E-01  4.0843014378E-01  -1.1103076846E+00
    52  4.8393450147E-02  1.0627662181E-01  4.8418484838E+00
    53  -6.4032141239E-01  -1.6618652940E+00  -3.1900129433E-01
    54  2.9493961393E-01  -2.2578047915E+00  5.4823723310E-01
    55  6.4032001895E-01  1.6618625493E+00  3.1900084784E-01
    56  -2.9493985906E-01  2.2578054606E+00  -5.4823689505E-01
    57  8.3722964158E-01  -5.9730037825E-02  5.7355892459E-01
    58  1.3832946736E+00  2.7174732237E-01  1.1351711846E+00
    59  -8.3722915401E-01  5.9729402745E-02  -5.7355842184E-01
    60  -1.3832958863E+00  -2.7174770936E-01  -1.1351725940E+00
    61  -1.3754392434E+00  9.2558288004E-01  9.2819777201E-01
    62  -6.2053454725E-01  8.3118849803E-01  3.5694957561E-01
    63  1.3754371019E+00  -9.2558195295E-01  -9.2819526623E-01
    64  6.2053487499E-01  -8.3118855765E-01  -3.5694973431E-01
    65  1.2133550841E+00  -3.9179945935E-01  -1.8230213929E-01
    66  -1.0379816292E+00  1.2448937522E-01  1.8383890685E+00
    67  -1.2133541886E+00  3.9180057989E-01  1.8230343502E-01
    68  1.0379815184E+00  -1.2448935656E-01  -1.8383886352E+00
    69  -2.9157161753E-01  -1.6900463950E+00  -2.2486551233E-01
    70  7.5476318893E-01  -2.3145249427E+00  5.0158328682E-02
    71  2.9157148320E-01  1.6900434799E+00  2.2486455489E-01
    72  -7.5476373405E-01  2.3145251348E+00  -5.0157939776E-02
    73  3.1894698073E-01  6.9961710817E-01  -1.5365044566E+00
    74  -3.5331629114E-01  9.6573316206E-01  1.1490822487E+00
    75  -3.1894679930E-01  -6.9961611467E-01  1.5365022268E+00
    76  3.5331654889E-01  -9.6573262540E-01  -1.1490828433E+00
    77  8.4230527678E-01  2.5208604524E-03  5.6051870259E-01
    78  -1.9894014708E+00  -2.3383791697E-01  -1.1745808890E+00
    79  -8.4230443969E-01  -2.5209272057E-03  -5.6051877909E-01
    80  1.9894018706E+00  2.3383815981E-01  1.1745811130E+00
    81  9.3234924383E-01  7.9770962916E-01  4.9204448805E-01
    82  -9.6949012849E-01  1.1023505272E+00  -4.7645415765E-01
    83  -9.3234690823E-01  -7.9771070223E-01  -4.9204389674E-01
    84  9.6949100532E-01  -1.1023501142E+00  4.7645442591E-01
    85  9.6932292212E-01  -3.8717495623E-02  5.2859627408E-01
    86  -1.0276317822E+00  6.3337041419E-02  -5.0954784876E-01
    87  -9.6932199605E-01  3.8717658844E-02  -5.2859576693E-01
    88  1.0276312032E+00  -6.3336946549E-02  5.0954763864E-01
    89  2.0241753493E-01  8.6056853692E-01  -1.5514855487E+00
    90  -2.0549946895E-01  9.8639392144E-01  1.6028096153E+00
    91  -2.0241726801E-01  -8.6056586415E-01  1.5514834631E+00
    92  2.0549978125E-01  -9.8639366017E-01  -1.6028100710E+00
    93  -1.0820581357E+00  9.3256377229E-01  1.1162212928E+00
    94  1.1112106268E+00  1.0694555243E+00  -1.1238143313E+00
    95  1.0820557932E+00  -9.3256158872E-01  -1.1162187284E+00
    96  -1.1112105352E+00  -1.0694560314E+00  1.1238141138E+00
  Stress tensor (eV/A^3):
  9.5087132695E-02  -1.3511379031E-03  1.8787013823E-02
  -1.3511379031E-03  1.0365881256E-01  3.9929591581E-03
  1.8787013823E-02  3.9929591581E-03  7.8426302499E-02
