  Invoking FHI-aims ...
  | Number of atoms                   :  96
  ...scf iterations...
  | Total energy corrected        :   -9.105081279358E+01 eV
  ...
  Total atomic forces (unitary forces cleaned)
     1  -2.6254397251E-01  6.0458233162E-01  1.8146878908E-01
     2  2.1306646121E-01  5.6693869173E-01  -1.9213940540E-01
     3  2.6254405014E-01  -6.0458223804E-01  -1.8146873315E-01
     4  -2.1306631382E-01  -5.6693850633E-01  1.9213947590E-01
     5  -8.2097839837E-01  1.5577406195E+00  2.6643271978E-01
     6  8.2857186001E-01  1.5834679367E+00  -5.0697028291E-01
     7  8.2097870484E-01  -1.5577404806E+00  -2.6643236567E-01
     8  -8.2857205655E-01  -1.5834680675E+00  5.0697059222E-01
     9  -3.2618858555E-01  2.1597901552E-01  -1.6720059930E-01
    10  7.6453337827E-01  5.7466278853E-01  1.4136896220E-01
    11  3.2618819123E-01  -2.1597879796E-01  1.6720027269E-01
    12  -7.6453378527E-01  -5.7466304082E-01  -1.4136875980E-01
    13  -4.9695115184E-01  -9.8327946457E-01  -1.0387307893E+00
    14  7.1286986765E-02  -1.3599124930E+00  1.0930666260E+00
    15  4.9695056315E-01  9.8327958429E-01  1.0387305010E+00
    16  -7.1287053512E-02  1.3599128809E+00  -1.0930660271E+00
    17  4.8415792039E-01  -6.6857541991E-01  -5.6629047768E-02
    18  -3.6888676760E-01  -8.7999063524E-01  4.5075808076E-01
    19  -4.8415720641E-01  6.6857552509E-01  5.6629530542E-02
    20  3.6888649494E-01  8.7999059548E-01  -4.5075850741E-01
    21  5.3191175361E-01  -1.0754443688E+00  -2.3220538936E-01
    22  -5.2808283519E-01  -1.1240122900E+00  2.6293685103E-01
    23  -5.3191222198E-01  1.0754445757E+00  2.3220495084E-01
    24  5.2808274026E-01  1.1240124865E+00  -2.6293708209E-01
    25  8.0920646880E-01  2.8001859694E-02  6.7144795154E-01
    26  -9.2353558909E-01  2.4470684174E-01  -1.0651006360E+00
    27  -8.0920688470E-01  -2.8002287894E-02  -6.7144843547E-01
    28  9.2353656400E-01  -2.4470661325E-01  1.0651003895E+00
    29  4.8438064491E-01  4.4361740702E-01  6.8795382493E-01
    30  -4.6352120739E-01  4.7585817501E-01  -6.9217501223E-01
    31  -4.8438051141E-01  -4.4361742178E-01  -6.8795387978E-01
    32  4.6352074192E-01  -4.7585835468E-01  6.9217466683E-01
    33  1.6792491622E-01  9.4585453351E-01  8.2563070437E-01
    34  -1.6179654120E-01  9.6777469241E-01  -8.0516372964E-01
    35  -1.6792477872E-01  -9.4585480615E-01  -8.2563045479E-01
    36  1.6179683896E-01  -9.6777496607E-01  8.0516356726E-01
    37  -7.5692078565E-01  6.1749793636E-01  -1.8108009084E-01
    38  7.6374842702E-01  6.4237143485E-01  1.6559317761E-01
    39  7.5692082449E-01  -6.1749814476E-01  1.8108015793E-01
    40  -7.6374828703E-01  -6.4237161319E-01  -1.6559272888E-01
    41  -7.8079503666E-01  1.0478008060E+00  6.2464077883E-02
    42  7.8439842832E-01  1.0496958844E+00  -6.6166791761E-02
    43  7.8079499227E-01  -1.0478007200E+00  -6.2463855456E-02
    44  -7.8439821428E-01  -1.0496956518E+00  6.6166946802E-02
    45  -1.5406874042E+00  1.9375704183E-01  -8.8465197004E-01
    46  2.6283718271E-02  -2.5745512548E+00  6.8433256041E-01
    47  1.5407064642E+00  -1.9374976203E-01  8.8467253323E-01
    48  -2.6286852327E-02  2.5745457956E+00  -6.8433457392E-01
    49  -6.8618557829E+00  1.6997865407E+00  4.7511478217E+00
    50  7.7059969401E+00  7.8022013953E+00  -8.5237772622E+00
    51  6.8617460960E+00  -1.6997477925E+00  -4.7511081853E+00
    52  -7.7060000829E+00  -7.8021951758E+00  8.5237830969E+00
    53  2.6139407241E+00  1.1647347995E+00  -1.6915689000E+00
    54  -1.3612104266E+00  -1.1934799802E-01  1.0991213891E+00
    55  -2.6138754790E+00  -1.1647101597E+00  1.6915278483E+00
    56  1.3612189040E+00  1.1934255945E-01  -1.0991265124E+00
    57  1.5753028760E+00  -2.5700773996E-01  1.4781090230E+00
    58  3.6461340351E-01  1.7157951270E-02  6.7500633484E-01
    59  -1.5752927934E+00  2.5700494551E-01  -1.4780986110E+00
    60  -3.6461577310E-01  -1.7158578717E-02  -6.7500779407E-01
    61  1.5530404149E+00  -2.0881318511E+00  -1.1955740251E+00
    62  -5.6191694293E+00  -7.1394330242E+00  3.7216815506E+00
    63  -1.5530041238E+00  2.0880715911E+00  1.1955428277E+00
    64  5.6191671101E+00  7.1394315054E+00  -3.7216775707E+00
    65  -4.2982979047E-01  -4.3375829964E+00  -1.5841848560E+00
    66  3.0932708090E+00  -1.1986273105E+00  2.3800164592E-03
    67  4.2980337684E-01  4.3375479792E+00  1.5841592588E+00
    68  -3.0932689391E+00  1.1986293048E+00  -2.3730057424E-03
    69  3.7795533455E-01  9.5726115942E-01  2.5981475722E-01
    70  -4.9142892194E-01  1.1089095516E+00  -2.6241074809E-01
    71  -3.7793577170E-01  -9.5723053988E-01  -2.5981818146E-01
    72  4.9142877106E-01  -1.1089088128E+00  2.6240994950E-01
    73  2.4617836181E-01  3.7564729263E-01  5.5259982169E-02
    74  -7.6438907323E-01  -2.0879151156E-01  1.5657347440E+00
    75  -2.4618395796E-01  -3.7563538770E-01  -5.5231861161E-02
    76  7.6438970635E-01  2.0879467389E-01  -1.5657407988E+00
    77  1.3281246986E+00  -3.6086657682E-01  8.2844531201E-01
    78  -1.7640812651E+00  -5.4447435034E-01  -1.1385989316E+00
    79  -1.3281197432E+00  3.6086448570E-01  -8.2844320224E-01
    80  1.7640815539E+00  5.4447429584E-01  1.1385981333E+00
    81  8.6198956297E-02  6.1387649575E+00  -3.6591745430E+00
    82  -1.3153941116E-01  6.2215997916E+00  3.7284549783E+00
    83  -8.6227405283E-02  -6.1386970716E+00  3.6591296338E+00
    84  1.3154189320E-01  -6.2215981777E+00  -3.7284662065E+00
    85  1.6752493289E+00  6.8728342675E-02  8.4425312360E-01
    86  -1.7017431819E+00  8.4860781899E-02  -8.1180381938E-01
    87  -1.6752416090E+00  -6.8727777983E-02  -8.4424959475E-01
    88  1.7017429432E+00  -8.4860822077E-02  8.1180368679E-01
    89  -2.6287377530E-01  -5.5658878042E-01  1.2332745101E+00
    90  2.5116358578E-01  -5.3308217197E-01  -1.1919089269E+00
    91  2.6286704922E-01  5.5658166798E-01  -1.2332439940E+00
    92  -2.5116543046E-01  5.3308322477E-01  1.1919173661E+00
    93  6.7535170606E-01  -3.0612542746E+00  3.3902745323E-01
    94  -6.8107816842E-01  -3.0012366880E+00  -3.1959554971E-01
    95  -6.7533716575E-01  3.0611796033E+00  -3.3901629199E-01
    96  6.8107726448E-01  3.0012351284E+00  3.1959781261E-01
  Stress tensor (eV/A^3):
  6.5171760478E-02  -1.1047575551E-02  4.2317013172E-02
  -1.1047575551E-02  3.6334039716E-02  3.2767859013E-03
  4.2317013172E-02  3.2767859013E-03  5.8398744096E-02
