  Invoking FHI-aims ...
  | Number of atoms                   :  96
  ...scf iterations...
  | Total energy corrected        :   -8.387270714990E+01 eV
  ...
  Total atomic forces (unitary forces cleaned)
     1  -2.5112601282E-01  5.9541723969E-01  1.8211966891E-01
     2  2.1634689592E-01  5.6963042248E-01  -1.9168492952E-01
     3  2.5112606889E-01  -5.9541715092E-01  -1.8211962351E-01
     4  -2.1634675241E-01  -5.6963027930E-01  1.9168500816E-01
     5  -8.4193973996E-01  1.3893014518E+00  1.9073710206E-01
     6  8.5058176431E-01  1.5295322099E+00  -3.7587420839E-01
     7  8.4194011271E-01  -1.3893013126E+00  -1.9073670279E-01
     8  -8.5058187405E-01  -1.5295323481E+00  3.7587450811E-01
     9  -2.8959935030E-01  1.8537618271E-01  -1.4990629618E-01
    10  5.1733845816E-01  3.8978557068E-01  1.3242934541E-01
    11  2.8959891664E-01  -1.8537608863E-01  1.4990594801E-01
    12  -5.1733884423E-01  -3.8978570688E-01  -1.3242928864E-01
    13  -4.7037789741E-01  -9.6429641097E-01  -9.8904152557E-01
    14  2.5783016570E-01  -1.1762960895E+00  1.0265971819E+00
    15  4.7037731735E-01  9.6429654790E-01  9.8904125757E-01
    16  -2.5783023969E-01  1.1762963834E+00  -1.0265966659E+00
    17  6.0363792072E-01  -8.4446042726E-01  -7.5052996909E-02
    18  -5.5405573023E-01  -9.9796505175E-01  2.8787223145E-01
    19  -6.0363740717E-01  8.4446070531E-01  7.5053404432E-02
    20  5.5405559817E-01  9.9796506260E-01  -2.8787267533E-01
    21  3.7296824983E-01  -8.5849359421E-01  -2.0255722459E-01
    22  -3.6469217014E-01  -8.6637780192E-01  2.1905674711E-01
    23  -3.7296849400E-01  8.5849352908E-01  2.0255691991E-01
    24  3.6469214385E-01  8.6637790588E-01  -2.1905687949E-01
    25  7.1926155247E-01  3.2992134549E-02  5.7704567217E-01
    26  -7.8910089658E-01  1.7418815120E-01  -7.9534541798E-01
    27  -7.1926200220E-01  -3.2992535227E-02  -5.7704614154E-01
    28  7.8910161768E-01  -1.7418787351E-01  7.9534523988E-01
    29  4.9553581563E-01  6.2818954166E-01  8.1551425391E-01
    30  -4.8640497120E-01  6.4650126439E-01  -8.2152277391E-01
    31  -4.9553566989E-01  -6.2818957473E-01  -8.1551434078E-01
    32  4.8640451238E-01  -6.4650154475E-01  8.2152248224E-01
    33  1.0864944817E-01  7.6852961305E-01  6.4321222389E-01
    34  -1.1303576203E-01  7.7996315786E-01  -6.3852224961E-01
    35  -1.0864919467E-01  -7.6852978567E-01  -6.4321200195E-01
    36  1.1303596492E-01  -7.7996329474E-01  6.3852209100E-01
    37  -8.6925476902E-01  8.0078825052E-01  -1.2459474226E-01
    38  8.7016375985E-01  8.1613931371E-01  1.1358984999E-01
    39  8.6925474067E-01  -8.0078836321E-01  1.2459487905E-01
    40  -8.7016345898E-01  -8.1613942161E-01  -1.1358938344E-01
    41  -6.3043536749E-01  8.2898782678E-01  4.4136817471E-02
    42  6.3134005714E-01  8.2906557933E-01  -4.6245181447E-02
    43  6.3043538469E-01  -8.2898779788E-01  -4.4136682585E-02
    44  -6.3133992585E-01  -8.2906546905E-01  4.6245291456E-02
    45  -1.7639580380E+00  1.6121426498E-01  -1.1115867197E+00
    46  1.3274458311E+00  -6.5931533297E-01  1.2088663797E+00
    47  1.7639713457E+00  -1.6120932448E-01  1.1116036883E+00
    48  -1.3274488308E+00  6.5931100887E-01  -1.2088650790E+00
    49  -1.5503748816E+01  1.2369350056E+00  9.7622100746E+00
    50  2.6343962957E+01  2.0806009015E+01  -1.9832871495E+01
    51  1.5503487875E+01  -1.2368898241E+00  -9.7620703372E+00
    52  -2.6343821373E+01  -2.0805774692E+01  1.9832768438E+01
    53  7.7657824095E+00  5.9251814899E+00  -3.9759278287E+00
    54  -5.7338430883E+00  4.1952096452E+00  3.1499829414E+00
    55  -7.7656267966E+00  -5.9250864381E+00  3.9758372725E+00
    56  5.7338672819E+00  -4.1952292081E+00  -3.1499975151E+00
    57  1.6745104435E+00  -2.6285820534E-01  1.5066439404E+00
    58  -5.9554076308E-01  -9.5290048142E-02  -3.4370537611E-01
    59  -1.6744941949E+00  2.6285447656E-01  -1.5066280256E+00
    60  5.9553657278E-01  9.5288803382E-02  3.4370160776E-01
    61  4.8239886106E+00  -6.7578152993E+00  -3.6043036230E+00
    62  -1.8740319195E+01  -2.4660841329E+01  1.3301831557E+01
    63  -4.8238994201E+00  6.7576808319E+00  3.6042232761E+00
    64  1.8740158753E+01  2.4660627266E+01  -1.3301710132E+01
    65  -9.4313550709E-01  -7.9759877893E+00  -4.2849665568E+00
    66  2.1529961520E+00  -7.2293445215E+00  3.1315079020E+00
    67  9.4309650807E-01  7.9759085485E+00  4.2849178095E+00
    68  -2.1529999285E+00  7.2293476404E+00  -3.1314938277E+00
    69  2.1073474353E+00  3.9334093401E+00  6.7005693534E-02
    70  -2.2324178595E+00  4.0035618716E+00  -5.6790318570E-02
    71  -2.1073099381E+00  -3.9333436966E+00  -6.7010366577E-02
    72  2.2324196167E+00  -4.0035638774E+00  5.6787802480E-02
    73  -5.1808153091E-01  9.2248716326E-01  2.6956244346E+00
    74  1.4273416473E-01  7.6242767420E-01  -1.5102148993E+00
    75  5.1807135548E-01  -9.2247051416E-01  -2.6955733896E+00
    76  -1.4273053425E-01  -7.6242470744E-01  1.5102033562E+00
    77  1.2695306351E+00  -3.1283409508E-01  7.4653601644E-01
    78  -1.5277861364E+00  -3.9061800412E-01  -9.2584932342E-01
    79  -1.2695242468E+00  3.1283199722E-01  -7.4653324429E-01
    80  1.5277862035E+00  3.9061786242E-01  9.2584869685E-01
    81  -1.7334790080E+00  1.3568162364E+01  -6.0782026878E+00
    82  1.6952539024E+00  1.3634590060E+01  6.1168769853E+00
    83  1.7334055102E+00  -1.3567926443E+01  6.0781309450E+00
    84  -1.6952510877E+00  -1.3634595455E+01  -6.1168991232E+00
    85  1.6893879066E+00  8.3175217405E-02  8.6567380107E-01
    86  -1.7002205313E+00  9.4675319242E-02  -8.4833623981E-01
    87  -1.6893747013E+00  -8.3174400226E-02  -8.6566744260E-01
    88  1.7002205851E+00  -9.4675366847E-02  8.4833630051E-01
    89  -9.8863335911E-01  -1.2868040532E+00  4.8879962159E+00
    90  9.8420887795E-01  -1.2689786838E+00  -4.8743470461E+00
    91  9.8861872480E-01  1.2867870559E+00  -4.8879306180E+00
    92  -9.8421200392E-01  1.2689811174E+00  4.8743636857E+00
    93  3.2532043287E+00  -9.2806313124E+00  -6.7330085365E-01
    94  -3.2622406005E+00  -9.2514426862E+00  6.8615638557E-01
    95  -3.2531370806E+00  9.2804034262E+00  6.7329844275E-01
    96  3.2622406476E+00  9.2514467190E+00  -6.8615177308E-01
  Stress tensor (eV/A^3):
  2.2660316759E-02  -2.4755306701E-02  7.1198398471E-02
  -2.4755306701E-02  -4.9127208070E-02  1.4912886279E-02
  7.1198398471E-02  1.4912886279E-02  1.6487468727E-02
