  Invoking FHI-aims ...
  | Number of atoms                   :  96
  ...scf iterations...
  | Total energy corrected        :   -9.027039714534E+01 eV
  ...
  Total atomic forces (unitary forces cleaned)
     1  -2.6881991395E-01  6.0270179552E-01  1.9163049607E-01
     2  2.1005956772E-01  5.6622376939E-01  -1.9298254614E-01
     3  2.6882001152E-01  -6.0270170988E-01  -1.9163041815E-01
     4  -2.1005942852E-01  -5.6622354638E-01  1.9298260791E-01
     5  -7.9624520919E-01  1.6426899045E+00  2.9082003712E-01
     6  8.1163515441E-01  1.4146791935E+00  -4.2560861312E-01
     7  7.9624542699E-01  -1.6426897658E+00  -2.9081975070E-01
     8  -8.1163545031E-01  -1.4146793170E+00  4.2560891711E-01
     9  -3.4667775253E-01  2.3776309972E-01  -1.7905470447E-01
    10  8.8145686270E-01  6.5300996839E-01  1.5466514682E-01
    11  3.4667741644E-01  -2.3776273772E-01  1.7905443213E-01
    12  -8.8145723362E-01  -6.5301027907E-01  -1.5466479702E-01
    13  -5.0907107043E-01  -9.8850082343E-01  -1.0685059545E+00
    14  -1.8396358332E-02  -1.4300019466E+00  1.1243773630E+00
    15  5.0907049460E-01  9.8850091604E-01  1.0685056551E+00
    16  1.8396244308E-02  1.4300023594E+00  -1.1243766785E+00
    17  4.3766072141E-01  -5.9911877247E-01  -4.9563829445E-02
    18  -3.0203028967E-01  -7.9565578733E-01  5.0280407414E-01
    19  -4.3765985670E-01  5.9911876399E-01  4.9564377604E-02
    20  3.0202993823E-01  7.9565574053E-01  -5.0280448530E-01
    21  5.9352802613E-01  -1.1649564492E+00  -2.4089757002E-01
    22  -5.9662398965E-01  -1.2270459367E+00  2.8104109253E-01
    23  -5.9352855785E-01  1.1649568969E+00  2.4089702009E-01
    24  5.9662381399E-01  1.2270461573E+00  -2.8104138285E-01
    25  8.6025879747E-01  1.8588675524E-02  7.3371710842E-01
    26  -9.8607801915E-01  2.2790512420E-01  -1.1839572771E+00
    27  -8.6025883552E-01  -1.8589174378E-02  -7.3371737970E-01
    28  9.8607915152E-01  -2.2790495068E-01  1.1839569325E+00
    29  4.7291850296E-01  3.6692624631E-01  6.3051351760E-01
    30  -4.5744863012E-01  4.0029594535E-01  -6.4596439023E-01
    31  -4.7291840324E-01  -3.6692619401E-01  -6.3051348606E-01
    32  4.5744822590E-01  -4.0029603238E-01  6.4596401537E-01
    33  1.7506470950E-01  1.0268335036E+00  8.8782792671E-01
    34  -1.5564852968E-01  1.0611222559E+00  -8.5281280188E-01
    35  -1.7506474072E-01  -1.0268338803E+00  -8.8782773016E-01
    36  1.5564888697E-01  -1.0611226295E+00  8.5281264667E-01
    37  -7.1029992849E-01  5.4732236534E-01  -2.1014472927E-01
    38  7.2212550738E-01  5.7818286525E-01  1.9260203858E-01
    39  7.1029999524E-01  -5.4732260877E-01  2.1014473706E-01
    40  -7.2212548712E-01  -5.7818302453E-01  -1.9260163790E-01
    41  -8.3959102652E-01  1.1364942035E+00  7.7251534857E-02
    42  8.4257129137E-01  1.1460898792E+00  -7.3117803458E-02
    43  8.3959096926E-01  -1.1364941279E+00  -7.7251256248E-02
    44  -8.4257106300E-01  -1.1460896055E+00  7.3117996562E-02
    45  -1.8663988208E+00  1.4570451705E-01  -1.2422493745E+00
    46  3.9527664623E-01  -3.1673492450E+00  1.1711329467E+00
    47  1.8664031008E+00  -1.4570327681E-01  1.2422529098E+00
    48  -3.9527967130E-01  3.1673450228E+00  -1.1711333757E+00
    49  -2.7147330056E+00  1.3039949714E+00  2.8861395167E+00
    50  2.9592304123E+00  6.2317487288E+00  -6.7891491076E+00
    51  2.7146949142E+00  -1.3039684673E+00  -2.8861232660E+00
    52  -2.9592302229E+00  -6.2317487090E+00  6.7891518036E+00
    53  1.4493445546E-01  -2.5501633372E-01  -2.8909680437E-01
    54  -1.5672482669E-01  -6.4901929288E-01  3.0605474399E-01
    55  -1.4491274869E-01  2.5502377277E-01  2.8908389070E-01
    56  1.5672840684E-01  6.4901739305E-01  -3.0605656228E-01
    57  1.3264887139E+00  -2.2449780284E-01  1.2266691525E+00
    58  1.0553187231E+00  3.6444263644E-02  1.2815113636E+00
    59  -1.3264853971E+00  2.2449604824E-01  -1.2266652491E+00
    60  -1.0553214057E+00  -3.6444819529E-02  -1.2815123941E+00
    61  2.4878208932E-01  8.5800659744E-02  -2.1058184507E-01
    62  -2.8650642051E+00  -4.4968748246E+00  1.5662598709E+00
    63  -2.4876834782E-01  -8.5829685953E-02  2.1057188121E-01
    64  2.8650644635E+00  4.4968761684E+00  -1.5662583891E+00
    65  3.2107062374E-01  -2.4061148916E+00  -1.7880670064E-01
    66  2.2458176319E+00  1.5219576557E+00  -9.1958229062E-01
    67  -3.2108377461E-01  2.4061011890E+00  1.7879902678E-01
    68  -2.2458145562E+00  -1.5219554122E+00  9.1958416241E-01
    69  -7.2830230461E-01  -5.6155134504E-01  4.9311340452E-01
    70  6.9571981644E-01  -4.6013137406E-01  -4.8788337232E-01
    71  7.2830995941E-01  5.6156261565E-01  -4.9311475044E-01
    72  -6.9572035186E-01  4.6013228444E-01  4.8788378042E-01
    73  5.8666062347E-01  -2.6834365580E-01  -1.2144097790E+00
    74  -1.0140828959E+00  -1.1272633222E+00  2.6406488620E+00
    75  -5.8666269942E-01  2.6834655123E-01  1.2144190787E+00
    76  1.0140815606E+00  1.1272647136E+00  -2.6406503275E+00
    77  1.1956272963E+00  -3.2289522882E-01  8.0312422090E-01
    78  -1.7605173163E+00  -5.8729100282E-01  -1.2085366770E+00
    79  -1.1956236097E+00  3.2289346597E-01  -8.0312264876E-01
    80  1.7605177312E+00  5.8729103051E-01  1.2085357914E+00
    81  1.0231365471E+00  2.8047768564E+00  -1.6859980731E+00
    82  -1.0786211900E+00  2.8812323745E+00  1.7566660904E+00
    83  -1.0231416313E+00  -2.8047548871E+00  1.6859676111E+00
    84  1.0786230305E+00  -2.8812306186E+00  -1.7566730398E+00
    85  1.4441725498E+00  2.2608079326E-02  7.4058150422E-01
    86  -1.4720459022E+00  3.1171476992E-02  -7.0644337150E-01
    87  -1.4441680872E+00  -2.2607715891E-02  -7.4057941451E-01
    88  1.4720457457E+00  -3.1171533569E-02  7.0644330187E-01
    89  1.6482425188E-01  -3.8689965072E-01  -7.7364345357E-01
    90  -1.7687614443E-01  -3.6825422799E-01  8.1537135053E-01
    91  -1.6482903410E-01  3.8689808163E-01  7.7366453704E-01
    92  1.7687457754E-01  3.6825460328E-01  -8.1536576366E-01
    93  -1.3979162368E-01  -2.7981010930E-02  2.2730565903E-01
    94  1.3124273592E-01  2.3391189051E-02  -2.0510589725E-01
    95  1.3979629449E-01  2.7956724841E-02  -2.2730146961E-01
    96  -1.3124307019E-01  -2.3392433066E-02  2.0510648448E-01
  Stress tensor (eV/A^3):
  8.1653484294E-02  -7.3562065355E-03  2.7767901374E-02
  -7.3562065355E-03  7.1482275864E-02  -2.5470513139E-04
  2.7767901374E-02  -2.5470513139E-04  8.2441517263E-02
