  Invoking FHI-aims ...
  | Number of atoms                   :  96
  ...scf iterations...
  | Total energy corrected        :   -7.849587935248E+01 eV
  ...
  Total atomic forces (unitary forces cleaned)
     1  -2.6490425678E-01  5.8456634954E-01  1.8521756424E-01
     2  2.2932834235E-01  5.7504251852E-01  -1.8338612604E-01
     3  2.6490417999E-01  -5.8456629043E-01  -1.8521756792E-01
     4  -2.2932825930E-01  -5.7504254715E-01  1.8338624782E-01
     5  -8.9004920535E-01  1.2431028674E+00  1.3871444996E-01
     6  8.9051479182E-01  1.2535266636E+00  -1.4621392748E-01
     7  8.9004997468E-01  -1.2431026788E+00  -1.3871378841E-01
     8  -8.9051457122E-01  -1.2535268519E+00  1.4621409504E-01
     9  -2.6150904939E-01  1.3722018838E-01  -1.2508559182E-01
    10  2.7963964653E-01  1.5138614483E-01  1.2436028891E-01
    11  2.6150836791E-01  -1.3722065930E-01  1.2508516855E-01
    12  -2.7963981752E-01  -1.5138575144E-01  -1.2436059859E-01
    13  -4.3004004710E-01  -9.7548349638E-01  -8.8235203806E-01
    14  4.1655828450E-01  -9.9140091375E-01  8.8790654716E-01
    15  4.3003942032E-01  9.7548379000E-01  8.8235182163E-01
    16  -4.1655854698E-01  9.9140082503E-01  -8.8790657797E-01
    17  8.7893573054E-01  -1.1646512691E+00  -9.4982892189E-02
    18  -8.8104222972E-01  -1.1846550814E+00  1.1107032808E-01
    19  -8.7893538285E-01  1.1646515629E+00  9.4983333508E-02
    20  8.8104244369E-01  1.1846552750E+00  -1.1107063957E-01
    21  1.0381283204E-01  -4.4227799376E-01  -8.9592384588E-02
    22  -9.9697422569E-02  -4.3798496722E-01  9.0431331953E-02
    23  -1.0381291797E-01  4.4227797459E-01  8.9592392006E-02
    24  9.9697383123E-02  4.3798490236E-01  -9.0431481766E-02
    25  6.8561062206E-01  8.0797495507E-02  4.4243937564E-01
    26  -6.9104509212E-01  9.3907899476E-02  -4.5852034890E-01
    27  -6.8561084421E-01  -8.0798021411E-02  -4.4243968781E-01
    28  6.9104520812E-01  -9.3907479014E-02  4.5852029398E-01
    29  5.0640258959E-01  9.8528106262E-01  1.0235955375E+00
    30  -4.9969394713E-01  9.8455559186E-01  -1.0333171046E+00
    31  -5.0640231904E-01  -9.8528064752E-01  -1.0235957388E+00
    32  4.9969320253E-01  -9.8455595264E-01  1.0333169198E+00
    33  -4.4233617995E-02  4.1015136074E-01  2.7183759969E-01
    34  5.0196339317E-02  4.1745958918E-01  -2.7671619523E-01
    35  4.4233703244E-02  -4.1015150038E-01  -2.7183777297E-01
    36  -5.0196405910E-02  -4.1745962040E-01  2.7671617250E-01
    37  -1.1331480633E+00  1.1101499844E+00  -1.3440033778E-02
    38  1.1329977665E+00  1.1122331608E+00  1.1985348044E-02
    39  1.1331478714E+00  -1.1101497951E+00  1.3440266727E-02
    40  -1.1329971440E+00  -1.1122333016E+00  -1.1984970709E-02
    41  -3.5718198454E-01  4.2348762882E-01  7.8951240975E-03
    42  3.5688775156E-01  4.2311930576E-01  -8.0861687072E-03
    43  3.5718218312E-01  -4.2348776051E-01  -7.8951735040E-03
    44  -3.5688781283E-01  -4.2311946654E-01  8.0861899412E-03
    45  -8.5861311970E-01  2.1011996637E-02  -5.5970859216E-01
    46  8.5322627560E-01  5.8799856569E-03  5.5480589501E-01
    47  8.5861112871E-01  -2.1012482497E-02  5.5970707377E-01
    48  -8.5322602795E-01  -5.8799880288E-03  -5.5480613870E-01
    49  -4.8570387343E-01  -1.2014527333E+00  2.3721485425E+00
    50  8.6271441064E-01  -5.2301243381E-01  -3.6771873053E+00
    51  4.8570190250E-01  1.2014496329E+00  -2.3721462656E+00
    52  -8.6271401239E-01  5.2301234637E-01  3.6771872861E+00
    53  4.7131420957E-02  5.1762673824E-02  -1.6746235843E-01
    54  -6.1765896117E-03  -3.0790265488E-02  1.8524422592E-01
    55  -4.7130672730E-02  -5.1760877308E-02  1.6746275053E-01
    56  6.1765435611E-03  3.0790307278E-02  -1.8524428619E-01
    57  -1.2764500028E-01  4.2093093792E-02  -2.0928842666E-01
    58  8.1340722761E-01  1.2166674331E-01  7.3116947334E-01
    59  1.2764482372E-01  -4.2093140781E-02  2.0928844153E-01
    60  -8.1340730359E-01  -1.2166691488E-01  -7.3116965473E-01
    61  -1.8596165029E-02  1.1472701911E-01  -9.7627736642E-02
    62  -1.0596837185E+00  -5.4988236182E-01  8.5064334442E-01
    63  1.8597244432E-02  -1.1472764443E-01  9.7627096474E-02
    64  1.0596832780E+00  5.4988209945E-01  -8.5064271615E-01
    65  2.0246075539E+00  -1.3075426457E+00  -1.1195459772E+00
    66  -2.1673874617E+00  -1.0274704489E+00  1.8404759526E+00
    67  -2.0246061389E+00  1.3075412200E+00  1.1195441429E+00
    68  2.1673863931E+00  1.0274723292E+00  -1.8404739758E+00
    69  2.5989393436E-02  -6.5843525812E-02  1.4077003642E-01
    70  -1.4529534961E-02  -1.0097946133E-01  -1.3840137824E-01
    71  -2.5989059516E-02  6.5844247056E-02  -1.4076982550E-01
    72  1.4529542208E-02  1.0097881547E-01  1.3840147352E-01
    73  -4.0886444839E-02  1.6360118871E-01  -4.1483169573E-02
    74  2.0610714175E-01  -8.7272066629E-02  -6.4978597559E-01
    75  4.0886485347E-02  -1.6360112597E-01  4.1483416370E-02
    76  -2.0610669756E-01  8.7271287257E-02  6.4978434358E-01
    77  -1.9326195683E-01  1.5119730263E-02  -4.6810755009E-02
    78  1.6009975831E-01  2.7378196372E-02  3.9753664845E-02
    79  1.9326168989E-01  -1.5119681580E-02  4.6810548088E-02
    80  -1.6009958460E-01  -2.7378268629E-02  -3.9753564570E-02
    81  1.0325574478E+00  2.4589122094E+00  5.7230327953E-01
    82  -1.0328718259E+00  2.4616941523E+00  -5.7164575892E-01
    83  -1.0325587396E+00  -2.4589079613E+00  -5.7229978310E-01
    84  1.0328722192E+00  -2.4616940498E+00  5.7164544110E-01
    85  -1.1567183169E-01  -6.3178507628E-02  -5.6302579321E-02
    86  1.1854423789E-01  -5.5881022479E-02  6.4057607626E-02
    87  1.1567215398E-01  6.3178394548E-02  5.6302899092E-02
    88  -1.1854451520E-01  5.5880999439E-02  -6.4057688981E-02
    89  -2.9573222951E-03  -1.1387789980E-01  -1.1061727854E-01
    90  2.8972671281E-03  -1.1297647085E-01  1.1027910074E-01
    91  2.9575729517E-03  1.1387846133E-01  1.1061616927E-01
    92  -2.8971508668E-03  1.1297652655E-01  -1.1027922697E-01
    93  2.6332623506E-02  -9.2585606351E-02  8.5287526670E-02
    94  -2.6399742810E-02  -9.1345204926E-02  -8.4612973021E-02
    95  -2.6330939162E-02  9.2583742535E-02  -8.5288974932E-02
    96  2.6399996373E-02  9.1345295704E-02  8.4613046442E-02
  Stress tensor (eV/A^3):
  5.7371327879E-02  -1.3558378903E-03  1.9703001559E-02
  -1.3558378903E-03  6.0440647068E-02  9.8312558939E-05
  1.9703001559E-02  9.8312558939E-05  4.5049320511E-02
