  Invoking FHI-aims ...
  | Number of atoms                   :  96
  ...scf iterations...
  | Total energy corrected        :   -7.582750825005E+01 eV
  ...
  Total atomic forces (unitary forces cleaned)
     1  -2.4041260782E-01  5.8336610890E-01  1.8679078372E-01
     2  2.3436656481E-01  5.7576428371E-01  -1.9085366792E-01
     3  2.4041255788E-01  -5.8336604492E-01  -1.8679077893E-01
     4  -2.3436647046E-01  -5.7576428145E-01  1.9085378150E-01
     5  -8.8689392272E-01  1.1170744384E+00  7.2418807154E-02
     6  8.7272895243E-01  1.0257554716E+00  3.7348027472E-02
     7  8.8689455071E-01  -1.1170742712E+00  -7.2418247354E-02
     8  -8.7272880919E-01  -1.0257556482E+00  -3.7347843623E-02
     9  -2.1050565918E-01  1.3679048176E-01  -9.5496468300E-02
    10  9.3376360943E-02  2.5415393744E-02  1.0720732977E-01
    11  2.1050508468E-01  -1.3679078651E-01  9.5496132439E-02
    12  -9.3376589790E-02  -2.5415118665E-02  -1.0720756951E-01
    13  -3.8703488008E-01  -9.2662416288E-01  -8.4803111021E-01
    14  5.0622534909E-01  -8.1301166379E-01  8.3583934480E-01
    15  3.8703433256E-01  9.2662440322E-01  8.4803091219E-01
    16  -5.0622551297E-01  8.1301163990E-01  -8.3583924040E-01
    17  1.7545365873E+00  -2.3683595554E+00  -2.1640035723E-01
    18  -1.8021429380E+00  -2.2684026282E+00  9.3154869590E-02
    19  -1.7545365580E+00  2.3683602229E+00  2.1640077735E-01
    20  1.8021436340E+00  2.2684039010E+00  -9.3155358466E-02
    21  -8.3460831466E-01  7.9178808283E-01  5.3614319791E-03
    22  8.4089617036E-01  8.1104689778E-01  -1.4956257206E-02
    23  8.3460850131E-01  -7.9178853447E-01  -5.3615734017E-03
    24  -8.4089667541E-01  -8.1104806082E-01  1.4956312502E-02
    25  5.5118200841E-01  6.2094285987E-02  3.6473351913E-01
    26  -5.1186607825E-01  -5.0439997398E-02  -2.4086161005E-01
    27  -5.5118234926E-01  -6.2094681030E-02  -3.6473383191E-01
    28  5.1186623445E-01  5.0440349957E-02  2.4086150489E-01
    29  7.3054202844E-01  2.0872041457E+00  1.9459884776E+00
    30  -7.3096090368E-01  2.0834245386E+00  -1.9431047522E+00
    31  -7.3054152630E-01  -2.0872026312E+00  -1.9459876106E+00
    32  7.3096046737E-01  -2.0834250748E+00  1.9431046632E+00
    33  -3.2171376468E-01  -7.2135703713E-01  -6.6808465477E-01
    34  3.2173251282E-01  -7.2219238119E-01  6.6826002902E-01
    35  3.2171358359E-01  7.2135569562E-01  6.6808351135E-01
    36  -3.2173270303E-01  7.2219256176E-01  -6.6826012535E-01
    37  -1.9756417806E+00  2.2681940243E+00  1.4318277382E-01
    38  1.9735268395E+00  2.2646643128E+00  -1.4164715933E-01
    39  1.9756407188E+00  -2.2681924750E+00  -1.4318244906E-01
    40  -1.9735252545E+00  -2.2646631335E+00  1.4164742244E-01
    41  5.7072118894E-01  -7.5557044118E-01  -1.2582867258E-01
    42  -5.7205309642E-01  -7.5636225041E-01  1.2685554092E-01
    43  -5.7072010756E-01  7.5556888633E-01  1.2582852070E-01
    44  5.7205202008E-01  7.5636086878E-01  -1.2685541578E-01
    45  -1.1550182576E+00  3.8107604553E-02  -7.2918701599E-01
    46  1.0495583576E+00  -5.3789740623E-02  6.5896328306E-01
    47  1.1550144038E+00  -3.8108012657E-02  7.2918446271E-01
    48  -1.0495580597E+00  5.3790027150E-02  -6.5896365244E-01
    49  -5.7263495013E+00  -3.3169289883E+00  5.9136532246E+00
    50  5.5186901178E+00  -2.9614242841E+00  -5.3031280622E+00
    51  5.7263109050E+00  3.3169135122E+00  -5.9136357409E+00
    52  -5.5186951359E+00  2.9614273804E+00  5.3031249310E+00
    53  2.5579065317E+00  5.1309815996E+00  1.9902205540E-01
    54  -2.2773515019E+00  4.8016361910E+00  -2.1868289770E-01
    55  -2.5578891778E+00  -5.1309515670E+00  -1.9901857464E-01
    56  2.2773530341E+00  -4.8016397138E+00  2.1868192333E-01
    57  -1.3467088644E+00  1.2837991280E-01  -1.1075708853E+00
    58  9.4757901838E-01  1.0790742390E-01  8.2038155019E-01
    59  1.3467077425E+00  -1.2837935316E-01  1.1075702939E+00
    60  -9.4757495467E-01  -1.0790718980E-01  -8.2037836948E-01
    61  3.7792818963E+00  -2.9246548633E+00  -2.6421809827E+00
    62  -3.4800760049E+00  -2.8892918540E+00  2.4963511646E+00
    63  -3.7792604705E+00  2.9246372997E+00  2.6421648053E+00
    64  3.4800753293E+00  2.8892915121E+00  -2.4963498167E+00
    65  2.9149028314E+00  -4.8762868806E+00  -4.9139712512E+00
    66  -2.5708498352E+00  -4.5996901553E+00  4.5851314916E+00
    67  -2.9149024826E+00  4.8762704603E+00  4.9139544569E+00
    68  2.5708451907E+00  4.5996972284E+00  -4.5851241161E+00
    69  1.4171274550E+00  4.2163529556E+00  7.1717256065E-01
    70  -1.4498931908E+00  4.2350102092E+00  -6.7435654290E-01
    71  -1.4171216404E+00  -4.2163358290E+00  -7.1716968080E-01
    72  1.4498947507E+00  -4.2350138619E+00  6.7435552880E-01
    73  -8.9883646495E-01  -9.7393834777E-01  3.9165727355E+00
    74  8.5064426188E-01  -1.0917460314E+00  -3.6228575912E+00
    75  8.9883572403E-01  9.7393516653E-01  -3.9165599631E+00
    76  -8.5064254350E-01  1.0917429674E+00  3.6228512105E+00
    77  -1.3769931929E+00  -8.3576577815E-03  -9.0322901866E-01
    78  1.2442369199E+00  -9.8025557823E-02  8.1651642357E-01
    79  1.3769907044E+00  8.3576771766E-03  9.0322773791E-01
    80  -1.2442363363E+00  9.8025372937E-02  -8.1651586793E-01
    81  -1.9976006043E-01  8.3898355708E+00  -4.2752532266E-01
    82  2.0212266321E-01  8.3741687145E+00  4.2513255075E-01
    83  1.9973999857E-01  -8.3897978169E+00  4.2753382510E-01
    84  -2.0212415452E-01  -8.3741710534E+00  -4.2513667357E-01
    85  -1.3939016018E+00  1.2548812136E-03  -7.6493130652E-01
    86  1.3987524592E+00  -8.2874525978E-03  7.6179313996E-01
    87  1.3939011614E+00  -1.2550152844E-03  7.6493140802E-01
    88  -1.3987512599E+00  8.2873436088E-03  -7.6179236236E-01
    89  -5.4567353283E-01  -2.2674017144E+00  4.1406741378E+00
    90  5.4584573803E-01  -2.2734251791E+00  -4.1442192701E+00
    91  5.4567274189E-01  2.2673943391E+00  -4.1406631843E+00
    92  -5.4584617901E-01  2.2734253106E+00  4.1442214371E+00
    93  3.3510982277E+00  -3.5253952319E+00  -2.5998122121E+00
    94  -3.3512179013E+00  -3.5339015859E+00  2.5978607941E+00
    95  -3.3510747614E+00  3.5253700474E+00  2.5997936405E+00
    96  3.3512191564E+00  3.5339040933E+00  -2.5978601307E+00
  Stress tensor (eV/A^3):
  1.2142806936E-02  -3.3436002165E-04  2.8786933303E-02
  -3.3436002165E-04  -1.4281317800E-02  1.9958963765E-04
  2.8786933303E-02  1.9958963765E-04  -6.4096679859E-03
