  Invoking FHI-aims ...
  | Number of atoms                   :  96
  ...scf iterations...
  | Total energy corrected        :   -8.695084164169E+01 eV
  ...
  Total atomic forces (unitary forces cleaned)
     1  -3.2251554311E-01  6.4033707136E-01  2.0492784626E-01
     2  2.3573435776E-01  5.9438605420E-01  -1.9705741958E-01
     3  3.2251565160E-01  -6.4033696932E-01  -2.0492775707E-01
     4  -2.3573424523E-01  -5.9438573813E-01  1.9705744957E-01
     5  -6.8558357877E-01  9.5704877040E-01  -2.4809686552E-01
     6  1.1248455147E+00  -1.6878705553E+00  2.6268684034E+00
     7  6.8558361469E-01  -9.5704862887E-01  2.4809700587E-01
     8  -1.1248461682E+00  1.6878704768E+00  -2.6268682110E+00
     9  -4.3447859135E-01  3.5714720420E-01  -2.0342049359E-01
    10  -1.2805462122E+00  -1.6425207032E+00  1.9026933439E-01
    11  4.3447837805E-01  -3.5714648071E-01  2.0342040711E-01
    12  1.2805479824E+00  1.6425223344E+00  -1.9026924790E-01
    13  -5.4449628036E-01  -1.0345063039E+00  -1.1688102320E+00
    14  2.1882069267E+00  8.3423896257E-01  1.2363308576E+00
    15  5.4449569804E-01  1.0345063555E+00  1.1688098776E+00
    16  -2.1882093591E+00  -8.3424058270E-01  -1.2363294301E+00
    17  6.2980865851E-01  -8.8620716633E-01  -6.6306523827E-02
    18  -1.4637661281E+00  3.2834473491E-01  -1.4960174635E+00
    19  -6.2980771932E-01  8.8620745863E-01  6.6307224175E-02
    20  1.4637674009E+00  -3.2834553776E-01  1.4960175698E+00
    21  5.2203550968E-01  -9.9311861771E-01  -2.0688480940E-01
    22  -4.3482242768E-01  -9.7611226234E-01  3.1441279331E-01
    23  -5.2203543154E-01  9.9311898284E-01  2.0688436850E-01
    24  4.3482196171E-01  9.7611221965E-01  -3.1441296029E-01
    25  1.0101051403E+00  2.1190353069E-02  9.1655013593E-01
    26  -3.5463123978E-01  -1.4101716273E+00  6.2536033385E-01
    27  -1.0101047501E+00  -2.1191129819E-02  -9.1655030166E-01
    28  3.5463126050E-01  1.4101727435E+00  -6.2536150148E-01
    29  5.8380875700E-01  5.1657937753E-01  8.7255771146E-01
    30  -5.0076011336E-01  6.3122691522E-01  -8.8587606504E-01
    31  -5.8380883447E-01  -5.1657933262E-01  -8.7255759099E-01
    32  5.0076002514E-01  -6.3122713865E-01  8.8587576572E-01
    33  1.0599531411E-01  8.4916271742E-01  7.4704834695E-01
    34  8.7960949754E-03  9.5598777812E-01  -6.6084706824E-01
    35  -1.0599531221E-01  -8.4916313866E-01  -7.4704800272E-01
    36  -8.7957895778E-03  -9.5598807034E-01  6.6084695763E-01
    37  -9.2399232384E-01  7.6157755852E-01  -2.6959506649E-01
    38  9.2460675317E-01  8.8051799427E-01  1.8617899683E-01
    39  9.2399231735E-01  -7.6157770540E-01  2.6959497230E-01
    40  -9.2460682223E-01  -8.8051793464E-01  -1.8617862692E-01
    41  -6.9921788394E-01  9.7380173668E-01  4.7555752326E-02
    42  7.3314692656E-01  1.0208489826E+00  -5.3187775102E-02
    43  6.9921790422E-01  -9.7380186349E-01  -4.7555448120E-02
    44  -7.3314681099E-01  -1.0208488204E+00  5.3188008569E-02
    45  -1.3364886788E+00  1.4080100463E-01  -9.2618504893E-01
    46  2.4406116150E-01  -3.5391172999E+00  -7.8925705780E-02
    47  1.3364850485E+00  -1.4080045907E-01  9.2618390034E-01
    48  -2.4406151027E-01  3.5391165355E+00  7.8926540328E-02
    49  -1.3609241966E-01  6.8075288902E-01  1.6497079915E+00
    50  -6.0287922287E-01  6.2581942399E+00  -3.4719981876E+00
    51  1.3609436117E-01  -6.8075133483E-01  -1.6497083494E+00
    52  6.0288017763E-01  -6.2581927697E+00  3.4719937452E+00
    53  -1.1127510434E+00  -5.4848265466E-01  4.9026074095E-01
    54  4.6437129087E-01  -5.7626525982E-01  -2.5483270361E-01
    55  1.1127485472E+00  5.4848428711E-01  -4.9025872679E-01
    56  -4.6436951285E-01  5.7626437736E-01  2.5483218144E-01
    57  7.8162218896E-01  -1.8415264107E-01  5.7334470207E-01
    58  1.9063179174E+00  -1.6374556193E-01  1.5859735565E+00
    59  -7.8162197487E-01  1.8415146824E-01  -5.7334379397E-01
    60  -1.9063186075E+00  1.6374497887E-01  -1.5859710946E+00
    61  -7.0609127210E-02  1.1985885215E+00  -4.6379348046E-02
    62  -1.3977327088E+00  -4.2338741344E+00  -2.1297246505E-01
    63  7.0611274195E-02  -1.1985870202E+00  4.6377739229E-02
    64  1.3977322503E+00  4.2338740548E+00  2.1297449989E-01
    65  5.0731193823E-01  -1.7235484806E+00  3.6619205845E-01
    66  2.2771963830E+00  3.4437438057E+00  -7.2992841857E-01
    67  -5.0731327734E-01  1.7235480037E+00  -3.6618992746E-01
    68  -2.2771957516E+00  -3.4437448004E+00  7.2992880782E-01
    69  -9.6588739405E-01  -4.2612899269E-01  5.0280291306E-01
    70  8.3579183988E-01  -2.2911426682E-01  -3.5547866553E-01
    71  9.6588545845E-01  4.2612967429E-01  -5.0280134577E-01
    72  -8.3579172239E-01  2.2911425729E-01  3.5547938100E-01
    73  4.0686124798E-01  -3.8723755204E-01  -1.0417672576E+00
    74  -6.8745177758E-01  -1.9469444749E+00  2.4569338425E+00
    75  -4.0686176150E-01  3.8723388022E-01  1.0417665017E+00
    76  6.8744992808E-01  1.9469449567E+00  -2.4569339013E+00
    77  7.4980638367E-01  -9.0281010814E-02  5.7569482621E-01
    78  -1.7703511199E+00  -6.6450190795E-01  -1.3988416803E+00
    79  -7.4980534626E-01  9.0280486793E-02  -5.7569486561E-01
    80  1.7703518556E+00  6.6450214545E-01  1.3988406916E+00
    81  1.4404462746E+00  7.3319111688E-01  -7.4567568603E-01
    82  -1.5929189559E+00  8.4684360748E-01  8.5719969158E-01
    83  -1.4404443168E+00  -7.3319297192E-01  7.4567460380E-01
    84  1.5929185373E+00  -8.4684287328E-01  -8.5720003284E-01
    85  7.6537574186E-01  -8.7586001365E-02  5.3525370488E-01
    86  -8.1067032867E-01  -5.8378349261E-02  -5.0874837926E-01
    87  -7.6537465951E-01  8.7586526258E-02  -5.3525304227E-01
    88  8.1067012528E-01  5.8378235890E-02  5.0874847521E-01
    89  1.2886799068E-01  -5.7565385151E-01  -1.0407750396E+00
    90  -1.5284313003E-01  -5.2448264311E-01  1.1128880377E+00
    91  -1.2886794431E-01  5.7565201708E-01  1.0407736637E+00
    92  1.5284255263E-01  5.2448314513E-01  -1.1128877902E+00
    93  -3.5000892992E-01  1.1263815982E+00  -1.1530323946E-01
    94  3.1362680517E-01  1.2219123907E+00  1.7864039062E-01
    95  3.5000991344E-01  -1.1263788152E+00  1.1530082801E-01
    96  -3.1362655426E-01  -1.2219125521E+00  -1.7864057838E-01
  Stress tensor (eV/A^3):
  7.9710282661E-02  -5.7630325092E-03  2.1254646117E-02
  -5.7630325092E-03  7.2098688270E-02  1.1302882658E-04
  2.1254646117E-02  1.1302882658E-04  7.9421272941E-02
