  Invoking FHI-aims ...
  | Number of atoms                   :  96
  ...scf iterations...
  | Total energy corrected        :   -8.398502652190E+01 eV
  ...
  Total atomic forces (unitary forces cleaned)
     1  -2.4755289418E-01  6.0324083270E-01  1.8436942273E-01
     2  2.0549143627E-01  5.6802375012E-01  -1.9324871760E-01
     3  2.4755302669E-01  -6.0324074250E-01  -1.8436934058E-01
     4  -2.0549130743E-01  -5.6802349570E-01  1.9324877210E-01
     5  -8.0283285602E-01  1.5090714493E+00  2.4259722127E-01
     6  8.0965339104E-01  1.5964612554E+00  -4.4647016528E-01
     7  8.0283295644E-01  -1.5090713129E+00  -2.4259703247E-01
     8  -8.0965377587E-01  -1.5964613688E+00  4.4647046658E-01
     9  -3.0148327567E-01  2.1316778518E-01  -1.6579507829E-01
    10  5.8809918834E-01  4.7288728386E-01  1.4922519573E-01
    11  3.0148302743E-01  -2.1316728203E-01  1.6579488095E-01
    12  -5.8809964806E-01  -4.7288776908E-01  -1.4922481494E-01
    13  -4.7683083280E-01  -9.4732678575E-01  -1.0278933509E+00
    14  2.0163753552E-01  -1.2184151898E+00  1.0658098414E+00
    15  4.7683030399E-01  9.4732681635E-01  1.0278930559E+00
    16  -2.0163760622E-01  1.2184157306E+00  -1.0658090615E+00
    17  5.3450320708E-01  -7.5575372402E-01  -6.9075904321E-02
    18  -4.5858122339E-01  -9.2099724045E-01  3.4553633679E-01
    19  -5.3450245854E-01  7.5575392980E-01  6.9076424565E-02
    20  4.5858090636E-01  9.2099727400E-01  -3.4553684675E-01
    21  4.5516606613E-01  -9.6351549466E-01  -2.2081668994E-01
    22  -4.5754940632E-01  -9.8162555258E-01  2.3995058960E-01
    23  -4.5516632115E-01  9.6351585046E-01  2.2081612710E-01
    24  4.5754917691E-01  9.8162571111E-01  -2.3995087757E-01
    25  7.4952014881E-01  -7.5392792615E-04  6.6005596386E-01
    26  -8.3717545888E-01  1.6487108694E-01  -9.4400245175E-01
    27  -7.4952001855E-01  7.5347443722E-04  -6.6005610425E-01
    28  8.3717654246E-01  -1.6487103970E-01  9.4400215050E-01
    29  4.7067777000E-01  5.0829049891E-01  7.4057451949E-01
    30  -4.6152776163E-01  5.2551830787E-01  -7.4638758430E-01
    31  -4.7067776282E-01  -5.0829051620E-01  -7.4057444639E-01
    32  4.6152757823E-01  -5.2551841483E-01  7.4638728548E-01
    33  1.1438122867E-01  8.5710217386E-01  7.0381490820E-01
    34  -9.6581620496E-02  8.7164537447E-01  -6.8448333770E-01
    35  -1.1438130266E-01  -8.5710257218E-01  -7.0381462989E-01
    36  9.6581937612E-02  -8.7164565237E-01  6.8448317306E-01
    37  -7.7994348749E-01  7.2569781105E-01  -1.6020211300E-01
    38  7.8356358186E-01  7.4206885842E-01  1.4975515494E-01
    39  7.7994353370E-01  -7.2569800965E-01  1.6020215189E-01
    40  -7.8356355668E-01  -7.4206885506E-01  -1.4975480848E-01
    41  -6.8777962321E-01  9.5232541076E-01  5.1857585861E-02
    42  6.8965589059E-01  9.5302155673E-01  -5.4301444047E-02
    43  6.8777961112E-01  -9.5232545007E-01  -5.1857313649E-02
    44  -6.8965575268E-01  -9.5302138429E-01  5.4301627675E-02
    45  -1.6662261589E+00  1.6926647585E-01  -1.1115544258E+00
    46  1.7617857468E+00  2.2018375447E-01  1.0407557004E+00
    47  1.6662209889E+00  -1.6926580711E-01  1.1115520096E+00
    48  -1.7617866070E+00  -2.2018447819E-01  -1.0407552387E+00
    49  -1.2592462703E+00  1.1175339755E+00  2.4598482454E+00
    50  1.6787251894E+00  7.9912405804E+00  -5.1409174167E+00
    51  1.2592304361E+00  -1.1175163145E+00  -2.4598385061E+00
    52  -1.6787235553E+00  -7.9912371897E+00  5.1409167548E+00
    53  -3.2222283368E-01  -3.1380709730E-01  2.0219466581E-02
    54  1.2374304842E-01  -3.3730090649E-01  9.6410772764E-02
    55  3.2223258612E-01  3.1381152401E-01  -2.0224640504E-02
    56  -1.2374046280E-01  3.3729963853E-01  -9.6411940725E-02
    57  8.5328875851E-01  -1.6598456321E-01  7.0439032413E-01
    58  1.1689836543E+00  1.3588460050E-01  1.1813765559E+00
    59  -8.5328716422E-01  1.6598329907E-01  -7.0438818668E-01
    60  -1.1689857131E+00  -1.3588511219E-01  -1.1813769070E+00
    61  4.2880224988E-02  4.3498445518E-01  -4.6973529269E-02
    62  -2.3063254573E+00  -6.6153822854E+00  7.8390066262E-01
    63  -4.2874928347E-02  -4.3500049704E-01  4.6970597280E-02
    64  2.3063247651E+00  6.6153802727E+00  -7.8389851193E-01
    65  6.0389909782E-01  -2.3518041123E+00  1.6845556571E-01
    66  1.8687332943E-01  -1.5570926530E+00  -1.1923154803E+00
    67  -6.0390453308E-01  2.3517952999E+00  -1.6845677749E-01
    68  -1.8687206662E-01  1.5570918239E+00  1.1923165261E+00
    69  -6.7940929553E-01  -4.1235478780E-01  4.1258502194E-01
    70  7.4714781350E-01  -4.5602663632E-01  -4.3181832374E-01
    71  6.7941168658E-01  4.1235851574E-01  -4.1258537624E-01
    72  -7.4714811693E-01  4.5602701728E-01  4.3181892973E-01
    73  4.4301469432E-01  -2.6326817759E-01  -8.7473964283E-01
    74  -8.4505551731E-01  -1.0901703146E+00  2.2378961887E+00
    75  -4.4301552530E-01  2.6326803719E-01  8.7474302305E-01
    76  8.4505412281E-01  1.0901710609E+00  -2.2378969119E+00
    77  7.4145144432E-01  -1.7137723351E-01  5.2215098541E-01
    78  -1.2487103483E+00  -3.1944836110E-01  -9.0703859323E-01
    79  -7.4144896602E-01  1.7137616835E-01  -5.2214982609E-01
    80  1.2487104362E+00  3.1944829589E-01  9.0703773429E-01
    81  1.5550298158E+00  1.8446366497E+00  -1.2568899573E+00
    82  -1.5756501608E+00  1.8716237091E+00  1.2816152458E+00
    83  -1.5550273430E+00  -1.8446272504E+00  1.2568741523E+00
    84  1.5756511584E+00  -1.8716210012E+00  -1.2816190975E+00
    85  8.4708908472E-01  -4.0607775282E-02  4.9183065336E-01
    86  -8.5456076970E-01  -4.1021467663E-02  -4.7724561092E-01
    87  -8.4708625095E-01  4.0608045200E-02  -4.9182918667E-01
    88  8.5456058451E-01  4.1021356251E-02  4.7724563050E-01
    89  1.1702478401E-01  -3.7057989275E-01  -7.3203535254E-01
    90  -1.2813593437E-01  -3.5905364530E-01  7.4908032289E-01
    91  -1.1702662722E-01  3.7058034741E-01  7.3204366948E-01
    92  1.2813497165E-01  3.5905347681E-01  -7.4907722608E-01
    93  -1.9315185127E-01  3.9941027949E-01  8.3726008389E-02
    94  1.8770673714E-01  4.1289777349E-01  -6.5672095889E-02
    95  1.9315420292E-01  -3.9942009294E-01  -8.3724942863E-02
    96  -1.8770699991E-01  -4.1289922167E-01  6.5672215935E-02
  Stress tensor (eV/A^3):
  7.5196274592E-02  -4.1176460938E-03  2.3102935389E-02
  -4.1176460938E-03  7.0068143368E-02  -1.2883502307E-03
  2.3102935389E-02  -1.2883502307E-03  7.6131199608E-02
