  Invoking FHI-aims ...
  | Number of atoms                   :  96
  ...scf iterations...
  | Total energy corrected        :   -9.279341630541E+01 eV
  ...
  Total atomic forces (unitary forces cleaned)
     1  -3.2954891167E-01  6.3639456535E-01  2.0792384019E-01
     2  2.3722158065E-01  6.0153891700E-01  -1.9147816090E-01
     3  3.2954898825E-01  -6.3639445686E-01  -2.0792376245E-01
     4  -2.3722144566E-01  -6.0153864810E-01  1.9147818740E-01
     5  -6.9224035630E-01  6.2181812380E-02  -7.2607001443E-01
     6  1.2679328868E+00  -2.4216636965E+00  3.6404044814E+00
     7  6.9224053104E-01  -6.2181668943E-02  7.2607026939E-01
     8  -1.2679334270E+00  2.4216636105E+00  -3.6404042494E+00
     9  -4.6828653655E-01  3.7649238155E-01  -2.0873408656E-01
    10  -2.1306231093E+00  -2.2681443849E+00  1.8848568591E-01
    11  4.6828622177E-01  -3.7649183386E-01  2.0873388974E-01
    12  2.1306250061E+00  2.2681461062E+00  -1.8848589663E-01
    13  -5.6941419724E-01  -1.0757061867E+00  -1.2016574867E+00
    14  3.1006037963E+00  1.4126712108E+00  1.3088964934E+00
    15  5.6941360827E-01  1.0757063032E+00  1.2016571650E+00
    16  -3.1006063897E+00  -1.4126728702E+00  -1.3088949743E+00
    17  5.3351316956E-01  -7.3452380718E-01  -5.4458597915E-02
    18  -1.7572817587E+00  9.5850496712E-01  -2.4087791338E+00
    19  -5.3351214310E-01  7.3452380376E-01  5.4459254544E-02
    20  1.7572835492E+00  -9.5850604675E-01  2.4087794319E+00
    21  6.3677941158E-01  -1.1899967756E+00  -2.2765141938E-01
    22  -5.4755835009E-01  -1.1781608072E+00  3.7243271437E-01
    23  -6.3677974209E-01  1.1899973669E+00  2.2765086806E-01
    24  5.4755792672E-01  1.1781607711E+00  -3.7243295491E-01
    25  1.1281051767E+00  3.7366597215E-02  9.9101418178E-01
    26  -8.5837778367E-02  -1.9546656180E+00  1.4782321134E+00
    27  -1.1281049241E+00  -3.7367353329E-02  -9.9101443537E-01
    28  8.5837376511E-02  1.9546670938E+00  -1.4782334078E+00
    29  5.4997412391E-01  4.0182737148E-01  7.5099039089E-01
    30  -4.3071181021E-01  5.6149684217E-01  -7.7895811269E-01
    31  -5.4997404700E-01  -4.0182721012E-01  -7.5099021927E-01
    32  4.3071150057E-01  -5.6149699826E-01  7.7895773634E-01
    33  1.7395870046E-01  1.0100402308E+00  9.0611469526E-01
    34  -4.0309249998E-02  1.1571745498E+00  -8.0677275182E-01
    35  -1.7395881256E-01  -1.0100407403E+00  -9.0611450564E-01
    36  4.0309533346E-02  -1.1571750094E+00  8.0677262178E-01
    37  -8.2820324785E-01  5.9323537535E-01  -3.0231227179E-01
    38  8.4173323330E-01  7.3569987898E-01  1.8635606845E-01
    39  8.2820322003E-01  -5.9323557328E-01  3.0231216982E-01
    40  -8.4173330746E-01  -7.3569998851E-01  -1.8635567926E-01
    41  -8.3910970313E-01  1.1515103710E+00  6.2209271136E-02
    42  8.8058683871E-01  1.2119157045E+00  -7.4966845045E-02
    43  8.3910966880E-01  -1.1515103894E+00  -6.2208943935E-02
    44  -8.8058663990E-01  -1.2119154573E+00  7.4967094814E-02
    45  -1.7982096513E+00  1.7035551322E-01  -1.1841553474E+00
    46  -8.0684915091E-01  -5.4211316864E+00  5.9285151036E-01
    47  1.7982109414E+00  -1.7035460398E-01  1.1841562200E+00
    48  8.0684828787E-01  5.4211332378E+00  -5.9285273465E-01
    49  -1.1055672803E-01  4.6224330683E-01  1.5638940895E+00
    50  -4.0255804472E-02  6.7848462210E+00  -4.6738079974E+00
    51  1.1055661678E-01  -4.6224132914E-01  -1.5638951844E+00
    52  4.0256979583E-02  -6.7848469220E+00  4.6738059047E+00
    53  -1.5301980872E+00  -8.6815065420E-01  7.1918644896E-01
    54  1.5325967254E+00  -1.3696547179E+00  -1.1242478321E+00
    55  1.5301967462E+00  8.6815321711E-01  -7.1918528404E-01
    56  -1.5325945530E+00  1.3696532135E+00  1.1242477543E+00
    57  1.0717251115E+00  -1.8997522897E-01  9.4120479024E-01
    58  1.6443327957E+00  -2.8157664942E-01  1.6812560047E+00
    59  -1.0717254896E+00  1.8997410750E-01  -9.4120430750E-01
    60  -1.6443338789E+00  2.8157600343E-01  -1.6812537833E+00
    61  -2.9373467514E-01  1.8021986339E+00  1.0343293943E-01
    62  -2.4033592138E+00  -3.5675539584E+00  7.3958973703E-01
    63  2.9373830220E-01  -1.8021988125E+00  -1.0343511764E-01
    64  2.4033585124E+00  3.5675549761E+00  -7.3958748232E-01
    65  6.3566839278E-01  -1.4737561338E+00  2.9301131932E-01
    66  3.3770914007E+00  4.4441791535E+00  -9.8628147929E-01
    67  -6.3567093451E-01  1.4737587293E+00  -2.9300986793E-01
    68  -3.3770906820E+00  -4.4441801707E+00  9.8628172887E-01
    69  -1.3443443554E+00  -1.0082714706E+00  7.2879741638E-01
    70  8.0624058986E-01  -2.8813233004E-01  -4.0305224007E-01
    71  1.3443427769E+00  1.0082722904E+00  -7.2879543712E-01
    72  -8.0624050557E-01  2.8813246267E-01  4.0305273681E-01
    73  6.4786374563E-01  -6.1410903261E-01  -1.6116710905E+00
    74  -7.7372239707E-01  -1.8475055847E+00  2.6159914807E+00
    75  -6.4786435100E-01  6.1410534871E-01  1.6116705631E+00
    76  7.7372044428E-01  1.8475058157E+00  -2.6159912075E+00
    77  1.0736414806E+00  -2.5154342216E-01  7.8704892105E-01
    78  -1.6576623746E+00  -7.1818159848E-01  -1.2533059949E+00
    79  -1.0736405516E+00  2.5154232996E-01  -7.8704922277E-01
    80  1.6576629396E+00  7.1818183850E-01  1.2533050106E+00
    81  1.3362866849E+00  8.0869677284E-01  -5.0323304114E-01
    82  -1.3789144702E+00  8.2904034107E-01  6.0329075522E-01
    83  -1.3362880141E+00  -8.0869880047E-01  5.0323265246E-01
    84  1.3789149392E+00  -8.2904004876E-01  -6.0329158821E-01
    85  1.2031060524E+00  -3.1224377090E-02  6.6713501851E-01
    86  -1.2757098685E+00  -1.9725532217E-02  -5.7805710728E-01
    87  -1.2031053305E+00  3.1224774890E-02  -6.6713480926E-01
    88  1.2757097812E+00  1.9725444596E-02  5.7805710937E-01
    89  3.5302861529E-01  -6.1737174460E-01  -1.7016688371E+00
    90  -3.8701654618E-01  -5.6241004832E-01  1.8204592433E+00
    91  -3.5302863786E-01  6.1736918642E-01  1.7016684204E+00
    92  3.8701586371E-01  5.6241090139E-01  -1.8204588017E+00
    93  -4.6374102987E-01  1.7003805568E+00  -1.1010388961E-01
    94  3.9412417213E-01  1.8250943401E+00  1.9197354990E-01
    95  4.6374229790E-01  -1.7003794146E+00  1.1010157459E-01
    96  -3.9412407532E-01  -1.8250947555E+00  -1.9197392961E-01
  Stress tensor (eV/A^3):
  8.8491886317E-02  -1.1384560808E-02  1.8503899226E-02
  -1.1384560808E-02  8.0271249381E-02  4.3250966423E-03
  1.8503899226E-02  4.3250966423E-03  8.9647992347E-02
