  Invoking FHI-aims ...
  | Number of atoms                   :  96
  ...scf iterations...
  | Total energy corrected        :   -9.659217114001E+01 eV
  ...
  Total atomic forces (unitary forces cleaned)
     1  -2.9211074679E-01  6.1184986066E-01  1.9007884897E-01
     2  2.2347378717E-01  5.6897964424E-01  -1.9183550135E-01
     3  2.9211080596E-01  -6.1184976457E-01  -1.9007878608E-01
     4  -2.2347363573E-01  -5.6897945023E-01  1.9183556787E-01
     5  -7.9207097644E-01  1.6060215866E+00  2.4112479322E-01
     6  9.0145567968E-01  -4.5173231211E-01  1.0985460694E+00
     7  7.9207134746E-01  -1.6060214392E+00  -2.4112438029E-01
     8  -9.0145588241E-01  4.5173217854E-01  -1.0985457573E+00
     9  -4.1656695421E-01  2.8079712659E-01  -1.9868736152E-01
    10  8.5014730898E-01  3.8082958056E-01  1.7256867547E-01
    11  4.1656650665E-01  -2.8079693889E-01  1.9868697816E-01
    12  -8.5014707364E-01  -3.8082914925E-01  -1.7256847740E-01
    13  -5.4999480466E-01  -1.0463327807E+00  -1.1255721645E+00
    14  8.7008261219E-02  -1.2115476659E+00  1.1898254483E+00
    15  5.4999416252E-01  1.0463329490E+00  1.1255718566E+00
    16  -8.7008971367E-02  1.2115474032E+00  -1.1898247934E+00
    17  3.6464492891E-01  -4.8285736694E-01  -3.3365963794E-02
    18  -4.0336436993E-01  -2.2028300901E-01  1.2039531064E-01
    19  -3.6464401963E-01  4.8285725201E-01  3.3366531653E-02
    20  4.0336434966E-01  2.2028257210E-01  -1.2039537476E-01
    21  7.3077837853E-01  -1.3550493024E+00  -2.5481114252E-01
    22  -7.1655744892E-01  -1.4440983732E+00  3.4200668450E-01
    23  -7.3077904191E-01  1.3550497842E+00  2.5481064168E-01
    24  7.1655734076E-01  1.4440986379E+00  -3.4200695606E-01
    25  9.6291998452E-01  5.0472119904E-02  8.0630699085E-01
    26  -8.4441099067E-01  -2.3304334453E-01  -8.2041646293E-01
    27  -9.6292153876E-01  -5.0472501146E-02  -8.0630828821E-01
    28  8.4441192694E-01  2.3304400164E-01  8.2041590518E-01
    29  4.9278976457E-01  2.4633153131E-01  5.5540658818E-01
    30  -4.5117144379E-01  3.1935747540E-01  -5.8319383110E-01
    31  -4.9278958583E-01  -2.4633149306E-01  -5.5540664498E-01
    32  4.5117085866E-01  -3.1935761774E-01  5.8319343686E-01
    33  2.3994444480E-01  1.1819808203E+00  1.0589975241E+00
    34  -2.1859924620E-01  1.2399132500E+00  -1.0176911395E+00
    35  -2.3994430922E-01  -1.1819811821E+00  -1.0589972529E+00
    36  2.1859962267E-01  -1.2399136751E+00  1.0176909859E+00
    37  -6.6358510418E-01  3.9059513002E-01  -2.6558858057E-01
    38  6.9197656262E-01  4.5168194032E-01  2.3000603652E-01
    39  6.6358519386E-01  -3.9059541546E-01  2.6558858717E-01
    40  -6.9197656433E-01  -4.5168228165E-01  -2.3000557604E-01
    41  -9.8369807396E-01  1.3095423516E+00  9.1217512782E-02
    42  9.9314377047E-01  1.3256515171E+00  -8.9457915186E-02
    43  9.8369796525E-01  -1.3095421600E+00  -9.1217234307E-02
    44  -9.9314345394E-01  -1.3256511593E+00  8.9458112799E-02
    45  3.0503143755E-01  1.7950873930E-01  5.4313078681E-01
    46  -3.8917678880E+00  -3.1757783028E+00  -2.3756871824E+00
    47  -3.0498316012E-01  -1.7950260028E-01  -5.4309107164E-01
    48  3.8917673934E+00  3.1757773247E+00  2.3756820127E+00
    49  -2.1131479612E+00  4.3376472751E-01  2.6935667806E-01
    50  3.5889179351E+00  4.9557213131E+00  -3.9332901562E+00
    51  2.1131004198E+00  -4.3375101568E-01  -2.6937054738E-01
    52  -3.5889183042E+00  -4.9557228069E+00  3.9332954176E+00
    53  -3.5265253691E-01  -9.2697728008E-01  -1.2293368865E-01
    54  1.0965148023E+00  -2.3440283406E+00  -4.1452224753E-01
    55  3.5267705386E-01  9.2698023601E-01  1.2291683064E-01
    56  -1.0965116518E+00  2.3440266494E+00  4.1452178647E-01
    57  1.4739146421E+00  -2.3832322338E-01  1.4359912701E+00
    58  9.7599153407E-01  5.0539489431E-02  1.6546178153E+00
    59  -1.4739110804E+00  2.3832132035E-01  -1.4359883910E+00
    60  -9.7599398865E-01  -5.0539833809E-02  -1.6546185699E+00
    61  7.5873232444E-02  1.0496952229E+00  -1.3468685630E-01
    62  -4.7785984774E+00  -3.1748641476E+00  3.1925912193E+00
    63  -7.5850718875E-02  -1.0497135165E+00  1.3466929977E-01
    64  4.7785980346E+00  3.1748657095E+00  -3.1925897443E+00
    65  -3.9233418513E-01  -1.8817087814E-01  -4.8267006182E-02
    66  4.5407945199E+00  4.0127546093E+00  -1.2197811518E+00
    67  3.9231177340E-01  1.8817832049E-01  4.8257434916E-02
    68  -4.5407932082E+00  -4.0127549389E+00  1.2197840945E+00
    69  -9.9462836700E-01  -1.0531459681E+00  6.4701154679E-01
    70  8.3617069802E-01  -6.0855155216E-01  -7.0840265559E-01
    71  9.9463579103E-01  1.0531605223E+00  -6.4700990183E-01
    72  -8.3617057206E-01  6.0855185316E-01  7.0840251283E-01
    73  7.7936907742E-01  -2.4958469821E-01  -1.7649645756E+00
    74  -1.1178537263E+00  -8.7735944781E-01  2.8162033711E+00
    75  -7.7937085125E-01  2.4958887204E-01  1.7649749548E+00
    76  1.1178525900E+00  8.7736181441E-01  -2.8162061268E+00
    77  1.2960923261E+00  -4.0568158431E-01  7.8380189197E-01
    78  -1.5487303920E+00  -5.8718747525E-01  -1.0145189240E+00
    79  -1.2960928649E+00  4.0568073535E-01  -7.8380339842E-01
    80  1.5487310747E+00  5.8718762597E-01  1.0145184119E+00
    81  -7.2351880010E-01  1.1097657988E+00  -6.0010246818E-01
    82  8.8329484570E-01  1.2199029908E+00  7.5109239064E-01
    83  7.2348467808E-01  -1.1097560689E+00  6.0008328573E-01
    84  -8.8329383948E-01  -1.2199031286E+00  -7.5109697649E-01
    85  1.5922182427E+00  9.9133366887E-02  7.6853574466E-01
    86  -1.5875511077E+00  1.2488434463E-01  -6.6315268183E-01
    87  -1.5922182999E+00  -9.9133656386E-02  -7.6853560851E-01
    88  1.5875507710E+00  -1.2488436610E-01  6.6315255864E-01
    89  3.8399528673E-01  -4.2136566148E-01  -1.4811930262E+00
    90  -4.0851466053E-01  -3.7560136680E-01  1.5445092504E+00
    91  -3.8399813992E-01  4.2135615530E-01  1.4812099357E+00
    92  4.0851353793E-01  3.7560314870E-01  -1.5445052650E+00
    93  -3.9050137319E-01  5.5257026713E-01  4.2906808174E-01
    94  3.5425641438E-01  6.6915325709E-01  -3.8050890085E-01
    95  3.9050612335E-01  -5.5259853529E-01  -4.2906066665E-01
    96  -3.5425679578E-01  -6.6915435092E-01  3.8050970417E-01
  Stress tensor (eV/A^3):
  7.6124999476E-02  -1.3302618135E-02  3.2644929144E-02
  -1.3302618135E-02  6.9970151897E-02  8.4140909600E-03
  3.2644929144E-02  8.4140909600E-03  6.8656614559E-02
