  Invoking FHI-aims ...
  | Number of atoms                   :  96
  ...scf iterations...
  | Total energy corrected        :   -3.870696796717E+01 eV
  ...
  Total atomic forces (unitary forces cleaned)
     1  -2.1019032522E-01  5.9111092109E-01  2.0520446830E-01
     2  2.1017985539E-01  5.9110467690E-01  -2.0520916272E-01
     3  2.1019043590E-01  -5.9111083438E-01  -2.0520439812E-01
     4  -2.1017974006E-01  -5.9110447111E-01  2.0520922633E-01
     5  -8.2719929054E-01  1.1752442052E+00  5.3415299609E-02
     6  8.2723131994E-01  1.1752485227E+00  -5.3418115120E-02
     7  8.2719943369E-01  -1.1752440839E+00  -5.3415086267E-02
     8  -8.2723159639E-01  -1.1752486373E+00  5.3418415496E-02
     9  -1.7033318152E-01  1.6590989888E-01  -8.0570909062E-02
    10  1.7030968394E-01  1.6586883595E-01  8.0588766389E-02
    11  1.7033293370E-01  -1.6590953782E-01  8.0570704520E-02
    12  -1.7031006954E-01  -1.6586907037E-01  -8.0588661009E-02
    13  -3.6389590805E-01  -8.5889010888E-01  -8.5902632713E-01
    14  3.6389610197E-01  -8.5886613294E-01  8.5899440261E-01
    15  3.6389539868E-01  8.5889010403E-01  8.5902604142E-01
    16  -3.6389621682E-01  8.5886645806E-01  -8.5899376308E-01
    17  2.6414228512E+00  -3.9019533814E+00  -3.5826497079E-01
    18  -2.6413400835E+00  -3.9017135342E+00  3.5831374770E-01
    19  -2.6414268392E+00  3.9019607911E+00  3.5826517150E-01
    20  2.6413403495E+00  3.9017149486E+00  -3.5831481678E-01
    21  -1.7545498419E+00  2.3065536451E+00  6.4352361502E-02
    22  1.7544718573E+00  2.3063290436E+00  -6.4343116383E-02
    23  1.7545541065E+00  -2.3065607359E+00  -6.4352691679E-02
    24  -1.7544723596E+00  -2.3063304030E+00  6.4343601185E-02
    25  4.1180094988E-01  6.1243898263E-03  3.7055473070E-01
    26  -4.1180097217E-01  6.1621442934E-03  -3.7056592390E-01
    27  -4.1180115279E-01  -6.1245822681E-03  -3.7055491841E-01
    28  4.1180157779E-01  -6.1620512492E-03  3.7056577813E-01
    29  1.0379735824E+00  3.2252124987E+00  3.1395936446E+00
    30  -1.0379850558E+00  3.2253084225E+00  -3.1396420816E+00
    31  -1.0379743959E+00  -3.2252147933E+00  -3.1395946113E+00
    32  1.0379866424E+00  -3.2253114793E+00  3.1396435611E+00
    33  -5.8846223802E-01  -1.9150249779E+00  -1.8689326494E+00
    34  5.8850188293E-01  -1.9151336129E+00  1.8690045044E+00
    35  5.8846303593E-01  1.9150269744E+00  1.8689338006E+00
    36  -5.8850337730E-01  1.9151363744E+00  -1.8690063341E+00
    37  -2.8027828648E+00  3.7121414843E+00  2.6737210560E-01
    38  2.8026173636E+00  3.7118581892E+00  -2.6738729305E-01
    39  2.8027814794E+00  -3.7121396485E+00  -2.6737111978E-01
    40  -2.8026151653E+00  -3.7118553996E+00  2.6738786062E-01
    41  1.5222757719E+00  -2.1534585940E+00  -2.6750584800E-01
    42  -1.5221175285E+00  -2.1531771904E+00  2.6747861176E-01
    43  -1.5222743847E+00  2.1534565818E+00  2.6750513271E-01
    44  1.5221156271E+00  2.1531745228E+00  -2.6747869904E-01
    45  -1.2245866360E+00  1.1923514883E-01  -7.5129172508E-01
    46  1.2245878108E+00  1.1920414543E-01  7.5129193416E-01
    47  1.2245812698E+00  -1.1923493141E-01  7.5128925009E-01
    48  -1.2245881127E+00  -1.1920378940E-01  -7.5129172910E-01
    49  -4.8156833165E+01  1.8276426527E+01  2.2444456399E+01
    50  4.8157981264E+01  1.8266976120E+01  -2.2444378009E+01
    51  4.8156414922E+01  -1.8276119592E+01  -2.2444297851E+01
    52  -4.8158008665E+01  -1.8266945885E+01  2.2444394656E+01
    53  3.5403179702E+01  2.5081082725E+01  -1.4846144152E+01
    54  -3.5406198488E+01  2.5083295524E+01  1.4847014596E+01
    55  -3.5402830157E+01  -2.5080925892E+01  1.4845994414E+01
    56  3.5406223787E+01  -2.5083317954E+01  -1.4847046328E+01
    57  -7.5750916947E-01  1.0843917744E-01  -5.7477274482E-01
    58  7.5769074081E-01  1.0848670098E-01  5.7488828424E-01
    59  7.5751533919E-01  -1.0843998796E-01  5.7477800142E-01
    60  -7.5768424652E-01  -1.0848580541E-01  -5.7488276440E-01
    61  1.2768190926E+01  -4.2768769894E+01  -4.1409764492E+00
    62  -1.2766493859E+01  -4.2761590246E+01  4.1399192328E+00
    63  -1.2768128737E+01  4.2768311133E+01  4.1409679254E+00
    64  1.2766490553E+01  4.2761581009E+01  -4.1399095061E+00
    65  -1.1725509470E+01  -2.9804148562E+01  -1.5755852749E+01
    66  1.1724516888E+01  -2.9801129772E+01  1.5753759325E+01
    67  1.1725381791E+01  2.9803952858E+01  1.5755764355E+01
    68  -1.1724527495E+01  2.9801113837E+01  -1.5753727372E+01
    69  2.0303179725E+01  2.0045350372E+01  -8.0053044903E+00
    70  -2.0301257614E+01  2.0043156391E+01  8.0039938492E+00
    71  -2.0303026580E+01  -2.0045237296E+01  8.0052236566E+00
    72  2.0301246734E+01  -2.0043143696E+01  -8.0040034859E+00
    73  -6.5915203111E+00  6.9087396201E+00  2.4383065732E+01
    74  6.5907164716E+00  6.9079413007E+00  -2.4379601985E+01
    75  6.5914949084E+00  -6.9086637497E+00  -2.4382894709E+01
    76  -6.5906967997E+00  -6.9079384450E+00  2.4379578278E+01
    77  -7.6328277592E-01  -4.5990532368E-02  -6.4631375643E-01
    78  7.6317414412E-01  -4.5982885728E-02  6.4623675089E-01
    79  7.6328269859E-01  4.5989912013E-02  6.4631378114E-01
    80  -7.6317305422E-01  4.5982816772E-02  -6.4623532515E-01
    81  -5.4842711461E+00  3.5426528565E+01  -3.1952672197E+01
    82  5.4826330693E+00  3.5423865938E+01  3.1954751250E+01
    83  5.4842273928E+00  -3.5426286546E+01  3.1952340408E+01
    84  -5.4826227364E+00  -3.5423840386E+01  -3.1954825676E+01
    85  -6.5464864276E-01  3.6215022201E-02  -4.3544785392E-01
    86  6.5440111904E-01  3.6199455815E-02  4.3529648024E-01
    87  6.5465270116E-01  -3.6215005313E-02  4.3544996192E-01
    88  -6.5439952279E-01  -3.6199606330E-02  -4.3529497844E-01
    89  -6.0921595183E+00  6.2565094358E+00  3.3063151828E+01
    90  6.0934513875E+00  6.2572872377E+00  -3.3064426976E+01
    91  6.0921104555E+00  -6.2564094304E+00  -3.3062863555E+01
    92  -6.0934566489E+00  -6.2573097959E+00  3.3064482399E+01
    93  1.4262542084E+01  -3.9754153105E+01  -1.8407741589E+00
    94  -1.4261980377E+01  -3.9752251823E+01  1.8401217677E+00
    95  -1.4262447125E+01  3.9753813550E+01  1.8408105246E+00
    96  1.4261973513E+01  3.9752249717E+01  -1.8401049538E+00
  Stress tensor (eV/A^3):
  -1.8355628572E-01  5.1975784297E-06  1.4531680173E-01
  5.1975784297E-06  -4.2310275933E-01  -2.7709788678E-06
  1.4531680173E-01  -2.7709788678E-06  -2.2334322700E-01
