  Invoking FHI-aims ...
  | Number of atoms                   :  96
  ...scf iterations...
  | Total energy corrected        :   -8.830464484953E+01 eV
  ...
  Total atomic forces (unitary forces cleaned)
     1  -2.5406656788E-01  6.0000421242E-01  1.8211156281E-01
     2  2.1276663761E-01  5.6817552381E-01  -1.9204808942E-01
     3  2.5406664814E-01  -6.0000412103E-01  -1.8211150599E-01
     4  -2.1276649503E-01  -5.6817534170E-01  1.9204816033E-01
     5  -8.2753726250E-01  1.4767973567E+00  2.3118278531E-01
     6  8.3552136907E-01  1.5937845524E+00  -4.5863221173E-01
     7  8.2753755416E-01  -1.4767972197E+00  -2.3118244497E-01
     8  -8.3552156547E-01  -1.5937846821E+00  4.5863252015E-01
     9  -3.0525728848E-01  2.0214518750E-01  -1.5929499945E-01
    10  6.2163853954E-01  4.7713436365E-01  1.3778543234E-01
    11  3.0525690705E-01  -2.0214496429E-01  1.5929468594E-01
    12  -6.2163895745E-01  -4.7713462170E-01  -1.3778525917E-01
    13  -4.8255999191E-01  -9.6809374617E-01  -1.0165390907E+00
    14  1.8102210459E-01  -1.2545480532E+00  1.0621807076E+00
    15  4.8255941911E-01  9.6809385465E-01  1.0165388097E+00
    16  -1.8102216451E-01  1.2545484399E+00  -1.0621800999E+00
    17  5.4021850432E-01  -7.5459163381E-01  -6.6771103852E-02
    18  -4.6136359716E-01  -9.3828332105E-01  3.6228432755E-01
    19  -5.4021788026E-01  7.5459184809E-01  6.6771557027E-02
    20  4.6136336825E-01  9.3828331335E-01  -3.6228478204E-01
    21  4.5289493920E-01  -9.7583834800E-01  -2.1690669768E-01
    22  -4.4859301699E-01  -9.9747890721E-01  2.4206854407E-01
    23  -4.5289532683E-01  9.7583844802E-01  2.1690627300E-01
    24  4.4859291983E-01  9.9747905343E-01  -2.4206873990E-01
    25  7.6151366254E-01  2.4100973175E-02  6.3191503640E-01
    26  -8.5359465953E-01  2.0436633046E-01  -9.3315530155E-01
    27  -7.6151395137E-01  -2.4101387611E-02  -6.3191540274E-01
    28  8.5359554944E-01  -2.0436611276E-01  9.3315507373E-01
    29  4.8755693411E-01  5.2688843509E-01  7.4949778020E-01
    30  -4.6916928708E-01  5.5230309935E-01  -7.4943129031E-01
    31  -4.8755681863E-01  -5.2688847874E-01  -7.4949783576E-01
    32  4.6916887544E-01  -5.5230331269E-01  7.4943097492E-01
    33  1.4496637677E-01  8.6131485708E-01  7.3060716847E-01
    34  -1.3790162887E-01  8.7039294457E-01  -7.2050573671E-01
    35  -1.4496625284E-01  -8.6131510736E-01  -7.3060692990E-01
    36  1.3790189000E-01  -8.7039315933E-01  7.2050556385E-01
    37  -8.0452762089E-01  7.1005514399E-01  -1.5475036445E-01
    38  8.0762587302E-01  7.2910399257E-01  1.4190920285E-01
    39  8.0452763320E-01  -7.1005531254E-01  1.5475045491E-01
    40  -8.0762568477E-01  -7.2910410659E-01  -1.4190875904E-01
    41  -7.0423158404E-01  9.4356595232E-01  5.3405249398E-02
    42  7.0622719654E-01  9.4435841503E-01  -5.6216132198E-02
    43  7.0423156952E-01  -9.4356591059E-01  -5.3405052880E-02
    44  -7.0622702805E-01  -9.4435824084E-01  5.6216274467E-02
    45  -1.8037300043E+00  1.4768528756E-01  -1.1678161288E+00
    46  1.0941631263E+00  -1.3445820667E+00  1.1661862328E+00
    47  1.8037395064E+00  -1.4768129420E-01  1.1678279168E+00
    48  -1.0941663238E+00  1.3445773434E+00  -1.1661866081E+00
    49  -9.3490482677E+00  2.4341320608E+00  6.5142479436E+00
    50  1.0969943899E+01  1.1121915165E+01  -1.0710151779E+01
    51  9.3489465121E+00  -2.4340911346E+00  -6.5141996158E+00
    52  -1.0969939642E+01  -1.1121907199E+01  1.0710151955E+01
    53  4.2367701502E+00  2.3797483984E+00  -2.4702620881E+00
    54  -2.4979723533E+00  9.1110600735E-01  1.6523269755E+00
    55  -4.2367069593E+00  -2.3797281007E+00  2.4702223961E+00
    56  2.4979763289E+00  -9.1110872097E-01  -1.6523300369E+00
    57  1.5363140484E+00  -2.5426919695E-01  1.4116139394E+00
    58  2.5143724831E-01  1.0265823345E-02  4.8576567345E-01
    59  -1.5363055652E+00  2.5426667803E-01  -1.4116049496E+00
    60  -2.5144008616E-01  -1.0266605076E-02  -4.8576775181E-01
    61  2.4269111107E+00  -4.0061225446E+00  -1.7704359628E+00
    62  -7.5746151745E+00  -1.1370432610E+01  4.9113197320E+00
    63  -2.4268803927E+00  4.0060658271E+00  1.7704079164E+00
    64  7.5746108765E+00  1.1370427118E+01  -4.9113132781E+00
    65  -5.7384265649E-01  -5.4830555363E+00  -2.0176221136E+00
    66  2.3125355079E+00  -3.6113985679E+00  4.9371408285E-01
    67  5.7381030710E-01  5.4830029357E+00  2.0175946412E+00
    68  -2.3125348355E+00  3.6114003480E+00  -4.9370609578E-01
    69  9.2786533481E-01  1.7035107543E+00  9.2528704946E-02
    70  -9.7740932999E-01  1.7341428184E+00  -1.0023145316E-01
    71  -9.2783747725E-01  -1.7034694525E+00  -9.2535213428E-02
    72  9.7740949925E-01  -1.7341424609E+00  1.0023028317E-01
    73  5.5110580083E-02  5.6146627646E-01  7.1735912570E-01
    74  -5.7552335135E-01  1.7589172167E-02  9.6530571283E-01
    75  -5.5116849849E-02  -5.6145291701E-01  -7.1732703721E-01
    76  5.7552439861E-01  -1.7586287457E-02  -9.6531200041E-01
    77  1.2332650108E+00  -3.2788700311E-01  7.7081884182E-01
    78  -1.6447235271E+00  -4.7092545177E-01  -1.0579326520E+00
    79  -1.2332590240E+00  3.2788482433E-01  -7.7081601537E-01
    80  1.6447235988E+00  4.7092532203E-01  1.0579318149E+00
    81  5.4836696994E-02  8.1130329241E+00  -4.8723514405E+00
    82  -1.0193194317E-01  8.1908734523E+00  4.9272273714E+00
    83  -5.4850558679E-02  -8.1129511772E+00  4.8722615761E+00
    84  1.0193554404E-01  -8.1908731718E+00  -4.9272462211E+00
    85  1.6057207994E+00  5.1726160951E-02  8.2178282938E-01
    86  -1.6225153276E+00  6.2663510712E-02  -7.9796556974E-01
    87  -1.6057115624E+00  -5.1725471696E-02  -8.2177827127E-01
    88  1.6225154110E+00  -6.2663572467E-02  7.9796563393E-01
    89  -5.5011501365E-01  -5.6794017360E-01  2.5329531592E+00
    90  5.4364682939E-01  -5.5019786725E-01  -2.5113757808E+00
    91  5.5009883093E-01  5.6793250730E-01  -2.5328822457E+00
    92  -5.4364999371E-01  5.5019872225E-01  2.5113907730E+00
    93  1.2691139045E+00  -4.8169535864E+00  2.3016809101E-01
    94  -1.2760281221E+00  -4.7839360199E+00  -2.1555671756E-01
    95  -1.2690979792E+00  4.8168726798E+00  -2.3015622129E-01
    96  1.2760274193E+00  4.7839358634E+00  2.1555961165E-01
  Stress tensor (eV/A^3):
  5.4885808535E-02  -1.2318034452E-02  4.7265277513E-02
  -1.2318034452E-02  1.3492597784E-02  4.3800968143E-03
  4.7265277513E-02  4.3800968143E-03  4.8796180955E-02
