  Invoking FHI-aims ...
  | Number of atoms                   :  96
  ...scf iterations...
  | Total energy corrected        :   -9.307109867808E+01 eV
  ...
  Total atomic forces (unitary forces cleaned)
     1  -2.8337655257E-01  5.9556680058E-01  1.8891674993E-01
     2  2.1645235775E-01  5.6985933867E-01  -1.8398758386E-01
     3  2.8337653302E-01  -5.9556670385E-01  -1.8891672525E-01
     4  -2.1645223973E-01  -5.6985928330E-01  1.8398766968E-01
     5  -8.4119005771E-01  1.6112566863E+00  2.8275691823E-01
     6  8.5559816525E-01  1.4042700936E+00  -4.2688165576E-01
     7  8.4119070082E-01  -1.6112565230E+00  -2.8275631333E-01
     8  -8.5559809080E-01  -1.4042702556E+00  4.2688194621E-01
     9  -3.5890158173E-01  2.1239311810E-01  -1.6935890605E-01
    10  8.9168624790E-01  5.9396734143E-01  1.3847308636E-01
    11  3.5890096311E-01  -2.1239335066E-01  1.6935839339E-01
    12  -8.9168658278E-01  -5.9396725301E-01  -1.3847320427E-01
    13  -5.1296643453E-01  -1.0300808072E+00  -1.0351126495E+00
    14  -8.1453389152E-03  -1.4379736076E+00  1.0987006665E+00
    15  5.1296572912E-01  1.0300810517E+00  1.0351123557E+00
    16  8.1452077348E-03  1.4379737888E+00  -1.0987003874E+00
    17  4.4211081000E-01  -5.8758876569E-01  -3.7348940387E-02
    18  -3.0524437879E-01  -8.0666818429E-01  4.7795646032E-01
    19  -4.4211018129E-01  5.8758889239E-01  3.7349427532E-02
    20  3.0524430913E-01  8.0666799707E-01  -4.7795676858E-01
    21  6.0317294801E-01  -1.1469991548E+00  -2.1619732324E-01
    22  -6.0574011574E-01  -1.2290504376E+00  2.6503179334E-01
    23  -6.0317317798E-01  1.1469992745E+00  2.1619714961E-01
    24  6.0574026782E-01  1.2290506294E+00  -2.6503184529E-01
    25  8.8837262153E-01  7.0798071855E-02  6.6586810771E-01
    26  -1.0051412784E+00  3.0164026007E-01  -1.0939068986E+00
    27  -8.8837339430E-01  -7.0798568482E-02  -6.6586883561E-01
    28  1.0051419201E+00  -3.0163975627E-01  1.0939067279E+00
    29  4.7398936019E-01  3.9953842020E-01  6.2120334344E-01
    30  -4.5900042668E-01  4.3525594983E-01  -6.3817697043E-01
    31  -4.7398916345E-01  -3.9953845111E-01  -6.2120363543E-01
    32  4.5899964459E-01  -4.3525626720E-01  6.3817665986E-01
    33  1.7548635038E-01  1.0364606992E+00  8.9140173405E-01
    34  -1.6345012265E-01  1.0684378663E+00  -8.8300474691E-01
    35  -1.7548603663E-01  -1.0364606864E+00  -8.9140142380E-01
    36  1.6345028667E-01  -1.0684380447E+00  8.8300467530E-01
    37  -7.4008470565E-01  5.1389194324E-01  -1.8682156991E-01
    38  7.5109254696E-01  5.4509611996E-01  1.6837832161E-01
    39  7.4008476501E-01  -5.1389218108E-01  1.8682174234E-01
    40  -7.5109227152E-01  -5.4509656755E-01  -1.6837778010E-01
    41  -8.7764474542E-01  1.1126620209E+00  8.2340781433E-02
    42  8.8014470402E-01  1.1221700088E+00  -7.8529219881E-02
    43  8.7764466159E-01  -1.1126617425E+00  -8.2340678176E-02
    44  -8.8014440769E-01  -1.1221697390E+00  7.8529304872E-02
    45  -1.0873648975E+00  1.9909868596E-01  -5.8158812314E-01
    46  -1.0433135978E+00  -2.2294559227E+00  -3.4667710412E-01
    47  1.0873940101E+00  -1.9909068419E-01  5.8162059219E-01
    48  1.0433104332E+00  2.2294511158E+00  3.4667594362E-01
    49  -5.5593228190E+00  -1.0542414613E+00  3.3467321836E+00
    50  8.1196441359E+00  2.6374566843E+00  -7.4412652512E+00
    51  5.5592263542E+00  1.0542346488E+00  -3.3467154019E+00
    52  -8.1196449112E+00  -2.6374509972E+00  7.4412694056E+00
    53  1.5537176029E+00  1.2121963282E+00  -9.6142649423E-01
    54  -1.1203365280E+00  -1.8762694692E-02  9.2364626300E-01
    55  -1.5536692832E+00  -1.2121539054E+00  9.6140165656E-01
    56  1.1203408419E+00  1.8757787615E-02  -9.2364818041E-01
    57  1.6017513236E+00  -2.5406061872E-01  1.4602493189E+00
    58  6.3096064030E-01  1.7910675179E-01  8.6671463435E-01
    59  -1.6017418500E+00  2.5405804635E-01  -1.4602402504E+00
    60  -6.3096267103E-01  -1.7910730238E-01  -8.6671618634E-01
    61  1.2282972704E+00  -4.7073655465E-01  -1.0210475279E+00
    62  -6.6599195281E+00  -3.2496735624E+00  4.5799491231E+00
    63  -1.2282552933E+00  4.7071004610E-01  1.0210127181E+00
    64  6.6599174879E+00  3.2496730144E+00  -4.5799457965E+00
    65  2.8503951957E-01  -2.6755115795E+00  -1.8815762052E+00
    66  2.3921468447E+00  -8.8446436944E-01  1.4589143221E+00
    67  -2.8506037480E-01  2.6754937616E+00  1.8815524067E+00
    68  -2.3921470717E+00  8.8446963838E-01  -1.4589072270E+00
    69  -4.4329244306E-02  8.3287415755E-02  4.6018834349E-01
    70  9.9630753313E-02  1.7243504568E-01  -6.3071563028E-01
    71  4.4338193574E-02  -8.3260001048E-02  -4.6018294888E-01
    72  -9.9629733609E-02  -1.7243810608E-01  6.3071506298E-01
    73  2.7035660833E-01  3.9605350872E-01  -5.5305776343E-01
    74  -3.3789027537E-01  6.5347280749E-01  3.5957763580E-01
    75  -2.7036147616E-01  -3.9605039716E-01  5.5307903698E-01
    76  3.3789239097E-01  -6.5347100652E-01  -3.5958630931E-01
    77  1.4356478529E+00  -2.8167906145E-01  7.6056202182E-01
    78  -1.7619353661E+00  -4.1621052763E-01  -9.6885132923E-01
    79  -1.4356441451E+00  2.8167777572E-01  -7.6056132646E-01
    80  1.7619359290E+00  4.1621051102E-01  9.6885125436E-01
    81  -1.0859637603E+00  5.0201439969E+00  -1.1054945156E+00
    82  1.0871338315E+00  5.1362209797E+00  1.1806212929E+00
    83  1.0859150366E+00  -5.0200925246E+00  1.1054813993E+00
    84  -1.0871337205E+00  -5.1362249321E+00  -1.1806271425E+00
    85  1.7325984079E+00  1.7296606667E-01  8.9881924968E-01
    86  -1.7770296241E+00  2.2888036124E-01  -8.6977790236E-01
    87  -1.7325918563E+00  -1.7296522291E-01  -8.9881615273E-01
    88  1.7770291970E+00  -2.2888028411E-01  8.6977774498E-01
    89  6.1055900449E-02  -5.2979165884E-01  1.9826463324E-02
    90  -7.3703839434E-02  -4.7555347222E-01  3.3073825762E-02
    91  -6.1057906033E-02  5.2977656062E-01  -1.9808050571E-02
    92  7.3703218278E-02  4.7555619222E-01  -3.3069591608E-02
    93  6.7482377199E-01  -1.8318183495E+00  -1.0310869428E-01
    94  -6.7809878638E-01  -1.7333342225E+00  1.2304295917E-01
    95  -6.7479829273E-01  1.8317550429E+00  1.0309818971E-01
    96  6.7809947954E-01  1.7333366034E+00  -1.2304189625E-01
  Stress tensor (eV/A^3):
  6.5687031664E-02  -1.0308311888E-02  4.4604903555E-02
  -1.0308311888E-02  5.7394561551E-02  4.4959812592E-03
  4.4604903555E-02  4.4959812592E-03  5.2699140381E-02
