  Invoking FHI-aims ...
  | Number of atoms                   :  96
  ...scf iterations...
  | Total energy corrected        :   -8.863191837332E+01 eV
  ...
  Total atomic forces (unitary forces cleaned)
     1  -2.5750445593E-01  6.0450078892E-01  1.8310442158E-01
     2  2.0910903527E-01  5.6677757467E-01  -1.9275344702E-01
     3  2.5750456048E-01  -6.0450069618E-01  -1.8310435325E-01
     4  -2.0910889627E-01  -5.6677735328E-01  1.9275350984E-01
     5  -8.0700163790E-01  1.5715711168E+00  2.6884286367E-01
     6  8.1670799177E-01  1.5976701709E+00  -5.0796787316E-01
     7  8.0700184404E-01  -1.5715709797E+00  -2.6884258836E-01
     8  -8.1670828385E-01  -1.5976702931E+00  5.0796817969E-01
     9  -3.2402920653E-01  2.2165139877E-01  -1.7050868039E-01
    10  7.4262530174E-01  5.7262817978E-01  1.4737103015E-01
    11  3.2402888118E-01  -2.2165103638E-01  1.7050841549E-01
    12  -7.4262573036E-01  -5.7262854785E-01  -1.4737071718E-01
    13  -4.9456624366E-01  -9.7260862972E-01  -1.0451629434E+00
    14  8.7910041103E-02  -1.3409597976E+00  1.0957529484E+00
    15  4.9456568100E-01  9.7260871050E-01  1.0451626501E+00
    16  -8.7910106604E-02  1.3409602623E+00  -1.0957522578E+00
    17  4.8272171330E-01  -6.6986590500E-01  -5.8121707325E-02
    18  -3.7188845286E-01  -8.7365475401E-01  4.4093104772E-01
    19  -4.8272093367E-01  6.6986599833E-01  5.8122223546E-02
    20  3.7188812784E-01  8.7365474750E-01  -4.4093150481E-01
    21  5.2752220972E-01  -1.0709233400E+00  -2.3398768558E-01
    22  -5.2666077039E-01  -1.1148179879E+00  2.6056672956E-01
    23  -5.2752267671E-01  1.0709236749E+00  2.3398715144E-01
    24  5.2666060151E-01  1.1148181809E+00  -2.6056700058E-01
    25  8.0907695049E-01  1.4937372787E-02  6.9083505230E-01
    26  -9.2444251864E-01  2.2559144796E-01  -1.0782781186E+00
    27  -8.0907696534E-01  -1.4937841554E-02  -6.9083528169E-01
    28  9.2444358448E-01  -2.2559130653E-01  1.0782778201E+00
    29  4.7353067950E-01  4.3698200471E-01  6.8087132473E-01
    30  -4.6069150262E-01  4.6264613519E-01  -6.9104655357E-01
    31  -4.7353059946E-01  -4.3698199535E-01  -6.8087130722E-01
    32  4.6069114516E-01  -4.6264625355E-01  6.9104620628E-01
    33  1.5232404180E-01  9.4753477789E-01  8.0991145401E-01
    34  -1.3881586245E-01  9.7436645110E-01  -7.8190475473E-01
    35  -1.5232405831E-01  -9.4753510872E-01  -8.0991124792E-01
    36  1.3881618799E-01  -9.7436676723E-01  7.8190458999E-01
    37  -7.4702609936E-01  6.2619924137E-01  -1.8473942539E-01
    38  7.5368708522E-01  6.4985409366E-01  1.7015401617E-01
    39  7.4702614969E-01  -6.2619945829E-01  1.8473945968E-01
    40  -7.5368702250E-01  -6.4985420571E-01  -1.7015361562E-01
    41  -7.7124791636E-01  1.0520014018E+00  6.1463821567E-02
    42  7.7460135857E-01  1.0536815274E+00  -6.4960464448E-02
    43  7.7124787635E-01  -1.0520013637E+00  -6.1463557524E-02
    44  -7.7460116296E-01  -1.0536812973E+00  6.4960642945E-02
    45  -1.9445313803E+00  1.5008324219E-01  -1.3063843100E+00
    46  1.2147685543E+00  -1.6843918645E+00  1.2948978615E+00
    47  1.9445320112E+00  -1.5008267768E-01  1.3063850042E+00
    48  -1.2147714542E+00  1.6843877009E+00  -1.2948977585E+00
    49  -3.7795591117E+00  1.7504960656E+00  3.6420974209E+00
    50  4.8339308963E+00  7.7035016256E+00  -7.5261043668E+00
    51  3.7795062289E+00  -1.7504582544E+00  -3.6420697811E+00
    52  -4.8339301626E+00  -7.7034993220E+00  7.5261063834E+00
    53  9.4155144781E-01  2.1132421166E-01  -7.1507288173E-01
    54  -1.0996170746E+00  -1.6565451131E-02  8.4956063746E-01
    55  -9.4151968127E-01  -2.1131295789E-01  7.1505438244E-01
    56  1.0996209668E+00  1.6563290169E-02  -8.4956313146E-01
    57  1.2823979818E+00  -2.2192659176E-01  1.1622091211E+00
    58  8.4511147263E-01  4.6801746948E-02  1.0185315656E+00
    59  -1.2823939455E+00  2.2192472758E-01  -1.1622046239E+00
    60  -8.4511412237E-01  -4.6802364781E-02  -1.0185328291E+00
    61  5.7292580337E-01  -8.1425762442E-01  -4.0901739492E-01
    62  -3.5897743154E+00  -6.6169970297E+00  1.9194004999E+00
    63  -5.7290860461E-01  8.1421456301E-01  4.0900499514E-01
    64  3.5897738052E+00  6.6169966710E+00  -1.9193980915E+00
    65  2.3655486206E-01  -3.0709530810E+00  -3.8387990239E-01
    66  1.5477002391E+00  -5.3752133849E-01  -8.2518380295E-01
    67  -2.3657001794E-01  3.0709321092E+00  3.8387069172E-01
    68  -1.5476975053E+00  5.3752322672E-01  8.2518647991E-01
    69  -3.9213393410E-01  -1.6699237297E-01  3.7160379171E-01
    70  4.1822692305E-01  -1.6051682927E-01  -3.8386965641E-01
    71  3.9214461520E-01  1.6700661517E-01  -3.7160660857E-01
    72  -4.1822742278E-01  1.6051770319E-01  3.8386988286E-01
    73  4.7001572722E-01  -9.3909625056E-02  -8.1240986549E-01
    74  -9.4254512818E-01  -9.2670409606E-01  2.3810674570E+00
    75  -4.7001819591E-01  9.3914139286E-02  8.1242186048E-01
    76  9.4254407348E-01  9.2670558811E-01  -2.3810693402E+00
    77  1.1071354850E+00  -2.9103860099E-01  7.4409400171E-01
    78  -1.6664156539E+00  -5.1110656468E-01  -1.1420423801E+00
    79  -1.1071312729E+00  2.9103683090E-01  -7.4409200569E-01
    80  1.6664158417E+00  5.1110649841E-01  1.1420414250E+00
    81  1.0754773435E+00  3.6893980339E+00  -2.2917632082E+00
    82  -1.1253650463E+00  3.7539522211E+00  2.3473618422E+00
    83  -1.0754804435E+00  -3.6893650824E+00  2.2917212868E+00
    84  1.1253672756E+00  -3.7539497601E+00  -2.3473710770E+00
    85  1.3607460819E+00  9.4961873976E-03  7.0940570446E-01
    86  -1.3803457306E+00  1.5953315435E-02  -6.8350512681E-01
    87  -1.3607406534E+00  -9.4958281999E-03  -7.0940303966E-01
    88  1.3803456704E+00  -1.5953388284E-02  6.8350512930E-01
    89  2.4704361949E-02  -3.3570611765E-01  -1.7484857625E-01
    90  -3.2546022101E-02  -3.2097884393E-01  2.0206192593E-01
    91  -2.4710978387E-02  3.3570600264E-01  1.7487767300E-01
    92  3.2544146587E-02  3.2097882687E-01  -2.0205451763E-01
    93  8.7146691088E-02  -9.0901368832E-01  2.6650920630E-01
    94  -9.1868203961E-02  -8.7031334452E-01  -2.5080103140E-01
    95  -8.7140103746E-02  9.0897934724E-01  -2.6650337171E-01
    96  9.1867713936E-02  8.7031187048E-01  2.5080197613E-01
  Stress tensor (eV/A^3):
  7.4985010250E-02  -6.8398122703E-03  3.0687760676E-02
  -6.8398122703E-03  5.9606798545E-02  -1.3071069979E-04
  3.0687760676E-02  -1.3071069979E-04  7.6048722321E-02
