  Invoking FHI-aims ...
  | Number of atoms                   :  96
  ...scf iterations...
  | Total energy corrected        :   -9.199494831649E+01 eV
  ...
  Total atomic forces (unitary forces cleaned)
     1  -3.2351615072E-01  6.3394541730E-01  2.0525247861E-01
     2  2.3246580872E-01  5.9635464465E-01  -1.9006808478E-01
     3  3.2351623038E-01  -6.3394531018E-01  -2.0525240027E-01
     4  -2.3246567342E-01  -5.9635437885E-01  1.9006811299E-01
     5  -6.9935543266E-01  4.8852515953E-01  -4.9758916209E-01
     6  1.1914178581E+00  -2.2992028877E+00  3.3417851190E+00
     7  6.9935559903E-01  -4.8852501624E-01  4.9758941044E-01
     8  -1.1914183743E+00  2.2992027950E+00  -3.3417848818E+00
     9  -4.6055656418E-01  3.6112215313E-01  -2.1114266040E-01
    10  -1.5195406633E+00  -1.8219776791E+00  2.0359382208E-01
    11  4.6055625565E-01  -3.6112160886E-01  2.1114246329E-01
    12  1.5195427854E+00  1.8219796541E+00  -2.0359390526E-01
    13  -5.6536368144E-01  -1.0656616927E+00  -1.1904710368E+00
    14  2.4776130733E+00  9.8345382388E-01  1.2634277210E+00
    15  5.6536309269E-01  1.0656618043E+00  1.1904707145E+00
    16  -2.4776158313E+00  -9.8345573314E-01  -1.2634263197E+00
    17  4.9115668854E-01  -6.7071497924E-01  -4.9105874822E-02
    18  -1.4727831356E+00  8.5444715454E-01  -1.9512029396E+00
    19  -4.9115561674E-01  6.7071489347E-01  4.9106539168E-02
    20  1.4727846209E+00  -8.5444824122E-01  1.9512032972E+00
    21  6.6393948259E-01  -1.2344366169E+00  -2.3172196844E-01
    22  -5.9633048300E-01  -1.2459338261E+00  3.6149887785E-01
    23  -6.6393987216E-01  1.2344372918E+00  2.3172140435E-01
    24  5.9633008853E-01  1.2459338461E+00  -3.6149914587E-01
    25  1.1026343185E+00  3.2606199089E-02  9.6725274777E-01
    26  -2.3911879746E-01  -1.7128849645E+00  1.0461202475E+00
    27  -1.1026340678E+00  -3.2606933837E-02  -9.6725298850E-01
    28  2.3911859207E-01  1.7128863735E+00  -1.0461215853E+00
    29  5.3729352187E-01  3.5965737309E-01  6.9280074365E-01
    30  -4.3940690069E-01  4.8744522878E-01  -7.2626762584E-01
    31  -5.3729344556E-01  -3.5965719628E-01  -6.9280053862E-01
    32  4.3940656684E-01  -4.8744533259E-01  7.2626722769E-01
    33  1.8411163374E-01  1.0514820493E+00  9.4166203140E-01
    34  -6.7640539481E-02  1.1746093813E+00  -8.4529077624E-01
    35  -1.8411176006E-01  -1.0514825938E+00  -9.4166184853E-01
    36  6.7640865044E-02  -1.1746098683E+00  8.4529065873E-01
    37  -7.8403059340E-01  5.4413186654E-01  -2.9842997036E-01
    38  8.0360412991E-01  6.6930535399E-01  2.0544346928E-01
    39  7.8403059530E-01  -5.4413209045E-01  2.9842986404E-01
    40  -8.0360422571E-01  -6.6930548855E-01  -2.0544308722E-01
    41  -8.7110746458E-01  1.1972617328E+00  6.8402762690E-02
    42  9.0416597625E-01  1.2415099463E+00  -7.4716778801E-02
    43  8.7110741425E-01  -1.1972617279E+00  -6.8402421055E-02
    44  -9.0416576041E-01  -1.2415096694E+00  7.4717030339E-02
    45  -1.8227870641E+00  1.7409569239E-01  -1.2030011268E+00
    46  -7.1301330952E-01  -5.5394988622E+00  6.5600804410E-01
    47  1.8227878244E+00  -1.7409483691E-01  1.2030017208E+00
    48  7.1301222958E-01  5.5394996599E+00  -6.5600876226E-01
    49  2.4724717068E-02  3.7227634401E-01  1.4470564274E+00
    50  -1.1804818694E-01  6.8888465616E+00  -4.7254815398E+00
    51  -2.4725256622E-02  -3.7227447172E-01  -1.4470570908E+00
    52  1.1804967446E-01  -6.8888471217E+00  4.7254793632E+00
    53  -1.6353250123E+00  -9.0538674240E-01  7.8937259305E-01
    54  1.6177537057E+00  -1.3354259170E+00  -1.1379332381E+00
    55  1.6353236567E+00  9.0538962559E-01  -7.8937138456E-01
    56  -1.6177515512E+00  1.3354245441E+00  1.1379332021E+00
    57  1.0926152581E+00  -1.9031072263E-01  9.7123234860E-01
    58  1.6255821754E+00  -2.2774166772E-01  1.6773189771E+00
    59  -1.0926155226E+00  1.9030960106E-01  -9.7123173834E-01
    60  -1.6255835889E+00  2.2774108842E-01  -1.6773172104E+00
    61  -3.3247267267E-01  1.9286817836E+00  1.3532794116E-01
    62  -2.3670929377E+00  -3.7343101539E+00  7.3336968896E-01
    63  3.3247650348E-01  -1.9286819686E+00  -1.3533020096E-01
    64  2.3670923593E+00  3.7343111586E+00  -7.3336752783E-01
    65  6.8156138768E-01  -1.2974967254E+00  3.6034404809E-01
    66  3.1785820673E+00  4.6722253961E+00  -8.4643397118E-01
    67  -6.8156374677E-01  1.2974992002E+00  -3.6034281072E-01
    68  -3.1785812184E+00  -4.6722259914E+00  8.4643414611E-01
    69  -1.4244827780E+00  -1.1155066250E+00  7.6089521181E-01
    70  9.7851418681E-01  -4.6425526898E-01  -4.7861329796E-01
    71  1.4244810486E+00  1.1155074178E+00  -7.6089307466E-01
    72  -9.7851409432E-01  4.6425536048E-01  4.7861390465E-01
    73  6.8187046528E-01  -6.9323980376E-01  -1.7185953575E+00
    74  -7.9814262935E-01  -1.8087524075E+00  2.6052293878E+00
    75  -6.8187116597E-01  6.9323586928E-01  1.7185947556E+00
    76  7.9814069878E-01  1.8087526729E+00  -2.6052291683E+00
    77  1.0932881450E+00  -2.6224855277E-01  7.9998292036E-01
    78  -1.6882437460E+00  -7.2386356847E-01  -1.2685263887E+00
    79  -1.0932870001E+00  2.6224738626E-01  -7.9998305112E-01
    80  1.6882443354E+00  7.2386379771E-01  1.2685254141E+00
    81  1.3040008681E+00  6.9743519752E-01  -3.4313050314E-01
    82  -1.3736386172E+00  7.2897977111E-01  4.5105749197E-01
    83  -1.3040021273E+00  -6.9743667733E-01  3.4313015248E-01
    84  1.3736390689E+00  -7.2897947464E-01  -4.5105822365E-01
    85  1.2314191406E+00  -1.7636167186E-02  6.6945208002E-01
    86  -1.2925048387E+00  -1.4607277416E-02  -5.9060910098E-01
    87  -1.2314182149E+00  1.7636516145E-02  -6.6945176170E-01
    88  1.2925047089E+00  1.4607203653E-02  5.9060906794E-01
    89  3.9186222627E-01  -6.2674019439E-01  -1.8384996687E+00
    90  -4.2717888150E-01  -5.8340167617E-01  1.9482833606E+00
    91  -3.9186217888E-01  6.2673744066E-01  1.8384991259E+00
    92  4.2717821485E-01  5.8340261120E-01  -1.9482829113E+00
    93  -4.7823145537E-01  1.8333062504E+00  -1.3252594776E-01
    94  4.1740273826E-01  1.9509461262E+00  2.0608448877E-01
    95  4.7823285123E-01  -1.8333051688E+00  1.3252338939E-01
    96  -4.1740262422E-01  -1.9509465395E+00  -2.0608493821E-01
  Stress tensor (eV/A^3):
  9.0520168648E-02  -1.1027242512E-02  1.7987698328E-02
  -1.1027242512E-02  8.2304987590E-02  4.1696778765E-03
  1.7987698328E-02  4.1696778765E-03  9.1573299549E-02
