  Invoking FHI-aims ...
  | Number of atoms                   :  96
  ...scf iterations...
  | Total energy corrected        :   -8.517865030355E+01 eV
  ...
  Total atomic forces (unitary forces cleaned)
     1  -2.4101555209E-01  5.9616942729E-01  1.8444551119E-01
     2  2.0901683629E-01  5.6931276880E-01  -1.9266014823E-01
     3  2.4101566177E-01  -5.9616933822E-01  -1.8444544049E-01
     4  -2.0901669881E-01  -5.6931255051E-01  1.9266021232E-01
     5  -8.2320137651E-01  1.4177681476E+00  2.0382985681E-01
     6  8.3022347823E-01  1.5060690190E+00  -3.4256525653E-01
     7  8.2320156267E-01  -1.4177680138E+00  -2.0382960102E-01
     8  -8.3022376442E-01  -1.5060691390E+00  3.4256556483E-01
     9  -2.8516948811E-01  1.9596047758E-01  -1.5506444608E-01
    10  4.6763960825E-01  3.6231118507E-01  1.4092178440E-01
    11  2.8516918230E-01  -1.9596011542E-01  1.5506419437E-01
    12  -4.6764004597E-01  -3.6231153931E-01  -1.4092154575E-01
    13  -4.6711381170E-01  -9.4445239168E-01  -1.0025373728E+00
    14  2.9835773208E-01  -1.1172300253E+00  1.0354411227E+00
    15  4.6711327438E-01  9.4445245225E-01  1.0025370923E+00
    16  -2.9835780087E-01  1.1172304679E+00  -1.0354404159E+00
    17  5.9874852253E-01  -8.5029575136E-01  -7.9011792605E-02
    18  -5.6329659271E-01  -9.7278092080E-01  2.5535659642E-01
    19  -5.9874794111E-01  8.5029609558E-01  7.9012240846E-02
    20  5.6329636911E-01  9.7278094634E-01  -2.5535710478E-01
    21  3.7129062047E-01  -8.5770632175E-01  -2.1065942864E-01
    22  -3.6442083557E-01  -8.6053500774E-01  2.2274929703E-01
    23  -3.7129091797E-01  8.5770639681E-01  2.1065892025E-01
    24  3.6442067570E-01  8.6053513175E-01  -2.2274951839E-01
    25  7.1347140391E-01  9.7114066827E-03  6.1201393859E-01
    26  -7.6808413749E-01  1.2038353986E-01  -7.9491035790E-01
    27  -7.1347143609E-01  -9.7118096746E-03  -6.1201413565E-01
    28  7.6808504174E-01  -1.2038340648E-01  7.9491012036E-01
    29  4.8349214641E-01  6.0827517127E-01  8.1133221995E-01
    30  -4.7486823757E-01  6.2246330150E-01  -8.1464294847E-01
    31  -4.8349211263E-01  -6.0827526333E-01  -8.1133222996E-01
    32  4.7486799625E-01  -6.2246350885E-01  8.1464266833E-01
    33  1.0336281345E-01  7.6746210961E-01  6.2228138481E-01
    34  -9.4982298354E-02  7.7512528085E-01  -6.1094510998E-01
    35  -1.0336280697E-01  -7.6746234927E-01  -6.2228115238E-01
    36  9.4982538618E-02  -7.7512546396E-01  6.1094491512E-01
    37  -8.4754018663E-01  8.1779378963E-01  -1.3304585553E-01
    38  8.4787733928E-01  8.3023947898E-01  1.2361616614E-01
    39  8.4754019242E-01  -8.1779393922E-01  1.3304594935E-01
    40  -8.4787718458E-01  -8.3023947891E-01  -1.2361576292E-01
    41  -6.1623660893E-01  8.3709356061E-01  4.2614148820E-02
    42  6.1698727509E-01  8.3711948536E-01  -4.4469824991E-02
    43  6.1623661930E-01  -8.3709359219E-01  -4.2613944855E-02
    44  -6.1698716010E-01  -8.3711936358E-01  4.4469972306E-02
    45  -1.9447715730E+00  1.6232697132E-01  -1.2965745285E+00
    46  1.9348233081E+00  -1.0476400906E-02  1.2960070230E+00
    47  1.9447677021E+00  -1.6232677147E-01  1.2965722740E+00
    48  -1.9348245262E+00  1.0475544911E-02  -1.2960066407E+00
    49  -5.9945233839E+00  2.6198693206E+00  5.0115396165E+00
    50  6.8100773142E+00  7.3454645300E+00  -8.1538073450E+00
    51  5.9944471366E+00  -2.6198152271E+00  -5.0114967761E+00
    52  -6.8100807675E+00  -7.3454609624E+00  8.1538109165E+00
    53  2.7052014683E+00  1.3160436399E+00  -1.5860900234E+00
    54  -3.0349846516E+00  1.3821756953E+00  1.8131143697E+00
    55  -2.7051509814E+00  -1.3160248154E+00  1.5860622836E+00
    56  3.0349913901E+00  -1.3821798050E+00  -1.8131193562E+00
    57  1.1058868210E+00  -2.0126910832E-01  9.6286557933E-01
    58  7.3064115562E-01  7.5294587211E-02  8.2004089854E-01
    59  -1.1058826579E+00  2.0126731177E-01  -9.6286113379E-01
    60  -7.3064300749E-01  -7.5295150410E-02  -8.2004160004E-01
    61  1.2570755930E+00  -2.8409743294E+00  -7.6100459520E-01
    62  -3.5754988611E+00  -7.8124934333E+00  1.8594936239E+00
    63  -1.2570542990E+00  2.8409080783E+00  7.6099023428E-01
    64  3.5754988705E+00  7.8124938933E+00  -1.8594912996E+00
    65  -1.7794722317E-01  -4.6777545132E+00  -1.0824778086E+00
    66  1.0144404547E+00  -3.8350802203E+00  -3.7280225408E-01
    67  1.7792815096E-01  4.6777195439E+00  1.0824635725E+00
    68  -1.0144399652E+00  3.8350778244E+00  3.7280722048E-01
    69  5.7884395903E-01  9.5085718795E-01  5.4165072615E-03
    70  -5.5353531895E-01  9.0867387612E-01  -2.0314121346E-02
    71  -5.7882636918E-01  -9.5083696681E-01  -5.4229832433E-03
    72  5.5353453813E-01  -9.0867259577E-01  2.0313827065E-02
    73  1.2194862939E-01  3.8594833415E-01  3.9997150522E-01
    74  -6.1621235246E-01  -3.2029047339E-01  1.2801800106E+00
    75  -1.2195248458E-01  -3.8593902451E-01  -3.9995082881E-01
    76  6.1621245718E-01  3.2029241826E-01  -1.2801836355E+00
    77  9.2668189685E-01  -2.3417731538E-01  6.2197945954E-01
    78  -1.2633291877E+00  -3.2597709446E-01  -8.5961460848E-01
    79  -9.2667769628E-01  2.3417573648E-01  -6.2197734971E-01
    80  1.2633290712E+00  3.2597696188E-01  8.5961373044E-01
    81  1.0665407957E+00  5.5024506919E+00  -3.8421153174E+00
    82  -1.0889542843E+00  5.5427825982E+00  3.8642614695E+00
    83  -1.0665419446E+00  -5.5024007828E+00  3.8420585100E+00
    84  1.0889571737E+00  -5.5427787897E+00  -3.8642739431E+00
    85  1.1379034206E+00  -1.1477869317E-02  6.1206878576E-01
    86  -1.1449109190E+00  -9.3516652594E-03  -5.9908529587E-01
    87  -1.1378984396E+00  1.1478157313E-02  -6.1206624678E-01
    88  1.1449107704E+00  9.3515666502E-03  5.9908529534E-01
    89  -3.4509334718E-01  -1.5243173031E-01  1.4961658444E+00
    90  3.3675840131E-01  -1.4410750509E-01  -1.4745885387E+00
    91  3.4508450466E-01  1.5243535276E-01  -1.4961255278E+00
    92  -3.3676047287E-01  1.4410651770E-01  1.4745983684E+00
    93  6.7189555757E-01  -2.9173575930E+00  2.9950124442E-01
    94  -6.7666137612E-01  -2.9103567289E+00  -2.9389296762E-01
    95  -6.7188488319E-01  2.9173052707E+00  -2.9949267347E-01
    96  6.7666053731E-01  2.9103549110E+00  2.9389474544E-01
  Stress tensor (eV/A^3):
  5.8703299368E-02  -4.2051724848E-03  3.6149540615E-02
  -4.2051724848E-03  3.4304144594E-02  -4.7703680241E-04
  3.6149540615E-02  -4.7703680241E-04  5.7385514322E-02
