  Invoking FHI-aims ...
  | Number of atoms                   :  96
  ...scf iterations...
  | Total energy corrected        :   -7.560998595243E+01 eV
  ...
  Total atomic forces (unitary forces cleaned)
     1  -2.5624788065E-01  5.8401897307E-01  1.8978653027E-01
     2  2.3922333725E-01  5.7577273831E-01  -1.9115007226E-01
     3  2.5624781117E-01  -5.8401892133E-01  -1.8978653362E-01
     4  -2.3922324887E-01  -5.7577276392E-01  1.9115019402E-01
     5  -8.9051319827E-01  1.1490813068E+00  8.5375465529E-02
     6  8.8417796787E-01  1.1084409211E+00  -3.7003277287E-02
     7  8.9051390739E-01  -1.1490811249E+00  -8.5374854729E-02
     8  -8.8417776953E-01  -1.1084411090E+00  3.7003427603E-02
     9  -2.1268759031E-01  1.3215385453E-01  -9.4420008652E-02
    10  1.6434821823E-01  8.7108156818E-02  9.9663230113E-02
    11  2.1268696701E-01  -1.3215426245E-01  9.4419667737E-02
    12  -1.6434839672E-01  -8.7107792977E-02  -9.9663517622E-02
    13  -3.8639379083E-01  -9.3661281690E-01  -8.2756431127E-01
    14  4.3609598470E-01  -8.9101217535E-01  8.2272337734E-01
    15  3.8639323349E-01  9.3661309460E-01  8.2756412516E-01
    16  -4.3609620582E-01  8.9101209219E-01  -8.2272338882E-01
    17  1.7678659571E+00  -2.3481262689E+00  -2.1355000507E-01
    18  -1.7873808325E+00  -2.3067731965E+00  1.6315049394E-01
    19  -1.7678656711E+00  2.3481265498E+00  2.1355047536E-01
    20  1.7873816646E+00  2.3067745813E+00  -1.6315092737E-01
    21  -8.2326130718E-01  7.8302753413E-01  2.7736415303E-02
    22  8.2579779619E-01  7.9078424370E-01  -3.1626425654E-02
    23  8.2326123292E-01  -7.8302758390E-01  -2.7736502366E-02
    24  -8.2579847229E-01  -7.9078550053E-01  3.1626412776E-02
    25  5.7774744850E-01  7.2202860440E-02  3.6376236262E-01
    26  -5.6127784090E-01  2.5914214542E-02  -3.1289320712E-01
    27  -5.7774773791E-01  -7.2203306685E-02  -3.6376266494E-01
    28  5.6127791183E-01  -2.5913833636E-02  3.1289312088E-01
    29  7.2417593271E-01  2.0927686164E+00  1.9193821346E+00
    30  -7.2438870609E-01  2.0911545342E+00  -1.9181621718E+00
    31  -7.2417532840E-01  -2.0927667213E+00  -1.9193811496E+00
    32  7.2438812672E-01  -2.0911549699E+00  1.9181620758E+00
    33  -3.2398877125E-01  -7.2660397136E-01  -6.7893236058E-01
    34  3.2402851314E-01  -7.2673727901E-01  6.7906533532E-01
    35  3.2398849817E-01  7.2660232595E-01  6.7893100393E-01
    36  -3.2402864663E-01  7.2673735068E-01  -6.7906538706E-01
    37  -1.9851843472E+00  2.2461795911E+00  1.5161984136E-01
    38  1.9843935815E+00  2.2448379444E+00  -1.5093458634E-01
    39  1.9851831713E+00  -2.2461778607E+00  -1.5161954554E-01
    40  -1.9843919326E+00  -2.2448367674E+00  1.5093478132E-01
    41  5.7301993607E-01  -7.4722384174E-01  -1.2638544813E-01
    42  -5.7365289940E-01  -7.4767990029E-01  1.2681491268E-01
    43  -5.7301872473E-01  7.4722212533E-01  1.2638530825E-01
    44  5.7365175571E-01  7.4767845917E-01  -1.2681476419E-01
    45  -6.6399785844E-01  1.8934848356E-02  -4.3224438556E-01
    46  6.3322910923E-01  -9.3577647563E-03  4.0906621839E-01
    47  6.6399630404E-01  -1.8935270730E-02  4.3224317795E-01
    48  -6.3322883044E-01  9.3577439396E-03  -4.0906644916E-01
    49  -2.9758009586E+00  -2.5506642026E+00  3.9141341681E+00
    50  2.2435961268E+00  -2.8072330147E+00  -3.5885444785E+00
    51  2.9757911505E+00  2.5506571332E+00  -3.9141280714E+00
    52  -2.2436007996E+00  2.8072334933E+00  3.5885418392E+00
    53  1.1474556524E+00  2.9496679143E+00  2.6151645614E-01
    54  -1.0822185371E+00  2.8769693232E+00  -2.5900119319E-01
    55  -1.1474513297E+00  -2.9496583687E+00  -2.6151390137E-01
    56  1.0822189126E+00  -2.8769703326E+00  2.5900066860E-01
    57  -9.0957577470E-01  9.3217220044E-02  -7.6988052298E-01
    58  1.0370989064E+00  1.0926957339E-01  8.7203355717E-01
    59  9.0957394514E-01  -9.3216840446E-02  7.6987949163E-01
    60  -1.0370946258E+00  -1.0926941395E-01  -8.7203052663E-01
    61  2.1894061189E+00  -1.4027404695E+00  -1.6501506722E+00
    62  -1.6483932088E+00  -1.0729876803E+00  1.2707367942E+00
    63  -2.1893990779E+00  1.4027358750E+00  1.6501447675E+00
    64  1.6483930304E+00  1.0729876578E+00  -1.2707362768E+00
    65  2.5505139244E+00  -2.8839013986E+00  -3.3823673687E+00
    66  -2.3975299731E+00  -2.8913670879E+00  3.0876426527E+00
    67  -2.5505129937E+00  2.8838955611E+00  3.3823583753E+00
    68  2.3975273725E+00  2.8913718983E+00  -3.0876381336E+00
    69  6.8700111882E-01  2.5993870183E+00  5.7084490489E-01
    70  -6.9601846058E-01  2.5967208506E+00  -5.5886301462E-01
    71  -6.8699915012E-01  -2.5993789933E+00  -5.7084306895E-01
    72  6.9601924014E-01  -2.5967228693E+00  5.5886263552E-01
    73  -5.8615239935E-01  -8.2450228172E-01  2.3852777700E+00
    74  5.2739494914E-01  -7.6407292307E-01  -2.1002443379E+00
    75  5.8615200551E-01  8.2449955688E-01  -2.3852714968E+00
    76  -5.2739403376E-01  7.6407061868E-01  2.1002403231E+00
    77  -9.5616442117E-01  -7.6333563374E-03  -5.5437306099E-01
    78  9.1152093130E-01  -3.6402827498E-02  5.2548134976E-01
    79  9.5616319189E-01  7.6334191097E-03  5.5437254010E-01
    80  -9.1152041840E-01  3.6402703265E-02  -5.2548098491E-01
    81  2.2046765405E-01  5.4267617807E+00  2.1039294083E-01
    82  -2.2009315601E-01  5.4223178885E+00  -2.1096739777E-01
    83  -2.2047446279E-01  -5.4267480969E+00  -2.1038795182E-01
    84  2.2009177724E-01  -5.4223188228E+00  2.1096506114E-01
    85  -9.3644290475E-01  -3.5682492986E-02  -5.0231143386E-01
    86  9.3786769908E-01  -3.8663272267E-02  5.0155735286E-01
    87  9.3644242850E-01  3.5682316418E-02  5.0231146256E-01
    88  -9.3786632895E-01  3.8663223367E-02  -5.0155659317E-01
    89  -3.4737952672E-01  -1.6090551141E+00  2.3802752396E+00
    90  3.4753034549E-01  -1.6114706101E+00  -2.3811831596E+00
    91  3.4737928409E-01  1.6090513050E+00  -2.3802714909E+00
    92  -3.4753060652E-01  1.6114705779E+00  2.3811839938E+00
    93  1.9345991936E+00  -1.7463571199E+00  -1.6387918326E+00
    94  -1.9349447956E+00  -1.7492720973E+00  1.6385121200E+00
    95  -1.9345908956E+00  1.7463498273E+00  1.6387841619E+00
    96  1.9349455017E+00  1.7492732945E+00  -1.6385118008E+00
  Stress tensor (eV/A^3):
  2.7536332235E-02  3.5905597533E-04  2.4246337887E-02
  3.5905597533E-04  8.6160209063E-03  -1.3627434542E-04
  2.4246337887E-02  -1.3627434542E-04  1.0720868773E-02
