  Invoking FHI-aims ...
  | Number of atoms                   :  96
  ...scf iterations...
  | Total energy corrected        :   -5.572317309143E+01 eV
  ...
  Total atomic forces (unitary forces cleaned)
     1  -2.2580706342E-01  5.8420705064E-01  1.8934515378E-01
     2  2.2425501817E-01  5.8075653718E-01  -1.9337887166E-01
     3  2.2580709975E-01  -5.8420697211E-01  -1.8934511889E-01
     4  -2.2425489655E-01  -5.8075643766E-01  1.9337896034E-01
     5  -8.6472211077E-01  1.1240473846E+00  6.0095936516E-02
     6  8.5409847756E-01  1.0780646214E+00  1.6815035018E-02
     7  8.6472249706E-01  -1.1240472481E+00  -6.0095540534E-02
     8  -8.5409852575E-01  -1.0780647659E+00  -1.6814772594E-02
     9  -2.0334081262E-01  1.5087933646E-01  -9.8864389014E-02
    10  1.1442278744E-01  6.2002289403E-02  1.0596133813E-01
    11  2.0334039059E-01  -1.5087931860E-01  9.8864092894E-02
    12  -1.1442311355E-01  -6.2002275825E-02  -1.0596141268E-01
    13  -3.9340423078E-01  -9.0368253304E-01  -8.7503707364E-01
    14  4.8477870857E-01  -8.1247725548E-01  8.6818606398E-01
    15  3.9340371033E-01  9.0368266242E-01  8.7503684471E-01
    16  -4.8477880294E-01  8.1247740541E-01  -8.6818564825E-01
    17  1.7120200229E+00  -2.4209184338E+00  -2.2692316411E-01
    18  -1.7581182767E+00  -2.3610005587E+00  1.3264865085E-01
    19  -1.7120206736E+00  2.4209202605E+00  2.2692343333E-01
    20  1.7581186019E+00  2.3610014634E+00  -1.3264929600E-01
    21  -8.0651409771E-01  8.0691331645E-01  -5.4784986104E-02
    22  8.1664359368E-01  8.3249516568E-01  4.5395812773E-02
    23  8.0651502589E-01  -8.0691501424E-01  5.4784833692E-02
    24  -8.1664387189E-01  -8.3249600391E-01  -4.5395599425E-02
    25  4.8706941839E-01  3.3778537090E-02  3.7644612927E-01
    26  -4.5727111930E-01  -4.7014374247E-02  -2.8296345815E-01
    27  -4.8706990854E-01  -3.3778819038E-02  -3.7644649975E-01
    28  4.5727151039E-01  4.7014645403E-02  2.8296333631E-01
    29  7.5697750005E-01  2.0570939123E+00  1.9992399289E+00
    30  -7.5674446189E-01  2.0558176415E+00  -1.9979212905E+00
    31  -7.5697737558E-01  -2.0570936133E+00  -1.9992395263E+00
    32  7.5674451827E-01  -2.0558185398E+00  1.9979213193E+00
    33  -2.6577600707E-01  -7.0523157555E-01  -6.6995266427E-01
    34  2.6529855889E-01  -7.0728647028E-01  6.7013089942E-01
    35  2.6577620695E-01  7.0523118844E-01  6.6995227416E-01
    36  -2.6529888619E-01  7.0728702995E-01  -6.7013123398E-01
    37  -1.9307961283E+00  2.3234347835E+00  1.2087678133E-01
    38  1.9290013845E+00  2.3219901672E+00  -1.2075560407E-01
    39  1.9307953667E+00  -2.3234337364E+00  -1.2087635653E-01
    40  -1.9290000605E+00  -2.3219890063E+00  1.2075603010E-01
    41  5.5902567003E-01  -7.7244365832E-01  -1.2503197444E-01
    42  -5.6045389940E-01  -7.7353095088E-01  1.2570741854E-01
    43  -5.5902491045E-01  7.7244253223E-01  1.2503177498E-01
    44  5.6045302281E-01  7.7352976262E-01  -1.2570736692E-01
    45  -1.8903338941E+00  1.1476804723E-01  -1.2134962356E+00
    46  1.7921511196E+00  6.2308623719E-02  1.1697449867E+00
    47  1.8903286210E+00  -1.1476866184E-01  1.2134925505E+00
    48  -1.7921511332E+00  -6.2307787448E-02  -1.1697448842E+00
    49  -4.6793585200E+01  1.9945108584E-02  2.2209062802E+01
    50  4.8793839056E+01  -2.1178019923E+01  -1.9851636508E+01
    51  4.6792738222E+01  -1.9661240966E-02  -2.2208695301E+01
    52  -4.8793906365E+01  2.1178043931E+01  1.9851670001E+01
    53  2.5460141574E+01  2.9676555705E+01  -6.1144603010E+00
    54  -3.4449200939E+01  4.0988985748E+01  8.1019184709E+00
    55  -2.5459743718E+01  -2.9676137918E+01  6.1143652807E+00
    56  3.4449244019E+01  -4.0989046183E+01  -8.1019459275E+00
    57  -1.7329927526E-01  -1.2565054644E-04  -1.3644588229E-01
    58  -1.9318891678E-01  -4.1527299883E-02  -1.2935828976E-01
    59  1.7331516820E-01  1.2333074849E-04  1.3645895454E-01
    60  1.9319255781E-01  4.1527365912E-02  1.2936142767E-01
    61  2.0349701409E+01  -2.9980201325E+01  -1.2308398707E+01
    62  -1.3016498837E+01  -2.0092851715E+01  8.3383352066E+00
    63  -2.0349271242E+01  2.9979502767E+01  1.2308122682E+01
    64  1.3016520015E+01  2.0092887130E+01  -8.3383441426E+00
    65  -1.9151557499E+00  -1.6855227811E+01  -1.0125098838E+01
    66  2.0451594331E+00  -1.6735900742E+01  1.1165189636E+01
    67  1.9150428725E+00  1.6854998944E+01  1.0124967727E+01
    68  -2.0451836917E+00  1.6735917990E+01  -1.1165140366E+01
    69  7.7770557773E+00  1.3359785540E+01  -5.6067913580E-01
    70  -8.2064800906E+00  1.3925537487E+01  6.8743939854E-01
    71  -7.7769246891E+00  -1.3359571513E+01  5.6065893618E-01
    72  8.2064898631E+00  -1.3925551837E+01  -6.8744647094E-01
    73  -2.4404371417E+00  3.8721522593E-01  1.0636929518E+01
    74  2.7704398720E+00  -8.6853949571E-02  -1.1891476020E+01
    75  2.4404097385E+00  -3.8720725551E-01  -1.0636788131E+01
    76  -2.7704260188E+00  8.6850966512E-02  1.1891434050E+01
    77  -1.1855991926E+00  -5.7619641571E-02  -9.1895169046E-01
    78  1.2584683596E+00  -1.3020818864E-01  9.6755917063E-01
    79  1.1856111099E+00  5.7618008949E-02  9.1895961709E-01
    80  -1.2584689997E+00  1.3020794386E-01  -9.6755889824E-01
    81  -1.0699947914E+01  3.4876198318E+01  -1.0231611575E+01
    82  1.0715308059E+01  3.4865294419E+01  1.0232457827E+01
    83  1.0699760899E+01  -3.4875678537E+01  1.0231288913E+01
    84  -1.0715307793E+01  -3.4865321119E+01  -1.0232532266E+01
    85  -5.5018233219E-01  6.2018023572E-02  -3.4865965820E-01
    86  5.5861129012E-01  5.3614284458E-02  3.4202709823E-01
    87  5.5020140469E-01  -6.2017905984E-02  3.4867009688E-01
    88  -5.5860853017E-01  -5.3614428965E-02  -3.4202524783E-01
    89  -3.0182043250E+00  -3.4010100477E+00  1.8761437352E+01
    90  3.0217425803E+00  -3.4051678051E+00  -1.8784712406E+01
    91  3.0181334944E+00  3.4009448272E+00  -1.8761006901E+01
    92  -3.0217526268E+00  3.4051739932E+00  1.8784778545E+01
    93  1.6389514843E+01  -2.8246007154E+01  -8.7663485401E+00
    94  -1.6396928978E+01  -2.8270980956E+01  8.7642534244E+00
    95  -1.6389270004E+01  2.8245560635E+01  8.7662264230E+00
    96  1.6396936382E+01  2.8271002100E+01  -8.7642479752E+00
  Stress tensor (eV/A^3):
  -1.2184210192E-01  2.5938181651E-02  9.9400345059E-02
  2.5938181651E-02  -2.9479712089E-01  -9.7439951792E-03
  9.9400345059E-02  -9.7439951792E-03  -1.0751667064E-01
