  Invoking FHI-aims ...
  | Number of atoms                   :  96
  ...scf iterations...
  | Total energy corrected        :   -5.658604191002E+01 eV
  ...
  Total atomic forces (unitary forces cleaned)
     1  -2.0998818845E-01  5.9138846316E-01  2.0296566804E-01
     2  2.0854301945E-01  5.8818374728E-01  -2.0425212255E-01
     3  2.0998830058E-01  -5.9138837749E-01  -2.0296559729E-01
     4  -2.0854290416E-01  -5.8818354203E-01  2.0425218620E-01
     5  -8.3133145127E-01  1.1552541620E+00  5.1216553268E-02
     6  8.2433140150E-01  1.0939468344E+00  1.6015162751E-02
     7  8.3133159431E-01  -1.1552540397E+00  -5.1216339575E-02
     8  -8.2433167720E-01  -1.0939469492E+00  -1.6014862098E-02
     9  -1.7400054668E-01  1.6508547173E-01  -8.3967979435E-02
    10  1.0592604748E-01  9.2258346106E-02  9.0486178931E-02
    11  1.7400029709E-01  -1.6508511126E-01  8.3967772756E-02
    12  -1.0592643171E-01  -9.2258570820E-02  -9.0486083040E-02
    13  -3.6752585459E-01  -8.6121218396E-01  -8.6341902705E-01
    14  4.3620169564E-01  -7.8720044320E-01  8.5611989629E-01
    15  3.6752534813E-01  8.6121218188E-01  8.6341874517E-01
    16  -4.3620181292E-01  7.8720075668E-01  -8.5611924097E-01
    17  2.4849686395E+00  -3.6693183468E+00  -3.3761961777E-01
    18  -2.5071032999E+00  -3.6130391999E+00  2.6503452156E-01
    19  -2.4849720940E+00  3.6693249332E+00  3.3761980756E-01
    20  2.5071035340E+00  3.6130404445E+00  -2.6503555142E-01
    21  -1.5961125929E+00  2.0717394615E+00  4.5619476309E-02
    22  1.5950453708E+00  2.0762472464E+00  -5.0878214488E-02
    23  1.5961163067E+00  -2.0717457231E+00  -4.5619788215E-02
    24  -1.5950458114E+00  -2.0762484520E+00  5.0878646464E-02
    25  4.2129703430E-01  6.1733448888E-03  3.7799780288E-01
    26  -3.9901687289E-01  -5.2747575464E-02  -3.0414923029E-01
    27  -4.2129722168E-01  -6.1735405088E-03  -3.7799798394E-01
    28  3.9901745277E-01  5.2747679646E-02  3.0414909410E-01
    29  9.9823793208E-01  3.0274464060E+00  2.9701247604E+00
    30  -9.9888121106E-01  3.0247468132E+00  -2.9684184367E+00
    31  -9.9823865906E-01  -3.0274484670E+00  -2.9701255922E+00
    32  9.9888264296E-01  -3.0247495506E+00  2.9684196937E+00
    33  -5.3925993452E-01  -1.7185459426E+00  -1.6880238200E+00
    34  5.3535852721E-01  -1.7280842521E+00  1.6811858173E+00
    35  5.3926063940E-01  1.7185476982E+00  1.6880248289E+00
    36  -5.3535986375E-01  1.7280866923E+00  -1.6811874299E+00
    37  -2.6531406965E+00  3.4983666846E+00  2.4233723980E-01
    38  2.6518544906E+00  3.4953405390E+00  -2.4105443636E-01
    39  2.6531394717E+00  -3.4983650763E+00  -2.4233632764E-01
    40  -2.6518525197E+00  -3.4953380622E+00  2.4105499946E-01
    41  1.3667799753E+00  -1.9362210340E+00  -2.4411677886E-01
    42  -1.3670814807E+00  -1.9360512043E+00  2.4462820136E-01
    43  -1.3667787466E+00  1.9362192484E+00  2.4411613828E-01
    44  1.3670798045E+00  1.9360488500E+00  -2.4462828377E-01
    45  -1.3111768604E+00  1.2677282184E-01  -8.1382450059E-01
    46  1.2514504715E+00  3.6243182020E-02  8.3784679905E-01
    47  1.3111707409E+00  -1.2677246827E-01  8.1382144258E-01
    48  -1.2514508192E+00  -3.6242747978E-02  -8.3784660156E-01
    49  -2.8612780364E+01  1.1582908883E+01  1.5797702053E+01
    50  2.5769462593E+01  2.1608446133E+00  -1.4868012357E+01
    51  2.8612649448E+01  -1.1582780102E+01  -1.5797644466E+01
    52  -2.5769471924E+01  -2.1608409691E+00  1.4868017737E+01
    53  2.1267160523E+01  1.4479576302E+01  -8.9808553317E+00
    54  -2.1285833817E+01  1.4540899143E+01  9.0058050853E+00
    55  -2.1267034998E+01  -1.4479549995E+01  8.9808009195E+00
    56  2.1285837936E+01  -1.4540904544E+01  -9.0058192925E+00
    57  -1.5187304097E+00  2.4135412802E-01  -1.1770223205E+00
    58  1.4123639936E+00  2.3802265134E-01  1.1125893795E+00
    59  1.5187284751E+00  -2.4135293277E-01  1.1770211503E+00
    60  -1.4123579078E+00  -2.3802177049E-01  -1.1125835926E+00
    61  8.1208953587E+00  -2.5591920722E+01  -2.6990463822E+00
    62  -5.1461297746E+00  -1.6245101892E+01  1.7957405295E+00
    63  -8.1208882371E+00  2.5591768718E+01  2.6990504713E+00
    64  5.1461300093E+00  1.6245102212E+01  -1.7957373002E+00
    65  -6.9466695216E+00  -2.2236169156E+01  -1.1465246653E+01
    66  6.3054354891E+00  -2.2224272994E+01  1.3681738160E+01
    67  6.9466053678E+00  2.2236064304E+01  1.1465203143E+01
    68  -6.3054455352E+00  2.2224265196E+01  -1.3681721164E+01
    69  1.4055479695E+01  1.4055513289E+01  -5.3300152048E+00
    70  -1.4083370406E+01  1.4066988486E+01  5.3440060985E+00
    71  -1.4055404034E+01  -1.4055463498E+01  5.3299734707E+00
    72  1.4083364554E+01  -1.4066981080E+01  -5.3440137025E+00
    73  -4.6314716819E+00  5.2460671232E+00  1.7771975594E+01
    74  5.2679113533E+00  5.4047640499E+00  -2.0056669881E+01
    75  4.6314647554E+00  -5.2460195279E+00  -1.7771885480E+01
    76  -5.2678975905E+00  -5.4047640420E+00  2.0056658459E+01
    77  -1.2268092297E+00  -8.6618607533E-03  -9.9884948001E-01
    78  1.3111820063E+00  -5.9161890049E-02  1.0624539349E+00
    79  1.2268048193E+00  8.6616280441E-03  9.9884648608E-01
    80  -1.3111806069E+00  5.9161795348E-02  -1.0624518875E+00
    81  -1.1274177171E+00  2.2273580453E+01  -2.2150084571E+01
    82  1.1301417364E+00  2.2267213356E+01  2.2146054861E+01
    83  1.1274210640E+00  -2.2273510746E+01  2.2149922865E+01
    84  -1.1301394870E+00  -2.2267202682E+01  -2.2146088418E+01
    85  -1.3406567416E+00  7.1070028878E-02  -8.5783217903E-01
    86  1.3437867296E+00  7.0012539878E-02  8.5461571963E-01
    87  1.3406538592E+00  -7.1069672650E-02  8.5782989112E-01
    88  -1.3437858311E+00  -7.0012809120E-02  -8.5461449192E-01
    89  -4.0587610832E+00  3.8714051559E+00  2.2593517191E+01
    90  4.0602281569E+00  3.8696578564E+00  -2.2596344287E+01
    91  4.0587419607E+00  -3.8713553522E+00  -2.2593389314E+01
    92  -4.0602285192E+00  -3.8696695157E+00  2.2596365122E+01
    93  8.6096969609E+00  -2.4221446808E+01  -7.6228498179E-01
    94  -8.6083564692E+00  -2.4223978186E+01  7.5866934569E-01
    95  -8.6096716643E+00  2.4221329535E+01  7.6231602419E-01
    96  8.6083535190E+00  2.4223980152E+01  -7.5865853947E-01
  Stress tensor (eV/A^3):
  -1.1058743266E-01  5.6597409771E-03  9.6309229697E-02
  5.6597409771E-03  -2.3133817796E-01  -1.1451174065E-03
  9.6309229697E-02  -1.1451174065E-03  -1.5231927643E-01
