  Invoking FHI-aims ...
  | Number of atoms                   :  96
  ...scf iterations...
  | Total energy corrected        :   -6.460772997450E+01 eV
  ...
  Total atomic forces (unitary forces cleaned)
     1  -2.3909124211E-01  5.8403973882E-01  1.9221135677E-01
     2  2.3803576674E-01  5.8228866057E-01  -1.9312309108E-01
     3  2.3909119419E-01  -5.8403967710E-01  -1.9221135170E-01
     4  -2.3803567282E-01  -5.8228865794E-01  1.9312320511E-01
     5  -8.8138318104E-01  1.1324648284E+00  6.4387282739E-02
     6  8.7679176761E-01  1.1043493787E+00  -3.1585913578E-02
     7  8.8138378926E-01  -1.1324646635E+00  -6.4386740511E-02
     8  -8.7679163164E-01  -1.1043495559E+00  3.1586091080E-02
     9  -1.8589930399E-01  1.4014211956E-01  -7.5824920542E-02
    10  1.5116358540E-01  1.0735966904E-01  7.9424446429E-02
    11  1.8589875794E-01  -1.4014239745E-01  7.5824623226E-02
    12  -1.5116380961E-01  -1.0735939401E-01  -7.9424688116E-02
    13  -3.6292290065E-01  -9.0799988773E-01  -8.1924662365E-01
    14  3.9789098944E-01  -8.7456709441E-01  8.1524584156E-01
    15  3.6292237646E-01  9.0800012039E-01  8.1924643438E-01
    16  -3.9789114605E-01  8.7456706827E-01  -8.1524573299E-01
    17  2.6369435772E+00  -3.5578241879E+00  -3.3123579081E-01
    18  -2.6488809482E+00  -3.5273599124E+00  2.9557281868E-01
    19  -2.6369439641E+00  3.5578254002E+00  3.3123626846E-01
    20  2.6488825775E+00  3.5273627829E+00  -2.9557350122E-01
    21  -1.7325716434E+00  2.0009319943E+00  1.2406787807E-01
    22  1.7330163365E+00  2.0050332524E+00  -1.2685801053E-01
    23  1.7325722326E+00  -2.0009330196E+00  -1.2406810106E-01
    24  -1.7330177880E+00  -2.0050360257E+00  1.2685826280E-01
    25  4.9199876496E-01  5.9598497272E-02  3.2168949330E-01
    26  -4.8079341270E-01  2.7153156235E-02  -2.8580335247E-01
    27  -4.9199916249E-01  -5.9598846562E-02  -3.2168981435E-01
    28  4.8079353815E-01  -2.7152807306E-02  2.8580323383E-01
    29  9.6553833076E-01  3.1650902323E+00  2.8441460791E+00
    30  -9.6582389169E-01  3.1636889175E+00  -2.8431951260E+00
    31  -9.6553742631E-01  -3.1650868986E+00  -2.8441436580E+00
    32  9.6582367562E-01  -3.1636897378E+00  2.8431952108E+00
    33  -5.8319146827E-01  -1.8177561706E+00  -1.5960944365E+00
    34  5.8316129641E-01  -1.8177830962E+00  1.5960266175E+00
    35  5.8319086930E-01  1.8177529948E+00  1.5960917343E+00
    36  -5.8316165154E-01  1.8177835663E+00  -1.5960268571E+00
    37  -2.8196236982E+00  3.3785401397E+00  2.8662138301E-01
    38  2.8192591057E+00  3.3776157131E+00  -2.8599957017E-01
    39  2.8196212362E+00  -3.3785365308E+00  -2.8662086864E-01
    40  -2.8192560255E+00  -3.3776126452E+00  2.8599964114E-01
    41  1.4551621765E+00  -1.8863970068E+00  -2.5560403565E-01
    42  -1.4556680189E+00  -1.8868565341E+00  2.5592430367E-01
    43  -1.4551596716E+00  1.8863933699E+00  2.5560368481E-01
    44  1.4556654241E+00  1.8868532740E+00  -2.5592400775E-01
    45  -9.4331634318E-01  3.2581278626E-02  -5.9317531876E-01
    46  9.1870981002E-01  1.4549697376E-02  5.8121128022E-01
    47  9.4331323466E-01  -3.2581719531E-02  5.9317321247E-01
    48  -9.1870949484E-01  -1.4549452290E-02  -5.8121163300E-01
    49  -1.8817044466E+01  -7.1683852610E+00  9.6825392262E+00
    50  1.6635300143E+01  -8.9584735174E+00  -8.1395668726E+00
    51  1.8816926566E+01  7.1683525617E+00  -9.6824963450E+00
    52  -1.6635312745E+01  8.9584821237E+00  8.1395634027E+00
    53  7.4651625787E+00  1.6071931410E+01  1.3751614457E+00
    54  -7.4624218863E+00  1.6103737496E+01  -1.3816679684E+00
    55  -7.4651131915E+00  -1.6071839254E+01  -1.3751477668E+00
    56  7.4624263431E+00  -1.6103748536E+01  1.3816646984E+00
    57  -1.0620072790E+00  8.4626340642E-02  -8.3857814370E-01
    58  1.0054042820E+00  8.1864486520E-02  8.0720705753E-01
    59  1.0620061610E+00  -8.4625971598E-02  8.3857767619E-01
    60  -1.0053966826E+00  -8.1864088732E-02  -8.0720148687E-01
    61  1.1695648500E+01  -9.9106354145E+00  -8.0091519266E+00
    62  -9.4689838670E+00  -8.1441126472E+00  6.5400734837E+00
    63  -1.1695579805E+01  9.9105733615E+00  8.0090995941E+00
    64  9.4689842860E+00  8.1441141507E+00  -6.5400719006E+00
    65  1.3390437826E+00  -1.0747253844E+01  -1.3335133720E+01
    66  -1.0912809972E+00  -1.0865133946E+01  1.2437816607E+01
    67  -1.3390568485E+00  1.0747201935E+01  1.3335067488E+01
    68  1.0912689846E+00  1.0865154974E+01  -1.2437793943E+01
    69  4.3161403730E+00  1.2770321268E+01  1.4471175330E+00
    70  -4.3312628993E+00  1.2794238566E+01  -1.4407772956E+00
    71  -4.3161170674E+00  -1.2770253392E+01  -1.4471101854E+00
    72  4.3312681681E+00  -1.2794249663E+01  1.4407745549E+00
    73  -2.6303274425E+00  -3.5353845536E+00  1.1517141524E+01
    74  2.4360011527E+00  -3.3936796905E+00  -1.0642227252E+01
    75  2.6303200636E+00  3.5353664808E+00  -1.1517084772E+01
    76  -2.4359960031E+00  3.3936701637E+00  1.0642207081E+01
    77  -1.0944548451E+00  -3.1917515779E-02  -7.5428787630E-01
    78  1.0896458939E+00  -5.6861396565E-02  7.4927558225E-01
    79  1.0944545103E+00  3.1917435397E-02  7.5428776047E-01
    80  -1.0896450224E+00  5.6861226449E-02  -7.4927480549E-01
    81  -6.2668907054E+00  1.9175111286E+01  -3.8721350881E+00
    82  6.2675362939E+00  1.9171857441E+01  3.8717231907E+00
    83  6.2668303682E+00  -1.9175004006E+01  3.8721305733E+00
    84  -6.2675406378E+00  -1.9171866690E+01  -3.8717358789E+00
    85  -1.0403434723E+00  3.5790106624E-02  -5.7642483156E-01
    86  1.0418112475E+00  3.3147199741E-02  5.7553175158E-01
    87  1.0403442117E+00  -3.5790129266E-02  5.7642548810E-01
    88  -1.0418083427E+00  -3.3147178764E-02  -5.7553003326E-01
    89  -1.8968455029E+00  -6.4495380850E+00  1.3312847203E+01
    90  1.8972327485E+00  -6.4516458932E+00  -1.3314317955E+01
    91  1.8968377747E+00  6.4495047306E+00  -1.3312785033E+01
    92  -1.8972349698E+00  6.4516472072E+00  1.3314327798E+01
    93  1.0329483687E+01  -1.0312830586E+01  -8.5470598746E+00
    94  -1.0329726501E+01  -1.0315884807E+01  8.5466485560E+00
    95  -1.0329414496E+01  1.0312761288E+01  8.5470023728E+00
    96  1.0329730639E+01  1.0315892895E+01  -8.5466479315E+00
  Stress tensor (eV/A^3):
  -4.4880273218E-02  2.5335648081E-03  6.8341780081E-02
  2.5335648081E-03  -1.4974301476E-01  -1.2495874795E-03
  6.8341780081E-02  -1.2495874795E-03  -9.7736094288E-02
