  Invoking FHI-aims ...
  | Number of atoms                   :  96
  ...scf iterations...
  | Total energy corrected        :   -9.064915673816E+01 eV
  ...
  Total atomic forces (unitary forces cleaned)
     1  -2.6717867658E-01  6.0444048241E-01  1.7991101934E-01
     2  2.1756962820E-01  5.6844774948E-01  -1.9241709243E-01
     3  2.6717872476E-01  -6.0444038769E-01  -1.7991097551E-01
     4  -2.1756946783E-01  -5.6844759833E-01  1.9241716980E-01
     5  -8.3519368314E-01  1.5434821071E+00  2.6635359728E-01
     6  8.4086425333E-01  1.5398009197E+00  -4.9771246057E-01
     7  8.3519409097E-01  -1.5434819638E+00  -2.6635316608E-01
     8  -8.4086435821E-01  -1.5398010600E+00  4.9771276678E-01
     9  -3.2888925430E-01  2.1003232480E-01  -1.6452410426E-01
    10  8.1723657134E-01  5.9496161400E-01  1.3291212980E-01
    11  3.2888879169E-01  -2.1003225069E-01  1.6452372138E-01
    12  -8.1723694615E-01  -5.9496174677E-01  -1.3291203050E-01
    13  -4.9822092935E-01  -9.9346273059E-01  -1.0308378528E+00
    14  2.2060513388E-02  -1.3981145671E+00  1.0923606458E+00
    15  4.9822031243E-01  9.9346288847E-01  1.0308375677E+00
    16  -2.2060598913E-02  1.3981148751E+00  -1.0923601510E+00
    17  4.8425825290E-01  -6.6434878230E-01  -5.3827067414E-02
    18  -3.5818050121E-01  -8.8814793681E-01  4.8124053036E-01
    19  -4.8425758795E-01  6.6434888548E-01  5.3827527418E-02
    20  3.5818029171E-01  8.8814786843E-01  -4.8124092004E-01
    21  5.3252885562E-01  -1.0711205861E+00  -2.2819736245E-01
    22  -5.2689641785E-01  -1.1263277647E+00  2.6311287513E-01
    23  -5.3252924589E-01  1.0711207166E+00  2.2819703227E-01
    24  5.2689640672E-01  1.1263279772E+00  -2.6311309455E-01
    25  8.0584040405E-01  4.1127796147E-02  6.4789624829E-01
    26  -9.2485402877E-01  2.7007067428E-01  -1.0697289982E+00
    27  -8.0584133946E-01  -4.1128197810E-02  -6.4789710270E-01
    28  9.2485492561E-01  -2.7007036112E-01  1.0697287997E+00
    29  4.8688026349E-01  4.5437550678E-01  6.8661733184E-01
    30  -4.6548171986E-01  4.9223317213E-01  -6.9497714106E-01
    31  -4.8688008656E-01  -4.5437552092E-01  -6.8661743834E-01
    32  4.6548115604E-01  -4.9223340612E-01  6.9497680575E-01
    33  1.6048024540E-01  9.5305172728E-01  8.3065629721E-01
    34  -1.6663606353E-01  9.7885816992E-01  -8.1591846751E-01
    35  -1.6047992946E-01  -9.5305193297E-01  -8.3065599257E-01
    36  1.6663633631E-01  -9.7885839921E-01  8.1591832856E-01
    37  -7.6603815473E-01  6.0919837866E-01  -1.7621343810E-01
    38  7.7441383671E-01  6.3757151985E-01  1.5887758028E-01
    39  7.6603818457E-01  -6.0919857963E-01  1.7621353957E-01
    40  -7.7441362780E-01  -6.3757176462E-01  -1.5887709528E-01
    41  -7.8931795309E-01  1.0425266541E+00  6.3223501520E-02
    42  7.9338756010E-01  1.0446031524E+00  -6.7364183115E-02
    43  7.8931790601E-01  -1.0425265232E+00  -6.3223321429E-02
    44  -7.9338733163E-01  -1.0446029220E+00  6.7364313795E-02
    45  -8.9233293694E-01  3.2249994124E-01  -2.1964508620E-01
    46  -1.5528731297E+00  -3.0556939419E+00  -4.0848820269E-01
    47  8.9237552874E-01  -3.2248387847E-01  2.1969038965E-01
    48  1.5528687638E+00  3.0556859642E+00  4.0849053217E-01
    49  -1.1231577301E+01  7.6256724674E-01  6.4483087305E+00
    50  1.9201065313E+01  1.3970148820E+01  -1.4373255471E+01
    51  1.1231216064E+01  -7.6251348594E-01  -6.4481292057E+00
    52  -1.9201006088E+01  -1.3970079520E+01  1.4373211381E+01
    53  5.0784180432E+00  3.2360051579E+00  -3.0633054143E+00
    54  -2.5564792982E+00  5.9526156226E-01  1.9328235046E+00
    55  -5.0782083037E+00  -3.2358715626E+00  3.0631745300E+00
    56  2.5564872879E+00  -5.9526737624E-01  -1.9328288431E+00
    57  1.8971072936E+00  -2.9457925890E-01  1.7686577105E+00
    58  -5.8400135106E-01  -5.8392733508E-02  -1.8713806699E-01
    59  -1.8970847918E+00  2.9457446845E-01  -1.7686365973E+00
    60  5.8399828802E-01  5.8391797213E-02  1.8713525405E-01
    61  3.1307918561E+00  -3.5731005780E+00  -2.5576492889E+00
    62  -1.5050529773E+01  -1.4561447415E+01  1.1180452096E+01
    63  -3.1306579842E+00  3.5729188040E+00  2.5575284338E+00
    64  1.5050466167E+01  1.4561384226E+01  -1.1180400013E+01
    65  -6.7244904104E-01  -4.8594087089E+00  -2.6914377558E+00
    66  4.3332046360E+00  -1.5028612179E+00  1.0643403231E+00
    67  6.7241741094E-01  4.8593773141E+00  2.6914030652E+00
    68  -4.3332036289E+00  1.5028650545E+00  -1.0643301385E+00
    69  7.2321405768E-01  1.7392623508E+00  3.7145075319E-01
    70  -9.1935869395E-01  2.0304647030E+00  -4.1124445460E-01
    71  -7.2319529108E-01  -1.7392252528E+00  -3.7144995405E-01
    72  9.1935936341E-01  -2.0304652809E+00  4.1124293495E-01
    73  3.2266376205E-02  6.1478332242E-01  7.5940141379E-01
    74  -4.8639694870E-01  4.3457101587E-01  4.7414730440E-01
    75  -3.2273164348E-02  -6.1477011138E-01  -7.5936628142E-01
    76  4.8639918438E-01  -4.3456710584E-01  -4.7415729660E-01
    77  1.4393152640E+00  -3.7008989206E-01  8.3935691329E-01
    78  -1.8464383650E+00  -5.4697467030E-01  -1.1317873727E+00
    79  -1.4393106316E+00  3.7008793895E-01  -8.3935528880E-01
    80  1.8464388546E+00  5.4697465693E-01  1.1317868269E+00
    81  -1.6338113658E+00  8.7258345251E+00  -3.3821936541E+00
    82  1.6094935102E+00  8.8194856186E+00  3.4723280551E+00
    83  1.6337263480E+00  -8.7256833598E+00  3.3821715577E+00
    84  -1.6094915869E+00  -8.8194852657E+00  -3.4723396245E+00
    85  1.8968305582E+00  1.2223319914E-01  9.4647835866E-01
    86  -1.9341268578E+00  1.5176604560E-01  -9.1105753897E-01
    87  -1.8968175447E+00  -1.2223241491E-01  -9.4647250600E-01
    88  1.9341266952E+00  -1.5176607204E-01  9.1105743137E-01
    89  -2.7406792063E-01  -9.0245901882E-01  1.4948777781E+00
    90  2.5776343410E-01  -8.6567533480E-01  -1.4359508431E+00
    91  2.7406611996E-01  9.0244724184E-01  -1.4948666095E+00
    92  -2.5776492183E-01  8.6567761139E-01  1.4359583199E+00
    93  1.5789080520E+00  -5.5656064503E+00  5.7985553502E-02
    94  -1.5836525710E+00  -5.4724261156E+00  -3.4605236611E-02
    95  -1.5788658318E+00  5.5654321909E+00  -5.7977305891E-02
    96  1.5836512424E+00  5.4724250685E+00  3.4609025053E-02
  Stress tensor (eV/A^3):
  4.2051126676E-02  -2.3836467482E-02  6.4201696924E-02
  -2.3836467482E-02  1.0053399715E-03  1.3710983960E-02
  6.4201696924E-02  1.3710983960E-02  3.6828713294E-02
