64 
Energy: 3.0187305229083385e+00 
Mg	  0.000000000000 	  0.000000000000 	  0.000000000000 	
Mg	  1.000000000000 	  0.000000000000 	  2.980000000000 	
Mg	  0.000000000000 	  3.980000000000 	  0.000000000000 	
Mg	  1.000000000000 	  3.980000000000 	  2.980000000000 	
Mg	  3.980000000000 	  0.000000000000 	  0.000000000000 	
Mg	  4.980000000000 	  0.000000000000 	  2.980000000000 	
Mg	  3.980000000000 	  3.980000000000 	  0.000000000000 	
Mg	  4.980000000000 	  3.980000000000 	  2.980000000000 	
Mg	  1.697443174431 	  1.794962116287 	  0.000000000000 	
Mg	  2.697443174431 	  1.794962116287 	  2.980000000000 	
Mg	  1.697443174431 	  5.774962116287 	  0.000000000000 	
Mg	  2.697443174431 	  5.774962116287 	  2.980000000000 	
Mg	  5.677443174431 	  1.794962116287 	  0.000000000000 	
Mg	  6.677443174431 	  1.794962116287 	  2.980000000000 	
Mg	  5.677443174431 	  5.774962116287 	  0.000000000000 	
Mg	  6.677443174431 	  5.774962116287 	  2.980000000000 	
Mg	  2.477594709282 	  0.000000000000 	  1.502405290718 	
Mg	  3.477594709282 	  0.000000000000 	  4.482405290718 	
Mg	  2.477594709282 	  3.980000000000 	  1.502405290718 	
Mg	  3.477594709282 	  3.980000000000 	  4.482405290718 	
Mg	  6.457594709282 	  0.000000000000 	  1.502405290718 	
Mg	  7.457594709282 	  0.000000000000 	  4.482405290718 	
Mg	  6.457594709282 	  3.980000000000 	  1.502405290718 	
Mg	  7.457594709282 	  3.980000000000 	  4.482405290718 	
Mg	  0.487594709282 	  1.990000000000 	  1.502405290718 	
Mg	  1.487594709282 	  1.990000000000 	  4.482405290718 	
Mg	  0.487594709282 	  5.970000000000 	  1.502405290718 	
Mg	  1.487594709282 	  5.970000000000 	  4.482405290718 	
Mg	  4.467594709282 	  1.990000000000 	  1.502405290718 	
Mg	  5.467594709282 	  1.990000000000 	  4.482405290718 	
Mg	  4.467594709282 	  5.970000000000 	  1.502405290718 	
Mg	  5.467594709282 	  5.970000000000 	  4.482405290718 	
O	  1.990000000000 	  0.000000000000 	  0.000000000000 	
O	  2.990000000000 	  0.000000000000 	  2.980000000000 	
O	  1.990000000000 	  3.980000000000 	  0.000000000000 	
O	  2.990000000000 	  3.980000000000 	  2.980000000000 	
O	  5.970000000000 	  0.000000000000 	  0.000000000000 	
O	  6.970000000000 	  0.000000000000 	  2.980000000000 	
O	  5.970000000000 	  3.980000000000 	  0.000000000000 	
O	  6.970000000000 	  3.980000000000 	  2.980000000000 	
O	  0.000000000000 	  1.990000000000 	  0.000000000000 	
O	  1.000000000000 	  1.990000000000 	  2.980000000000 	
O	  0.000000000000 	  5.970000000000 	  0.000000000000 	
O	  1.000000000000 	  5.970000000000 	  2.980000000000 	
O	  3.980000000000 	  1.990000000000 	  0.000000000000 	
O	  4.980000000000 	  1.990000000000 	  2.980000000000 	
O	  3.980000000000 	  5.970000000000 	  0.000000000000 	
O	  4.980000000000 	  5.970000000000 	  2.980000000000 	
O	  0.487594709282 	  0.000000000000 	  1.502405290718 	
O	  1.487594709282 	  0.000000000000 	  4.482405290718 	
O	  0.487594709282 	  3.980000000000 	  1.502405290718 	
O	  1.487594709282 	  3.980000000000 	  4.482405290718 	
O	  4.467594709282 	  0.000000000000 	  1.502405290718 	
O	  5.467594709282 	  0.000000000000 	  4.482405290718 	
O	  4.467594709282 	  3.980000000000 	  1.502405290718 	
O	  5.467594709282 	  3.980000000000 	  4.482405290718 	
O	  2.867670476707 	  1.349300552004 	  1.502405290718 	
O	  3.867670476707 	  1.349300552004 	  4.482405290718 	
O	  2.867670476707 	  5.329300552004 	  1.502405290718 	
O	  3.867670476707 	  5.329300552004 	  4.482405290718 	
O	  6.847670476707 	  1.349300552004 	  1.502405290718 	
O	  7.847670476707 	  1.349300552004 	  4.482405290718 	
O	  6.847670476707 	  5.329300552004 	  1.502405290718 	
O	  7.847670476707 	  5.329300552004 	  4.482405290718 	
64 
Energy: 2.9472119580862888e+00 
Mg	  0.000000000000 	  0.000000000000 	  0.000000000000 	
Mg	  1.000000000000 	  0.000000000000 	  2.980000000000 	
Mg	  0.000000000000 	  3.980000000000 	  0.000000000000 	
Mg	  1.000000000000 	  3.980000000000 	  2.980000000000 	
Mg	  3.980000000000 	  0.000000000000 	  0.000000000000 	
Mg	  4.980000000000 	  0.000000000000 	  2.980000000000 	
Mg	  3.980000000000 	  3.980000000000 	  0.000000000000 	
Mg	  4.980000000000 	  3.980000000000 	  2.980000000000 	
Mg	  1.724084303526 	  1.815541016931 	  0.000000000000 	
Mg	  2.724084303526 	  1.815541016931 	  2.980000000000 	
Mg	  1.724084303526 	  5.795541016931 	  0.000000000000 	
Mg	  2.724084303526 	  5.795541016931 	  2.980000000000 	
Mg	  5.704084303526 	  1.815541016931 	  0.000000000000 	
Mg	  6.704084303526 	  1.815541016931 	  2.980000000000 	
Mg	  5.704084303526 	  5.795541016931 	  0.000000000000 	
Mg	  6.704084303526 	  5.795541016931 	  2.980000000000 	
Mg	  2.455738010767 	  0.000000000000 	  1.541170876716 	
Mg	  3.455738010767 	  0.000000000000 	  4.521170876716 	
Mg	  2.455738010767 	  3.980000000000 	  1.541170876716 	
Mg	  3.455738010767 	  3.980000000000 	  4.521170876716 	
Mg	  6.435738010767 	  0.000000000000 	  1.541170876716 	
Mg	  7.435738010767 	  0.000000000000 	  4.521170876716 	
Mg	  6.435738010767 	  3.980000000000 	  1.541170876716 	
Mg	  7.435738010767 	  3.980000000000 	  4.521170876716 	
Mg	  0.457283567025 	  1.998454443742 	  1.541170876716 	
Mg	  1.457283567025 	  1.998454443742 	  4.521170876716 	
Mg	  0.457283567025 	  5.978454443742 	  1.541170876716 	
Mg	  1.457283567025 	  5.978454443742 	  4.521170876716 	
Mg	  4.437283567025 	  1.998454443742 	  1.541170876716 	
Mg	  5.437283567025 	  1.998454443742 	  4.521170876716 	
Mg	  4.437283567025 	  5.978454443742 	  1.541170876716 	
Mg	  5.437283567025 	  5.978454443742 	  4.521170876716 	
O	  1.998454443742 	  0.000000000000 	  0.000000000000 	
O	  2.998454443742 	  0.000000000000 	  2.980000000000 	
O	  1.998454443742 	  3.980000000000 	  0.000000000000 	
O	  2.998454443742 	  3.980000000000 	  2.980000000000 	
O	  5.978454443742 	  0.000000000000 	  0.000000000000 	
O	  6.978454443742 	  0.000000000000 	  2.980000000000 	
O	  5.978454443742 	  3.980000000000 	  0.000000000000 	
O	  6.978454443742 	  3.980000000000 	  2.980000000000 	
O	  0.000000000000 	  1.998454443742 	  0.000000000000 	
O	  1.000000000000 	  1.998454443742 	  2.980000000000 	
O	  0.000000000000 	  5.978454443742 	  0.000000000000 	
O	  1.000000000000 	  5.978454443742 	  2.980000000000 	
O	  3.980000000000 	  1.998454443742 	  0.000000000000 	
O	  4.980000000000 	  1.998454443742 	  2.980000000000 	
O	  3.980000000000 	  5.978454443742 	  0.000000000000 	
O	  4.980000000000 	  5.978454443742 	  2.980000000000 	
O	  0.457283567025 	  0.000000000000 	  1.541170876716 	
O	  1.457283567025 	  0.000000000000 	  4.521170876716 	
O	  0.457283567025 	  3.980000000000 	  1.541170876716 	
O	  1.457283567025 	  3.980000000000 	  4.521170876716 	
O	  4.437283567025 	  0.000000000000 	  1.541170876716 	
O	  5.437283567025 	  0.000000000000 	  4.521170876716 	
O	  4.437283567025 	  3.980000000000 	  1.541170876716 	
O	  5.437283567025 	  3.980000000000 	  4.521170876716 	
O	  2.821564864387 	  1.397583836670 	  1.541170876716 	
O	  3.821564864387 	  1.397583836670 	  4.521170876716 	
O	  2.821564864387 	  5.377583836670 	  1.541170876716 	
O	  3.821564864387 	  5.377583836670 	  4.521170876716 	
O	  6.801564864387 	  1.397583836670 	  1.541170876716 	
O	  7.801564864387 	  1.397583836670 	  4.521170876716 	
O	  6.801564864387 	  5.377583836670 	  1.541170876716 	
O	  7.801564864387 	  5.377583836670 	  4.521170876716 	
64 
Energy: 3.3039479698073837e+00 
Mg	  0.000000000000 	  0.000000000000 	  0.000000000000 	
Mg	  1.000000000000 	  0.000000000000 	  2.980000000000 	
Mg	  0.000000000000 	  3.980000000000 	  0.000000000000 	
Mg	  1.000000000000 	  3.980000000000 	  2.980000000000 	
Mg	  3.980000000000 	  0.000000000000 	  0.000000000000 	
Mg	  4.980000000000 	  0.000000000000 	  2.980000000000 	
Mg	  3.980000000000 	  3.980000000000 	  0.000000000000 	
Mg	  4.980000000000 	  3.980000000000 	  2.980000000000 	
Mg	  1.750788315197 	  1.836151894617 	  0.000000000000 	
Mg	  2.750788315197 	  1.836151894617 	  2.980000000000 	
Mg	  1.750788315197 	  5.816151894617 	  0.000000000000 	
Mg	  2.750788315197 	  5.816151894617 	  2.980000000000 	
Mg	  5.730788315197 	  1.836151894617 	  0.000000000000 	
Mg	  6.730788315197 	  1.836151894617 	  2.980000000000 	
Mg	  5.730788315197 	  5.816151894617 	  0.000000000000 	
Mg	  6.730788315197 	  5.816151894617 	  2.980000000000 	
Mg	  2.433696950560 	  0.000000000000 	  1.580061156356 	
Mg	  3.433696950560 	  0.000000000000 	  4.560061156356 	
Mg	  2.433696950560 	  3.980000000000 	  1.580061156356 	
Mg	  3.433696950560 	  3.980000000000 	  4.560061156356 	
Mg	  6.413696950560 	  0.000000000000 	  1.580061156356 	
Mg	  7.413696950560 	  0.000000000000 	  4.560061156356 	
Mg	  6.413696950560 	  3.980000000000 	  1.580061156356 	
Mg	  7.413696950560 	  3.980000000000 	  4.560061156356 	
Mg	  0.426817897102 	  2.006879053458 	  1.580061156356 	
Mg	  1.426817897102 	  2.006879053458 	  4.560061156356 	
Mg	  0.426817897102 	  5.986879053458 	  1.580061156356 	
Mg	  1.426817897102 	  5.986879053458 	  4.560061156356 	
Mg	  4.406817897102 	  2.006879053458 	  1.580061156356 	
Mg	  5.406817897102 	  2.006879053458 	  4.560061156356 	
Mg	  4.406817897102 	  5.986879053458 	  1.580061156356 	
Mg	  5.406817897102 	  5.986879053458 	  4.560061156356 	
O	  2.006879053458 	  0.000000000000 	  0.000000000000 	
O	  3.006879053458 	  0.000000000000 	  2.980000000000 	
O	  2.006879053458 	  3.980000000000 	  0.000000000000 	
O	  3.006879053458 	  3.980000000000 	  2.980000000000 	
O	  5.986879053458 	  0.000000000000 	  0.000000000000 	
O	  6.986879053458 	  0.000000000000 	  2.980000000000 	
O	  5.986879053458 	  3.980000000000 	  0.000000000000 	
O	  6.986879053458 	  3.980000000000 	  2.980000000000 	
O	  0.000000000000 	  2.006879053458 	  0.000000000000 	
O	  1.000000000000 	  2.006879053458 	  2.980000000000 	
O	  0.000000000000 	  5.986879053458 	  0.000000000000 	
O	  1.000000000000 	  5.986879053458 	  2.980000000000 	
O	  3.980000000000 	  2.006879053458 	  0.000000000000 	
O	  4.980000000000 	  2.006879053458 	  2.980000000000 	
O	  3.980000000000 	  5.986879053458 	  0.000000000000 	
O	  4.980000000000 	  5.986879053458 	  2.980000000000 	
O	  0.426817897102 	  0.000000000000 	  1.580061156356 	
O	  1.426817897102 	  0.000000000000 	  4.560061156356 	
O	  0.426817897102 	  3.980000000000 	  1.580061156356 	
O	  1.426817897102 	  3.980000000000 	  4.560061156356 	
O	  4.406817897102 	  0.000000000000 	  1.580061156356 	
O	  5.406817897102 	  0.000000000000 	  4.560061156356 	
O	  4.406817897102 	  3.980000000000 	  1.580061156356 	
O	  5.406817897102 	  3.980000000000 	  4.560061156356 	
O	  2.775151268242 	  1.446040336666 	  1.580061156356 	
O	  3.775151268242 	  1.446040336666 	  4.560061156356 	
O	  2.775151268242 	  5.426040336666 	  1.580061156356 	
O	  3.775151268242 	  5.426040336666 	  4.560061156356 	
O	  6.755151268242 	  1.446040336666 	  1.580061156356 	
O	  7.755151268242 	  1.446040336666 	  4.560061156356 	
O	  6.755151268242 	  5.426040336666 	  1.580061156356 	
O	  7.755151268242 	  5.426040336666 	  4.560061156356 	
64 
Energy: 3.8921956076444149e+00 
Mg	  0.000000000000 	  0.000000000000 	  0.000000000000 	
Mg	  1.000000000000 	  0.000000000000 	  2.980000000000 	
Mg	  0.000000000000 	  3.980000000000 	  0.000000000000 	
Mg	  1.000000000000 	  3.980000000000 	  2.980000000000 	
Mg	  3.980000000000 	  0.000000000000 	  0.000000000000 	
Mg	  4.980000000000 	  0.000000000000 	  2.980000000000 	
Mg	  3.980000000000 	  3.980000000000 	  0.000000000000 	
Mg	  4.980000000000 	  3.980000000000 	  2.980000000000 	
Mg	  1.777505840717 	  1.856774092742 	  0.000000000000 	
Mg	  2.777505840717 	  1.856774092742 	  2.980000000000 	
Mg	  1.777505840717 	  5.836774092742 	  0.000000000000 	
Mg	  2.777505840717 	  5.836774092742 	  2.980000000000 	
Mg	  5.757505840717 	  1.856774092742 	  0.000000000000 	
Mg	  6.757505840717 	  1.856774092742 	  2.980000000000 	
Mg	  5.757505840717 	  5.836774092742 	  0.000000000000 	
Mg	  6.757505840717 	  5.836774092742 	  2.980000000000 	
Mg	  2.411651856912 	  0.000000000000 	  1.618969336669 	
Mg	  3.411651856912 	  0.000000000000 	  4.598969336669 	
Mg	  2.411651856912 	  3.980000000000 	  1.618969336669 	
Mg	  3.411651856912 	  3.980000000000 	  4.598969336669 	
Mg	  6.391651856912 	  0.000000000000 	  1.618969336669 	
Mg	  7.391651856912 	  0.000000000000 	  4.598969336669 	
Mg	  6.391651856912 	  3.980000000000 	  1.618969336669 	
Mg	  7.391651856912 	  3.980000000000 	  4.598969336669 	
Mg	  0.396341260122 	  2.015310596790 	  1.618969336669 	
Mg	  1.396341260122 	  2.015310596790 	  4.598969336669 	
Mg	  0.396341260122 	  5.995310596790 	  1.618969336669 	
Mg	  1.396341260122 	  5.995310596790 	  4.598969336669 	
Mg	  4.376341260122 	  2.015310596790 	  1.618969336669 	
Mg	  5.376341260122 	  2.015310596790 	  4.598969336669 	
Mg	  4.376341260122 	  5.995310596790 	  1.618969336669 	
Mg	  5.376341260122 	  5.995310596790 	  4.598969336669 	
O	  2.015310596790 	  0.000000000000 	  0.000000000000 	
O	  3.015310596790 	  0.000000000000 	  2.980000000000 	
O	  2.015310596790 	  3.980000000000 	  0.000000000000 	
O	  3.015310596790 	  3.980000000000 	  2.980000000000 	
O	  5.995310596790 	  0.000000000000 	  0.000000000000 	
O	  6.995310596790 	  0.000000000000 	  2.980000000000 	
O	  5.995310596790 	  3.980000000000 	  0.000000000000 	
O	  6.995310596790 	  3.980000000000 	  2.980000000000 	
O	  0.000000000000 	  2.015310596790 	  0.000000000000 	
O	  1.000000000000 	  2.015310596790 	  2.980000000000 	
O	  0.000000000000 	  5.995310596790 	  0.000000000000 	
O	  1.000000000000 	  5.995310596790 	  2.980000000000 	
O	  3.980000000000 	  2.015310596790 	  0.000000000000 	
O	  4.980000000000 	  2.015310596790 	  2.980000000000 	
O	  3.980000000000 	  5.995310596790 	  0.000000000000 	
O	  4.980000000000 	  5.995310596790 	  2.980000000000 	
O	  0.396341260122 	  0.000000000000 	  1.618969336669 	
O	  1.396341260122 	  0.000000000000 	  4.598969336669 	
O	  0.396341260122 	  3.980000000000 	  1.618969336669 	
O	  1.396341260122 	  3.980000000000 	  4.598969336669 	
O	  4.376341260122 	  0.000000000000 	  1.618969336669 	
O	  5.376341260122 	  0.000000000000 	  4.598969336669 	
O	  4.376341260122 	  3.980000000000 	  1.618969336669 	
O	  5.376341260122 	  3.980000000000 	  4.598969336669 	
O	  2.728724865010 	  1.494518180990 	  1.618969336669 	
O	  3.728724865010 	  1.494518180990 	  4.598969336669 	
O	  2.728724865010 	  5.474518180990 	  1.618969336669 	
O	  3.728724865010 	  5.474518180990 	  4.598969336669 	
O	  6.708724865010 	  1.494518180990 	  1.618969336669 	
O	  7.708724865010 	  1.494518180990 	  4.598969336669 	
O	  6.708724865010 	  5.474518180990 	  1.618969336669 	
O	  7.708724865010 	  5.474518180990 	  4.598969336669 	
64 
Energy: 4.5492244388856866e+00 
Mg	  0.000000000000 	  0.000000000000 	  0.000000000000 	
Mg	  1.000000000000 	  0.000000000000 	  2.980000000000 	
Mg	  0.000000000000 	  3.980000000000 	  0.000000000000 	
Mg	  1.000000000000 	  3.980000000000 	  2.980000000000 	
Mg	  3.980000000000 	  0.000000000000 	  0.000000000000 	
Mg	  4.980000000000 	  0.000000000000 	  2.980000000000 	
Mg	  3.980000000000 	  3.980000000000 	  0.000000000000 	
Mg	  4.980000000000 	  3.980000000000 	  2.980000000000 	
Mg	  1.804234933906 	  1.877405649613 	  0.000000000000 	
Mg	  2.804234933906 	  1.877405649613 	  2.980000000000 	
Mg	  1.804234933906 	  5.857405649613 	  0.000000000000 	
Mg	  2.804234933906 	  5.857405649613 	  2.980000000000 	
Mg	  5.784234933906 	  1.877405649613 	  0.000000000000 	
Mg	  6.784234933906 	  1.877405649613 	  2.980000000000 	
Mg	  5.784234933906 	  5.857405649613 	  0.000000000000 	
Mg	  6.784234933906 	  5.857405649613 	  2.980000000000 	
Mg	  2.389600659563 	  0.000000000000 	  1.657893502492 	
Mg	  3.389600659563 	  0.000000000000 	  4.637893502492 	
Mg	  2.389600659563 	  3.980000000000 	  1.657893502492 	
Mg	  3.389600659563 	  3.980000000000 	  4.637893502492 	
Mg	  6.369600659563 	  0.000000000000 	  1.657893502492 	
Mg	  7.369600659563 	  0.000000000000 	  4.637893502492 	
Mg	  6.369600659563 	  3.980000000000 	  1.657893502492 	
Mg	  7.369600659563 	  3.980000000000 	  4.637893502492 	
Mg	  0.365853578536 	  2.023747081027 	  1.657893502492 	
Mg	  1.365853578536 	  2.023747081027 	  4.637893502492 	
Mg	  0.365853578536 	  6.003747081027 	  1.657893502492 	
Mg	  1.365853578536 	  6.003747081027 	  4.637893502492 	
Mg	  4.345853578536 	  2.023747081027 	  1.657893502492 	
Mg	  5.345853578536 	  2.023747081027 	  4.637893502492 	
Mg	  4.345853578536 	  6.003747081027 	  1.657893502492 	
Mg	  5.345853578536 	  6.003747081027 	  4.637893502492 	
O	  2.023747081027 	  0.000000000000 	  0.000000000000 	
O	  3.023747081027 	  0.000000000000 	  2.980000000000 	
O	  2.023747081027 	  3.980000000000 	  0.000000000000 	
O	  3.023747081027 	  3.980000000000 	  2.980000000000 	
O	  6.003747081027 	  0.000000000000 	  0.000000000000 	
O	  7.003747081027 	  0.000000000000 	  2.980000000000 	
O	  6.003747081027 	  3.980000000000 	  0.000000000000 	
O	  7.003747081027 	  3.980000000000 	  2.980000000000 	
O	  0.000000000000 	  2.023747081027 	  0.000000000000 	
O	  1.000000000000 	  2.023747081027 	  2.980000000000 	
O	  0.000000000000 	  6.003747081027 	  0.000000000000 	
O	  1.000000000000 	  6.003747081027 	  2.980000000000 	
O	  3.980000000000 	  2.023747081027 	  0.000000000000 	
O	  4.980000000000 	  2.023747081027 	  2.980000000000 	
O	  3.980000000000 	  6.003747081027 	  0.000000000000 	
O	  4.980000000000 	  6.003747081027 	  2.980000000000 	
O	  0.365853578536 	  0.000000000000 	  1.657893502492 	
O	  1.365853578536 	  0.000000000000 	  4.637893502492 	
O	  0.365853578536 	  3.980000000000 	  1.657893502492 	
O	  1.365853578536 	  3.980000000000 	  4.637893502492 	
O	  4.345853578536 	  0.000000000000 	  1.657893502492 	
O	  5.345853578536 	  0.000000000000 	  4.637893502492 	
O	  4.345853578536 	  3.980000000000 	  1.657893502492 	
O	  5.345853578536 	  3.980000000000 	  4.637893502492 	
O	  2.682283522392 	  1.543015478831 	  1.657893502492 	
O	  3.682283522392 	  1.543015478831 	  4.637893502492 	
O	  2.682283522392 	  5.523015478831 	  1.657893502492 	
O	  3.682283522392 	  5.523015478831 	  4.637893502492 	
O	  6.662283522392 	  1.543015478831 	  1.657893502492 	
O	  7.662283522392 	  1.543015478831 	  4.637893502492 	
O	  6.662283522392 	  5.523015478831 	  1.657893502492 	
O	  7.662283522392 	  5.523015478831 	  4.637893502492 	
64 
Energy: 5.1468063706709124e+00 
Mg	  0.000000000000 	  0.000000000000 	  0.000000000000 	
Mg	  1.000000000000 	  0.000000000000 	  2.980000000000 	
Mg	  0.000000000000 	  3.980000000000 	  0.000000000000 	
Mg	  1.000000000000 	  3.980000000000 	  2.980000000000 	
Mg	  3.980000000000 	  0.000000000000 	  0.000000000000 	
Mg	  4.980000000000 	  0.000000000000 	  2.980000000000 	
Mg	  3.980000000000 	  3.980000000000 	  0.000000000000 	
Mg	  4.980000000000 	  3.980000000000 	  2.980000000000 	
Mg	  1.830972230514 	  1.898043978360 	  0.000000000000 	
Mg	  2.830972230514 	  1.898043978360 	  2.980000000000 	
Mg	  1.830972230514 	  5.878043978360 	  0.000000000000 	
Mg	  2.830972230514 	  5.878043978360 	  2.980000000000 	
Mg	  5.810972230514 	  1.898043978360 	  0.000000000000 	
Mg	  6.810972230514 	  1.898043978360 	  2.980000000000 	
Mg	  5.810972230514 	  5.878043978360 	  0.000000000000 	
Mg	  6.810972230514 	  5.878043978360 	  2.980000000000 	
Mg	  2.367546213283 	  0.000000000000 	  1.696828734821 	
Mg	  3.367546213283 	  0.000000000000 	  4.676828734821 	
Mg	  2.367546213283 	  3.980000000000 	  1.696828734821 	
Mg	  3.367546213283 	  3.980000000000 	  4.676828734821 	
Mg	  6.347546213283 	  0.000000000000 	  1.696828734821 	
Mg	  7.347546213283 	  0.000000000000 	  4.676828734821 	
Mg	  6.347546213283 	  3.980000000000 	  1.696828734821 	
Mg	  7.347546213283 	  3.980000000000 	  4.676828734821 	
Mg	  0.335358739231 	  2.032187474052 	  1.696828734821 	
Mg	  1.335358739231 	  2.032187474052 	  4.676828734821 	
Mg	  0.335358739231 	  6.012187474052 	  1.696828734821 	
Mg	  1.335358739231 	  6.012187474052 	  4.676828734821 	
Mg	  4.315358739231 	  2.032187474052 	  1.696828734821 	
Mg	  5.315358739231 	  2.032187474052 	  4.676828734821 	
Mg	  4.315358739231 	  6.012187474052 	  1.696828734821 	
Mg	  5.315358739231 	  6.012187474052 	  4.676828734821 	
O	  2.032187474052 	  0.000000000000 	  0.000000000000 	
O	  3.032187474052 	  0.000000000000 	  2.980000000000 	
O	  2.032187474052 	  3.980000000000 	  0.000000000000 	
O	  3.032187474052 	  3.980000000000 	  2.980000000000 	
O	  6.012187474052 	  0.000000000000 	  0.000000000000 	
O	  7.012187474052 	  0.000000000000 	  2.980000000000 	
O	  6.012187474052 	  3.980000000000 	  0.000000000000 	
O	  7.012187474052 	  3.980000000000 	  2.980000000000 	
O	  0.000000000000 	  2.032187474052 	  0.000000000000 	
O	  1.000000000000 	  2.032187474052 	  2.980000000000 	
O	  0.000000000000 	  6.012187474052 	  0.000000000000 	
O	  1.000000000000 	  6.012187474052 	  2.980000000000 	
O	  3.980000000000 	  2.032187474052 	  0.000000000000 	
O	  4.980000000000 	  2.032187474052 	  2.980000000000 	
O	  3.980000000000 	  6.012187474052 	  0.000000000000 	
O	  4.980000000000 	  6.012187474052 	  2.980000000000 	
O	  0.335358739231 	  0.000000000000 	  1.696828734821 	
O	  1.335358739231 	  0.000000000000 	  4.676828734821 	
O	  0.335358739231 	  3.980000000000 	  1.696828734821 	
O	  1.335358739231 	  3.980000000000 	  4.676828734821 	
O	  4.315358739231 	  0.000000000000 	  1.696828734821 	
O	  5.315358739231 	  0.000000000000 	  4.676828734821 	
O	  4.315358739231 	  3.980000000000 	  1.696828734821 	
O	  5.315358739231 	  3.980000000000 	  4.676828734821 	
O	  2.635833204668 	  1.591526090703 	  1.696828734821 	
O	  3.635833204668 	  1.591526090703 	  4.676828734821 	
O	  2.635833204668 	  5.571526090703 	  1.696828734821 	
O	  3.635833204668 	  5.571526090703 	  4.676828734821 	
O	  6.615833204668 	  1.591526090703 	  1.696828734821 	
O	  7.615833204668 	  1.591526090703 	  4.676828734821 	
O	  6.615833204668 	  5.571526090703 	  1.696828734821 	
O	  7.615833204668 	  5.571526090703 	  4.676828734821 	
64 
Energy: 5.5878324902207464e+00 
Mg	  0.000000000000 	  0.000000000000 	  0.000000000000 	
Mg	  1.000000000000 	  0.000000000000 	  2.980000000000 	
Mg	  0.000000000000 	  3.980000000000 	  0.000000000000 	
Mg	  1.000000000000 	  3.980000000000 	  2.980000000000 	
Mg	  3.980000000000 	  0.000000000000 	  0.000000000000 	
Mg	  4.980000000000 	  0.000000000000 	  2.980000000000 	
Mg	  3.980000000000 	  3.980000000000 	  0.000000000000 	
Mg	  4.980000000000 	  3.980000000000 	  2.980000000000 	
Mg	  1.857715190028 	  1.918686934196 	  0.000000000000 	
Mg	  2.857715190028 	  1.918686934196 	  2.980000000000 	
Mg	  1.857715190028 	  5.898686934196 	  0.000000000000 	
Mg	  2.857715190028 	  5.898686934196 	  2.980000000000 	
Mg	  5.837715190028 	  1.918686934196 	  0.000000000000 	
Mg	  6.837715190028 	  1.918686934196 	  2.980000000000 	
Mg	  5.837715190028 	  5.898686934196 	  0.000000000000 	
Mg	  6.837715190028 	  5.898686934196 	  2.980000000000 	
Mg	  2.345489143373 	  0.000000000000 	  1.735771701692 	
Mg	  3.345489143373 	  0.000000000000 	  4.715771701692 	
Mg	  2.345489143373 	  3.980000000000 	  1.735771701692 	
Mg	  3.345489143373 	  3.980000000000 	  4.715771701692 	
Mg	  6.325489143373 	  0.000000000000 	  1.735771701692 	
Mg	  7.325489143373 	  0.000000000000 	  4.715771701692 	
Mg	  6.325489143373 	  3.980000000000 	  1.735771701692 	
Mg	  7.325489143373 	  3.980000000000 	  4.715771701692 	
Mg	  0.304858720840 	  2.040630422532 	  1.735771701692 	
Mg	  1.304858720840 	  2.040630422532 	  4.715771701692 	
Mg	  0.304858720840 	  6.020630422532 	  1.735771701692 	
Mg	  1.304858720840 	  6.020630422532 	  4.715771701692 	
Mg	  4.284858720840 	  2.040630422532 	  1.735771701692 	
Mg	  5.284858720840 	  2.040630422532 	  4.715771701692 	
Mg	  4.284858720840 	  6.020630422532 	  1.735771701692 	
Mg	  5.284858720840 	  6.020630422532 	  4.715771701692 	
O	  2.040630422532 	  0.000000000000 	  0.000000000000 	
O	  3.040630422532 	  0.000000000000 	  2.980000000000 	
O	  2.040630422532 	  3.980000000000 	  0.000000000000 	
O	  3.040630422532 	  3.980000000000 	  2.980000000000 	
O	  6.020630422532 	  0.000000000000 	  0.000000000000 	
O	  7.020630422532 	  0.000000000000 	  2.980000000000 	
O	  6.020630422532 	  3.980000000000 	  0.000000000000 	
O	  7.020630422532 	  3.980000000000 	  2.980000000000 	
O	  0.000000000000 	  2.040630422532 	  0.000000000000 	
O	  1.000000000000 	  2.040630422532 	  2.980000000000 	
O	  0.000000000000 	  6.020630422532 	  0.000000000000 	
O	  1.000000000000 	  6.020630422532 	  2.980000000000 	
O	  3.980000000000 	  2.040630422532 	  0.000000000000 	
O	  4.980000000000 	  2.040630422532 	  2.980000000000 	
O	  3.980000000000 	  6.020630422532 	  0.000000000000 	
O	  4.980000000000 	  6.020630422532 	  2.980000000000 	
O	  0.304858720840 	  0.000000000000 	  1.735771701692 	
O	  1.304858720840 	  0.000000000000 	  4.715771701692 	
O	  0.304858720840 	  3.980000000000 	  1.735771701692 	
O	  1.304858720840 	  3.980000000000 	  4.715771701692 	
O	  4.284858720840 	  0.000000000000 	  1.735771701692 	
O	  5.284858720840 	  0.000000000000 	  4.715771701692 	
O	  4.284858720840 	  3.980000000000 	  1.735771701692 	
O	  5.284858720840 	  3.980000000000 	  4.715771701692 	
O	  2.589376120045 	  1.640046063348 	  1.735771701692 	
O	  3.589376120045 	  1.640046063348 	  4.715771701692 	
O	  2.589376120045 	  5.620046063348 	  1.735771701692 	
O	  3.589376120045 	  5.620046063348 	  4.715771701692 	
O	  6.569376120045 	  1.640046063348 	  1.735771701692 	
O	  7.569376120045 	  1.640046063348 	  4.715771701692 	
O	  6.569376120045 	  5.620046063348 	  1.735771701692 	
O	  7.569376120045 	  5.620046063348 	  4.715771701692 	
64 
Energy: 5.8041539118923522e+00 
Mg	  0.000000000000 	  0.000000000000 	  0.000000000000 	
Mg	  1.000000000000 	  0.000000000000 	  2.980000000000 	
Mg	  0.000000000000 	  3.980000000000 	  0.000000000000 	
Mg	  1.000000000000 	  3.980000000000 	  2.980000000000 	
Mg	  3.980000000000 	  0.000000000000 	  0.000000000000 	
Mg	  4.980000000000 	  0.000000000000 	  2.980000000000 	
Mg	  3.980000000000 	  3.980000000000 	  0.000000000000 	
Mg	  4.980000000000 	  3.980000000000 	  2.980000000000 	
Mg	  1.884461194399 	  1.939332400988 	  0.000000000000 	
Mg	  2.884461194399 	  1.939332400988 	  2.980000000000 	
Mg	  1.884461194399 	  5.919332400988 	  0.000000000000 	
Mg	  2.884461194399 	  5.919332400988 	  2.980000000000 	
Mg	  5.864461194399 	  1.939332400988 	  0.000000000000 	
Mg	  6.864461194399 	  1.939332400988 	  2.980000000000 	
Mg	  5.864461194399 	  5.919332400988 	  0.000000000000 	
Mg	  6.864461194399 	  5.919332400988 	  2.980000000000 	
Mg	  2.323430847115 	  0.000000000000 	  1.774718781220 	
Mg	  3.323430847115 	  0.000000000000 	  4.754718781220 	
Mg	  2.323430847115 	  3.980000000000 	  1.774718781220 	
Mg	  3.323430847115 	  3.980000000000 	  4.754718781220 	
Mg	  6.303430847115 	  0.000000000000 	  1.774718781220 	
Mg	  7.303430847115 	  0.000000000000 	  4.754718781220 	
Mg	  6.303430847115 	  3.980000000000 	  1.774718781220 	
Mg	  7.303430847115 	  3.980000000000 	  4.754718781220 	
Mg	  0.274356032948 	  2.049074814167 	  1.774718781220 	
Mg	  1.274356032948 	  2.049074814167 	  4.754718781220 	
Mg	  0.274356032948 	  6.029074814167 	  1.774718781220 	
Mg	  1.274356032948 	  6.029074814167 	  4.754718781220 	
Mg	  4.254356032948 	  2.049074814167 	  1.774718781220 	
Mg	  5.254356032948 	  2.049074814167 	  4.754718781220 	
Mg	  4.254356032948 	  6.029074814167 	  1.774718781220 	
Mg	  5.254356032948 	  6.029074814167 	  4.754718781220 	
O	  2.049074814167 	  0.000000000000 	  0.000000000000 	
O	  3.049074814167 	  0.000000000000 	  2.980000000000 	
O	  2.049074814167 	  3.980000000000 	  0.000000000000 	
O	  3.049074814167 	  3.980000000000 	  2.980000000000 	
O	  6.029074814167 	  0.000000000000 	  0.000000000000 	
O	  7.029074814167 	  0.000000000000 	  2.980000000000 	
O	  6.029074814167 	  3.980000000000 	  0.000000000000 	
O	  7.029074814167 	  3.980000000000 	  2.980000000000 	
O	  0.000000000000 	  2.049074814167 	  0.000000000000 	
O	  1.000000000000 	  2.049074814167 	  2.980000000000 	
O	  0.000000000000 	  6.029074814167 	  0.000000000000 	
O	  1.000000000000 	  6.029074814167 	  2.980000000000 	
O	  3.980000000000 	  2.049074814167 	  0.000000000000 	
O	  4.980000000000 	  2.049074814167 	  2.980000000000 	
O	  3.980000000000 	  6.029074814167 	  0.000000000000 	
O	  4.980000000000 	  6.029074814167 	  2.980000000000 	
O	  0.274356032948 	  0.000000000000 	  1.774718781220 	
O	  1.274356032948 	  0.000000000000 	  4.754718781220 	
O	  0.274356032948 	  3.980000000000 	  1.774718781220 	
O	  1.274356032948 	  3.980000000000 	  4.754718781220 	
O	  4.254356032948 	  0.000000000000 	  1.774718781220 	
O	  5.254356032948 	  0.000000000000 	  4.754718781220 	
O	  4.254356032948 	  3.980000000000 	  1.774718781220 	
O	  5.254356032948 	  3.980000000000 	  4.754718781220 	
O	  2.542915673473 	  1.688570986874 	  1.774718781220 	
O	  3.542915673473 	  1.688570986874 	  4.754718781220 	
O	  2.542915673473 	  5.668570986874 	  1.774718781220 	
O	  3.542915673473 	  5.668570986874 	  4.754718781220 	
O	  6.522915673473 	  1.688570986874 	  1.774718781220 	
O	  7.522915673473 	  1.688570986874 	  4.754718781220 	
O	  6.522915673473 	  5.668570986874 	  1.774718781220 	
O	  7.522915673473 	  5.668570986874 	  4.754718781220 	
64 
Energy: 5.7549589957046487e+00 
Mg	  0.000000000000 	  0.000000000000 	  0.000000000000 	
Mg	  1.000000000000 	  0.000000000000 	  2.980000000000 	
Mg	  0.000000000000 	  3.980000000000 	  0.000000000000 	
Mg	  1.000000000000 	  3.980000000000 	  2.980000000000 	
Mg	  3.980000000000 	  0.000000000000 	  0.000000000000 	
Mg	  4.980000000000 	  0.000000000000 	  2.980000000000 	
Mg	  3.980000000000 	  3.980000000000 	  0.000000000000 	
Mg	  4.980000000000 	  3.980000000000 	  2.980000000000 	
Mg	  1.911208038082 	  1.959978544537 	  0.000000000000 	
Mg	  2.911208038082 	  1.959978544537 	  2.980000000000 	
Mg	  1.911208038082 	  5.939978544537 	  0.000000000000 	
Mg	  2.911208038082 	  5.939978544537 	  2.980000000000 	
Mg	  5.891208038082 	  1.959978544537 	  0.000000000000 	
Mg	  6.891208038082 	  1.959978544537 	  2.980000000000 	
Mg	  5.891208038082 	  5.939978544537 	  0.000000000000 	
Mg	  6.891208038082 	  5.939978544537 	  2.980000000000 	
Mg	  2.301372089727 	  0.000000000000 	  1.813667025170 	
Mg	  3.301372089727 	  0.000000000000 	  4.793667025170 	
Mg	  2.301372089727 	  3.980000000000 	  1.813667025170 	
Mg	  3.301372089727 	  3.980000000000 	  4.793667025170 	
Mg	  6.281372089727 	  0.000000000000 	  1.813667025170 	
Mg	  7.281372089727 	  0.000000000000 	  4.793667025170 	
Mg	  6.281372089727 	  3.980000000000 	  1.813667025170 	
Mg	  7.281372089727 	  3.980000000000 	  4.793667025170 	
Mg	  0.243852532278 	  2.057519557449 	  1.813667025170 	
Mg	  1.243852532278 	  2.057519557449 	  4.793667025170 	
Mg	  0.243852532278 	  6.037519557449 	  1.813667025170 	
Mg	  1.243852532278 	  6.037519557449 	  4.793667025170 	
Mg	  4.223852532278 	  2.057519557449 	  1.813667025170 	
Mg	  5.223852532278 	  2.057519557449 	  4.793667025170 	
Mg	  4.223852532278 	  6.037519557449 	  1.813667025170 	
Mg	  5.223852532278 	  6.037519557449 	  4.793667025170 	
O	  2.057519557449 	  0.000000000000 	  0.000000000000 	
O	  3.057519557449 	  0.000000000000 	  2.980000000000 	
O	  2.057519557449 	  3.980000000000 	  0.000000000000 	
O	  3.057519557449 	  3.980000000000 	  2.980000000000 	
O	  6.037519557449 	  0.000000000000 	  0.000000000000 	
O	  7.037519557449 	  0.000000000000 	  2.980000000000 	
O	  6.037519557449 	  3.980000000000 	  0.000000000000 	
O	  7.037519557449 	  3.980000000000 	  2.980000000000 	
O	  0.000000000000 	  2.057519557449 	  0.000000000000 	
O	  1.000000000000 	  2.057519557449 	  2.980000000000 	
O	  0.000000000000 	  6.037519557449 	  0.000000000000 	
O	  1.000000000000 	  6.037519557449 	  2.980000000000 	
O	  3.980000000000 	  2.057519557449 	  0.000000000000 	
O	  4.980000000000 	  2.057519557449 	  2.980000000000 	
O	  3.980000000000 	  6.037519557449 	  0.000000000000 	
O	  4.980000000000 	  6.037519557449 	  2.980000000000 	
O	  0.243852532278 	  0.000000000000 	  1.813667025170 	
O	  1.243852532278 	  0.000000000000 	  4.793667025170 	
O	  0.243852532278 	  3.980000000000 	  1.813667025170 	
O	  1.243852532278 	  3.980000000000 	  4.793667025170 	
O	  4.223852532278 	  0.000000000000 	  1.813667025170 	
O	  5.223852532278 	  0.000000000000 	  4.793667025170 	
O	  4.223852532278 	  3.980000000000 	  1.813667025170 	
O	  5.223852532278 	  3.980000000000 	  4.793667025170 	
O	  2.496454115550 	  1.737097330035 	  1.813667025170 	
O	  3.496454115550 	  1.737097330035 	  4.793667025170 	
O	  2.496454115550 	  5.717097330035 	  1.813667025170 	
O	  3.496454115550 	  5.717097330035 	  4.793667025170 	
O	  6.476454115550 	  1.737097330035 	  1.813667025170 	
O	  7.476454115550 	  1.737097330035 	  4.793667025170 	
O	  6.476454115550 	  5.717097330035 	  1.813667025170 	
O	  7.476454115550 	  5.717097330035 	  4.793667025170 	
64 
Energy: 5.4263207355494600e+00 
Mg	  0.000000000000 	  0.000000000000 	  0.000000000000 	
Mg	  1.000000000000 	  0.000000000000 	  2.980000000000 	
Mg	  0.000000000000 	  3.980000000000 	  0.000000000000 	
Mg	  1.000000000000 	  3.980000000000 	  2.980000000000 	
Mg	  3.980000000000 	  0.000000000000 	  0.000000000000 	
Mg	  4.980000000000 	  0.000000000000 	  2.980000000000 	
Mg	  3.980000000000 	  3.980000000000 	  0.000000000000 	
Mg	  4.980000000000 	  3.980000000000 	  2.980000000000 	
Mg	  1.937953556323 	  1.980623641637 	  0.000000000000 	
Mg	  2.937953556323 	  1.980623641637 	  2.980000000000 	
Mg	  1.937953556323 	  5.960623641637 	  0.000000000000 	
Mg	  2.937953556323 	  5.960623641637 	  2.980000000000 	
Mg	  5.917953556323 	  1.980623641637 	  0.000000000000 	
Mg	  6.917953556323 	  1.980623641637 	  2.980000000000 	
Mg	  5.917953556323 	  5.960623641637 	  0.000000000000 	
Mg	  6.917953556323 	  5.960623641637 	  2.980000000000 	
Mg	  2.279314238833 	  0.000000000000 	  1.852613385696 	
Mg	  3.279314238833 	  0.000000000000 	  4.832613385696 	
Mg	  2.279314238833 	  3.980000000000 	  1.852613385696 	
Mg	  3.279314238833 	  3.980000000000 	  4.832613385696 	
Mg	  6.259314238833 	  0.000000000000 	  1.852613385696 	
Mg	  7.259314238833 	  0.000000000000 	  4.832613385696 	
Mg	  6.259314238833 	  3.980000000000 	  1.852613385696 	
Mg	  7.259314238833 	  3.980000000000 	  4.832613385696 	
Mg	  0.213350426569 	  2.065963812265 	  1.852613385696 	
Mg	  1.213350426569 	  2.065963812265 	  4.832613385696 	
Mg	  0.213350426569 	  6.045963812265 	  1.852613385696 	
Mg	  1.213350426569 	  6.045963812265 	  4.832613385696 	
Mg	  4.193350426569 	  2.065963812265 	  1.852613385696 	
Mg	  5.193350426569 	  2.065963812265 	  4.832613385696 	
Mg	  4.193350426569 	  6.045963812265 	  1.852613385696 	
Mg	  5.193350426569 	  6.045963812265 	  4.832613385696 	
O	  2.065963812265 	  0.000000000000 	  0.000000000000 	
O	  3.065963812265 	  0.000000000000 	  2.980000000000 	
O	  2.065963812265 	  3.980000000000 	  0.000000000000 	
O	  3.065963812265 	  3.980000000000 	  2.980000000000 	
O	  6.045963812265 	  0.000000000000 	  0.000000000000 	
O	  7.045963812265 	  0.000000000000 	  2.980000000000 	
O	  6.045963812265 	  3.980000000000 	  0.000000000000 	
O	  7.045963812265 	  3.980000000000 	  2.980000000000 	
O	  0.000000000000 	  2.065963812265 	  0.000000000000 	
O	  1.000000000000 	  2.065963812265 	  2.980000000000 	
O	  0.000000000000 	  6.045963812265 	  0.000000000000 	
O	  1.000000000000 	  6.045963812265 	  2.980000000000 	
O	  3.980000000000 	  2.065963812265 	  0.000000000000 	
O	  4.980000000000 	  2.065963812265 	  2.980000000000 	
O	  3.980000000000 	  6.045963812265 	  0.000000000000 	
O	  4.980000000000 	  6.045963812265 	  2.980000000000 	
O	  0.213350426569 	  0.000000000000 	  1.852613385696 	
O	  1.213350426569 	  0.000000000000 	  4.832613385696 	
O	  0.213350426569 	  3.980000000000 	  1.852613385696 	
O	  1.213350426569 	  3.980000000000 	  4.832613385696 	
O	  4.193350426569 	  0.000000000000 	  1.852613385696 	
O	  5.193350426569 	  0.000000000000 	  4.832613385696 	
O	  4.193350426569 	  3.980000000000 	  1.852613385696 	
O	  5.193350426569 	  3.980000000000 	  4.832613385696 	
O	  2.449994580089 	  1.785621351753 	  1.852613385696 	
O	  3.449994580089 	  1.785621351753 	  4.832613385696 	
O	  2.449994580089 	  5.765621351753 	  1.852613385696 	
O	  3.449994580089 	  5.765621351753 	  4.832613385696 	
O	  6.429994580089 	  1.785621351753 	  1.852613385696 	
O	  7.429994580089 	  1.785621351753 	  4.832613385696 	
O	  6.429994580089 	  5.765621351753 	  1.852613385696 	
O	  7.429994580089 	  5.765621351753 	  4.832613385696 	
64 
Energy: 4.8309543911667374e+00 
Mg	  0.000000000000 	  0.000000000000 	  0.000000000000 	
Mg	  1.000000000000 	  0.000000000000 	  2.980000000000 	
Mg	  0.000000000000 	  3.980000000000 	  0.000000000000 	
Mg	  1.000000000000 	  3.980000000000 	  2.980000000000 	
Mg	  3.980000000000 	  0.000000000000 	  0.000000000000 	
Mg	  4.980000000000 	  0.000000000000 	  2.980000000000 	
Mg	  3.980000000000 	  3.980000000000 	  0.000000000000 	
Mg	  4.980000000000 	  3.980000000000 	  2.980000000000 	
Mg	  1.964695806894 	  2.001266131038 	  0.000000000000 	
Mg	  2.964695806894 	  2.001266131038 	  2.980000000000 	
Mg	  1.964695806894 	  5.981266131038 	  0.000000000000 	
Mg	  2.964695806894 	  5.981266131038 	  2.980000000000 	
Mg	  5.944695806894 	  2.001266131038 	  0.000000000000 	
Mg	  6.944695806894 	  2.001266131038 	  2.980000000000 	
Mg	  5.944695806894 	  5.981266131038 	  0.000000000000 	
Mg	  6.944695806894 	  5.981266131038 	  2.980000000000 	
Mg	  2.257258400051 	  0.000000000000 	  1.891555158604 	
Mg	  3.257258400051 	  0.000000000000 	  4.871555158604 	
Mg	  2.257258400051 	  3.980000000000 	  1.891555158604 	
Mg	  3.257258400051 	  3.980000000000 	  4.871555158604 	
Mg	  6.237258400051 	  0.000000000000 	  1.891555158604 	
Mg	  7.237258400051 	  0.000000000000 	  4.871555158604 	
Mg	  6.237258400051 	  3.980000000000 	  1.891555158604 	
Mg	  7.237258400051 	  3.980000000000 	  4.871555158604 	
Mg	  0.182851620723 	  2.074406779328 	  1.891555158604 	
Mg	  1.182851620723 	  2.074406779328 	  4.871555158604 	
Mg	  0.182851620723 	  6.054406779328 	  1.891555158604 	
Mg	  1.182851620723 	  6.054406779328 	  4.871555158604 	
Mg	  4.162851620723 	  2.074406779328 	  1.891555158604 	
Mg	  5.162851620723 	  2.074406779328 	  4.871555158604 	
Mg	  4.162851620723 	  6.054406779328 	  1.891555158604 	
Mg	  5.162851620723 	  6.054406779328 	  4.871555158604 	
O	  2.074406779328 	  0.000000000000 	  0.000000000000 	
O	  3.074406779328 	  0.000000000000 	  2.980000000000 	
O	  2.074406779328 	  3.980000000000 	  0.000000000000 	
O	  3.074406779328 	  3.980000000000 	  2.980000000000 	
O	  6.054406779328 	  0.000000000000 	  0.000000000000 	
O	  7.054406779328 	  0.000000000000 	  2.980000000000 	
O	  6.054406779328 	  3.980000000000 	  0.000000000000 	
O	  7.054406779328 	  3.980000000000 	  2.980000000000 	
O	  0.000000000000 	  2.074406779328 	  0.000000000000 	
O	  1.000000000000 	  2.074406779328 	  2.980000000000 	
O	  0.000000000000 	  6.054406779328 	  0.000000000000 	
O	  1.000000000000 	  6.054406779328 	  2.980000000000 	
O	  3.980000000000 	  2.074406779328 	  0.000000000000 	
O	  4.980000000000 	  2.074406779328 	  2.980000000000 	
O	  3.980000000000 	  6.054406779328 	  0.000000000000 	
O	  4.980000000000 	  6.054406779328 	  2.980000000000 	
O	  0.182851620723 	  0.000000000000 	  1.891555158604 	
O	  1.182851620723 	  0.000000000000 	  4.871555158604 	
O	  0.182851620723 	  3.980000000000 	  1.891555158604 	
O	  1.182851620723 	  3.980000000000 	  4.871555158604 	
O	  4.162851620723 	  0.000000000000 	  1.891555158604 	
O	  5.162851620723 	  0.000000000000 	  4.871555158604 	
O	  4.162851620723 	  3.980000000000 	  1.891555158604 	
O	  5.162851620723 	  3.980000000000 	  4.871555158604 	
O	  2.403539696630 	  1.834139749697 	  1.891555158604 	
O	  3.403539696630 	  1.834139749697 	  4.871555158604 	
O	  2.403539696630 	  5.814139749697 	  1.891555158604 	
O	  3.403539696630 	  5.814139749697 	  4.871555158604 	
O	  6.383539696630 	  1.834139749697 	  1.891555158604 	
O	  7.383539696630 	  1.834139749697 	  4.871555158604 	
O	  6.383539696630 	  5.814139749697 	  1.891555158604 	
O	  7.383539696630 	  5.814139749697 	  4.871555158604 	
64 
Energy: 4.0089957919065009e+00 
Mg	  0.000000000000 	  0.000000000000 	  0.000000000000 	
Mg	  1.000000000000 	  0.000000000000 	  2.980000000000 	
Mg	  0.000000000000 	  3.980000000000 	  0.000000000000 	
Mg	  1.000000000000 	  3.980000000000 	  2.980000000000 	
Mg	  3.980000000000 	  0.000000000000 	  0.000000000000 	
Mg	  4.980000000000 	  0.000000000000 	  2.980000000000 	
Mg	  3.980000000000 	  3.980000000000 	  0.000000000000 	
Mg	  4.980000000000 	  3.980000000000 	  2.980000000000 	
Mg	  1.991433080226 	  2.021904621523 	  0.000000000000 	
Mg	  2.991433080226 	  2.021904621523 	  2.980000000000 	
Mg	  1.991433080226 	  6.001904621523 	  0.000000000000 	
Mg	  2.991433080226 	  6.001904621523 	  2.980000000000 	
Mg	  5.971433080226 	  2.021904621523 	  0.000000000000 	
Mg	  6.971433080226 	  2.021904621523 	  2.980000000000 	
Mg	  5.971433080226 	  6.001904621523 	  0.000000000000 	
Mg	  6.971433080226 	  6.001904621523 	  2.980000000000 	
Mg	  2.235205410607 	  0.000000000000 	  1.930489997630 	
Mg	  3.235205410607 	  0.000000000000 	  4.910489997630 	
Mg	  2.235205410607 	  3.980000000000 	  1.930489997630 	
Mg	  3.235205410607 	  3.980000000000 	  4.910489997630 	
Mg	  6.215205410607 	  0.000000000000 	  1.930489997630 	
Mg	  7.215205410607 	  0.000000000000 	  4.910489997630 	
Mg	  6.215205410607 	  3.980000000000 	  1.930489997630 	
Mg	  7.215205410607 	  3.980000000000 	  4.910489997630 	
Mg	  0.152357706488 	  2.082847704119 	  1.930489997630 	
Mg	  1.152357706488 	  2.082847704119 	  4.910489997630 	
Mg	  0.152357706488 	  6.062847704119 	  1.930489997630 	
Mg	  1.152357706488 	  6.062847704119 	  4.910489997630 	
Mg	  4.132357706488 	  2.082847704119 	  1.930489997630 	
Mg	  5.132357706488 	  2.082847704119 	  4.910489997630 	
Mg	  4.132357706488 	  6.062847704119 	  1.930489997630 	
Mg	  5.132357706488 	  6.062847704119 	  4.910489997630 	
O	  2.082847704119 	  0.000000000000 	  0.000000000000 	
O	  3.082847704119 	  0.000000000000 	  2.980000000000 	
O	  2.082847704119 	  3.980000000000 	  0.000000000000 	
O	  3.082847704119 	  3.980000000000 	  2.980000000000 	
O	  6.062847704119 	  0.000000000000 	  0.000000000000 	
O	  7.062847704119 	  0.000000000000 	  2.980000000000 	
O	  6.062847704119 	  3.980000000000 	  0.000000000000 	
O	  7.062847704119 	  3.980000000000 	  2.980000000000 	
O	  0.000000000000 	  2.082847704119 	  0.000000000000 	
O	  1.000000000000 	  2.082847704119 	  2.980000000000 	
O	  0.000000000000 	  6.062847704119 	  0.000000000000 	
O	  1.000000000000 	  6.062847704119 	  2.980000000000 	
O	  3.980000000000 	  2.082847704119 	  0.000000000000 	
O	  4.980000000000 	  2.082847704119 	  2.980000000000 	
O	  3.980000000000 	  6.062847704119 	  0.000000000000 	
O	  4.980000000000 	  6.062847704119 	  2.980000000000 	
O	  0.152357706488 	  0.000000000000 	  1.930489997630 	
O	  1.152357706488 	  0.000000000000 	  4.910489997630 	
O	  0.152357706488 	  3.980000000000 	  1.930489997630 	
O	  1.152357706488 	  3.980000000000 	  4.910489997630 	
O	  4.132357706488 	  0.000000000000 	  1.930489997630 	
O	  5.132357706488 	  0.000000000000 	  4.910489997630 	
O	  4.132357706488 	  3.980000000000 	  1.930489997630 	
O	  5.132357706488 	  3.980000000000 	  4.910489997630 	
O	  2.357091575798 	  1.882649677793 	  1.930489997630 	
O	  3.357091575798 	  1.882649677793 	  4.910489997630 	
O	  2.357091575798 	  5.862649677793 	  1.930489997630 	
O	  3.357091575798 	  5.862649677793 	  4.910489997630 	
O	  6.337091575798 	  1.882649677793 	  1.930489997630 	
O	  7.337091575798 	  1.882649677793 	  4.910489997630 	
O	  6.337091575798 	  5.862649677793 	  1.930489997630 	
O	  7.337091575798 	  5.862649677793 	  4.910489997630 	
64 
Energy: 3.0292216099920175e+00 
Mg	  0.000000000000 	  0.000000000000 	  0.000000000000 	
Mg	  1.000000000000 	  0.000000000000 	  2.980000000000 	
Mg	  0.000000000000 	  3.980000000000 	  0.000000000000 	
Mg	  1.000000000000 	  3.980000000000 	  2.980000000000 	
Mg	  3.980000000000 	  0.000000000000 	  0.000000000000 	
Mg	  4.980000000000 	  0.000000000000 	  2.980000000000 	
Mg	  3.980000000000 	  3.980000000000 	  0.000000000000 	
Mg	  4.980000000000 	  3.980000000000 	  2.980000000000 	
Mg	  2.018163887596 	  2.042537893204 	  0.000000000000 	
Mg	  3.018163887596 	  2.042537893204 	  2.980000000000 	
Mg	  2.018163887596 	  6.022537893204 	  0.000000000000 	
Mg	  3.018163887596 	  6.022537893204 	  2.980000000000 	
Mg	  5.998163887596 	  2.042537893204 	  0.000000000000 	
Mg	  6.998163887596 	  2.042537893204 	  2.980000000000 	
Mg	  5.998163887596 	  6.022537893204 	  0.000000000000 	
Mg	  6.998163887596 	  6.022537893204 	  2.980000000000 	
Mg	  2.213155932462 	  0.000000000000 	  1.969415876380 	
Mg	  3.213155932462 	  0.000000000000 	  4.949415876380 	
Mg	  2.213155932462 	  3.980000000000 	  1.969415876380 	
Mg	  3.213155932462 	  3.980000000000 	  4.949415876380 	
Mg	  6.193155932462 	  0.000000000000 	  1.969415876380 	
Mg	  7.193155932462 	  0.000000000000 	  4.949415876380 	
Mg	  6.193155932462 	  3.980000000000 	  1.969415876380 	
Mg	  7.193155932462 	  3.980000000000 	  4.949415876380 	
Mg	  0.121870028041 	  2.091285904421 	  1.969415876380 	
Mg	  1.121870028041 	  2.091285904421 	  4.949415876380 	
Mg	  0.121870028041 	  6.071285904421 	  1.969415876380 	
Mg	  1.121870028041 	  6.071285904421 	  4.949415876380 	
Mg	  4.101870028041 	  2.091285904421 	  1.969415876380 	
Mg	  5.101870028041 	  2.091285904421 	  4.949415876380 	
Mg	  4.101870028041 	  6.071285904421 	  1.969415876380 	
Mg	  5.101870028041 	  6.071285904421 	  4.949415876380 	
O	  2.091285904421 	  0.000000000000 	  0.000000000000 	
O	  3.091285904421 	  0.000000000000 	  2.980000000000 	
O	  2.091285904421 	  3.980000000000 	  0.000000000000 	
O	  3.091285904421 	  3.980000000000 	  2.980000000000 	
O	  6.071285904421 	  0.000000000000 	  0.000000000000 	
O	  7.071285904421 	  0.000000000000 	  2.980000000000 	
O	  6.071285904421 	  3.980000000000 	  0.000000000000 	
O	  7.071285904421 	  3.980000000000 	  2.980000000000 	
O	  0.000000000000 	  2.091285904421 	  0.000000000000 	
O	  1.000000000000 	  2.091285904421 	  2.980000000000 	
O	  0.000000000000 	  6.071285904421 	  0.000000000000 	
O	  1.000000000000 	  6.071285904421 	  2.980000000000 	
O	  3.980000000000 	  2.091285904421 	  0.000000000000 	
O	  4.980000000000 	  2.091285904421 	  2.980000000000 	
O	  3.980000000000 	  6.071285904421 	  0.000000000000 	
O	  4.980000000000 	  6.071285904421 	  2.980000000000 	
O	  0.121870028041 	  0.000000000000 	  1.969415876380 	
O	  1.121870028041 	  0.000000000000 	  4.949415876380 	
O	  0.121870028041 	  3.980000000000 	  1.969415876380 	
O	  1.121870028041 	  3.980000000000 	  4.949415876380 	
O	  4.101870028041 	  0.000000000000 	  1.969415876380 	
O	  5.101870028041 	  0.000000000000 	  4.949415876380 	
O	  4.101870028041 	  3.980000000000 	  1.969415876380 	
O	  5.101870028041 	  3.980000000000 	  4.949415876380 	
O	  2.310651954895 	  1.931148687575 	  1.969415876380 	
O	  3.310651954895 	  1.931148687575 	  4.949415876380 	
O	  2.310651954895 	  5.911148687575 	  1.969415876380 	
O	  3.310651954895 	  5.911148687575 	  4.949415876380 	
O	  6.290651954895 	  1.931148687575 	  1.969415876380 	
O	  7.290651954895 	  1.931148687575 	  4.949415876380 	
O	  6.290651954895 	  5.911148687575 	  1.969415876380 	
O	  7.290651954895 	  5.911148687575 	  4.949415876380 	
64 
Energy: 1.9905833903466335e+00 
Mg	  0.000000000000 	  0.000000000000 	  0.000000000000 	
Mg	  1.000000000000 	  0.000000000000 	  2.980000000000 	
Mg	  0.000000000000 	  3.980000000000 	  0.000000000000 	
Mg	  1.000000000000 	  3.980000000000 	  2.980000000000 	
Mg	  3.980000000000 	  0.000000000000 	  0.000000000000 	
Mg	  4.980000000000 	  0.000000000000 	  2.980000000000 	
Mg	  3.980000000000 	  3.980000000000 	  0.000000000000 	
Mg	  4.980000000000 	  3.980000000000 	  2.980000000000 	
Mg	  2.044886947584 	  2.063164885911 	  0.000000000000 	
Mg	  3.044886947584 	  2.063164885911 	  2.980000000000 	
Mg	  2.044886947584 	  6.043164885911 	  0.000000000000 	
Mg	  3.044886947584 	  6.043164885911 	  2.980000000000 	
Mg	  6.024886947584 	  2.063164885911 	  0.000000000000 	
Mg	  7.024886947584 	  2.063164885911 	  2.980000000000 	
Mg	  6.024886947584 	  6.043164885911 	  0.000000000000 	
Mg	  7.024886947584 	  6.043164885911 	  2.980000000000 	
Mg	  2.191110454200 	  0.000000000000 	  2.008331070930 	
Mg	  3.191110454200 	  0.000000000000 	  4.988331070930 	
Mg	  2.191110454200 	  3.980000000000 	  2.008331070930 	
Mg	  3.191110454200 	  3.980000000000 	  4.988331070930 	
Mg	  6.171110454200 	  0.000000000000 	  2.008331070930 	
Mg	  7.171110454200 	  0.000000000000 	  4.988331070930 	
Mg	  6.171110454200 	  3.980000000000 	  2.008331070930 	
Mg	  7.171110454200 	  3.980000000000 	  4.988331070930 	
Mg	  0.091389691635 	  2.099720762565 	  2.008331070930 	
Mg	  1.091389691635 	  2.099720762565 	  4.988331070930 	
Mg	  0.091389691635 	  6.079720762565 	  2.008331070930 	
Mg	  1.091389691635 	  6.079720762565 	  4.988331070930 	
Mg	  4.071389691635 	  2.099720762565 	  2.008331070930 	
Mg	  5.071389691635 	  2.099720762565 	  4.988331070930 	
Mg	  4.071389691635 	  6.079720762565 	  2.008331070930 	
Mg	  5.071389691635 	  6.079720762565 	  4.988331070930 	
O	  2.099720762565 	  0.000000000000 	  0.000000000000 	
O	  3.099720762565 	  0.000000000000 	  2.980000000000 	
O	  2.099720762565 	  3.980000000000 	  0.000000000000 	
O	  3.099720762565 	  3.980000000000 	  2.980000000000 	
O	  6.079720762565 	  0.000000000000 	  0.000000000000 	
O	  7.079720762565 	  0.000000000000 	  2.980000000000 	
O	  6.079720762565 	  3.980000000000 	  0.000000000000 	
O	  7.079720762565 	  3.980000000000 	  2.980000000000 	
O	  0.000000000000 	  2.099720762565 	  0.000000000000 	
O	  1.000000000000 	  2.099720762565 	  2.980000000000 	
O	  0.000000000000 	  6.079720762565 	  0.000000000000 	
O	  1.000000000000 	  6.079720762565 	  2.980000000000 	
O	  3.980000000000 	  2.099720762565 	  0.000000000000 	
O	  4.980000000000 	  2.099720762565 	  2.980000000000 	
O	  3.980000000000 	  6.079720762565 	  0.000000000000 	
O	  4.980000000000 	  6.079720762565 	  2.980000000000 	
O	  0.091389691635 	  0.000000000000 	  2.008331070930 	
O	  1.091389691635 	  0.000000000000 	  4.988331070930 	
O	  0.091389691635 	  3.980000000000 	  2.008331070930 	
O	  1.091389691635 	  3.980000000000 	  4.988331070930 	
O	  4.071389691635 	  0.000000000000 	  2.008331070930 	
O	  5.071389691635 	  0.000000000000 	  4.988331070930 	
O	  4.071389691635 	  3.980000000000 	  2.008331070930 	
O	  5.071389691635 	  3.980000000000 	  4.988331070930 	
O	  2.264222207509 	  1.979634707756 	  2.008331070930 	
O	  3.264222207509 	  1.979634707756 	  4.988331070930 	
O	  2.264222207509 	  5.959634707756 	  2.008331070930 	
O	  3.264222207509 	  5.959634707756 	  4.988331070930 	
O	  6.244222207509 	  1.979634707756 	  2.008331070930 	
O	  7.244222207509 	  1.979634707756 	  4.988331070930 	
O	  6.244222207509 	  5.959634707756 	  2.008331070930 	
O	  7.244222207509 	  5.959634707756 	  4.988331070930 	
64 
Energy: 1.0239401819706115e+00 
Mg	  0.000000000000 	  0.000000000000 	  0.000000000000 	
Mg	  1.000000000000 	  0.000000000000 	  2.980000000000 	
Mg	  0.000000000000 	  3.980000000000 	  0.000000000000 	
Mg	  1.000000000000 	  3.980000000000 	  2.980000000000 	
Mg	  3.980000000000 	  0.000000000000 	  0.000000000000 	
Mg	  4.980000000000 	  0.000000000000 	  2.980000000000 	
Mg	  3.980000000000 	  3.980000000000 	  0.000000000000 	
Mg	  4.980000000000 	  3.980000000000 	  2.980000000000 	
Mg	  2.071601187868 	  2.083784698942 	  0.000000000000 	
Mg	  3.071601187868 	  2.083784698942 	  2.980000000000 	
Mg	  2.071601187868 	  6.063784698942 	  0.000000000000 	
Mg	  3.071601187868 	  6.063784698942 	  2.980000000000 	
Mg	  6.051601187868 	  2.083784698942 	  0.000000000000 	
Mg	  7.051601187868 	  2.083784698942 	  2.980000000000 	
Mg	  6.051601187868 	  6.063784698942 	  0.000000000000 	
Mg	  7.051601187868 	  6.063784698942 	  2.980000000000 	
Mg	  2.169069276460 	  0.000000000000 	  2.047234165720 	
Mg	  3.169069276460 	  0.000000000000 	  5.027234165720 	
Mg	  2.169069276460 	  3.980000000000 	  2.047234165720 	
Mg	  3.169069276460 	  3.980000000000 	  5.027234165720 	
Mg	  6.149069276460 	  0.000000000000 	  2.047234165720 	
Mg	  7.149069276460 	  0.000000000000 	  5.027234165720 	
Mg	  6.149069276460 	  3.980000000000 	  2.047234165720 	
Mg	  7.149069276460 	  3.980000000000 	  5.027234165720 	
Mg	  0.060917555370 	  2.108151721090 	  2.047234165720 	
Mg	  1.060917555370 	  2.108151721090 	  5.027234165720 	
Mg	  0.060917555370 	  6.088151721090 	  2.047234165720 	
Mg	  1.060917555370 	  6.088151721090 	  5.027234165720 	
Mg	  4.040917555370 	  2.108151721090 	  2.047234165720 	
Mg	  5.040917555370 	  2.108151721090 	  5.027234165720 	
Mg	  4.040917555370 	  6.088151721090 	  2.047234165720 	
Mg	  5.040917555370 	  6.088151721090 	  5.027234165720 	
O	  2.108151721090 	  0.000000000000 	  0.000000000000 	
O	  3.108151721090 	  0.000000000000 	  2.980000000000 	
O	  2.108151721090 	  3.980000000000 	  0.000000000000 	
O	  3.108151721090 	  3.980000000000 	  2.980000000000 	
O	  6.088151721090 	  0.000000000000 	  0.000000000000 	
O	  7.088151721090 	  0.000000000000 	  2.980000000000 	
O	  6.088151721090 	  3.980000000000 	  0.000000000000 	
O	  7.088151721090 	  3.980000000000 	  2.980000000000 	
O	  0.000000000000 	  2.108151721090 	  0.000000000000 	
O	  1.000000000000 	  2.108151721090 	  2.980000000000 	
O	  0.000000000000 	  6.088151721090 	  0.000000000000 	
O	  1.000000000000 	  6.088151721090 	  2.980000000000 	
O	  3.980000000000 	  2.108151721090 	  0.000000000000 	
O	  4.980000000000 	  2.108151721090 	  2.980000000000 	
O	  3.980000000000 	  6.088151721090 	  0.000000000000 	
O	  4.980000000000 	  6.088151721090 	  2.980000000000 	
O	  0.060917555370 	  0.000000000000 	  2.047234165720 	
O	  1.060917555370 	  0.000000000000 	  5.027234165720 	
O	  0.060917555370 	  3.980000000000 	  2.047234165720 	
O	  1.060917555370 	  3.980000000000 	  5.027234165720 	
O	  4.040917555370 	  0.000000000000 	  2.047234165720 	
O	  5.040917555370 	  0.000000000000 	  5.027234165720 	
O	  4.040917555370 	  3.980000000000 	  2.047234165720 	
O	  5.040917555370 	  3.980000000000 	  5.027234165720 	
O	  2.217803320756 	  2.028106053334 	  2.047234165720 	
O	  3.217803320756 	  2.028106053334 	  5.027234165720 	
O	  2.217803320756 	  6.008106053334 	  2.047234165720 	
O	  3.217803320756 	  6.008106053334 	  5.027234165720 	
O	  6.197803320756 	  2.028106053334 	  2.047234165720 	
O	  7.197803320756 	  2.028106053334 	  5.027234165720 	
O	  6.197803320756 	  6.008106053334 	  2.047234165720 	
O	  7.197803320756 	  6.008106053334 	  5.027234165720 	
64 
Energy: 2.9381821147444326e-01 
Mg	  0.000000000000 	  0.000000000000 	  0.000000000000 	
Mg	  1.000000000000 	  0.000000000000 	  2.980000000000 	
Mg	  0.000000000000 	  3.980000000000 	  0.000000000000 	
Mg	  1.000000000000 	  3.980000000000 	  2.980000000000 	
Mg	  3.980000000000 	  0.000000000000 	  0.000000000000 	
Mg	  4.980000000000 	  0.000000000000 	  2.980000000000 	
Mg	  3.980000000000 	  3.980000000000 	  0.000000000000 	
Mg	  4.980000000000 	  3.980000000000 	  2.980000000000 	
Mg	  2.098305750813 	  2.104396594143 	  0.000000000000 	
Mg	  3.098305750813 	  2.104396594143 	  2.980000000000 	
Mg	  2.098305750813 	  6.084396594143 	  0.000000000000 	
Mg	  3.098305750813 	  6.084396594143 	  2.980000000000 	
Mg	  6.078305750813 	  2.104396594143 	  0.000000000000 	
Mg	  7.078305750813 	  2.104396594143 	  2.980000000000 	
Mg	  6.078305750813 	  6.084396594143 	  0.000000000000 	
Mg	  7.078305750813 	  6.084396594143 	  2.980000000000 	
Mg	  2.147032497449 	  0.000000000000 	  2.086124064154 	
Mg	  3.147032497449 	  0.000000000000 	  5.066124064154 	
Mg	  2.147032497449 	  3.980000000000 	  2.086124064154 	
Mg	  3.147032497449 	  3.980000000000 	  5.066124064154 	
Mg	  6.127032497449 	  0.000000000000 	  2.086124064154 	
Mg	  7.127032497449 	  0.000000000000 	  5.066124064154 	
Mg	  6.127032497449 	  3.980000000000 	  2.086124064154 	
Mg	  7.127032497449 	  3.980000000000 	  5.066124064154 	
Mg	  0.030454216647 	  2.116578280802 	  2.086124064154 	
Mg	  1.030454216647 	  2.116578280802 	  5.066124064154 	
Mg	  0.030454216647 	  6.096578280802 	  2.086124064154 	
Mg	  1.030454216647 	  6.096578280802 	  5.066124064154 	
Mg	  4.010454216647 	  2.116578280802 	  2.086124064154 	
Mg	  5.010454216647 	  2.116578280802 	  5.066124064154 	
Mg	  4.010454216647 	  6.096578280802 	  2.086124064154 	
Mg	  5.010454216647 	  6.096578280802 	  5.066124064154 	
O	  2.116578280802 	  0.000000000000 	  0.000000000000 	
O	  3.116578280802 	  0.000000000000 	  2.980000000000 	
O	  2.116578280802 	  3.980000000000 	  0.000000000000 	
O	  3.116578280802 	  3.980000000000 	  2.980000000000 	
O	  6.096578280802 	  0.000000000000 	  0.000000000000 	
O	  7.096578280802 	  0.000000000000 	  2.980000000000 	
O	  6.096578280802 	  3.980000000000 	  0.000000000000 	
O	  7.096578280802 	  3.980000000000 	  2.980000000000 	
O	  0.000000000000 	  2.116578280802 	  0.000000000000 	
O	  1.000000000000 	  2.116578280802 	  2.980000000000 	
O	  0.000000000000 	  6.096578280802 	  0.000000000000 	
O	  1.000000000000 	  6.096578280802 	  2.980000000000 	
O	  3.980000000000 	  2.116578280802 	  0.000000000000 	
O	  4.980000000000 	  2.116578280802 	  2.980000000000 	
O	  3.980000000000 	  6.096578280802 	  0.000000000000 	
O	  4.980000000000 	  6.096578280802 	  2.980000000000 	
O	  0.030454216647 	  0.000000000000 	  2.086124064154 	
O	  1.030454216647 	  0.000000000000 	  5.066124064154 	
O	  0.030454216647 	  3.980000000000 	  2.086124064154 	
O	  1.030454216647 	  3.980000000000 	  5.066124064154 	
O	  4.010454216647 	  0.000000000000 	  2.086124064154 	
O	  5.010454216647 	  0.000000000000 	  5.066124064154 	
O	  4.010454216647 	  3.980000000000 	  2.086124064154 	
O	  5.010454216647 	  3.980000000000 	  5.066124064154 	
O	  2.171395870767 	  2.076561440127 	  2.086124064154 	
O	  3.171395870767 	  2.076561440127 	  5.066124064154 	
O	  2.171395870767 	  6.056561440127 	  2.086124064154 	
O	  3.171395870767 	  6.056561440127 	  5.066124064154 	
O	  6.151395870767 	  2.076561440127 	  2.086124064154 	
O	  7.151395870767 	  2.076561440127 	  5.066124064154 	
O	  6.151395870767 	  6.056561440127 	  2.086124064154 	
O	  7.151395870767 	  6.056561440127 	  5.066124064154 	
64 
Energy: 0.0000000000000000e+00 
Mg	  0.000000000000 	  0.000000000000 	  0.000000000000 	
Mg	  1.000000000000 	  0.000000000000 	  2.980000000000 	
Mg	  0.000000000000 	  3.980000000000 	  0.000000000000 	
Mg	  1.000000000000 	  3.980000000000 	  2.980000000000 	
Mg	  3.980000000000 	  0.000000000000 	  0.000000000000 	
Mg	  4.980000000000 	  0.000000000000 	  2.980000000000 	
Mg	  3.980000000000 	  3.980000000000 	  0.000000000000 	
Mg	  4.980000000000 	  3.980000000000 	  2.980000000000 	
Mg	  2.125000000000 	  2.125000000000 	  0.000000000000 	
Mg	  3.125000000000 	  2.125000000000 	  2.980000000000 	
Mg	  2.125000000000 	  6.105000000000 	  0.000000000000 	
Mg	  3.125000000000 	  6.105000000000 	  2.980000000000 	
Mg	  6.105000000000 	  2.125000000000 	  0.000000000000 	
Mg	  7.105000000000 	  2.125000000000 	  2.980000000000 	
Mg	  6.105000000000 	  6.105000000000 	  0.000000000000 	
Mg	  7.105000000000 	  6.105000000000 	  2.980000000000 	
Mg	  2.125000000000 	  0.000000000000 	  2.125000000000 	
Mg	  3.125000000000 	  0.000000000000 	  5.105000000000 	
Mg	  2.125000000000 	  3.980000000000 	  2.125000000000 	
Mg	  3.125000000000 	  3.980000000000 	  5.105000000000 	
Mg	  6.105000000000 	  0.000000000000 	  2.125000000000 	
Mg	  7.105000000000 	  0.000000000000 	  5.105000000000 	
Mg	  6.105000000000 	  3.980000000000 	  2.125000000000 	
Mg	  7.105000000000 	  3.980000000000 	  5.105000000000 	
Mg	  0.000000000000 	  2.125000000000 	  2.125000000000 	
Mg	  1.000000000000 	  2.125000000000 	  5.105000000000 	
Mg	  0.000000000000 	  6.105000000000 	  2.125000000000 	
Mg	  1.000000000000 	  6.105000000000 	  5.105000000000 	
Mg	  3.980000000000 	  2.125000000000 	  2.125000000000 	
Mg	  4.980000000000 	  2.125000000000 	  5.105000000000 	
Mg	  3.980000000000 	  6.105000000000 	  2.125000000000 	
Mg	  4.980000000000 	  6.105000000000 	  5.105000000000 	
O	  2.125000000000 	  0.000000000000 	  0.000000000000 	
O	  3.125000000000 	  0.000000000000 	  2.980000000000 	
O	  2.125000000000 	  3.980000000000 	  0.000000000000 	
O	  3.125000000000 	  3.980000000000 	  2.980000000000 	
O	  6.105000000000 	  0.000000000000 	  0.000000000000 	
O	  7.105000000000 	  0.000000000000 	  2.980000000000 	
O	  6.105000000000 	  3.980000000000 	  0.000000000000 	
O	  7.105000000000 	  3.980000000000 	  2.980000000000 	
O	  0.000000000000 	  2.125000000000 	  0.000000000000 	
O	  1.000000000000 	  2.125000000000 	  2.980000000000 	
O	  0.000000000000 	  6.105000000000 	  0.000000000000 	
O	  1.000000000000 	  6.105000000000 	  2.980000000000 	
O	  3.980000000000 	  2.125000000000 	  0.000000000000 	
O	  4.980000000000 	  2.125000000000 	  2.980000000000 	
O	  3.980000000000 	  6.105000000000 	  0.000000000000 	
O	  4.980000000000 	  6.105000000000 	  2.980000000000 	
O	  0.000000000000 	  0.000000000000 	  2.125000000000 	
O	  1.000000000000 	  0.000000000000 	  5.105000000000 	
O	  0.000000000000 	  3.980000000000 	  2.125000000000 	
O	  1.000000000000 	  3.980000000000 	  5.105000000000 	
O	  3.980000000000 	  0.000000000000 	  2.125000000000 	
O	  4.980000000000 	  0.000000000000 	  5.105000000000 	
O	  3.980000000000 	  3.980000000000 	  2.125000000000 	
O	  4.980000000000 	  3.980000000000 	  5.105000000000 	
O	  2.125000000000 	  2.125000000000 	  2.125000000000 	
O	  3.125000000000 	  2.125000000000 	  5.105000000000 	
O	  2.125000000000 	  6.105000000000 	  2.125000000000 	
O	  3.125000000000 	  6.105000000000 	  5.105000000000 	
O	  6.105000000000 	  2.125000000000 	  2.125000000000 	
O	  7.105000000000 	  2.125000000000 	  5.105000000000 	
O	  6.105000000000 	  6.105000000000 	  2.125000000000 	
O	  7.105000000000 	  6.105000000000 	  5.105000000000 	
