  Invoking FHI-aims ...
  | Number of atoms                   :  96
  ...scf iterations...
  | Total energy corrected        :   -8.682905137377E+01 eV
  ...
  Total atomic forces (unitary forces cleaned)
     1  -3.1245956104E-01  6.0007796721E-01  1.9048545989E-01
     2  2.4971257127E-01  5.8067394991E-01  -1.8225776469E-01
     3  3.1245943877E-01  -6.0007787162E-01  -1.9048545652E-01
     4  -2.4971252440E-01  -5.8067399657E-01  1.8225788588E-01
     5  -8.3118234854E-01  1.6389259078E+00  2.3637751321E-01
     6  9.1612682448E-01  -1.1325860228E+00  1.5891066971E+00
     7  8.3118340706E-01  -1.6389256795E+00  -2.3637661706E-01
     8  -9.1612648642E-01  1.1325858209E+00  -1.5891064448E+00
     9  -4.2608072933E-01  2.2663756920E-01  -1.8353445935E-01
    10  7.7879582808E-01  2.1035592161E-01  1.5157517490E-01
    11  4.2607984994E-01  -2.2663832542E-01  1.8353371328E-01
    12  -7.7879670610E-01  -2.1035601301E-01  -1.5157563277E-01
    13  -5.3686948501E-01  -1.0969358707E+00  -1.0320729198E+00
    14  1.2329121565E-01  -1.1487521362E+00  1.0818450063E+00
    15  5.3686857514E-01  1.0969362489E+00  1.0320725850E+00
    16  -1.2329093417E-01  1.1487526766E+00  -1.0818451552E+00
    17  4.4186951241E-01  -5.3556589974E-01  -1.6392130041E-02
    18  -5.8793386770E-01  1.9763071789E-02  -2.3263339668E-01
    19  -4.4186896736E-01  5.3556629911E-01  1.6392726754E-02
    20  5.8793403036E-01  -1.9763577273E-02  2.3263347554E-01
    21  7.0561493828E-01  -1.1921991013E+00  -1.4898090344E-01
    22  -7.0702205446E-01  -1.3215288688E+00  2.4301463842E-01
    23  -7.0561499894E-01  1.1921991145E+00  1.4898099001E-01
    24  7.0702217025E-01  1.3215292165E+00  -2.4301482689E-01
    25  1.0103202781E+00  1.2722997938E-01  6.9115605006E-01
    26  -8.6563650778E-01  -4.3101647887E-01  -4.3106336899E-01
    27  -1.0103202723E+00  -1.2723076285E-01  -6.9115640200E-01
    28  8.6563673323E-01  4.3101740774E-01  4.3106302050E-01
    29  4.7195661232E-01  3.4875198010E-01  5.8167189505E-01
    30  -4.5312037526E-01  4.1832078829E-01  -6.3082017735E-01
    31  -4.7195651436E-01  -3.4875207016E-01  -5.8167251026E-01
    32  4.5311935828E-01  -4.1832125077E-01  6.3081995439E-01
    33  1.4467164502E-01  1.1207469296E+00  8.9299293955E-01
    34  -1.5504551840E-01  1.1525535604E+00  -8.9957927704E-01
    35  -1.4467143864E-01  -1.1207465329E+00  -8.9299271991E-01
    36  1.5504545714E-01  -1.1525536442E+00  8.9957924171E-01
    37  -7.4613851883E-01  4.3099466321E-01  -1.9611390795E-01
    38  7.8452574463E-01  4.9162482120E-01  1.6515491927E-01
    39  7.4613869317E-01  -4.3099495567E-01  1.9611425440E-01
    40  -7.8452541980E-01  -4.9162557938E-01  -1.6515433715E-01
    41  -9.6359044205E-01  1.1635186708E+00  9.1214788209E-02
    42  9.7489732646E-01  1.1809373102E+00  -8.9376504160E-02
    43  9.6359028426E-01  -1.1635181639E+00  -9.1214808810E-02
    44  -9.7489696216E-01  -1.1809370340E+00  8.9376504433E-02
    45  -1.3160251789E+00  2.2777679458E-02  -8.5802707936E-01
    46  1.7005892212E+00  -2.1571881531E-01  1.1133617936E+00
    47  1.3160226580E+00  -2.2778382226E-02  8.5802509420E-01
    48  -1.7005894260E+00  2.1571859594E-01  -1.1133620675E+00
    49  3.6834208441E-01  -4.3471178686E-01  1.1485998996E+00
    50  1.8719328657E-01  -1.1600713038E-01  -5.1451642981E+00
    51  -3.6833981284E-01  4.3471148748E-01  -1.1485998134E+00
    52  -1.8719241220E-01  1.1600612002E-01  5.1451660426E+00
    53  -6.1233283233E-01  -1.5943706204E+00  -3.1652799635E-01
    54  3.3009399940E-01  -2.0763914779E+00  5.0519659682E-01
    55  6.1233155350E-01  1.5943681314E+00  3.1652757072E-01
    56  -3.3009422458E-01  2.0763920498E+00  -5.0519630025E-01
    57  8.1052124999E-01  -5.5617120696E-02  5.4876236079E-01
    58  1.3339417161E+00  2.6183518028E-01  1.1143300851E+00
    59  -8.1052073008E-01  5.5616506103E-02  -5.4876184021E-01
    60  -1.3339429842E+00  -2.6183555979E-01  -1.1143314982E+00
    61  -1.3172737123E+00  8.9740508685E-01  8.8091048227E-01
    62  -8.2326929931E-01  6.1912436052E-01  5.2807156824E-01
    63  1.3172717575E+00  -8.9740421972E-01  -8.8090816150E-01
    64  8.2326965645E-01  -6.1912435489E-01  -5.2807168250E-01
    65  1.2326911580E+00  -4.2581672306E-01  -2.1442613001E-01
    66  -1.2522644535E+00  4.5900913206E-03  1.9173121966E+00
    67  -1.2326902401E+00  4.2581768165E-01  2.1442722776E-01
    68  1.2522642514E+00  -4.5899207874E-03  -1.9173116670E+00
    69  -2.8323494329E-01  -1.6269353901E+00  -2.0360874379E-01
    70  6.7001567910E-01  -2.1770100735E+00  7.0785309252E-02
    71  2.8323481921E-01  1.6269326810E+00  2.0360786389E-01
    72  -6.7001619439E-01  2.1770102221E+00  -7.0784913739E-02
    73  3.0227205931E-01  6.7974191795E-01  -1.4783464240E+00
    74  -2.7289131796E-01  8.5977253337E-01  9.2647637732E-01
    75  -3.0227189960E-01  -6.7974096131E-01  1.4783443213E+00
    76  2.7289157903E-01  -8.5977211693E-01  -9.2647700289E-01
    77  8.0908188132E-01  4.0006828911E-03  5.4200615225E-01
    78  -1.8019636293E+00  -1.6877919982E-01  -1.0745847324E+00
    79  -8.0908104835E-01  -4.0007464565E-03  -5.4200620889E-01
    80  1.8019640122E+00  1.6877940696E-01  1.0745849421E+00
    81  9.2729226065E-01  8.5443873503E-01  4.8916225765E-01
    82  -9.5576200785E-01  1.1043393919E+00  -4.7404916854E-01
    83  -9.2729015975E-01  -8.5443947220E-01  -4.8916150242E-01
    84  9.5576286108E-01  -1.1043390019E+00  4.7404942414E-01
    85  9.3518498634E-01  -4.0040164057E-02  5.0951318683E-01
    86  -9.8233619054E-01  4.5517702515E-02  -4.9224713950E-01
    87  -9.3518404271E-01  4.0040314514E-02  -5.0951267162E-01
    88  9.8233560843E-01  -4.5517616176E-02  4.9224692844E-01
    89  1.9410542961E-01  8.1939712366E-01  -1.4956808192E+00
    90  -1.9242373839E-01  9.1546685116E-01  1.5308120659E+00
    91  -1.9410516281E-01  -8.1939458892E-01  1.4956787743E+00
    92  1.9242403609E-01  -9.1546659274E-01  -1.5308124960E+00
    93  -1.0418831081E+00  8.9805893219E-01  1.0816712590E+00
    94  1.0569049703E+00  9.9905439548E-01  -1.0727630281E+00
    95  1.0418809806E+00  -8.9805699958E-01  -1.0816689297E+00
    96  -1.0569048677E+00  -9.9905486536E-01  1.0727628216E+00
  Stress tensor (eV/A^3):
  9.3174109451E-02  -1.1422386718E-03  1.9182718645E-02
  -1.1422386718E-03  1.0226679155E-01  2.9249726906E-03
  1.9182718645E-02  2.9249726906E-03  7.7660449048E-02
