  Invoking FHI-aims ...
  | Number of atoms                   :  96
  ...scf iterations...
  | Total energy corrected        :   -9.014695786391E+01 eV
  ...
  Total atomic forces (unitary forces cleaned)
     1  -3.0288441838E-01  5.9231471784E-01  1.9094159037E-01
     2  2.2911179698E-01  5.7392270480E-01  -1.8216919681E-01
     3  3.0288432614E-01  -5.9231461132E-01  -1.9094158577E-01
     4  -2.2911171603E-01  -5.7392271798E-01  1.8216930467E-01
     5  -8.3406007271E-01  1.6576920979E+00  2.7086412532E-01
     6  8.9315997116E-01  -4.4506798644E-01  9.9327964397E-01
     7  8.3406100603E-01  -1.6576918942E+00  -2.7086331156E-01
     8  -8.9315971446E-01  4.4506779902E-01  -9.9327937226E-01
     9  -4.1579097769E-01  2.2675198128E-01  -1.8434634354E-01
    10  9.9753967875E-01  4.7329805286E-01  1.5037721828E-01
    11  4.1579017143E-01  -2.2675257378E-01  1.8434565369E-01
    12  -9.9754018311E-01  -4.7329792472E-01  -1.5037757461E-01
    13  -5.4039548481E-01  -1.0854624192E+00  -1.0433998614E+00
    14  -6.4921569869E-02  -1.3852983434E+00  1.1085118046E+00
    15  5.4039463594E-01  1.0854627600E+00  1.0433995364E+00
    16  6.4921527159E-02  1.3852986117E+00  -1.1085118024E+00
    17  3.8618574286E-01  -4.8737849731E-01  -1.5555573069E-02
    18  -3.6875929455E-01  -3.0275089332E-01  1.6573442380E-01
    19  -3.8618516540E-01  4.8737880141E-01  1.5556137990E-02
    20  3.6875942254E-01  3.0275039128E-01  -1.6573445072E-01
    21  7.2648156616E-01  -1.2707418570E+00  -1.8185311287E-01
    22  -7.3337918283E-01  -1.3914071137E+00  2.6332813831E-01
    23  -7.2648169954E-01  1.2707419391E+00  1.8185310195E-01
    24  7.3337936699E-01  1.3914074399E+00  -2.6332828148E-01
    25  1.0176582510E+00  1.0946137146E-01  7.1805560002E-01
    26  -1.0183910841E+00  -5.7185740010E-02  -8.5511017933E-01
    27  -1.0176582322E+00  -1.0946208374E-01  -7.1805590573E-01
    28  1.0183914097E+00  5.7186604678E-02  8.5510986173E-01
    29  4.7710648696E-01  3.0440365069E-01  5.4235246501E-01
    30  -4.5374237217E-01  3.7055265666E-01  -5.7402861966E-01
    31  -4.7710634988E-01  -3.0440376995E-01  -5.4235303138E-01
    32  4.5374140862E-01  -3.7055307450E-01  5.7402836877E-01
    33  1.6741549186E-01  1.1719244649E+00  9.5669375718E-01
    34  -1.6408466950E-01  1.1977967953E+00  -9.5806198672E-01
    35  -1.6741528570E-01  -1.1719241182E+00  -9.5669347165E-01
    36  1.6408466557E-01  -1.1977969190E+00  9.5806194049E-01
    37  -6.9986546973E-01  3.8876657000E-01  -2.0869993224E-01
    38  7.2882069106E-01  4.4257149312E-01  1.8053793448E-01
    39  6.9986563190E-01  -3.8876689208E-01  2.0870021871E-01
    40  -7.2882041736E-01  -4.4257220494E-01  -1.8053734849E-01
    41  -9.9610690189E-01  1.2236852041E+00  9.6163705598E-02
    42  1.0033088378E+00  1.2370915653E+00  -9.3604129565E-02
    43  9.9610673580E-01  -1.2236847152E+00  -9.6163678238E-02
    44  -1.0033084506E+00  -1.2370912424E+00  9.3604160017E-02
    45  -1.8984563488E+00  8.0530652574E-02  -1.2549179238E+00
    46  1.1088801903E+00  -1.3339832311E+00  9.6877012491E-01
    47  1.8984549058E+00  -8.0529782194E-02  1.2549163572E+00
    48  -1.1088820536E+00  1.3339820393E+00  -9.6877018780E-01
    49  7.4695158261E-02  -5.4418192345E-01  1.4070739520E+00
    50  1.0720716250E+00  6.9029221910E-01  -5.2426114650E+00
    51  -7.4702137277E-02  5.4417855202E-01  -1.4070714454E+00
    52  -1.0720711645E+00  -6.9029179629E-01  5.2426142473E+00
    53  -8.0020798498E-01  -1.7544702587E+00  -1.8684612749E-01
    54  5.2648823362E-01  -2.3301055200E+00  3.8274827528E-01
    55  8.0020929756E-01  1.7544734093E+00  1.8684568703E-01
    56  -5.2648787782E-01  2.3301049845E+00  -3.8274789730E-01
    57  1.0864743790E+00  -1.4841346882E-01  9.0020021639E-01
    58  1.2742752527E+00  2.9040171279E-01  1.1905502375E+00
    59  -1.0864723496E+00  1.4841235534E-01  -9.0019817641E-01
    60  -1.2742769387E+00  -2.9040220289E-01  -1.1905518661E+00
    61  -1.3984360822E+00  1.1285320099E+00  9.7163216624E-01
    62  -1.8423490294E+00  3.1942897606E-01  1.1629037790E+00
    63  1.3984386538E+00  -1.1285332062E+00  -9.7163312518E-01
    64  1.8423495603E+00  -3.1942886890E-01  -1.1629037139E+00
    65  1.3096053058E+00  -6.4943831825E-01  -1.7347671268E-01
    66  2.0246068587E-02  3.9562869539E-01  8.4811880338E-01
    67  -1.3096060675E+00  6.4943683759E-01  1.7347539251E-01
    68  -2.0245369637E-02  -3.9562685356E-01  -8.4811790178E-01
    69  -4.3114978223E-01  -1.9765475460E+00  -1.2617322742E-01
    70  7.6999425749E-01  -2.3720186823E+00  -6.6716425036E-02
    71  4.3115004496E-01  1.9765473437E+00  1.2617327160E-01
    72  -7.6999457711E-01  2.3720176014E+00  6.6716937024E-02
    73  5.1188330834E-01  6.5287426024E-01  -1.9599958166E+00
    74  -5.0699316500E-01  7.8049024468E-01  1.5484258778E+00
    75  -5.1188341391E-01  -6.5287382805E-01  1.9599945179E+00
    76  5.0699366828E-01  -7.8048951193E-01  -1.5484280949E+00
    77  1.1382529019E+00  -1.0347981402E-01  6.3615784106E-01
    78  -1.9434590562E+00  -3.3840362156E-01  -1.0768699904E+00
    79  -1.1382506163E+00  1.0347935965E-01  -6.3615761228E-01
    80  1.9434594499E+00  3.3840371323E-01  1.0768700979E+00
    81  9.2437976609E-01  1.1070529986E+00  5.0274278641E-01
    82  -9.7564831523E-01  1.4277886538E+00  -4.6211694442E-01
    83  -9.2438416221E-01  -1.1070483987E+00  -5.0274061364E-01
    84  9.7564908204E-01  -1.4277891482E+00  4.6211695605E-01
    85  1.2721504699E+00  9.6717490319E-02  7.0264320418E-01
    86  -1.3250635833E+00  1.8244369208E-01  -6.9138907159E-01
    87  -1.2721479142E+00  -9.6716911930E-02  -7.0264195535E-01
    88  1.3250629878E+00  -1.8244358898E-01  6.9138885841E-01
    89  2.8509037506E-01  9.1569239126E-01  -1.8485363782E+00
    90  -2.9487740580E-01  1.0055996341E+00  1.8960072641E+00
    91  -2.8509000649E-01  -9.1569134408E-01  1.8485353837E+00
    92  2.9487762746E-01  -1.0055989507E+00  -1.8960073484E+00
    93  -1.0707107063E+00  1.2144738952E+00  1.0847147624E+00
    94  1.0901208235E+00  1.3253126995E+00  -1.0746456412E+00
    95  1.0707130206E+00  -1.2144769498E+00  -1.0847164603E+00
    96  -1.0901204155E+00  -1.3253127756E+00  1.0746451833E+00
  Stress tensor (eV/A^3):
  9.4578676350E-02  -3.6200130743E-03  2.2715922193E-02
  -3.6200130743E-03  1.1029064180E-01  2.3089070524E-03
  2.2715922193E-02  2.3089070524E-03  8.1613405114E-02
