  Invoking FHI-aims ...
  | Number of atoms                   :  96
  ...scf iterations...
  | Total energy corrected        :   -8.232682087938E+01 eV
  ...
  Total atomic forces (unitary forces cleaned)
     1  -2.3709944768E-01  5.9126575009E-01  1.8460776707E-01
     2  2.1312686227E-01  5.7135722613E-01  -1.9225001958E-01
     3  2.3709953390E-01  -5.9126566308E-01  -1.8460770838E-01
     4  -2.1312671993E-01  -5.7135704558E-01  1.9225009225E-01
     5  -8.3868600078E-01  1.3230630609E+00  1.5826945132E-01
     6  8.4338698899E-01  1.3901217845E+00  -2.2975175700E-01
     7  8.3868626617E-01  -1.3230629276E+00  -1.5826913592E-01
     8  -8.4338718512E-01  -1.3901219121E+00  2.2975206142E-01
     9  -2.6822933825E-01  1.7928209730E-01  -1.4460793307E-01
    10  3.5835890086E-01  2.6343525286E-01  1.3581645750E-01
    11  2.6822898035E-01  -1.7928186582E-01  1.4460764222E-01
    12  -3.5835930512E-01  -2.6343547684E-01  -1.3581633833E-01
    13  -4.5468494589E-01  -9.4009310528E-01  -9.7463018507E-01
    14  3.7765595079E-01  -1.0271535272E+00  9.9779977253E-01
    15  4.5468440489E-01  9.4009319478E-01  9.7462992056E-01
    16  -3.7765602776E-01  1.0271538682E+00  -9.9779915172E-01
    17  6.8135426769E-01  -9.6995421444E-01  -9.1413924301E-02
    18  -6.7858256090E-01  -1.0438255019E+00  1.7408662661E-01
    19  -6.8135382225E-01  9.6995464782E-01  9.1414309471E-02
    20  6.7858242183E-01  1.0438255357E+00  -1.7408712382E-01
    21  2.7616707478E-01  -7.2193598950E-01  -1.9740735431E-01
    22  -2.6546751945E-01  -7.1205313315E-01  2.0199582102E-01
    23  -2.7616730310E-01  7.2193584521E-01  1.9740697724E-01
    24  2.6546742388E-01  7.1205321019E-01  -2.0199597569E-01
    25  6.6571593774E-01  1.8848025426E-02  5.5449611506E-01
    26  -6.9230835089E-01  7.2282807201E-02  -6.4248764487E-01
    27  -6.6571615166E-01  -1.8848391359E-02  -5.5449640584E-01
    28  6.9230908876E-01  -7.2282600534E-02  6.4248745699E-01
    29  5.0311128234E-01  7.2958905704E-01  9.0567499059E-01
    30  -4.9656736167E-01  7.3983693430E-01  -9.0736669916E-01
    31  -5.0311121070E-01  -7.2958916295E-01  -9.0567504085E-01
    32  4.9656707788E-01  -7.3983722096E-01  9.0736643613E-01
    33  8.3472156176E-02  6.4101943840E-01  5.2320302334E-01
    34  -8.0895549745E-02  6.4298602965E-01  -5.1893324399E-01
    35  -8.3472026786E-02  -6.4101961181E-01  -5.2320280279E-01
    36  8.0895722831E-02  -6.4298612659E-01  5.1893305691E-01
    37  -9.3067688866E-01  9.3501590166E-01  -9.9674707452E-02
    38  9.2934571348E-01  9.4370254594E-01  9.2336516676E-02
    39  9.3067685002E-01  -9.3501599088E-01  9.9674851452E-02
    40  -9.2934543391E-01  -9.4370253210E-01  -9.2336078215E-02
    41  -5.2291139538E-01  6.9542433563E-01  3.0347681835E-02
    42  5.2267258058E-01  6.9486058997E-01  -3.1445949149E-02
    43  5.2291143697E-01  -6.9542438084E-01  -3.0347544470E-02
    44  -5.2267250523E-01  -6.9486053585E-01  3.1446061616E-02
    45  -2.0225284802E+00  1.4372726331E-01  -1.3547064990E+00
    46  2.0007168624E+00  3.5844813102E-02  1.3687109461E+00
    47  2.0225274914E+00  -1.4372685850E-01  1.3547053650E+00
    48  -2.0007179364E+00  -3.5845413291E-02  -1.3687108372E+00
    49  -1.3446790694E+01  3.3152370893E+00  8.9479764996E+00
    50  1.6129681089E+01  1.0008948900E+01  -1.2544859516E+01
    51  1.3446560927E+01  -3.3151383065E+00  -8.9478515245E+00
    52  -1.6129693590E+01  -1.0008932208E+01  1.2544867036E+01
    53  7.2569398441E+00  4.8349632107E+00  -3.6627488297E+00
    54  -7.2494458093E+00  4.9254891187E+00  3.7309136129E+00
    55  -7.2567959104E+00  -4.8348862433E+00  3.6626740527E+00
    56  7.2494634261E+00  -4.9255025531E+00  -3.7309256667E+00
    57  1.2344976559E+00  -2.1298087100E-01  1.0895438950E+00
    58  -3.1848832330E-02  -2.4764249194E-02  9.4443370924E-02
    59  -1.2344878371E+00  2.1297818441E-01  -1.0895344610E+00
    60  3.1847589028E-02  2.4763649225E-02  -9.4444134193E-02
    61  3.8324161758E+00  -7.3776592918E+00  -2.4826459836E+00
    62  -7.7173200171E+00  -1.4289290107E+01  4.8070724893E+00
    63  -3.8323417681E+00  7.3774901081E+00  2.4825912120E+00
    64  7.7173173570E+00  1.4289286685E+01  -4.8070667257E+00
    65  -1.2462275977E+00  -8.4967176198E+00  -3.9028661053E+00
    66  1.9142565813E+00  -8.0754479508E+00  2.6203172693E+00
    67  1.2461992318E+00  8.4966496525E+00  3.9028245496E+00
    68  -1.9142604557E+00  8.0754445375E+00  -2.6203034399E+00
    69  2.6242465173E+00  3.8838104473E+00  -4.4642799065E-01
    70  -2.7133536746E+00  3.9047028341E+00  4.6151887084E-01
    71  -2.6242137748E+00  -3.8837677724E+00  4.4641771893E-01
    72  2.7133535020E+00  -3.9047017688E+00  -4.6152103601E-01
    73  -6.6650446558E-01  1.2052505999E+00  3.2809549356E+00
    74  2.7294195331E-01  8.1349127631E-01  -1.9163378578E+00
    75  6.6649501891E-01  -1.2052302912E+00  -3.2809040219E+00
    76  -2.7293821633E-01  -8.1348811882E-01  1.9163271300E+00
    77  1.0410566775E+00  -2.6872068523E-01  6.5268025868E-01
    78  -1.2053586694E+00  -3.0713098138E-01  -7.6865806471E-01
    79  -1.0410525889E+00  2.6871899800E-01  -6.5267853001E-01
    80  1.2053585184E+00  3.0713082399E-01  7.6865734646E-01
    81  -3.1262217424E-01  1.1617228906E+01  -6.9902785630E+00
    82  3.0111880222E-01  1.1631967425E+01  7.0031232255E+00
    83  3.1259121618E-01  -1.1617081299E+01  6.9902159413E+00
    84  -3.0111471784E-01  -1.1631964221E+01  -7.0031403826E+00
    85  1.2577045277E+00  2.0171389279E-02  6.5792280588E-01
    86  -1.2593754126E+00  2.2165019522E-02  -6.4963207209E-01
    87  -1.2576986054E+00  -2.0171011463E-02  -6.5791999913E-01
    88  1.2593749017E+00  -2.2165105888E-02  6.4963186042E-01
    89  -1.0656795961E+00  -4.5865100812E-01  5.1751049857E+00
    90  1.0644846411E+00  -4.5071703718E-01  -5.1743871108E+00
    91  1.0656703939E+00  4.5865003699E-01  -5.1750609874E+00
    92  -1.0644865554E+00  4.5071640609E-01  5.1743990525E+00
    93  2.6516215137E+00  -8.2758418248E+00  -1.3214751350E-01
    94  -2.6570649766E+00  -8.2710902778E+00  1.3698635938E-01
    95  -2.6515832725E+00  8.2756968825E+00  1.3215857745E-01
    96  2.6570633420E+00  8.2710885956E+00  -1.3698188006E-01
  Stress tensor (eV/A^3):
  2.8971569322E-02  -6.8370815551E-03  5.6940054486E-02
  -6.8370815551E-03  -3.1400027043E-02  2.5752492903E-03
  5.6940054486E-02  2.5752492903E-03  2.0889407069E-02
