  Invoking FHI-aims ...
  | Number of atoms                   :  96
  ...scf iterations...
  | Total energy corrected        :   -5.046679904835E+01 eV
  ...
  Total atomic forces (unitary forces cleaned)
     1  -2.2720056111E-01  5.8835187255E-01  1.9181322464E-01
     2  2.2535001379E-01  5.8358201888E-01  -1.9411902696E-01
     3  2.2720059742E-01  -5.8835179483E-01  -1.9181319031E-01
     4  -2.2534990567E-01  -5.8358192344E-01  1.9411911568E-01
     5  -8.6202981541E-01  1.1174798638E+00  5.0719074226E-02
     6  8.4805668740E-01  1.0089849839E+00  6.6233285508E-02
     7  8.6203018845E-01  -1.1174797294E+00  -5.0718690010E-02
     8  -8.4805673959E-01  -1.0089851278E+00  -6.6233028165E-02
     9  -1.7950934901E-01  1.5330655498E-01  -7.8843363415E-02
    10  5.7932978523E-02  2.9054692146E-02  9.0853967042E-02
    11  1.7950894714E-01  -1.5330652255E-01  7.8843093178E-02
    12  -5.7933304562E-02  -2.9054665148E-02  -9.0854059609E-02
    13  -3.6943062228E-01  -8.8586436576E-01  -8.4512961577E-01
    14  4.9182347093E-01  -7.5938725981E-01  8.3154499291E-01
    15  3.6943010776E-01  8.8586448190E-01  8.4512938265E-01
    16  -4.9182355761E-01  7.5938739775E-01  -8.3154457971E-01
    17  2.5726671795E+00  -3.6393636531E+00  -3.3989271630E-01
    18  -2.6134403250E+00  -3.5325738072E+00  2.1174201166E-01
    19  -2.5726692692E+00  3.6393676004E+00  3.3989302824E-01
    20  2.6134412268E+00  3.5325758602E+00  -2.1174287513E-01
    21  -1.6842318306E+00  2.0461634467E+00  6.1223941241E-02
    22  1.6817910870E+00  2.0577418730E+00  -7.0812233265E-02
    23  1.6842342152E+00  -2.0461672507E+00  -6.1224158528E-02
    24  -1.6817919406E+00  -2.0577438939E+00  7.0812717520E-02
    25  4.2275950076E-01  3.3863391516E-02  3.3008445328E-01
    26  -3.8395707423E-01  -7.8431629944E-02  -2.0146213314E-01
    27  -4.2275998056E-01  -3.3863610458E-02  -3.3008477289E-01
    28  3.8395741974E-01  7.8431885578E-02  2.0146201495E-01
    29  9.9677448591E-01  3.1210285834E+00  2.9242543899E+00
    30  -9.9793799861E-01  3.1160523583E+00  -2.9212790683E+00
    31  -9.9677432823E-01  -3.1210278386E+00  -2.9242533753E+00
    32  9.9793854063E-01  -3.1160540503E+00  2.9212795782E+00
    33  -5.3576198830E-01  -1.7864256836E+00  -1.6300944122E+00
    34  5.3523138897E-01  -1.7869491334E+00  1.6297046272E+00
    35  5.3576206634E-01  1.7864248512E+00  1.6300933455E+00
    36  -5.3523217205E-01  1.7869504966E+00  -1.6297054198E+00
    37  -2.7570983328E+00  3.4602458279E+00  2.6335290397E-01
    38  2.7550393422E+00  3.4554741540E+00  -2.6111454846E-01
    39  2.7570965724E+00  -3.4602432976E+00  -2.6335220391E-01
    40  -2.7550367535E+00  -3.4554713211E+00  2.6111489926E-01
    41  1.4245662856E+00  -1.9308560792E+00  -2.5163112497E-01
    42  -1.4254107271E+00  -1.9310695789E+00  2.5262672232E-01
    43  -1.4245645188E+00  1.9308534586E+00  2.5163064059E-01
    44  1.4254085763E+00  1.9310667236E+00  -2.5262661265E-01
    45  -1.7691980468E+00  1.0676130569E-01  -1.0970069402E+00
    46  1.6495245600E+00  1.8319027374E-02  1.0901051804E+00
    47  1.7691896672E+00  -1.0676125784E-01  1.0970020548E+00
    48  -1.6495246208E+00  -1.8318040531E-02  -1.0901052975E+00
    49  -3.8362398528E+01  8.6352235787E-01  1.9919923644E+01
    50  2.8907763309E+01  -1.3403789174E+01  -1.4207871736E+01
    51  3.8362348495E+01  -8.6347205405E-01  -1.9919875543E+01
    52  -2.8907767703E+01  1.3403783318E+01  1.4207874528E+01
    53  2.1645830302E+01  2.5208004903E+01  -4.4404233063E+00
    54  -2.1670473203E+01  2.5356082930E+01  4.4496382682E+00
    55  -2.1645775520E+01  -2.5208007922E+01  4.4404121262E+00
    56  2.1670468583E+01  -2.5356081593E+01  -4.4496491200E+00
    57  -2.3834459363E+00  2.9085862183E-01  -1.8252534902E+00
    58  2.0157377099E+00  2.5747826341E-01  1.5879889432E+00
    59  2.3834265825E+00  -2.9085493089E-01  1.8252383410E+00
    60  -2.0157300090E+00  -2.5747752811E-01  -1.5879821177E+00
    61  1.8013098497E+01  -2.6635763224E+01  -1.0137555299E+01
    62  -8.1936150040E+00  -1.2530135633E+01  4.7387546439E+00
    63  -1.8013086227E+01  2.6635712559E+01  1.0137544101E+01
    64  8.1936168858E+00  1.2530138588E+01  -4.7387530258E+00
    65  -4.6538679662E+00  -2.6770888963E+01  -2.3448179793E+01
    66  4.9251446242E+00  -2.5435336952E+01  2.2670289065E+01
    67  4.6538238110E+00  2.6770777500E+01  2.3448076629E+01
    68  -4.9251608228E+00  2.5435342289E+01  -2.2670265876E+01
    69  1.4619212071E+01  2.3919103333E+01  -1.9785388091E+00
    70  -1.4693374858E+01  2.4005348072E+01  2.0243291819E+00
    71  -1.4619145432E+01  -2.3919016611E+01  1.9785218507E+00
    72  1.4693377292E+01  -2.4005347731E+01  -2.0243410408E+00
    73  -6.1330068950E+00  -1.1297576875E-01  2.5806013044E+01
    74  6.0078228542E+00  -1.2151074647E+00  -2.5162006035E+01
    75  6.1329970632E+00  1.1299148048E-01  -2.5805888967E+01
    76  -6.0078123152E+00  1.2151016571E+00  2.5161992884E+01
    77  -1.6895265600E+00  -7.5301493083E-02  -1.3207197211E+00
    78  1.7516682399E+00  -1.9641619676E-01  1.3607166276E+00
    79  1.6895177947E+00  7.5301126931E-02  1.3207134574E+00
    80  -1.7516662706E+00  1.9641589993E-01  -1.3607144275E+00
    81  -7.3981785924E+00  3.4373405171E+01  -2.1599645666E+01
    82  7.4072916588E+00  3.4339784267E+01  2.1589807509E+01
    83  7.3981937846E+00  -3.4373334790E+01  2.1599510706E+01
    84  -7.4072917227E+00  -3.4339785496E+01  -2.1589832855E+01
    85  -2.0245363493E+00  1.2706732947E-01  -1.2357085701E+00
    86  2.0332582778E+00  1.1806781385E-01  1.2285182161E+00
    87  2.0245223861E+00  -1.2706685737E-01  1.2357001663E+00
    88  -2.0332570587E+00  -1.1806804462E-01  -1.2285169728E+00
    89  -4.7020693849E+00  -4.9401021085E+00  3.1153736753E+01
    90  4.7040027673E+00  -4.9461054647E+00  -3.1159719603E+01
    91  4.7020577950E+00  4.9400896512E+00  -3.1153609690E+01
    92  -4.7040029691E+00  4.9460991024E+00  3.1159731904E+01
    93  1.6180650476E+01  -2.6397826109E+01  -8.8976208560E+00
    94  -1.6177843157E+01  -2.6412648294E+01  8.8896835509E+00
    95  -1.6180632793E+01  2.6397776497E+01  8.8976337917E+00
    96  1.6177842675E+01  2.6412656478E+01  -8.8896726104E+00
  Stress tensor (eV/A^3):
  -1.3584590728E-01  1.6389550434E-02  9.9814209230E-02
  1.6389550434E-02  -2.8908285298E-01  -1.0151568599E-02
  9.9814209230E-02  -1.0151568599E-02  -2.2147276453E-01
