  Invoking FHI-aims ...
  | Number of atoms                   :  96
  ...scf iterations...
  | Total energy corrected        :   -8.318746067760E+01 eV
  ...
  Total atomic forces (unitary forces cleaned)
     1  -2.6163481826E-01  5.8611931418E-01  1.8096025282E-01
     2  2.2283017730E-01  5.7027823784E-01  -1.8223114634E-01
     3  2.6163475313E-01  -5.8611923486E-01  -1.8096024845E-01
     4  -2.2283008690E-01  -5.7027824232E-01  1.8223125703E-01
     5  -8.7717111116E-01  1.3762924866E+00  2.0027772025E-01
     6  8.8920918959E-01  1.4750336483E+00  -3.3847976591E-01
     7  8.7717186087E-01  -1.3762923063E+00  -2.0027705746E-01
     8  -8.8920900177E-01  -1.4750338281E+00  3.3847998580E-01
     9  -3.0259382993E-01  1.6182218612E-01  -1.4463128129E-01
    10  4.7423321065E-01  3.0162133453E-01  1.3025329091E-01
    11  3.0259315275E-01  -1.6182260302E-01  1.4463079750E-01
    12  -4.7423343573E-01  -3.0162101366E-01  -1.3025357249E-01
    13  -4.6530481871E-01  -9.9997432894E-01  -9.5070803932E-01
    14  3.0620996103E-01  -1.1467765795E+00  9.8058285829E-01
    15  4.6530414128E-01  9.9997460891E-01  9.5070778529E-01
    16  -3.0621019016E-01  1.1467765635E+00  -9.8058278133E-01
    17  6.1829717208E-01  -8.2097518054E-01  -5.8573770159E-02
    18  -5.8027876168E-01  -9.5518986873E-01  2.2427035895E-01
    19  -6.1829675507E-01  8.2097548562E-01  5.8574225184E-02
    20  5.8027887128E-01  9.5518985220E-01  -2.2427068838E-01
    21  3.8146323064E-01  -8.3861301970E-01  -1.4438654876E-01
    22  -3.7703861397E-01  -8.4685143015E-01  1.5617037122E-01
    23  -3.8146332439E-01  8.3861300536E-01  1.4438650414E-01
    24  3.7703871828E-01  8.4685153877E-01  -1.5617049762E-01
    25  7.7511699992E-01  7.9434399822E-02  5.3125155681E-01
    26  -8.2808157623E-01  2.0469229267E-01  -6.9916336965E-01
    27  -7.7511714750E-01  -7.9434945776E-02  -5.3125184783E-01
    28  8.2808184052E-01  -2.0469182830E-01  6.9916329353E-01
    29  4.7116132429E-01  6.4716984735E-01  7.8305061923E-01
    30  -4.5973277842E-01  6.6428735569E-01  -7.7866069916E-01
    31  -4.7116111419E-01  -6.4716971454E-01  -7.8305094926E-01
    32  4.5973198301E-01  -6.6428771871E-01  7.7866046882E-01
    33  5.1239334516E-02  7.7503634656E-01  6.0541605100E-01
    34  -4.4506716064E-02  7.8286067360E-01  -6.0937882546E-01
    35  -5.1239190088E-02  -7.7503627873E-01  -6.0541598852E-01
    36  4.4506699700E-02  -7.8286073624E-01  6.0937878683E-01
    37  -8.9532365992E-01  7.6531283629E-01  -9.5126994086E-02
    38  8.9622740236E-01  7.7671636430E-01  8.7283443124E-02
    39  8.9532361101E-01  -7.6531290375E-01  9.5127228857E-02
    40  -8.9622693180E-01  -7.7671670009E-01  -8.7282969599E-02
    41  -6.5438487371E-01  8.0753693722E-01  4.8203779233E-02
    42  6.5496705221E-01  8.0746158069E-01  -4.9907304541E-02
    43  6.5438491318E-01  -8.0753680249E-01  -4.8203786989E-02
    44  -6.5496691665E-01  -8.0746151900E-01  4.9907333319E-02
    45  -1.6203912560E+00  5.4435008130E-02  -1.0403873258E+00
    46  1.6968210847E+00  3.0773504714E-02  1.0876833889E+00
    47  1.6203872706E+00  -5.4435287760E-02  1.0403844134E+00
    48  -1.6968210108E+00  -3.0773293410E-02  -1.0876836738E+00
    49  -1.9659611347E+00  -1.4176017399E+00  2.6130917404E+00
    50  3.8781634259E+00  2.0395250751E-01  -6.4574180439E+00
    51  1.9659322767E+00  1.4175907578E+00  -2.6130792759E+00
    52  -3.8781641042E+00  -2.0395040788E-01  6.4574187934E+00
    53  2.1594366508E-01  2.6235222123E-01  -2.1241545447E-01
    54  -3.8032749628E-01  4.6407617114E-01  2.5397198049E-01
    55  -2.1593359775E-01  -2.6233326745E-01  2.1241544634E-01
    56  3.8032896000E-01  -4.6407918970E-01  -2.5397212281E-01
    57  7.5607626814E-01  -8.2070290269E-02  5.5056352758E-01
    58  8.9331179655E-01  1.5704917133E-01  8.3455865015E-01
    59  -7.5607305007E-01  8.2069354178E-02  -5.5056078186E-01
    60  -8.9331302843E-01  -1.5704952449E-01  -8.3455964337E-01
    61  1.0993743549E-01  7.8152628539E-02  -1.7064835259E-01
    62  -3.4618824704E+00  -1.9751658100E+00  2.4313268794E+00
    63  -1.0992309216E-01  -7.8162542858E-02  1.7063786756E-01
    64  3.4618829095E+00  1.9751662976E+00  -2.4313261624E+00
    65  1.6263605076E+00  -1.8085106922E+00  -1.4242698288E+00
    66  -2.0797462389E+00  -1.6486131204E+00  3.0207340579E+00
    67  -1.6263615949E+00  1.8085004564E+00  1.4242595013E+00
    68  2.0797433436E+00  1.6486177759E+00  -3.0207281689E+00
    69  -5.6752347267E-02  -3.9624008771E-01  1.6732702454E-01
    70  9.0527726703E-02  -3.9881284610E-01  -2.0754972909E-01
    71  5.6754798461E-02  3.9624866572E-01  -1.6732527208E-01
    72  -9.0527218869E-02  3.9880988391E-01  2.0755004209E-01
    73  1.2856327541E-01  3.3929162967E-01  -5.5496211936E-01
    74  2.2250027577E-01  1.1487587136E-01  -8.7688609723E-01
    75  -1.2856439739E-01  -3.3929239675E-01  5.5496684664E-01
    76  -2.2249873599E-01  -1.1487706440E-01  8.7688058949E-01
    77  6.6384088542E-01  -5.1142673988E-02  3.9426791123E-01
    78  -7.2442794167E-01  -4.1239224383E-02  -4.3445506276E-01
    79  -6.6383800752E-01  5.1142352100E-02  -3.9426689558E-01
    80  7.2442799248E-01  4.1239146137E-02  4.3445504593E-01
    81  3.4110624910E-01  3.2623323069E+00  2.7051054477E-01
    82  -3.4731496942E-01  3.2999723408E+00  -2.6505303273E-01
    83  -3.4112069143E-01  -3.2623065818E+00  -2.7050585727E-01
    84  3.4731494954E-01  -3.2999743638E+00  2.6505154199E-01
    85  8.3082212212E-01  2.6389751434E-02  4.6251262343E-01
    86  -8.3950901960E-01  3.9418264388E-02  -4.5978123828E-01
    87  -8.3081836165E-01  -2.6389411306E-02  -4.6251064164E-01
    88  8.3950870336E-01  -3.9418235736E-02  4.5978119667E-01
    89  7.0571129281E-02  -2.7109054372E-03  -3.7957527681E-01
    90  -7.0436806148E-02  6.7320417941E-03  3.8041213424E-01
    91  -7.0571686705E-02  2.7071675458E-03  3.7958081602E-01
    92  7.0436719276E-02  -6.7309815079E-03  -3.8041077784E-01
    93  1.2838412483E-01  -2.3927229064E-01  5.2678243073E-02
    94  -1.3068797905E-01  -2.2687263648E-01  -4.9256431198E-02
    95  -1.2837064505E-01  2.3925565033E-01  -5.2689350976E-02
    96  1.3068903952E-01  2.2687382713E-01  4.9255975065E-02
  Stress tensor (eV/A^3):
  6.9045100487E-02  -3.5173858183E-03  2.7374612766E-02
  -3.5173858183E-03  7.0345765872E-02  9.9326017773E-04
  2.7374612766E-02  9.9326017773E-04  5.5546038661E-02
