  Invoking FHI-aims ...
  | Number of atoms                   :  96
  ...scf iterations...
  | Total energy corrected        :   -8.536252998010E+01 eV
  ...
  Total atomic forces (unitary forces cleaned)
     1  -2.4596844361E-01  5.9570845124E-01  1.8310752887E-01
     2  2.1284035662E-01  5.6959572972E-01  -1.9208470138E-01
     3  2.4596852657E-01  -5.9570836192E-01  -1.8310747117E-01
     4  -2.1284021465E-01  -5.6959554862E-01  1.9208477311E-01
     5  -8.3300938448E-01  1.4016786166E+00  1.9643156187E-01
     6  8.4045588002E-01  1.5187947713E+00  -3.6024086254E-01
     7  8.3300966332E-01  -1.4016784813E+00  -1.9643123364E-01
     8  -8.4045607628E-01  -1.5187949000E+00  3.6024116929E-01
     9  -2.8722684181E-01  1.9073561430E-01  -1.5228098724E-01
    10  4.9357546353E-01  3.7791010648E-01  1.3632304143E-01
    11  2.8722647177E-01  -1.9073538683E-01  1.5228068487E-01
    12  -4.9357587790E-01  -3.7791035254E-01  -1.3632289462E-01
    13  -4.6930968852E-01  -9.5459559379E-01  -9.9646732074E-01
    14  2.7750798971E-01  -1.1486889864E+00  1.0319366068E+00
    15  4.6930913066E-01  9.5459569285E-01  9.9646704721E-01
    16  -2.7750805519E-01  1.1486893554E+00  -1.0319359921E+00
    17  6.0178563433E-01  -8.4875605357E-01  -7.7682362740E-02
    18  -5.5908900852E-01  -9.8699668439E-01  2.7326174627E-01
    19  -6.0178509452E-01  8.4875637085E-01  7.7682785543E-02
    20  5.5908882287E-01  9.8699669784E-01  -2.7326222132E-01
    21  3.7416323134E-01  -8.6301440738E-01  -2.0842440274E-01
    22  -3.6637955821E-01  -8.6869639610E-01  2.2320839900E-01
    23  -3.7416354499E-01  8.6301439335E-01  2.0842400125E-01
    24  3.6637946070E-01  8.6869650801E-01  -2.2320857477E-01
    25  7.1620020149E-01  2.1353142469E-02  5.9505842070E-01
    26  -7.7869568183E-01  1.4762364711E-01  -7.9696415965E-01
    27  -7.1620043896E-01  -2.1353536922E-02  -5.9505873817E-01
    28  7.7869649768E-01  -1.4762343548E-01  7.9696395046E-01
    29  4.9334434475E-01  6.1626960477E-01  8.1749165571E-01
    30  -4.7721449128E-01  6.3592801698E-01  -8.1433273819E-01
    31  -4.9334424900E-01  -6.1626967670E-01  -8.1749171002E-01
    32  4.7721413561E-01  -6.3592826397E-01  8.1433244915E-01
    33  1.1737920952E-01  7.6344429652E-01  6.3819364331E-01
    34  -1.1266713128E-01  7.6898737149E-01  -6.3126373295E-01
    35  -1.1737908452E-01  -7.6344451172E-01  -6.3819341314E-01
    36  1.1266735371E-01  -7.6898753074E-01  6.3126355242E-01
    37  -8.5878518623E-01  8.0923118246E-01  -1.2930514544E-01
    38  8.5946033612E-01  8.2320311206E-01  1.1907309768E-01
    39  8.5878517414E-01  -8.0923131352E-01  1.2930525997E-01
    40  -8.5946010415E-01  -8.2320316579E-01  -1.1907265716E-01
    41  -6.2362736534E-01  8.3342486248E-01  4.3361828672E-02
    42  6.2447067043E-01  8.3349683019E-01  -4.5358049147E-02
    43  6.2362737785E-01  -8.3342486196E-01  -4.3361658769E-02
    44  -6.2447054553E-01  -8.3349671212E-01  4.5358178139E-02
    45  -1.9531066632E+00  1.4001188861E-01  -1.3081556845E+00
    46  1.7377417733E+00  -4.2027575223E-01  1.3423843936E+00
    47  1.9531102307E+00  -1.4001020013E-01  1.3081594360E+00
    48  -1.7377437785E+00  4.2027339984E-01  -1.3423843942E+00
    49  -1.1488505613E+01  2.9594270795E+00  7.8681575230E+00
    50  1.4683326818E+01  1.3142980872E+01  -1.2496314973E+01
    51  1.1488351438E+01  -2.9593589834E+00  -7.8680720450E+00
    52  -1.4683325066E+01  -1.3142969252E+01  1.2496315230E+01
    53  5.7466330173E+00  3.5737090557E+00  -3.1147360203E+00
    54  -4.6224656328E+00  2.6795689378E+00  2.6486692607E+00
    55  -5.7465376148E+00  -3.5736676693E+00  3.1146812676E+00
    56  4.6224721731E+00  -2.6795736818E+00  -2.6486747258E+00
    57  1.4260367678E+00  -2.4011740212E-01  1.2844631935E+00
    58  6.4824105430E-02  -1.3269586914E-02  2.4093835031E-01
    59  -1.4260278850E+00  2.4011480797E-01  -1.2844541885E+00
    60  -6.4826356221E-02  1.3268837647E-02  -2.4093997645E-01
    61  3.1679089208E+00  -5.7288726910E+00  -2.1903681752E+00
    62  -8.9699792966E+00  -1.5134215110E+01  5.7089606228E+00
    63  -3.1678597639E+00  5.7287690348E+00  2.1903275932E+00
    64  8.9699744884E+00  1.5134208110E+01  -5.7089529776E+00
    65  -7.9740130305E-01  -6.7684627017E+00  -2.7561922832E+00
    66  1.8840009402E+00  -5.8763078115E+00  1.2947627716E+00
    67  7.9736957790E-01  6.7684022305E+00  2.7561618854E+00
    68  -1.8840025050E+00  5.8763070095E+00  -1.2947528152E+00
    69  1.6053490819E+00  2.5917086270E+00  -1.1910668731E-01
    70  -1.6680889785E+00  2.6100203416E+00  1.2228582506E-01
    71  -1.6053183723E+00  -2.5916654929E+00  1.1909840030E-01
    72  1.6680891189E+00  -2.6100198404E+00  -1.2228742302E-01
    73  -2.3240460859E-01  8.3397051805E-01  1.7307919267E+00
    74  -2.5184906761E-01  3.5440619933E-01  -1.1519786567E-01
    75  2.3239769678E-01  -8.3395506915E-01  -1.7307547396E+00
    76  2.5185102750E-01  -3.5440330830E-01  1.1519030577E-01
    77  1.1406580047E+00  -2.9831381038E-01  7.1447776963E-01
    78  -1.4481555163E+00  -3.8695282071E-01  -9.2979746614E-01
    79  -1.1406527961E+00  2.9831185519E-01  -7.1447538914E-01
    80  1.4481555023E+00  3.8695267598E-01  9.2979669947E-01
    81  -8.7192291557E-02  9.8232938461E+00  -5.7844694550E+00
    82  5.7134910711E-02  9.8677558422E+00  5.8175933110E+00
    83  8.7176012203E-02  -9.8231842756E+00  5.7843767336E+00
    84  -5.7130888393E-02  -9.8677547720E+00  -5.8176135262E+00
    85  1.4603778440E+00  3.5195828462E-02  7.5605367738E-01
    86  -1.4691651407E+00  4.1510407086E-02  -7.3997754817E-01
    87  -1.4603693034E+00  -3.5195265225E-02  -7.5604943851E-01
    88  1.4691650969E+00  -4.1510480371E-02  7.3997756655E-01
    89  -7.7484631192E-01  -5.3227970853E-01  3.6455928655E+00
    90  7.7137507236E-01  -5.1942671143E-01  -3.6359013716E+00
    91  7.7483021324E-01  5.3227462133E-01  -3.6455202943E+00
    92  -7.7137814132E-01  5.1942696238E-01  3.6359170466E+00
    93  1.8879997901E+00  -6.4567067345E+00  8.5018180213E-02
    94  -1.8952541611E+00  -6.4270910646E+00  -7.2051645067E-02
    95  -1.8879756283E+00  6.4566003261E+00  -8.5006285143E-02
    96  1.8952531958E+00  6.4270906690E+00  7.2055203927E-02
  Stress tensor (eV/A^3):
  4.2389119677E-02  -1.1868157354E-02  5.2497325500E-02
  -1.1868157354E-02  -1.0834518507E-02  4.8211115751E-03
  5.2497325500E-02  4.8211115751E-03  3.7124132821E-02
