  Invoking FHI-aims ...
  | Number of atoms                   :  96
  ...scf iterations...
  | Total energy corrected        :   -7.996683507077E+01 eV
  ...
  Total atomic forces (unitary forces cleaned)
     1  -2.4490621346E-01  5.8896539699E-01  1.8344886544E-01
     2  2.1943416992E-01  5.6971177226E-01  -1.9066847823E-01
     3  2.4490624212E-01  -5.8896531108E-01  -1.8344883126E-01
     4  -2.1943403563E-01  -5.6971166929E-01  1.9066856512E-01
     5  -8.5512842911E-01  1.3078300317E+00  1.5257166571E-01
     6  8.6339290346E-01  1.3777023376E+00  -2.2619030357E-01
     7  8.5512887544E-01  -1.3078298883E+00  -1.5257121606E-01
     8  -8.6339293598E-01  -1.3777024849E+00  2.2619058521E-01
     9  -2.7305493554E-01  1.6890334964E-01  -1.4047119362E-01
    10  3.5945758749E-01  2.4803738482E-01  1.3219986993E-01
    11  2.7305445571E-01  -1.6890337335E-01  1.4047082574E-01
    12  -3.5945793455E-01  -2.4803739717E-01  -1.3219991704E-01
    13  -4.5583830923E-01  -9.5886269572E-01  -9.5946413090E-01
    14  3.8393329000E-01  -1.0412095372E+00  9.8228712024E-01
    15  4.5583772902E-01  9.5886285992E-01  9.5946387885E-01
    16  -3.8393338554E-01  1.0412097323E+00  -9.8228669565E-01
    17  6.8981713955E-01  -9.6303093200E-01  -8.5746425477E-02
    18  -6.8961086265E-01  -1.0390296122E+00  1.6277056771E-01
    19  -6.8981672302E-01  9.6303126566E-01  8.5746802994E-02
    20  6.8961082759E-01  1.0390296601E+00  -1.6277100631E-01
    21  2.7303075375E-01  -7.1518669996E-01  -1.8951027221E-01
    22  -2.6156138805E-01  -7.0413271110E-01  1.9478110891E-01
    23  -2.7303084911E-01  7.1518656273E-01  1.8951007662E-01
    24  2.6156142604E-01  7.0413275143E-01  -1.9478116293E-01
    25  6.7959884989E-01  4.1235650922E-02  5.2421699635E-01
    26  -7.0581183478E-01  9.4938795141E-02  -6.0603350300E-01
    27  -6.7959925153E-01  -4.1236051119E-02  -5.2421741745E-01
    28  7.0581238133E-01  -9.4938467443E-02  6.0603335633E-01
    29  4.9447252335E-01  7.5109467813E-01  8.9326900375E-01
    30  -4.8720786762E-01  7.6187644897E-01  -8.9491182558E-01
    31  -4.9447235468E-01  -7.5109465263E-01  -8.9326910533E-01
    32  4.8720736983E-01  -7.6187677546E-01  8.9491156241E-01
    33  7.8089700260E-02  6.4561010844E-01  5.3416707502E-01
    34  -6.9995531281E-02  6.5353652413E-01  -5.2720266312E-01
    35  -7.8089435740E-02  -6.4561024242E-01  -5.3416691354E-01
    36  6.9995661644E-02  -6.5353659728E-01  5.2720255311E-01
    37  -9.5180103538E-01  9.1728956969E-01  -8.9364800073E-02
    38  9.5010909662E-01  9.2638727961E-01  8.1729360419E-02
    39  9.5180095982E-01  -9.1728960980E-01  8.9364975637E-02
    40  -9.5010868938E-01  -9.2638736330E-01  -8.1728892078E-02
    41  -5.3408886719E-01  6.8739763934E-01  3.1837421173E-02
    42  5.3364975278E-01  6.8672278750E-01  -3.2876325762E-02
    43  5.3408892745E-01  -6.8739764913E-01  -3.1837344376E-02
    44  -5.3364967549E-01  -6.8672275682E-01  3.2876406638E-02
    45  -1.9617027668E+00  1.2581168359E-01  -1.3552086561E+00
    46  1.9144487721E+00  2.4800740644E-03  1.4060673633E+00
    47  1.9617083266E+00  -1.2580988681E-01  1.3552113042E+00
    48  -1.9144498644E+00  -2.4809802860E-03  -1.4060675033E+00
    49  -2.0194112846E+01  -8.1920636600E-01  1.2040612880E+01
    50  2.7399420642E+01  1.1221298259E+01  -1.9100425571E+01
    51  2.0193677072E+01  8.1922511148E-01  -1.2040378229E+01
    52  -2.7399461432E+01  -1.1221333996E+01  1.9100450916E+01
    53  9.8612602898E+00  9.9645911264E+00  -3.9514990163E+00
    54  -8.5845906782E+00  9.0007148157E+00  3.4837697167E+00
    55  -9.8610221502E+00  -9.9643717892E+00  3.9513952339E+00
    56  8.5845983044E+00  -9.0007246831E+00  -3.4837763359E+00
    57  1.5001148337E+00  -2.3187220396E-01  1.2936547490E+00
    58  -5.3635086447E-01  -8.1087484302E-02  -3.4603415331E-01
    59  -1.5000985032E+00  2.3186865632E-01  -1.2936399294E+00
    60  5.3635026480E-01  8.1086973182E-02  3.4603378207E-01
    61  7.5424620749E+00  -9.2176337480E+00  -5.4771415945E+00
    62  -1.6967847784E+01  -2.0398140714E+01  1.1995905610E+01
    63  -7.5422833987E+00  9.2174005243E+00  5.4769969655E+00
    64  1.6967882180E+01  2.0398185834E+01  -1.1995923121E+01
    65  -4.8476832585E-01  -9.2081871741E+00  -6.4628705285E+00
    66  7.3984221229E-01  -9.2894205104E+00  6.3713771154E+00
    67  4.8473933309E-01  9.2081110728E+00  6.4628209075E+00
    68  -7.3985030417E-01  9.2894259596E+00  -6.3713607337E+00
    69  2.6417456607E+00  5.4262648295E+00  2.6782713266E-01
    70  -2.8165913186E+00  5.5561661388E+00  -2.2632986015E-01
    71  -2.6417139632E+00  -5.4262008102E+00  -2.6782684895E-01
    72  2.8165942868E+00  -5.5561708485E+00  2.2632689601E-01
    73  -1.0402361885E+00  7.1108133659E-01  4.4668588778E+00
    74  1.0077888643E+00  6.9584485811E-01  -4.4202240481E+00
    75  1.0402278243E+00  -7.1107084537E-01  -4.4668114409E+00
    76  -1.0077840183E+00  -6.9584423073E-01  4.4202110256E+00
    77  1.1434805471E+00  -2.5165786881E-01  6.4115150080E-01
    78  -1.1628418859E+00  -2.6331547844E-01  -6.5922451932E-01
    79  -1.1434765871E+00  2.5165636892E-01  -6.4115039498E-01
    80  1.1628419579E+00  2.6331531454E-01  6.5922426250E-01
    81  -3.4228850517E+00  1.6709498083E+01  -5.1312257357E+00
    82  3.4116298156E+00  1.6735830034E+01  5.1482374253E+00
    83  3.4228019572E+00  -1.6709246955E+01  5.1311538788E+00
    84  -3.4116269989E+00  -1.6735838381E+01  -5.1482611157E+00
    85  1.4614790809E+00  8.5588147797E-02  7.5965012933E-01
    86  -1.4623697298E+00  9.0760269651E-02  -7.5196823186E-01
    87  -1.4614674765E+00  -8.5587252594E-02  -7.5964426149E-01
    88  1.4623696077E+00  -9.0760296950E-02  7.5196826202E-01
    89  -1.1127558812E+00  -1.9858613512E+00  6.1038259930E+00
    90  1.1122639803E+00  -1.9772670560E+00  -6.1111101805E+00
    91  1.1127376590E+00  1.9858310560E+00  -6.1037319140E+00
    92  -1.1122670013E+00  1.9772709343E+00  6.1111280767E+00
    93  5.2512293400E+00  -1.1343346650E+01  -2.3778220331E+00
    94  -5.2631988791E+00  -1.1337096001E+01  2.3863747333E+00
    95  -5.2511405540E+00  1.1343124727E+01  2.3777909570E+00
    96  5.2631994870E+00  1.1337101265E+01  -2.3863699572E+00
  Stress tensor (eV/A^3):
  6.5389351235E-03  -1.5484226412E-02  7.5804213466E-02
  -1.5484226412E-02  -7.3065749057E-02  9.4957412130E-03
  7.5804213466E-02  9.4957412130E-03  -2.2334250631E-03
