  Invoking FHI-aims ...
  | Number of atoms                   :  96
  ...scf iterations...
  | Total energy corrected        :   -8.247195115843E+01 eV
  ...
  Total atomic forces (unitary forces cleaned)
     1  -2.8602288881E-01  6.0000140670E-01  1.7748570975E-01
     2  2.2657587508E-01  5.6985961714E-01  -1.8184256585E-01
     3  2.8602278718E-01  -6.0000133483E-01  -1.7748570604E-01
     4  -2.2657579893E-01  -5.6985965259E-01  1.8184268543E-01
     5  -8.6854703343E-01  1.5395703510E+00  2.6008425566E-01
     6  8.7934370323E-01  1.5259349882E+00  -4.9570611671E-01
     7  8.6854794245E-01  -1.5395701454E+00  -2.6008347940E-01
     8  -8.7934343114E-01  -1.5259351799E+00  4.9570632229E-01
     9  -3.4389192006E-01  1.7666586500E-01  -1.5686226261E-01
    10  8.3214903653E-01  5.3106691847E-01  1.2682991912E-01
    11  3.4389114078E-01  -1.7666646698E-01  1.5686168438E-01
    12  -8.3214923333E-01  -5.3106650639E-01  -1.2683030511E-01
    13  -4.8963850983E-01  -1.0387003919E+00  -9.6326179631E-01
    14  -4.2050018052E-04  -1.4133992696E+00  1.0104570054E+00
    15  4.8963774004E-01  1.0387007257E+00  9.6326151876E-01
    16  4.2018769964E-04  1.4133992332E+00  -1.0104570836E+00
    17  5.3026801337E-01  -6.8369412125E-01  -3.8393603174E-02
    18  -3.6975095120E-01  -9.4312056380E-01  4.6610405732E-01
    19  -5.3026756242E-01  6.8369447058E-01  3.8394118373E-02
    20  3.6975112189E-01  9.4312032982E-01  -4.6610428662E-01
    21  5.2653214461E-01  -9.8892992454E-01  -1.3610994545E-01
    22  -5.5049602684E-01  -1.0659648105E+00  1.7458847952E-01
    23  -5.2653221961E-01  9.8892991704E-01  1.3611000800E-01
    24  5.5049610398E-01  1.0659650643E+00  -1.7458866729E-01
    25  8.5592814317E-01  1.0265622606E-01  5.7188894848E-01
    26  -1.0005196109E+00  3.9283526011E-01  -9.9908931498E-01
    27  -8.5592824972E-01  -1.0265688247E-01  -5.7188928017E-01
    28  1.0005197558E+00  -3.9283463138E-01  9.9908924262E-01
    29  4.5750498352E-01  5.0779572735E-01  6.8121215956E-01
    30  -4.5336865751E-01  5.3226204358E-01  -6.9854190839E-01
    31  -4.5750481647E-01  -5.0779567523E-01  -6.8121263936E-01
    32  4.5336774329E-01  -5.3226244321E-01  6.9854168445E-01
    33  9.2159929280E-02  9.3577384789E-01  7.1489821712E-01
    34  -9.1585477935E-02  9.3960034987E-01  -7.1721475819E-01
    35  -9.2159752520E-02  -9.3577360263E-01  -7.1489811297E-01
    36  9.1585427040E-02  -9.3960040937E-01  7.1721472313E-01
    37  -8.1779232857E-01  6.0968871512E-01  -1.2756567538E-01
    38  8.3080592885E-01  6.3190623798E-01  1.1739537349E-01
    39  8.1779237274E-01  -6.0968889268E-01  1.2756595875E-01
    40  -8.3080550671E-01  -6.3190677913E-01  -1.1739486554E-01
    41  -7.9026062922E-01  9.6408743684E-01  6.4674970821E-02
    42  7.9489874211E-01  9.6624526123E-01  -6.8240887852E-02
    43  7.9026058804E-01  -9.6408712622E-01  -6.4675007531E-02
    44  -7.9489850913E-01  -9.6624510925E-01  6.8240889806E-02
    45  -1.1192567122E+00  2.2832139633E-02  -7.2988937010E-01
    46  1.3791071877E+00  1.5556102818E-01  9.9409052760E-01
    47  1.1192543366E+00  -2.2832749804E-02  7.2988753512E-01
    48  -1.3791070764E+00  -1.5556102267E-01  -9.9409075051E-01
    49  4.4542835268E-02  -6.6244476576E-01  1.4777501536E+00
    50  7.9236556171E-01  -7.1941838283E-02  -5.0532037581E+00
    51  -4.4542520253E-02  6.6244339844E-01  -1.4777492460E+00
    52  -7.9236461838E-01  7.1941082920E-02  5.0532048736E+00
    53  -4.0106016510E-01  -1.0896210113E+00  -2.9049147086E-01
    54  2.6635064006E-01  -1.1365948884E+00  3.6093837831E-01
    55  4.0105962552E-01  1.0896201753E+00  2.9049124972E-01
    56  -2.6635075655E-01  1.1365951002E+00  -3.6093825510E-01
    57  5.9392394592E-01  -2.7030773672E-02  3.5920423316E-01
    58  1.1757950814E+00  2.0705787747E-01  1.0176050023E+00
    59  -5.9392338085E-01  2.7030305610E-02  -3.5920370776E-01
    60  -1.1757962430E+00  -2.0705820285E-01  -1.0176061666E+00
    61  -9.0436565378E-01  6.7246165461E-01  5.5639201438E-01
    62  -1.4070494355E+00  -2.4182419410E-01  1.0198557040E+00
    63  9.0436490542E-01  -6.7246128931E-01  -5.5639086287E-01
    64  1.4070496108E+00  2.4182430768E-01  -1.0198554839E+00
    65  1.4123910814E+00  -6.9733886604E-01  -5.0309975673E-01
    66  -1.8674732451E+00  -4.8685053733E-01  2.1099312982E+00
    67  -1.4123901061E+00  6.9733883006E-01  5.0309960501E-01
    68  1.8674725664E+00  4.8685144444E-01  -2.1099301534E+00
    69  -2.0771661517E-01  -1.1560261119E+00  -7.2614590091E-02
    70  3.4911579736E-01  -1.3656315822E+00  2.9683136814E-02
    71  2.0771662665E-01  1.1560247490E+00  7.2614152591E-02
    72  -3.4911611298E-01  1.3656313953E+00  -2.9682810798E-02
    73  2.0848702170E-01  5.4366160862E-01  -1.0500705845E+00
    74  4.3240201919E-02  3.8204909897E-01  -4.7581225245E-02
    75  -2.0848696973E-01  -5.4366091243E-01  1.0500693427E+00
    76  -4.3239872258E-02  -3.8204923917E-01  4.7580247095E-02
    77  5.5594276837E-01  1.3093338935E-02  3.9772583611E-01
    78  -8.7899768063E-01  2.5140293706E-02  -5.8162133979E-01
    79  -5.5594206763E-01  -1.3093372960E-02  -3.9772581704E-01
    80  8.7899795706E-01  -2.5140254328E-02  5.8162148175E-01
    81  8.9717197805E-01  1.3382733698E+00  4.8004756478E-01
    82  -9.0492368631E-01  1.4106528266E+00  -4.7412898814E-01
    83  -8.9717138411E-01  -1.3382720607E+00  -4.8004583570E-01
    84  9.0492435534E-01  -1.4106525964E+00  4.7412906483E-01
    85  6.7418135252E-01  -5.2103364695E-02  3.6626951894E-01
    86  -6.9087408650E-01  -2.0046523155E-02  -3.5827359611E-01
    87  -6.7418039502E-01  5.2103429097E-02  -3.6626898201E-01
    88  6.9087357485E-01  2.0046567260E-02  3.5827342139E-01
    89  1.3102298283E-01  5.1525849740E-01  -1.0775801917E+00
    90  -1.3727753606E-01  5.5645843578E-01  1.0913430334E+00
    91  -1.3102273045E-01  -5.1525677151E-01  1.0775784995E+00
    92  1.3727776856E-01  -5.5645819641E-01  -1.0913433097E+00
    93  -7.1345461312E-01  5.9382293345E-01  7.6506149559E-01
    94  7.1834746649E-01  6.2610045586E-01  -7.6175272950E-01
    95  7.1345392099E-01  -5.9382258456E-01  -7.6506063666E-01
    96  -7.1834728381E-01  -6.2610070842E-01  7.6175258470E-01
  Stress tensor (eV/A^3):
  7.9238991296E-02  -1.6577819116E-03  2.0821283161E-02
  -1.6577819116E-03  8.9401736063E-02  -3.4263929635E-04
  2.0821283161E-02  -3.4263929635E-04  6.6643972704E-02
