  Invoking FHI-aims ...
  | Number of atoms                   :  96
  ...scf iterations...
  | Total energy corrected        :   -7.201232894209E+01 eV
  ...
  Total atomic forces (unitary forces cleaned)
     1  -2.3954467250E-01  5.8397132595E-01  1.8923733187E-01
     2  2.3614940020E-01  5.7901460697E-01  -1.9193775027E-01
     3  2.3954462379E-01  -5.8397126336E-01  -1.8923732693E-01
     4  -2.3614930642E-01  -5.7901460444E-01  1.9193786413E-01
     5  -8.8479984338E-01  1.1164203730E+00  6.5729128254E-02
     6  8.7322686212E-01  1.0446090630E+00  1.8845534092E-02
     7  8.8480045908E-01  -1.1164202072E+00  -6.5728579219E-02
     8  -8.7322672345E-01  -1.0446092398E+00  -1.8845354126E-02
     9  -1.9635979290E-01  1.3809796043E-01  -8.4551699302E-02
    10  1.0612687485E-01  5.2377452801E-02  9.3808478561E-02
    11  1.9635923461E-01  -1.3809824973E-01  8.4551385379E-02
    12  -1.0612710231E-01  -5.2377178754E-02  -9.3808718638E-02
    13  -3.7330398287E-01  -9.1575148160E-01  -8.3143219934E-01
    14  4.6442024264E-01  -8.2831781973E-01  8.2130858969E-01
    15  3.7330344962E-01  9.1575171733E-01  8.3143200683E-01
    16  -4.6442040083E-01  8.2831779459E-01  -8.2130848250E-01
    17  2.2101090085E+00  -2.9827761894E+00  -2.7588850699E-01
    18  -2.2431995434E+00  -2.9035548591E+00  1.8203382216E-01
    19  -2.2101091778E+00  2.9827771138E+00  2.7588895273E-01
    20  2.2432006713E+00  2.9035568909E+00  -1.8203440386E-01
    21  -1.2995003923E+00  1.4176378013E+00  6.6423492858E-02
    22  1.3020101156E+00  1.4296847324E+00  -7.3678651324E-02
    23  1.2995007673E+00  -1.4176385236E+00  -6.6423675481E-02
    24  -1.3020110598E+00  -1.4296866598E+00  7.3678802872E-02
    25  5.1697776997E-01  6.0536067085E-02  3.3992795784E-01
    26  -4.8737948569E-01  -2.5300413426E-02  -2.4550717509E-01
    27  -5.1697814150E-01  -6.0536436360E-02  -3.3992827283E-01
    28  4.8737962445E-01  2.5300761680E-02  2.4550706250E-01
    29  8.5097156226E-01  2.6459862706E+00  2.4106534183E+00
    30  -8.5158399118E-01  2.6426274612E+00  -2.4083506793E+00
    31  -8.5097087047E-01  -2.6459838939E+00  -2.4106518136E+00
    32  8.5158366895E-01  -2.6426281324E+00  2.4083506718E+00
    33  -4.5776802204E-01  -1.2908548786E+00  -1.1503796093E+00
    34  4.5770552383E-01  -1.2912275869E+00  1.1503441348E+00
    35  4.5776764078E-01  1.2908526660E+00  1.1503777227E+00
    36  -4.5770579723E-01  1.2912279068E+00  -1.1503442961E+00
    37  -2.4122358847E+00  2.8446554378E+00  2.1873562539E-01
    38  2.4108004141E+00  2.8417022502E+00  -2.1725592631E-01
    39  2.4122341631E+00  -2.8446529059E+00  -2.1873521276E-01
    40  -2.4107981187E+00  -2.8417001718E+00  2.1725609744E-01
    41  1.0306184193E+00  -1.3436337859E+00  -1.9315312391E-01
    42  -1.0315595482E+00  -1.3442013199E+00  1.9394973186E-01
    43  -1.0306166660E+00  1.3436312360E+00  1.9315287833E-01
    44  1.0315577478E+00  1.3441990456E+00  -1.9394952773E-01
    45  -1.0475126638E+00  3.4649866761E-02  -6.6012109901E-01
    46  9.7494460275E-01  -2.4502798206E-02  6.1734872654E-01
    47  1.0475090535E+00  -3.4650296791E-02  6.6011870051E-01
    48  -9.7494429782E-01  2.4503078394E-02  -6.1734909664E-01
    49  -1.0090495370E+01  -4.6178279575E+00  7.3940865675E+00
    50  8.2834708455E+00  -5.6514004773E+00  -5.8693338318E+00
    51  1.0090445428E+01  4.6178104718E+00  -7.3940631979E+00
    52  -8.2834787396E+00  5.6514036680E+00  5.8693302767E+00
    53  4.2792113926E+00  8.8640101846E+00  5.8298229733E-01
    54  -4.0566446267E+00  8.5953709897E+00  -5.9204965687E-01
    55  -4.2791880705E+00  -8.8639707381E+00  -5.8297655658E-01
    56  4.0566463842E+00  -8.5953753234E+00  5.9204775623E-01
    57  -1.4845102714E+00  1.2996131683E-01  -1.1779588507E+00
    58  1.1806076320E+00  1.1388918951E-01  9.7315659111E-01
    59  1.4845066621E+00  -1.2996049388E-01  1.1779564658E+00
    60  -1.1806014364E+00  -1.1388881817E-01  -9.7315188608E-01
    61  6.5728411473E+00  -5.3262035064E+00  -4.5159614475E+00
    62  -4.7061486302E+00  -3.9846155529E+00  3.3127676758E+00
    63  -6.5728118271E+00  5.3261783701E+00  4.5159387683E+00
    64  4.7061484582E+00  3.9846158001E+00  -3.3127664952E+00
    65  2.4807951402E+00  -7.0913883561E+00  -8.2118882474E+00
    66  -2.0787111251E+00  -7.0422402477E+00  7.1843979221E+00
    67  -2.4807974271E+00  7.0913638713E+00  8.2118580468E+00
    68  2.0787047815E+00  7.0422497820E+00  -7.1843877091E+00
    69  2.5238186504E+00  7.4976698794E+00  1.0268840582E+00
    70  -2.5477852987E+00  7.5094056862E+00  -9.9400138489E-01
    71  -2.5238085589E+00  -7.4976405670E+00  -1.0268798818E+00
    72  2.5477876752E+00  -7.5094103393E+00  9.9399947956E-01
    73  -1.5899277376E+00  -1.9739882417E+00  6.9921806087E+00
    74  1.3801817881E+00  -1.8989330081E+00  -6.0029347992E+00
    75  1.5899256251E+00  1.9739810895E+00  -6.9921553055E+00
    76  -1.3801794768E+00  1.8989285182E+00  6.0029262171E+00
    77  -1.4245252278E+00  -2.2034556482E-02  -9.5746985636E-01
    78  1.3497488660E+00  -9.4644140646E-02  9.0519085095E-01
    79  1.4245223098E+00  2.2034537526E-02  9.5746823466E-01
    80  -1.3497479617E+00  9.4643938587E-02  -9.0519005422E-01
    81  -2.1094071500E+00  1.2284980492E+01  -1.8137949118E+00
    82  2.1109564048E+00  1.2273741905E+01  1.8117530053E+00
    83  2.1093826809E+00  -1.2284929310E+01  1.8137977064E+00
    84  -2.1109587677E+00  -1.2273745594E+01  -1.8117597547E+00
    85  -1.4721168529E+00  2.7731459158E-02  -8.1289562637E-01
    86  1.4760142412E+00  2.0600965515E-02  8.1059775611E-01
    87  1.4721148853E+00  -2.7731532785E-02  8.1289485514E-01
    88  -1.4760121715E+00  -2.0601036293E-02  -8.1059650322E-01
    89  -1.0299924662E+00  -3.8851702884E+00  7.5974012818E+00
    90  1.0301972652E+00  -3.8897487914E+00  -7.5997164999E+00
    91  1.0299903418E+00  3.8851559426E+00  -7.5973779689E+00
    92  -1.0301981699E+00  3.8897488190E+00  7.5997203275E+00
    93  5.7803640608E+00  -5.9093630861E+00  -4.6382724995E+00
    94  -5.7802386347E+00  -5.9160408683E+00  4.6365879269E+00
    95  -5.7803334189E+00  5.9093311983E+00  4.6382480734E+00
    96  5.7802403363E+00  5.9160447735E+00  -4.6365867609E+00
  Stress tensor (eV/A^3):
  -1.0453925911E-02  1.6640291613E-03  4.0445524390E-02
  1.6640291613E-03  -6.4763787978E-02  -7.9830890045E-04
  4.0445524390E-02  -7.9830890045E-04  -4.1396464111E-02
